x	y	stress_xx
 1.0000000000e+00	 0.0000000000e+00	 1.8784921195e-01
 9.9979421360e-01	 2.0285918027e-02	 1.8468583937e-01
 9.9917015173e-01	 4.0730438957e-02	 2.0474892172e-01
 9.9811797387e-01	 6.1322427094e-02	 2.4745688302e-01
 9.9662815290e-01	 8.2050164801e-02	 3.1218276506e-01
 9.9469151154e-01	 1.0290135811e-01	 3.9825588652e-01
 9.9229925915e-01	 1.2386314479e-01	 5.0496373823e-01
 9.8944302882e-01	 1.4492210489e-01	 6.3155410602e-01
 9.8611491462e-01	 1.6606427394e-01	 7.7723741034e-01
 9.8230750859e-01	 1.8727515887e-01	 9.4118924975e-01
 9.7801393759e-01	 2.0853975653e-01	 1.1225531329e+00
 1.0142857623e+00	 0.0000000000e+00	 4.0003305902e-01
 1.0140770361e+00	 2.0575717834e-02	 4.0336580851e-01
 1.0134440591e+00	 4.1312304334e-02	 4.2591772335e-01
 1.0123768500e+00	 6.2198464722e-02	 4.6729957026e-01
 1.0108657458e+00	 8.3222313965e-02	 5.2710990120e-01
 1.0089014381e+00	 1.0437138247e-01	 6.0493670569e-01
 1.0064750105e+00	 1.2563262425e-01	 7.0035905403e-01
 1.0035779768e+00	 1.4699242765e-01	 8.1294870868e-01
 1.0002023179e+00	 1.6843662870e-01	 9.4227168050e-01
 9.9634052019e-01	 1.8995052729e-01	 1.0878897062e+00
 9.9198561225e-01	 2.1151890594e-01	 1.2493616242e+00
 1.0285716130e+00	 0.0000000000e+00	 6.1945544942e-01
 1.0283599470e+00	 2.0865519432e-02	 6.2734548539e-01
 1.0277180546e+00	 4.1894173308e-02	 6.5094741841e-01
 1.0266358144e+00	 6.3074507764e-02	 6.9002741402e-01
 1.0251034268e+00	 8.4394470374e-02	 7.4436720590e-01
 1.0231114525e+00	 1.0584141592e-01	 8.1376575607e-01
 1.0206508496e+00	 1.2740211465e-01	 8.9804070074e-01
 1.0177130121e+00	 1.4906276320e-01	 9.9702954709e-01
 1.0142898083e+00	 1.7080899813e-01	 1.1105905870e+00
 1.0103736186e+00	 1.9262591225e-01	 1.2386034952e+00
 1.0059573733e+00	 2.1449807377e-01	 1.3809695823e+00
 1.0428575404e+00	 0.0000000000e+00	 8.4344015489e-01
 1.0426429345e+00	 2.1155322585e-02	 8.5416653699e-01
 1.0419921268e+00	 4.2476045403e-02	 8.7755892211e-01
 1.0408948552e+00	 6.3950555507e-02	 9.1350368130e-01
 1.0393411842e+00	 8.5566633073e-02	 9.6192531508e-01
 1.0373215431e+00	 1.0731145725e-01	 1.0227881361e+00
 1.0348267647e+00	 1.2917161454e-01	 1.0960975710e+00
 1.0318481233e+00	 1.5113310987e-01	 1.1819010374e+00
 1.0283773743e+00	 1.7318138029e-01	 1.2802883530e+00
 1.0244067923e+00	 1.9530131157e-01	 1.3913916370e+00
 1.0199292094e+00	 2.1747725758e-01	 1.5153846686e+00
 1.0571435327e+00	 0.0000000000e+00	 1.0694555841e+00
 1.0569259869e+00	 2.1445127056e-02	 1.0815034216e+00
 1.0562662640e+00	 4.3057920145e-02	 1.1035961782e+00
 1.0551539609e+00	 6.4826607234e-02	 1.1357068930e+00
 1.0535790063e+00	 8.6738801103e-02	 1.1778642287e+00
 1.0515316984e+00	 1.0878150527e-01	 1.2301541908e+00
 1.0490027443e+00	 1.3094112249e-01	 1.2927213382e+00
 1.0459832989e+00	 1.5320346595e-01	 1.3657694331e+00
 1.0424650045e+00	 1.7555377324e-01	 1.4495614798e+00
 1.0384400298e+00	 1.9797672306e-01	 1.5444191090e+00
 1.0339011090e+00	 2.2045645495e-01	 1.6507212640e+00
 1.0714295784e+00	 0.0000000000e+00	 1.2951051365e+00
 1.0712090928e+00	 2.1734932609e-02	 1.3071545317e+00
 1.0705404544e+00	 4.3639797058e-02	 1.3270179521e+00
 1.0694131199e+00	 6.5702662231e-02	 1.3547231350e+00
 1.0678168817e+00	 8.7910973507e-02	 1.3903660144e+00
 1.0657419068e+00	 1.1025155877e-01	 1.4341124902e+00
 1.0631787768e+00	 1.3271063703e-01	 1.4861995996e+00
 1.0601185272e+00	 1.5527382977e-01	 1.5469360306e+00
 1.0565526872e+00	 1.7792617505e-01	 1.6167019232e+00
 1.0524733197e+00	 2.0065214454e-01	 1.6959479095e+00
 1.0478730608e+00	 2.2343566344e-01	 1.7851933490e+00
 1.0857156657e+00	 0.0000000000e+00	 1.5181183162e+00
 1.0854922402e+00	 2.2024739006e-02	 1.5290340351e+00
 1.0848146865e+00	 4.4221675667e-02	 1.5458902713e+00
 1.0836723205e+00	 6.6578719781e-02	 1.5687389761e+00
 1.0820547985e+00	 8.9083149329e-02	 1.5977080866e+00
 1.0799521566e+00	 1.1172161656e-01	 1.6330033607e+00
 1.0773548507e+00	 1.3448015674e-01	 1.6749095591e+00
 1.0742537967e+00	 1.5734419962e-01	 1.7237909108e+00
 1.0706404110e+00	 1.8029858377e-01	 1.7800908072e+00
 1.0665066506e+00	 2.0332757381e-01	 1.8443306696e+00
 1.0618450533e+00	 2.2641488062e-01	 1.9171079460e+00
 1.1000017831e+00	 0.0000000000e+00	 1.7363425390e+00
 1.0997754177e+00	 2.2314546011e-02	 1.7451643515e+00
 1.0990889485e+00	 4.4803555497e-02	 1.7583794548e+00
 1.0979315510e+00	 6.7454779171e-02	 1.7760349367e+00
 1.0962927452e+00	 9.0255327612e-02	 1.7982570090e+00
 1.0941624363e+00	 1.1319167744e-01	 1.8252529213e+00
 1.0915309544e+00	 1.3624968016e-01	 1.8573122024e+00
 1.0883890959e+00	 1.5941457381e-01	 1.8948071673e+00
 1.0847281644e+00	 1.8267099747e-01	 1.9381926289e+00
 1.0805400110e+00	 2.0600300871e-01	 1.9880047621e+00
 1.0758170752e+00	 2.2939410405e-01	 2.0448590718e+00
 1.1142879188e+00	 0.0000000000e+00	 1.9477355681e+00
 1.1140586135e+00	 2.2604353388e-02	 1.9536692079e+00
 1.1133632289e+00	 4.5385436074e-02	 1.9627456775e+00
 1.1121907998e+00	 6.8330839684e-02	 1.9749794600e+00
 1.1105307103e+00	 9.1427507398e-02	 1.9904627736e+00
 1.1083727342e+00	 1.1466174020e-01	 2.0093675769e+00
 1.1057070762e+00	 1.3801920585e-01	 2.0319469204e+00
 1.1025244133e+00	 1.6148495066e-01	 2.0585355789e+00
 1.0988159358e+00	 1.8504341422e-01	 2.0895499069e+00
 1.0945733893e+00	 2.0867844704e-01	 2.1254868629e+00
 1.0897891150e+00	 2.3237333130e-01	 2.1669221553e+00
 1.1285740611e+00	 0.0000000000e+00	 2.1503585239e+00
 1.1283418159e+00	 2.2894160900e-02	 2.1527672197e+00
 1.1276375159e+00	 4.5967316922e-02	 2.1573370235e+00
 1.1264500552e+00	 6.9206900605e-02	 2.1640233408e+00
 1.1247686819e+00	 9.2599687730e-02	 2.1728535132e+00
 1.1225830387e+00	 1.1613180365e-01	 2.1839289307e+00
 1.1198832047e+00	 1.3978873237e-01	 2.1974265398e+00
 1.1166597372e+00	 1.6355532848e-01	 2.2135996866e+00
 1.1129037139e+00	 1.8741583207e-01	 2.2327782375e+00
 1.1086067742e+00	 2.1135388661e-01	 2.2553679261e+00
 1.1037611613e+00	 2.3535255995e-01	 2.2818488784e+00
 1.1428601985e+00	 0.0000000000e+00	 2.3423694186e+00
 1.1426250134e+00	 2.3183968311e-02	 2.3407659542e+00
 1.1419117979e+00	 4.6549197565e-02	 2.3405839856e+00
 1.1407093057e+00	 7.0082961219e-02	 2.3416945713e+00
 1.1390066486e+00	 9.3771867651e-02	 2.3440306110e+00
 1.1367933383e+00	 1.1760186658e-01	 2.3475890768e+00
 1.1340593282e+00	 1.4155825826e-01	 2.3524327263e+00
 1.1307950562e+00	 1.6562570557e-01	 2.3586912384e+00
 1.1269914870e+00	 1.8978824910e-01	 2.3665617201e+00
 1.1226401542e+00	 2.1402932525e-01	 2.3763085343e+00
 1.1177332028e+00	 2.3833178755e-01	 2.3882624038e+00
 9.7801393759e-01	 2.0853975653e-01	 1.1225531329e+00
 9.7322825186e-01	 2.2984108677e-01	 1.3185417126e+00
 9.6794447360e-01	 2.5116470275e-01	 1.5257986763e+00
 9.6215754903e-01	 2.7249423836e-01	 1.7425682193e+00
 9.5586309813e-01	 2.9381292096e-01	 1.9671252404e+00
 9.4905744632e-01	 3.1510360378e-01	 2.1977865759e+00
 9.4173765446e-01	 3.3634880088e-01	 2.4329222369e+00
 9.3390154697e-01	 3.5753072471e-01	 2.6709665487e+00
 9.2554773768e-01	 3.7863132607e-01	 2.9104290942e+00
 9.1667565331e-01	 3.9963233635e-01	 3.1499053570e+00
 9.0728555439e-01	 4.2051531196e-01	 3.3880869625e+00
 9.9198561225e-01	 2.1151890594e-01	 1.2493616242e+00
 9.8713155936e-01	 2.3312454192e-01	 1.4244017674e+00
 9.8177229830e-01	 2.5475278201e-01	 1.6098280520e+00
 9.7590270310e-01	 2.7638702629e-01	 1.8038260052e+00
 9.6951833117e-01	 2.9801026253e-01	 2.0046013564e+00
 9.6261545544e-01	 3.1960509898e-01	 2.2103916714e+00
 9.5519109478e-01	 3.4115379992e-01	 2.4194780981e+00
 9.4724304252e-01	 3.6263832368e-01	 2.6301971241e+00
 9.3876989269e-01	 3.8404036321e-01	 2.8409522462e+00
 9.2977106384e-01	 4.0534138893e-01	 3.0502254463e+00
 9.2024682020e-01	 4.2652269377e-01	 3.2565883691e+00
 1.0059573733e+00	 2.1449807377e-01	 1.3809695823e+00
 1.0010349528e+00	 2.3640801737e-01	 1.5357683609e+00
 9.9560020850e-01	 2.5834088346e-01	 1.6999373066e+00
 9.8964794217e-01	 2.8027983830e-01	 1.8716518085e+00
 9.8317364865e-01	 3.0220763005e-01	 2.0490995968e+00
 9.7617354839e-01	 3.2410662201e-01	 2.2304924936e+00
 9.6864461828e-01	 3.4595882866e-01	 2.4140783495e+00
 9.6058462056e-01	 3.6774595423e-01	 2.5981530720e+00
 9.5199212946e-01	 3.8944943380e-01	 2.7810726459e+00
 9.4286655534e-01	 4.1105047682e-01	 2.9612650393e+00
 9.3320816615e-01	 4.3253011272e-01	 3.1372418917e+00
 1.0199292094e+00	 2.1747725758e-01	 1.5153846686e+00
 1.0149384209e+00	 2.3969151044e-01	 1.6505935820e+00
 1.0094281929e+00	 2.6192900415e-01	 1.7940354218e+00
 1.0033932550e+00	 2.8417267119e-01	 1.9439219812e+00
 9.9682903942e-01	 3.0640502009e-01	 2.0984720917e+00
 9.8973171411e-01	 3.2860816921e-01	 2.2559232100e+00
 9.8209821399e-01	 3.5076388320e-01	 2.4145432375e+00
 9.7392627021e-01	 3.7285361218e-01	 2.5726424799e+00
 9.6521443720e-01	 3.9485853341e-01	 2.7285856494e+00
 9.5596211712e-01	 4.1675959534e-01	 2.8808038091e+00
 9.4616958166e-01	 4.3853756392e-01	 3.0278061534e+00
 1.0339011090e+00	 2.2045645495e-01	 1.6507212640e+00
 1.0288419523e+00	 2.4297501845e-01	 1.7669391156e+00
 1.0232562403e+00	 2.6551714118e-01	 1.8901431737e+00
 1.0171386304e+00	 2.8806552180e-01	 2.0186262985e+00
 1.0104844923e+00	 3.1060242923e-01	 2.1506855643e+00
 1.0032899415e+00	 3.3310973688e-01	 2.2846334107e+00
 9.9555187091e-01	 3.5556895959e-01	 2.4188090409e+00
 9.8726798056e-01	 3.7796129338e-01	 2.5515899805e+00
 9.7843680509e-01	 4.0026765764e-01	 2.6814037023e+00
 9.6905773849e-01	 4.2246873983e-01	 2.8067392227e+00
 9.5913105615e-01	 4.4454504244e-01	 2.9261585678e+00
 1.0478730608e+00	 2.2343566344e-01	 1.7851933490e+00
 1.0427455355e+00	 2.4625853872e-01	 1.8829689320e+00
 1.0370843392e+00	 2.6910529160e-01	 1.9863856760e+00
 1.0308840571e+00	 2.9195838693e-01	 2.0938603924e+00
 1.0241399962e+00	 3.1479985404e-01	 2.2038136874e+00
 1.0168482195e+00	 3.3761132136e-01	 2.3146804095e+00
 1.0090055781e+00	 3.6037405393e-01	 2.4249203309e+00
 1.0006097407e+00	 3.8306899364e-01	 2.5330289784e+00
 9.9165922235e-01	 4.0567680206e-01	 2.6375485300e+00
 9.8215340874e-01	 4.2817790565e-01	 2.7370786850e+00
 9.7209257902e-01	 4.5055254340e-01	 2.8302874167e+00
 1.0618450533e+00	 2.2641488062e-01	 1.9171079460e+00
 1.0566491593e+00	 2.4954206856e-01	 1.9969425521e+00
 1.0509124785e+00	 2.7269345248e-01	 2.0809855099e+00
 1.0446295239e+00	 2.9585126342e-01	 2.1678187826e+00
 1.0377955399e+00	 3.1899729109e-01	 2.2560300420e+00
 1.0304065371e+00	 3.4211291896e-01	 2.3442221524e+00
 1.0224593244e+00	 3.6517916227e-01	 2.4310228423e+00
 1.0139515398e+00	 3.8817670881e-01	 2.5150944898e+00
 1.0048816782e+00	 4.1108596225e-01	 2.5951439444e+00
 9.9524911719e-01	 4.3388708811e-01	 2.6699323021e+00
 9.8505413969e-01	 4.5656006187e-01	 2.7382845530e+00
 1.0758170752e+00	 2.2939410405e-01	 2.0448590718e+00
 1.0705528124e+00	 2.5282560529e-01	 2.1072088371e+00
 1.0647406468e+00	 2.7628162089e-01	 2.1722563903e+00
 1.0583750195e+00	 2.9974414809e-01	 2.2387884498e+00
 1.0514511123e+00	 3.2319473696e-01	 2.3056016249e+00
 1.0439648832e+00	 3.4661452602e-01	 2.3715106774e+00
 1.0359130991e+00	 3.6998428071e-01	 2.4353568993e+00
 1.0272933669e+00	 3.9328443469e-01	 2.4960165391e+00
 1.0181041618e+00	 4.1649513380e-01	 2.5524092103e+00
 1.0083448531e+00	 4.3959628256e-01	 2.6035062089e+00
 9.9801572759e-01	 4.6256759296e-01	 2.6483386720e+00
 1.0897891150e+00	 2.3237333130e-01	 2.1669221553e+00
 1.0844564832e+00	 2.5610914624e-01	 2.2122002562e+00
 1.0785688329e+00	 2.7986979391e-01	 2.2585973175e+00
 1.0721205328e+00	 3.0363703775e-01	 2.3051429033e+00
 1.0651067022e+00	 3.2739218821e-01	 2.3508828547e+00
 1.0575232466e+00	 3.5111613885e-01	 2.3948860780e+00
 1.0493668910e+00	 3.7478940531e-01	 2.4362513471e+00
 1.0406352111e+00	 3.9839216713e-01	 2.4741140641e+00
 1.0313266623e+00	 4.2190431230e-01	 2.5076529218e+00
 1.0214406059e+00	 4.4530548434e-01	 2.5360964081e+00
 1.0109773321e+00	 4.6857513176e-01	 2.5587290991e+00
 1.1037611613e+00	 2.3535255995e-01	 2.2818488784e+00
 1.0983601605e+00	 2.5939268872e-01	 2.3104275886e+00
 1.0923970255e+00	 2.8345796861e-01	 2.3384871738e+00
 1.0858660525e+00	 3.0752992922e-01	 2.3653366981e+00
 1.0787622985e+00	 3.3158964142e-01	 2.3903100330e+00
 1.0710816164e+00	 3.5561775379e-01	 2.4127709241e+00
 1.0628206892e+00	 3.7959453216e-01	 2.4321179434e+00
 1.0539770615e+00	 4.0349990196e-01	 2.4477892829e+00
 1.0445491690e+00	 4.2731349332e-01	 2.4592673436e+00
 1.0345363648e+00	 4.5101468878e-01	 2.4660830787e+00
 1.0239389427e+00	 4.7458267337e-01	 2.4678200499e+00
 1.1177332028e+00	 2.3833178755e-01	 2.3882624038e+00
 1.1122638330e+00	 2.6267623005e-01	 2.4004750227e+00
 1.1062252131e+00	 2.8704614204e-01	 2.4104797246e+00
 1.0996115674e+00	 3.1142281934e-01	 2.4179003640e+00
 1.0924178900e+00	 3.3578709316e-01	 2.4223962207e+00
 1.0846399814e+00	 3.6011936715e-01	 2.4236651011e+00
 1.0762744826e+00	 3.8439965732e-01	 2.4214461708e+00
 1.0673189073e+00	 4.0860763499e-01	 2.4155224834e+00
 1.0577716711e+00	 4.3272267244e-01	 2.4057231764e+00
 1.0476321190e+00	 4.5672389122e-01	 2.3919253092e+00
 1.0369005487e+00	 4.8059021287e-01	 2.3740553201e+00
 9.0728555439e-01	 4.2051531196e-01	 3.3880869625e+00
 8.9737784263e-01	 4.4126312680e-01	 3.6222271252e+00
 8.8695514163e-01	 4.6185565311e-01	 3.8475706876e+00
 8.7602031568e-01	 4.8227419740e-01	 4.0599944250e+00
 8.6457711653e-01	 5.0250008602e-01	 4.2554944915e+00
 8.5263018827e-01	 5.2251471715e-01	 4.4302191136e+00
 8.4018506873e-01	 5.4229961341e-01	 4.5805009933e+00
 8.2724818708e-01	 5.6183647501e-01	 4.7028891184e+00
 8.1382685776e-01	 5.8110723302e-01	 4.7941796724e+00
 7.9992927055e-01	 6.0009410240e-01	 4.8514457398e+00
 7.8556447689e-01	 6.1877963469e-01	 4.8720655075e+00
 9.2024682020e-01	 4.2652269377e-01	 3.2565883691e+00
 9.1019756922e-01	 4.4756690696e-01	 3.4572561065e+00
 8.9962597199e-01	 4.6845361321e-01	 3.6479483818e+00
 8.8853493372e-01	 4.8916385197e-01	 3.8251880705e+00
 8.7692825975e-01	 5.0967868283e-01	 3.9856242153e+00
 8.6481066051e-01	 5.2997923822e-01	 4.1260602610e+00
 8.5218775294e-01	 5.5004677681e-01	 4.2434818685e+00
 8.3906605808e-01	 5.6986273737e-01	 4.3350840437e+00
 8.2545299484e-01	 5.8940879285e-01	 4.3982973170e+00
 8.1135687000e-01	 6.0866690413e-01	 4.4308127119e+00
 7.9678686431e-01	 6.2761937350e-01	 4.4306052501e+00
 9.3320816615e-01	 4.3253011272e-01	 3.1372418917e+00
 9.2301737508e-01	 4.5387072610e-01	 3.3062407480e+00
 9.1229688070e-01	 4.7505161411e-01	 3.4644267089e+00
 9.0104962914e-01	 4.9605354914e-01	 3.6088913716e+00
 8.8927947934e-01	 5.1685732403e-01	 3.7368560934e+00
 8.7699120807e-01	 5.3744380545e-01	 3.8456962586e+00
 8.6419051138e-01	 5.5779398811e-01	 3.9329650263e+00
 8.5088400215e-01	 5.7788904936e-01	 3.9964163308e+00
 8.3707920380e-01	 5.9771040401e-01	 4.0340269073e+00
 8.2278454012e-01	 6.1723975887e-01	 4.0440171233e+00
 8.0800932113e-01	 6.3645916697e-01	 4.0248703981e+00
 9.4616958166e-01	 4.3853756392e-01	 3.0278061534e+00
 9.3583724974e-01	 4.6017457907e-01	 3.1669062912e+00
 9.2496785741e-01	 4.8164965041e-01	 3.2946818605e+00
 9.1356439173e-01	 5.0294328328e-01	 3.4087188710e+00
 9.0163076521e-01	 5.2403600375e-01	 3.5067335704e+00
 8.8917182099e-01	 5.4490841273e-01	 3.5865932208e+00
 8.7619333423e-01	 5.6554124098e-01	 3.6463362888e+00
 8.6270200965e-01	 5.8591540442e-01	 3.6841918566e+00
 8.4870547516e-01	 6.0601205972e-01	 3.6985980571e+00
 8.3421227156e-01	 6.2581265962e-01	 3.6882193493e+00
 8.1923183817e-01	 6.4529900787e-01	 3.6519624513e+00
 9.5913105615e-01	 4.4454504244e-01	 2.9261585678e+00
 9.4865718273e-01	 4.6647846072e-01	 3.0370984333e+00
 9.3763889177e-01	 4.8824771673e-01	 3.1365129999e+00
 9.2607921125e-01	 5.0983304877e-01	 3.2224112841e+00
 9.1398210728e-01	 5.3121471613e-01	 3.2929299801e+00
 9.0135248933e-01	 5.5237305398e-01	 3.3463512088e+00
 8.8819621169e-01	 5.7328852911e-01	 3.3811196484e+00
 8.7452007092e-01	 5.9394179600e-01	 3.3958588796e+00
 8.6033179942e-01	 6.1431375320e-01	 3.3893867801e+00
 8.4564005499e-01	 6.3438559937e-01	 3.3607298115e+00
 8.3045440627e-01	 6.5413888899e-01	 3.3091360492e+00
 9.7209257902e-01	 4.5055254340e-01	 2.8302874167e+00
 9.6147716358e-01	 4.7278236590e-01	 2.9147752955e+00
 9.5030997344e-01	 4.9484580769e-01	 2.9878340628e+00
 9.3859407749e-01	 5.1672283999e-01	 3.0478270871e+00
 9.2633349545e-01	 5.3839345531e-01	 3.0932398859e+00
 9.1353320315e-01	 5.5983772310e-01	 3.1226953021e+00
 9.0019913396e-01	 5.8103584616e-01	 3.1349680588e+00
 8.8633817630e-01	 6.0196821755e-01	 3.1289985509e+00
 8.7195816709e-01	 6.2261547767e-01	 3.1039057344e+00
 8.5706788109e-01	 6.4295857113e-01	 3.0589989800e+00
 8.4167701627e-01	 6.6297880312e-01	 2.9937887675e+00
 9.8505413969e-01	 4.5656006187e-01	 2.7382845530e+00
 9.7429718182e-01	 4.7908628947e-01	 2.7980000232e+00
 9.6298109206e-01	 5.0144391789e-01	 2.8466662049e+00
 9.5110898024e-01	 5.2361265129e-01	 2.8829347682e+00
 9.3868491966e-01	 5.4557221543e-01	 2.9055711052e+00
 9.2571395249e-01	 5.6730241398e-01	 2.9134673744e+00
 9.1220209123e-01	 5.8878318580e-01	 2.9056549526e+00
 8.9815631616e-01	 6.0999466250e-01	 2.8813161742e+00
 8.8358456866e-01	 6.3091722636e-01	 2.8397952367e+00
 8.6849574052e-01	 6.5153156789e-01	 2.7806081639e+00
 8.5289965900e-01	 6.7181874303e-01	 2.7034517202e+00
 9.9801572759e-01	 4.6256759296e-01	 2.6483386720e+00
 9.8711722698e-01	 4.8539022628e-01	 2.6849339640e+00
 9.7565223730e-01	 5.0804204194e-01	 2.7111308367e+00
 9.6362390926e-01	 5.3050247707e-01	 2.7258056829e+00
 9.5103636979e-01	 5.5275099062e-01	 2.7279373551e+00
 9.3789472741e-01	 5.7476712055e-01	 2.7166185098e+00
 9.2420507372e-01	 5.9653054171e-01	 2.6910664194e+00
 9.0997448083e-01	 6.1802112431e-01	 2.6506331460e+00
 8.9521099465e-01	 6.3921899248e-01	 2.5948149756e+00
 8.7992362394e-01	 6.6010458265e-01	 2.5232610196e+00
 8.6412232530e-01	 6.8065870150e-01	 2.4357808925e+00
 1.0109773321e+00	 4.6857513176e-01	 2.5587290991e+00
 9.9993728860e-01	 4.9169417118e-01	 2.5738303690e+00
 9.8832339879e-01	 5.1464017447e-01	 2.5794431949e+00
 9.7613885435e-01	 5.3739231168e-01	 2.5746074578e+00
 9.6338783578e-01	 5.5992977503e-01	 2.5584514621e+00
 9.5007551796e-01	 5.8223183669e-01	 2.5302020021e+00
 9.3620807160e-01	 6.0427790756e-01	 2.4891939847e+00
 9.2179266067e-01	 6.2604759642e-01	 2.4348795154e+00
 9.0683743556e-01	 6.4752076925e-01	 2.3668363618e+00
 8.9135152203e-01	 6.6867760842e-01	 2.2847757107e+00
 8.7534500600e-01	 6.8949867131e-01	 2.1885491407e+00
 1.0239389427e+00	 4.7458267337e-01	 2.4678200499e+00
 1.0127573562e+00	 4.9799811902e-01	 2.4630285723e+00
 1.0009945662e+00	 5.2123831007e-01	 2.4499064005e+00
 9.8865380527e-01	 5.4428214952e-01	 2.4275978953e+00
 9.7573930754e-01	 5.6710856278e-01	 2.3953190887e+00
 9.6225631419e-01	 5.8969655631e-01	 2.3523668854e+00
 9.4821107509e-01	 6.1202527703e-01	 2.2981279370e+00
 9.3361084602e-01	 6.3407407228e-01	 2.2320871087e+00
 9.1846388189e-01	 6.5582254989e-01	 2.1538354599e+00
 9.0277942546e-01	 6.7725063818e-01	 2.0630776645e+00
 8.8656769194e-01	 6.9833864525e-01	 1.9596387987e+00
 1.0369005487e+00	 4.8059021287e-01	 2.3740553201e+00
 1.0255774193e+00	 5.0430206465e-01	 2.3509486075e+00
 1.0136657292e+00	 5.2783644336e-01	 2.3209059632e+00
 1.0011687518e+00	 5.5117198494e-01	 2.2831193351e+00
 9.8809077496e-01	 5.7428734802e-01	 2.2368329291e+00
 9.7443710616e-01	 5.9716127332e-01	 2.1813519491e+00
 9.6021407437e-01	 6.1977264379e-01	 2.1160511554e+00
 9.4542902724e-01	 6.4210054532e-01	 2.0403831689e+00
 9.3009032415e-01	 6.6412432764e-01	 1.9538864483e+00
 9.1420732488e-01	 6.8582366495e-01	 1.8561928697e+00
 8.9779037395e-01	 7.0717861609e-01	 1.7470348387e+00
 7.8556447689e-01	 6.1877963469e-01	 4.8720655075e+00
 7.7074237018e-01	 6.3714677154e-01	 4.8557250932e+00
 7.5547365803e-01	 6.5517890056e-01	 4.8025220020e+00
 7.3976984406e-01	 6.7285989945e-01	 4.7109654820e+00
 7.2364320173e-01	 6.9017418182e-01	 4.5799388568e+00
 7.0710674268e-01	 7.0710674268e-01	 4.4087164058e+00
 6.9017418182e-01	 7.2364320173e-01	 4.1969774488e+00
 6.7285989945e-01	 7.3976984406e-01	 3.9448174801e+00
 6.5517890056e-01	 7.5547365803e-01	 3.6527562305e+00
 6.3714677154e-01	 7.7074237018e-01	 3.3217425667e+00
 6.1877963469e-01	 7.8556447689e-01	 2.9531561739e+00
 7.9678686431e-01	 6.2761937350e-01	 4.4306052501e+00
 7.8175301251e-01	 6.4624889890e-01	 4.3977913534e+00
 7.6626617517e-01	 6.6453863063e-01	 4.3327092961e+00
 7.5033802025e-01	 6.8247221607e-01	 4.2341110431e+00
 7.3398099654e-01	 7.0003384616e-01	 4.1010526709e+00
 7.1720830156e-01	 7.1720830156e-01	 3.9329095937e+00
 7.0003384616e-01	 7.3398099654e-01	 3.7293895551e+00
 6.8247221607e-01	 7.5033802025e-01	 3.4905432437e+00
 6.6453863063e-01	 7.6626617517e-01	 3.2167724165e+00
 6.4624889890e-01	 7.8175301251e-01	 2.9088354400e+00
 6.2761937350e-01	 7.9678686431e-01	 2.5678501888e+00
 8.0800932113e-01	 6.3645916697e-01	 4.0248703981e+00
 7.9276372292e-01	 6.5535108254e-01	 3.9769630860e+00
 7.7705875904e-01	 6.7389841857e-01	 3.9007547635e+00
 7.6090626178e-01	 6.9208459212e-01	 3.7952357513e+00
 7.4431885526e-01	 7.0989357146e-01	 3.6596401850e+00
 7.2730992290e-01	 7.2730992290e-01	 3.4934595651e+00
 7.0989357146e-01	 7.4431885526e-01	 3.2964545573e+00
 6.9208459212e-01	 7.6090626178e-01	 3.0686649166e+00
 6.7389841857e-01	 7.7705875904e-01	 2.8104174248e+00
 6.5535108254e-01	 7.9276372292e-01	 2.5223317564e+00
 6.3645916697e-01	 8.0800932113e-01	 2.2053242057e+00
 8.1923183817e-01	 6.4529900787e-01	 3.6519624513e+00
 8.0377449242e-01	 6.6445331502e-01	 3.5903211578e+00
 7.8785140083e-01	 6.8325825674e-01	 3.5037827742e+00
 7.7147456002e-01	 7.0169701976e-01	 3.3915717506e+00
 7.5465676946e-01	 7.1975334968e-01	 3.2531054432e+00
 7.3741159845e-01	 7.3741159845e-01	 3.0880059654e+00
 7.1975334968e-01	 7.5465676946e-01	 2.8961106998e+00
 7.0169701976e-01	 7.7147456002e-01	 2.6774813601e+00
 6.8325825674e-01	 7.8785140083e-01	 2.4324115018e+00
 6.6445331502e-01	 8.0377449242e-01	 2.1614324000e+00
 6.4529900787e-01	 8.1923183817e-01	 1.8653172280e+00
 8.3045440627e-01	 6.5413888899e-01	 3.3091360492e+00
 8.1478531202e-01	 6.7355558892e-01	 3.2351006095e+00
 7.9864409172e-01	 6.9261813750e-01	 3.1390694478e+00
 7.8204290635e-01	 7.1130949113e-01	 3.0204970456e+00
 7.6499473070e-01	 7.2961317276e-01	 2.8789890046e+00
 7.4751331996e-01	 7.4751331996e-01	 2.7143121760e+00
 7.2961317276e-01	 7.6499473070e-01	 2.5264037890e+00
 7.1130949113e-01	 7.8204290635e-01	 2.3153794828e+00
 6.9261813750e-01	 7.9864409172e-01	 2.0815401525e+00
 6.7355558892e-01	 8.1478531202e-01	 1.8253775342e+00
 6.5413888899e-01	 8.3045440627e-01	 1.5475784636e+00
 8.4167701627e-01	 6.6297880312e-01	 2.9937887675e+00
 8.2579617273e-01	 6.8265789680e-01	 2.9086803843e+00
 8.0943682291e-01	 7.0197805320e-01	 2.8040325448e+00
 7.9261129213e-01	 7.2092199839e-01	 2.6795257855e+00
 7.7533273054e-01	 7.3947303264e-01	 2.5349588502e+00
 7.5761507918e-01	 7.5761507918e-01	 2.3702570734e+00
 7.3947303264e-01	 7.7533273054e-01	 2.1854800313e+00
 7.2092199839e-01	 7.9261129213e-01	 1.9808283787e+00
 7.0197805320e-01	 8.0943682291e-01	 1.7566497980e+00
 6.8265789680e-01	 8.2579617273e-01	 1.5134439899e+00
 6.6297880312e-01	 8.4167701627e-01	 1.2518666515e+00
 8.5289965900e-01	 6.7181874303e-01	 2.7034517202e+00
 8.3680706555e-01	 6.9176023123e-01	 2.6085738665e+00
 8.2022958558e-01	 7.1133799620e-01	 2.4962221541e+00
 8.0317970874e-01	 7.3053453368e-01	 2.3662993139e+00
 7.8567076052e-01	 7.4933292129e-01	 2.2188020070e+00
 7.6771686787e-01	 7.6771686787e-01	 2.0538274380e+00
 7.4933292129e-01	 7.8567076052e-01	 1.8715794342e+00
 7.3053453368e-01	 8.0317970874e-01	 1.6723739275e+00
 7.1133799620e-01	 8.2022958558e-01	 1.4566437743e+00
 6.9176023123e-01	 8.3680706555e-01	 1.2249428606e+00
 6.7181874303e-01	 8.5289965900e-01	 9.7794944114e-01
 8.6412232530e-01	 6.8065870150e-01	 2.4357808925e+00
 8.4781798149e-01	 7.0086258477e-01	 2.3324201569e+00
 8.3102237091e-01	 7.2069795885e-01	 2.2133121062e+00
 8.1374814754e-01	 7.4014708916e-01	 2.0785779159e+00
 7.9600881222e-01	 7.5919283063e-01	 1.9284168248e+00
 7.7781867777e-01	 7.7781867777e-01	 1.7631109541e+00
 7.5919283063e-01	 7.9600881222e-01	 1.5830297234e+00
 7.4014708916e-01	 8.1374814754e-01	 1.3886338155e+00
 7.2069795885e-01	 8.3102237091e-01	 1.1804786445e+00
 7.0086258477e-01	 8.4781798149e-01	 9.5921728448e-01
 6.8065870150e-01	 8.6412232530e-01	 7.2560282094e-01
 8.7534500600e-01	 6.8949867131e-01	 2.1885491407e+00
 8.5882891156e-01	 7.0996495000e-01	 2.0779760188e+00
 8.4181517008e-01	 7.3005793351e-01	 1.9530920466e+00
 8.2431659990e-01	 7.4975965697e-01	 1.8142331992e+00
 8.0634687718e-01	 7.6905275264e-01	 1.6618058458e+00
 7.8792050064e-01	 7.8792050064e-01	 1.4962897488e+00
 7.6905275264e-01	 8.0634687718e-01	 1.3182407254e+00
 7.4975965697e-01	 8.2431659990e-01	 1.1282929391e+00
 7.3005793351e-01	 8.4181517008e-01	 9.2716079243e-01
 7.0996495000e-01	 8.5882891156e-01	 7.1564039635e-01
 6.8949867131e-01	 8.7534500600e-01	 4.9461058992e-01
 8.8656769194e-01	 6.9833864525e-01	 1.9596387987e+00
 8.6983984677e-01	 7.1906731947e-01	 1.8431084356e+00
 8.5260797430e-01	 7.3941791255e-01	 1.7134601105e+00
 8.3488505719e-01	 7.5937222927e-01	 1.5712410541e+00
 8.1668494696e-01	 7.7891267924e-01	 1.4170692159e+00
 7.9802232821e-01	 7.9802232821e-01	 1.2516344195e+00
 7.7891267924e-01	 8.1668494696e-01	 1.0756991782e+00
 7.5937222927e-01	 8.3488505719e-01	 8.9009915764e-01
 7.3941791255e-01	 8.5260797430e-01	 6.9574327668e-01
 7.1906731947e-01	 8.6983984677e-01	 4.9361343603e-01
 6.9833864525e-01	 8.8656769194e-01	 2.8476387002e-01
 8.9779037395e-01	 7.0717861609e-01	 1.7470348387e+00
 8.8085077813e-01	 7.2816968575e-01	 1.6257877252e+00
 8.6340077474e-01	 7.4877788830e-01	 1.4924161464e+00
 8.4545351079e-01	 7.6898479821e-01	 1.3476751401e+00
 8.2702301313e-01	 7.8877260239e-01	 1.1923985901e+00
 8.0812415225e-01	 8.0812415225e-01	 1.0274985111e+00
 7.8877260239e-01	 8.2702301313e-01	 8.5396392945e-01
 7.6898479821e-01	 8.4545351079e-01	 6.7285936415e-01
 7.4877788830e-01	 8.6340077474e-01	 4.8532291908e-01
 7.2816968575e-01	 8.8085077813e-01	 2.9256399790e-01
 7.0717861609e-01	 8.9779037395e-01	 9.5860654791e-02
 6.1877963469e-01	 7.8556447689e-01	 2.9531561739e+00
 6.0009410240e-01	 7.9992927055e-01	 2.5521028407e+00
 5.8110723302e-01	 8.1382685776e-01	 2.1245465238e+00
 5.6183647501e-01	 8.2724818708e-01	 1.6733994996e+00
 5.4229961341e-01	 8.4018506873e-01	 1.2014648548e+00
 5.2251471715e-01	 8.5263018827e-01	 7.1142961533e-01
 5.0250008602e-01	 8.6457711653e-01	 2.0585908961e-01
 4.8227419740e-01	 8.7602031568e-01	-3.1280757652e-01
 4.6185565311e-01	 8.8695514163e-01	-8.4226065296e-01
 4.4126312680e-01	 8.9737784263e-01	-1.3803219175e+00
 4.2051531196e-01	 9.0728555439e-01	-1.9249456315e+00
 6.2761937350e-01	 7.9678686431e-01	 2.5678501888e+00
 6.0866690413e-01	 8.1135687000e-01	 2.1972560814e+00
 5.8940879285e-01	 8.2545299484e-01	 1.8015953352e+00
 5.6986273737e-01	 8.3906605808e-01	 1.3838667638e+00
 5.5004677681e-01	 8.5218775294e-01	 9.4700310154e-01
 5.2997923822e-01	 8.6481066051e-01	 4.9386130549e-01
 5.0967868283e-01	 8.7692825975e-01	 2.7213796810e-02
 4.8916385197e-01	 8.8853493372e-01	-4.5025932624e-01
 4.6845361321e-01	 8.9962597199e-01	-9.3597708274e-01
 4.4756690696e-01	 9.1019756922e-01	-1.4274634031e+00
 4.2652269377e-01	 9.2024682020e-01	-1.9223519265e+00
 6.3645916697e-01	 8.0800932113e-01	 2.2053242057e+00
 6.1723975887e-01	 8.2278454012e-01	 1.8615584532e+00
 5.9771040401e-01	 8.3707920380e-01	 1.4944685864e+00
 5.7788904936e-01	 8.5088400215e-01	 1.1070834533e+00
 5.5779398811e-01	 8.6419051138e-01	 7.0239978502e-01
 5.3744380545e-01	 8.7699120807e-01	 2.8337037894e-01
 5.1685732403e-01	 8.8927947934e-01	-1.4710700061e-01
 4.9605354914e-01	 9.0104962914e-01	-5.8619994212e-01
 4.7505161411e-01	 9.1229688070e-01	-1.0311508766e+00
 4.5387072610e-01	 9.2301737508e-01	-1.4792856977e+00
 4.3253011272e-01	 9.3320816615e-01	-1.9280214854e+00
 6.4529900787e-01	 8.1923183817e-01	 1.8653172280e+00
 6.2581265962e-01	 8.3421227156e-01	 1.5452818402e+00
 6.0601205972e-01	 8.4870547516e-01	 1.2039063123e+00
 5.8591540442e-01	 8.6270200965e-01	 8.4419611028e-01
 5.6554124098e-01	 8.7619333423e-01	 4.6914965626e-01
 5.4490841273e-01	 8.8917182099e-01	 8.1745080609e-02
 5.2403600375e-01	 9.0163076521e-01	-3.1507247574e-01
 5.0294328328e-01	 9.1356439173e-01	-7.1840292596e-01
 4.8164965041e-01	 9.2496785741e-01	-1.1254025972e+00
 4.6017457907e-01	 9.3583724974e-01	-1.5332948238e+00
 4.3853756392e-01	 9.4616958166e-01	-1.9393797242e+00
 6.5413888899e-01	 8.3045440627e-01	 1.5475784636e+00
 6.3438559937e-01	 8.4564005499e-01	 1.2486795520e+00
 6.1431375320e-01	 8.6033179942e-01	 9.3060470403e-01
 5.9394179600e-01	 8.7452007092e-01	 5.9628550789e-01
 5.7328852911e-01	 8.8819621169e-01	 2.4866293449e-01
 5.5237305398e-01	 9.0135248933e-01	-1.0932667079e-01
 5.3121471613e-01	 9.1398210728e-01	-4.7476516022e-01
 5.0983304877e-01	 9.2607921125e-01	-8.4476562511e-01
 4.8824771673e-01	 9.3763889177e-01	-1.2164848211e+00
 4.6647846072e-01	 9.4865718273e-01	-1.5871349025e+00
 4.4454504244e-01	 9.5913105615e-01	-1.9539944003e+00
 6.6297880312e-01	 8.4167701627e-01	 1.2518666515e+00
 6.4295857113e-01	 8.5706788109e-01	 9.7198756756e-01
 6.2261547767e-01	 8.7195816709e-01	 6.7521903774e-01
 6.0196821755e-01	 8.8633817630e-01	 3.6437104066e-01
 5.8103584616e-01	 9.0019913396e-01	 4.2270948121e-02
 5.5983772310e-01	 9.1353320315e-01	-2.8825058913e-01
 5.3839345531e-01	 9.2633349545e-01	-6.2437338206e-01
 5.1672283999e-01	 9.3859407749e-01	-9.6330097151e-01
 4.9484580769e-01	 9.5030997344e-01	-1.3022733338e+00
 4.7278236590e-01	 9.6147716358e-01	-1.6385789429e+00
 4.5055254340e-01	 9.7209257902e-01	-1.9695661197e+00
 6.7181874303e-01	 8.5289965900e-01	 9.7794944114e-01
 6.5153156789e-01	 8.6849574052e-01	 7.1542568233e-01
 6.3091722636e-01	 8.8358456866e-01	 4.3836637286e-01
 6.0999466250e-01	 8.9815631616e-01	 1.4941476860e-01
 5.8878318580e-01	 9.1220209123e-01	-1.4876866921e-01
 5.6730241398e-01	 9.2571395249e-01	-4.5351985523e-01
 5.4557221543e-01	 9.3868491966e-01	-7.6218429995e-01
 5.2361265129e-01	 9.5110898024e-01	-1.0721298724e+00
 5.0144391789e-01	 9.6298109206e-01	-1.3807590186e+00
 4.7908628947e-01	 9.7429718182e-01	-1.6855203586e+00
 4.5656006187e-01	 9.8505413969e-01	-1.9839195939e+00
 6.8065870150e-01	 8.6412232530e-01	 7.2560282094e-01
 6.6010458265e-01	 8.7992362394e-01	 4.7919856538e-01
 6.3921899248e-01	 8.9521099465e-01	 2.2062803993e-01
 6.1802112431e-01	 9.0997448083e-01	-4.7674853591e-02
 5.9653054171e-01	 9.2420507372e-01	-3.2326718715e-01
 5.7476712055e-01	 9.3789472741e-01	-6.0370943113e-01
 5.5275099062e-01	 9.5103636979e-01	-8.8657747985e-01
 5.3050247707e-01	 9.6362390926e-01	-1.1694741931e+00
 5.0804204194e-01	 9.7565223730e-01	-1.4500403781e+00
 4.8539022628e-01	 9.8711722698e-01	-1.7259651444e+00
 4.6256759296e-01	 9.9801572759e-01	-1.9949955766e+00
 6.8949867131e-01	 8.7534500600e-01	 4.9461058992e-01
 6.6867760842e-01	 8.9135152203e-01	 2.6349673560e-01
 6.4752076925e-01	 9.0683743556e-01	 2.2551937382e-02
 6.2604759642e-01	 9.2179266067e-01	-2.2603953378e-01
 6.0427790756e-01	 9.3620807160e-01	-4.8010035535e-01
 5.8223183669e-01	 9.5007551796e-01	-7.3747081143e-01
 5.5992977503e-01	 9.6338783578e-01	-9.9601896526e-01
 5.3739231168e-01	 9.7613885435e-01	-1.2536502799e+00
 5.1464017447e-01	 9.8832339879e-01	-1.5083166295e+00
 4.9169417118e-01	 9.9993728860e-01	-1.7580246543e+00
 4.6857513176e-01	 1.0109773321e+00	-2.0008434203e+00
 6.9833864525e-01	 8.8656769194e-01	 2.8476387002e-01
 6.7725063818e-01	 9.0277942546e-01	 6.8497463850e-02
 6.5582254989e-01	 9.1846388189e-01	-1.5534534588e-01
 6.3407407228e-01	 9.3361084602e-01	-3.8486796096e-01
 6.1202527703e-01	 9.4821107509e-01	-6.1820431582e-01
 5.8969655631e-01	 9.6225631419e-01	-8.5352717280e-01
 5.6710856278e-01	 9.7573930754e-01	-1.0890557975e+00
 5.4428214952e-01	 9.8865380527e-01	-1.3230629731e+00
 5.2123831007e-01	 1.0009945662e+00	-1.5538813242e+00
 4.9799811902e-01	 1.0127573562e+00	-1.7799089273e+00
 4.7458267337e-01	 1.0239389427e+00	-1.9996141983e+00
 7.0717861609e-01	 8.9779037395e-01	 9.5860654791e-02
 6.8582366495e-01	 9.1420732488e-01	-1.0563439254e-01
 6.6412432764e-01	 9.3009032415e-01	-3.1257656700e-01
 6.4210054532e-01	 9.4542902724e-01	-5.2339286219e-01
 6.1977264379e-01	 9.6021407437e-01	-7.3657182155e-01
 5.9716127332e-01	 9.7443710616e-01	-9.5066888703e-01
 5.7428734802e-01	 9.8809077496e-01	-1.1643109462e+00
 5.5117198494e-01	 1.0011687518e+00	-1.3762000703e+00
 5.2783644336e-01	 1.0136657292e+00	-1.5851164458e+00
 5.0430206465e-01	 1.0255774193e+00	-1.7899205140e+00
 4.8059021287e-01	 1.0369005487e+00	-1.9895543414e+00
 4.2051531196e-01	 9.0728555439e-01	-1.9249456315e+00
 3.9963233635e-01	 9.1667565331e-01	-2.4719678042e+00
 3.7863132607e-01	 9.2554773768e-01	-3.0148909110e+00
 3.5753072471e-01	 9.3390154697e-01	-3.5484622189e+00
 3.3634880088e-01	 9.4173765446e-01	-4.0678542949e+00
 3.1510360378e-01	 9.4905744632e-01	-4.5686787724e+00
 2.9381292096e-01	 9.5586309813e-01	-5.0469963608e+00
 2.7249423836e-01	 9.6215754903e-01	-5.4993231833e+00
 2.5116470275e-01	 9.6794447360e-01	-5.9226335627e+00
 2.2984108677e-01	 9.7322825186e-01	-6.3143594067e+00
 2.0853975653e-01	 9.7801393759e-01	-6.6723863719e+00
 4.2652269377e-01	 9.2024682020e-01	-1.9223519265e+00
 4.0534138893e-01	 9.2977106384e-01	-2.4170070931e+00
 3.8404036321e-01	 9.3876989269e-01	-2.9063290156e+00
 3.6263832368e-01	 9.4724304252e-01	-3.3860182277e+00
 3.4115379992e-01	 9.5519109478e-01	-3.8521615649e+00
 3.1960509898e-01	 9.6261545544e-01	-4.3012408800e+00
 2.9801026253e-01	 9.6951833117e-01	-4.7301385153e+00
 2.7638702629e-01	 9.7590270310e-01	-5.1361396354e+00
 2.5475278201e-01	 9.8177229830e-01	-5.5169315535e+00
 2.3312454192e-01	 9.8713155936e-01	-5.8706002104e+00
 2.1151890594e-01	 9.9198561225e-01	-6.1956239820e+00
 4.3253011272e-01	 9.3320816615e-01	-1.9280214854e+00
 4.1105047682e-01	 9.4286655534e-01	-2.3743339470e+00
 3.8944943380e-01	 9.5199212946e-01	-2.8144308071e+00
 3.6774595423e-01	 9.6058462056e-01	-3.2448136185e+00
 3.4595882866e-01	 9.6864461828e-01	-3.6623335809e+00
 3.2410662201e-01	 9.7617354839e-01	-4.0641962023e+00
 3.0220763005e-01	 9.8317364865e-01	-4.4479631675e+00
 2.8027983830e-01	 9.8964794217e-01	-4.8115515321e+00
 2.5834088346e-01	 9.9560020850e-01	-5.1532303836e+00
 2.3640801737e-01	 1.0010349528e+00	-5.4716151286e+00
 2.1449807377e-01	 1.0059573733e+00	-5.7656595842e+00
 4.3853756392e-01	 9.4616958166e-01	-1.9393797242e+00
 4.1675959534e-01	 9.5596211712e-01	-2.3413033422e+00
 3.9485853341e-01	 9.6521443720e-01	-2.7364744425e+00
 3.7285361218e-01	 9.7392627021e-01	-3.1220495751e+00
 3.5076388320e-01	 9.8209821399e-01	-3.4955005162e+00
 3.2860816921e-01	 9.8973171411e-01	-3.8546158480e+00
 3.0640502009e-01	 9.9682903942e-01	-4.1975001350e+00
 2.8417267119e-01	 1.0033932550e+00	-4.5225708250e+00
 2.6192900415e-01	 1.0094281929e+00	-4.8285530182e+00
 2.3969151044e-01	 1.0149384209e+00	-5.1144722641e+00
 2.1747725758e-01	 1.0199292094e+00	-5.3796455574e+00
 4.4454504244e-01	 9.5913105615e-01	-1.9539944003e+00
 4.2246873983e-01	 9.6905773849e-01	-2.3154162829e+00
 4.0026765764e-01	 9.7843680509e-01	-2.6698881322e+00
 3.7796129338e-01	 9.8726798056e-01	-3.0150813624e+00
 3.5556895959e-01	 9.9555187091e-01	-3.3489503250e+00
 3.3310973688e-01	 1.0032899415e+00	-3.6697317552e+00
 3.1060242923e-01	 1.0104844923e+00	-3.9759421476e+00
 2.8806552180e-01	 1.0171386304e+00	-4.2663731889e+00
 2.6551714118e-01	 1.0232562403e+00	-4.5400853919e+00
 2.4297501845e-01	 1.0288419523e+00	-4.7964000858e+00
 2.2045645495e-01	 1.0339011090e+00	-5.0348899242e+00
 4.5055254340e-01	 9.7209257902e-01	-1.9695661197e+00
 4.2817790565e-01	 9.8215340874e-01	-2.2943100642e+00
 4.0567680206e-01	 9.9165922235e-01	-2.6122401352e+00
 3.8306899364e-01	 1.0006097407e+00	-2.9214080545e+00
 3.6037405393e-01	 1.0090055781e+00	-3.2201182246e+00
 3.3761132136e-01	 1.0168482195e+00	-3.5069259717e+00
 3.1479985404e-01	 1.0241399962e+00	-3.7806339894e+00
 2.9195838693e-01	 1.0308840571e+00	-4.0402871111e+00
 2.6910529160e-01	 1.0370843392e+00	-4.2851655488e+00
 2.4625853872e-01	 1.0427455355e+00	-4.5147767436e+00
 2.2343566344e-01	 1.0478730608e+00	-4.7288459813e+00
 4.5656006187e-01	 9.8505413969e-01	-1.9839195939e+00
 4.3388708811e-01	 9.9524911719e-01	-2.2757493027e+00
 4.1108596225e-01	 1.0048816782e+00	-2.5612295440e+00
 3.8817670881e-01	 1.0139515398e+00	-2.8386630723e+00
 3.6517916227e-01	 1.0224593244e+00	-3.1065770075e+00
 3.4211291896e-01	 1.0304065371e+00	-3.3637207805e+00
 3.1899729109e-01	 1.0377955399e+00	-3.6090624975e+00
 2.9585126342e-01	 1.0446295239e+00	-3.8417838420e+00
 2.7269345248e-01	 1.0509124785e+00	-4.0612736400e+00
 2.4954206856e-01	 1.0566491593e+00	-4.2671202262e+00
 2.2641488062e-01	 1.0618450533e+00	-4.4591027477e+00
 4.6256759296e-01	 9.9801572759e-01	-1.9949955766e+00
 4.3959628256e-01	 1.0083448531e+00	-2.2576176653e+00
 4.1649513380e-01	 1.0181041618e+00	-2.5146777859e+00
 3.9328443469e-01	 1.0272933669e+00	-2.7646054590e+00
 3.6998428071e-01	 1.0359130991e+00	-3.0060281076e+00
 3.4661452602e-01	 1.0439648832e+00	-3.2377695944e+00
 3.2319473696e-01	 1.0514511123e+00	-3.4588473403e+00
 2.9974414809e-01	 1.0583750195e+00	-3.6684681270e+00
 2.7628162089e-01	 1.0647406468e+00	-3.8660226995e+00
 2.5282560529e-01	 1.0705528124e+00	-4.0510792853e+00
 2.2939410405e-01	 1.0758170752e+00	-4.2233761566e+00
 4.6857513176e-01	 1.0109773321e+00	-2.0008434203e+00
 4.4530548434e-01	 1.0214406059e+00	-2.2379102338e+00
 4.2190431230e-01	 1.0313266623e+00	-2.4705207784e+00
 3.9839216713e-01	 1.0406352111e+00	-2.6971118247e+00
 3.7478940531e-01	 1.0493668910e+00	-2.9162933528e+00
 3.5111613885e-01	 1.0575232466e+00	-3.1268485508e+00
 3.2739218821e-01	 1.0651067022e+00	-3.3277325030e+00
 3.0363703775e-01	 1.0721205328e+00	-3.5180696518e+00
 2.7986979391e-01	 1.0785688329e+00	-3.6971501291e+00
 2.5610914624e-01	 1.0844564832e+00	-3.8644250568e+00
 2.3237333130e-01	 1.0897891150e+00	-4.0195009244e+00
 4.7458267337e-01	 1.0239389427e+00	-1.9996141983e+00
 4.5101468878e-01	 1.0345363648e+00	-2.2147264496e+00
 4.2731349332e-01	 1.0445491690e+00	-2.4268016793e+00
 4.0349990196e-01	 1.0539770615e+00	-2.6341689032e+00
 3.7959453216e-01	 1.0628206892e+00	-2.8353073438e+00
 3.5561775379e-01	 1.0710816164e+00	-3.0288487431e+00
 3.3158964142e-01	 1.0787622985e+00	-3.2135784206e+00
 3.0752992922e-01	 1.0858660525e+00	-3.3884351360e+00
 2.8345796861e-01	 1.0923970255e+00	-3.5525098296e+00
 2.5939268872e-01	 1.0983601605e+00	-3.7050433189e+00
 2.3535255995e-01	 1.1037611613e+00	-3.8454230369e+00
 4.8059021287e-01	 1.0369005487e+00	-1.9895543414e+00
 4.5672389122e-01	 1.0476321190e+00	-2.1862635855e+00
 4.3272267244e-01	 1.0577716711e+00	-2.3816641803e+00
 4.0860763499e-01	 1.0673189073e+00	-2.5738666664e+00
 3.8439965732e-01	 1.0762744826e+00	-2.7611104038e+00
 3.6011936715e-01	 1.0846399814e+00	-2.9417690358e+00
 3.3578709316e-01	 1.0924178900e+00	-3.1143546999e+00
 3.1142281934e-01	 1.0996115674e+00	-3.2775210197e+00
 2.8704614204e-01	 1.1062252131e+00	-3.4300649215e+00
 2.6267623005e-01	 1.1122638330e+00	-3.5709273287e+00
 2.3833178755e-01	 1.1177332028e+00	-3.6991927977e+00
 2.0853975653e-01	 9.7801393759e-01	-6.6723863719e+00
 1.8727515887e-01	 9.8230750859e-01	-6.9959678519e+00
 1.6606427394e-01	 9.8611491462e-01	-7.2853684323e+00
 1.4492210489e-01	 9.8944302882e-01	-7.5404962975e+00
 1.2386314479e-01	 9.9229925915e-01	-7.7613843277e+00
 1.0290135811e-01	 9.9469151154e-01	-7.9481828312e+00
 8.2050164801e-02	 9.9662815290e-01	-8.1011520397e+00
 6.1322427094e-02	 9.9811797387e-01	-8.2206544414e+00
 4.0730438957e-02	 9.9917015173e-01	-8.3071470219e+00
 2.0285918027e-02	 9.9979421360e-01	-8.3611734811e+00
 0.0000000000e+00	 1.0000000000e+00	-8.3833564843e+00
 2.1151890594e-01	 9.9198561225e-01	-6.1956239820e+00
 1.8995052729e-01	 9.9634052019e-01	-6.4907952421e+00
 1.6843662870e-01	 1.0002023179e+00	-6.7552097883e+00
 1.4699242765e-01	 1.0035779768e+00	-6.9882984467e+00
 1.2563262425e-01	 1.0064750105e+00	-7.1896771323e+00
 1.0437138247e-01	 1.0089014381e+00	-7.3591395681e+00
 8.3222313965e-02	 1.0108657458e+00	-7.4966493105e+00
 6.2198464722e-02	 1.0123768500e+00	-7.6023311856e+00
 4.1312304334e-02	 1.0134440591e+00	-7.6764622451e+00
 2.0575717834e-02	 1.0140770361e+00	-7.7194623413e+00
 0.0000000000e+00	 1.0142857623e+00	-7.7318844209e+00
 2.1449807377e-01	 1.0059573733e+00	-5.7656595842e+00
 1.9262591225e-01	 1.0103736186e+00	-6.0339542411e+00
 1.7080899813e-01	 1.0142898083e+00	-6.2748434437e+00
 1.4906276320e-01	 1.0177130121e+00	-6.4873970227e+00
 1.2740211465e-01	 1.0206508496e+00	-6.6709171090e+00
 1.0584141592e-01	 1.0231114525e+00	-6.8249307870e+00
 8.4394470374e-02	 1.0251034268e+00	-6.9491816928e+00
 6.3074507764e-02	 1.0266358144e+00	-7.0436206923e+00
 4.1894173308e-02	 1.0277180546e+00	-7.1083957724e+00
 2.0865519432e-02	 1.0283599470e+00	-7.1438412751e+00
 0.0000000000e+00	 1.0285716130e+00	-7.1504666041e+00
 2.1747725758e-01	 1.0199292094e+00	-5.3796455574e+00
 1.9530131157e-01	 1.0244067923e+00	-5.6226651192e+00
 1.7318138029e-01	 1.0283773743e+00	-5.8414794908e+00
 1.5113310987e-01	 1.0318481233e+00	-6.0349097895e+00
 1.2917161454e-01	 1.0348267647e+00	-6.2020438676e+00
 1.0731145725e-01	 1.0373215431e+00	-6.3422288434e+00
 8.5566633073e-02	 1.0393411842e+00	-6.4550623154e+00
 6.3950555507e-02	 1.0408948552e+00	-6.5403824127e+00
 4.2476045403e-02	 1.0419921268e+00	-6.5982568362e+00
 2.1155322585e-02	 1.0426429345e+00	-6.6289710434e+00
 0.0000000000e+00	 1.0428575404e+00	-6.6330157281e+00
 2.2045645495e-01	 1.0339011090e+00	-5.0348899242e+00
 1.9797672306e-01	 1.0384400298e+00	-5.2542999502e+00
 1.7555377324e-01	 1.0424650045e+00	-5.4524802023e+00
 1.5320346595e-01	 1.0459832989e+00	-5.6281115079e+00
 1.3094112249e-01	 1.0490027443e+00	-5.7801634686e+00
 1.0878150527e-01	 1.0515316984e+00	-5.9078868147e+00
 8.6738801103e-02	 1.0535790063e+00	-6.0108042725e+00
 6.4826607234e-02	 1.0551539609e+00	-6.0887001140e+00
 4.3057920145e-02	 1.0562662640e+00	-6.1416085563e+00
 2.1445127056e-02	 1.0569259869e+00	-6.1698011803e+00
 0.0000000000e+00	 1.0571435327e+00	-6.1737735325e+00
 2.2343566344e-01	 1.0478730608e+00	-4.7288459813e+00
 2.0065214454e-01	 1.0524733197e+00	-4.9263724980e+00
 1.7792617505e-01	 1.0565526872e+00	-5.1053498936e+00
 1.5527382977e-01	 1.0601185272e+00	-5.2644234762e+00
 1.3271063703e-01	 1.0631787768e+00	-5.4025373351e+00
 1.1025155877e-01	 1.0657419068e+00	-5.5189264607e+00
 8.7910973507e-02	 1.0678168817e+00	-5.6131073014e+00
 6.5702662231e-02	 1.0694131199e+00	-5.6848669342e+00
 4.3639797058e-02	 1.0705404544e+00	-5.7342510242e+00
 2.1734932609e-02	 1.0712090928e+00	-5.7615507514e+00
 0.0000000000e+00	 1.0714295784e+00	-5.7672888770e+00
 2.2641488062e-01	 1.0618450533e+00	-4.4591027477e+00
 2.0332757381e-01	 1.0665066506e+00	-4.6365289015e+00
 1.8029858377e-01	 1.0706404110e+00	-4.7977255842e+00
 1.5734419962e-01	 1.0742537967e+00	-4.9414038971e+00
 1.3448015674e-01	 1.0773548507e+00	-5.0665720386e+00
 1.1172161656e-01	 1.0799521566e+00	-5.1725271333e+00
 8.9083149329e-02	 1.0820547985e+00	-5.2588455113e+00
 6.6578719781e-02	 1.0836723205e+00	-5.3253716161e+00
 4.4221675667e-02	 1.0848146865e+00	-5.3722057209e+00
 2.2024739006e-02	 1.0854922402e+00	-5.3996906309e+00
 0.0000000000e+00	 1.0857156657e+00	-5.4083975462e+00
 2.2939410405e-01	 1.0758170752e+00	-4.2233761566e+00
 2.0600300871e-01	 1.0805400110e+00	-4.3825390838e+00
 1.8267099747e-01	 1.0847281644e+00	-4.5273683868e+00
 1.5941457381e-01	 1.0883890959e+00	-4.6567389934e+00
 1.3624968016e-01	 1.0915309544e+00	-4.7698098799e+00
 1.1319167744e-01	 1.0941624363e+00	-4.8660155502e+00
 9.0255327612e-02	 1.0962927452e+00	-4.9450560672e+00
 6.7454779171e-02	 1.0979315510e+00	-5.0068858125e+00
 4.4803555497e-02	 1.0990889485e+00	-5.0517011488e+00
 2.2314546011e-02	 1.0997754177e+00	-5.0799271583e+00
 0.0000000000e+00	 1.1000017831e+00	-5.0922036260e+00
 2.3237333130e-01	 1.0897891150e+00	-4.0195009244e+00
 2.0867844704e-01	 1.0945733893e+00	-4.1622888228e+00
 1.8504341422e-01	 1.0988159358e+00	-4.2921555573e+00
 1.6148495066e-01	 1.1025244133e+00	-4.4082348074e+00
 1.3801920585e-01	 1.1057070762e+00	-4.5099201947e+00
 1.1466174020e-01	 1.1083727342e+00	-4.5968563539e+00
 9.1427507398e-02	 1.1105307103e+00	-4.6689287438e+00
 6.8330839684e-02	 1.1121907998e+00	-4.7262523679e+00
 4.5385436074e-02	 1.1133632289e+00	-4.7691595678e+00
 2.2604353388e-02	 1.1140586135e+00	-4.7981870512e+00
 0.0000000000e+00	 1.1142879188e+00	-4.8140623123e+00
 2.3535255995e-01	 1.1037611613e+00	-3.8454230369e+00
 2.1135388661e-01	 1.1086067742e+00	-3.9737724225e+00
 1.8741583207e-01	 1.1129037139e+00	-4.0900731494e+00
 1.6355532848e-01	 1.1166597372e+00	-4.1938096223e+00
 1.3978873237e-01	 1.1198832047e+00	-4.2846913184e+00
 1.1613180365e-01	 1.1225830387e+00	-4.3626433880e+00
 9.2599687730e-02	 1.1247686819e+00	-4.4277962720e+00
 6.9206900605e-02	 1.1264500552e+00	-4.4804744887e+00
 4.5967316922e-02	 1.1276375159e+00	-4.5211847372e+00
 2.2894160900e-02	 1.1283418159e+00	-4.5506034631e+00
 0.0000000000e+00	 1.1285740611e+00	-4.5695640236e+00
 2.3833178755e-01	 1.1177332028e+00	-3.6991927977e+00
 2.1402932525e-01	 1.1226401542e+00	-3.8150859344e+00
 1.8978824910e-01	 1.1269914870e+00	-3.9192092180e+00
 1.6562570557e-01	 1.1307950562e+00	-4.0114869515e+00
 1.4155825826e-01	 1.1340593282e+00	-4.0920231529e+00
 1.1760186658e-01	 1.1367933383e+00	-4.1610916263e+00
 9.3771867651e-02	 1.1390066486e+00	-4.2191254089e+00
 7.0082961219e-02	 1.1407093057e+00	-4.2667057255e+00
 4.6549197565e-02	 1.1419117979e+00	-4.3045505773e+00
 2.3183968311e-02	 1.1426250134e+00	-4.3335030857e+00
 0.0000000000e+00	 1.1428601985e+00	-4.3545197043e+00
 1.1428601985e+00	 0.0000000000e+00	 2.3423694186e+00
 1.1426250134e+00	 2.3183968311e-02	 2.3407659542e+00
 1.1419117979e+00	 4.6549197565e-02	 2.3405839856e+00
 1.1407093057e+00	 7.0082961219e-02	 2.3416945713e+00
 1.1390066486e+00	 9.3771867651e-02	 2.3440306110e+00
 1.1367933383e+00	 1.1760186658e-01	 2.3475890768e+00
 1.1340593282e+00	 1.4155825826e-01	 2.3524327263e+00
 1.1307950562e+00	 1.6562570557e-01	 2.3586912384e+00
 1.1269914870e+00	 1.8978824910e-01	 2.3665617201e+00
 1.1226401542e+00	 2.1402932525e-01	 2.3763085343e+00
 1.1177332028e+00	 2.3833178755e-01	 2.3882624038e+00
 1.1571453214e+00	 0.0000000000e+00	 2.5102407673e+00
 1.1569071966e+00	 2.3473755142e-02	 2.5054093460e+00
 1.1561850663e+00	 4.7131036890e-02	 2.5013867406e+00
 1.1549675436e+00	 7.0958959624e-02	 2.4979487877e+00
 1.1532436042e+00	 9.4943964336e-02	 2.4949222157e+00
 1.1510026287e+00	 1.1907182513e-01	 2.4921870529e+00
 1.1482344451e+00	 1.4332765851e-01	 2.4896786112e+00
 1.1449293715e+00	 1.6769593565e-01	 2.4873889931e+00
 1.1410782597e+00	 1.9216049766e-01	 2.4853680698e+00
 1.1366725377e+00	 2.1670457391e-01	 2.4837238863e+00
 1.1317042520e+00	 2.4131080360e-01	 2.4826224492e+00
 1.1714304292e+00	 0.0000000000e+00	 2.6414477090e+00
 1.1711893648e+00	 2.3763541668e-02	 2.6352262528e+00
 1.1704583197e+00	 4.7712875603e-02	 2.6292424960e+00
 1.1692257666e+00	 7.1834957109e-02	 2.6231796528e+00
 1.1674805449e+00	 9.6116059790e-02	 2.6167633460e+00
 1.1652119043e+00	 1.2054178213e-01	 2.6097642922e+00
 1.1624095470e+00	 1.4509705689e-01	 2.6020006425e+00
 1.1590636719e+00	 1.6976616355e-01	 2.5933399293e+00
 1.1551650177e+00	 1.9453274372e-01	 2.5837005705e+00
 1.1507049064e+00	 2.1937981975e-01	 2.5730528861e+00
 1.1456752867e+00	 2.4428981652e-01	 2.5614195830e+00
 1.1857155238e+00	 0.0000000000e+00	 2.7356932899e+00
 1.1854715197e+00	 2.4053327925e-02	 2.7297444795e+00
 1.1847315598e+00	 4.8294713773e-02	 2.7235223251e+00
 1.1834839762e+00	 7.2710953776e-02	 2.7166198250e+00
 1.1817174723e+00	 9.7288154151e-02	 2.7086663012e+00
 1.1794211666e+00	 1.2201173775e-01	 2.6993304576e+00
 1.1765846358e+00	 1.4686645362e-01	 2.6883231618e+00
 1.1731979592e+00	 1.7183638952e-01	 2.6753999010e+00
 1.1692517625e+00	 1.9690498758e-01	 2.6603628642e+00
 1.1647372620e+00	 2.2205506311e-01	 2.6430626030e+00
 1.1596463082e+00	 2.4726882666e-01	 2.6233992289e+00
 1.2000006067e+00	 0.0000000000e+00	 2.7926947177e+00
 1.1997536629e+00	 2.4343113944e-02	 2.7885142818e+00
 1.1990047883e+00	 4.8876551468e-02	 2.7836271532e+00
 1.1977421742e+00	 7.3586949728e-02	 2.7775383389e+00
 1.1959543881e+00	 9.8460247554e-02	 2.7697854147e+00
 1.1936304173e+00	 1.2348169218e-01	 2.7599420537e+00
 1.1907597130e+00	 1.4863584891e-01	 2.7476213300e+00
 1.1873322348e+00	 1.7390661380e-01	 2.7324787522e+00
 1.1833384958e+00	 1.9927722950e-01	 2.7142149727e+00
 1.1787696062e+00	 2.2473030427e-01	 2.6925781272e+00
 1.1736173184e+00	 2.5024783437e-01	 2.6673657564e+00
 1.2142856796e+00	 0.0000000000e+00	 2.8121825303e+00
 1.2140357961e+00	 2.4632899761e-02	 2.8111070470e+00
 1.2132780067e+00	 4.9458388756e-02	 2.8089860044e+00
 1.2120003622e+00	 7.4462945067e-02	 2.8052384669e+00
 1.2101912939e+00	 9.9632340137e-02	 2.7993145826e+00
 1.2078396580e+00	 1.2495164558e-01	 2.7906996726e+00
 1.2049347802e+00	 1.5040524296e-01	 2.7789181395e+00
 1.2014665006e+00	 1.7597683663e-01	 2.7635371420e+00
 1.1974252192e+00	 2.0164946975e-01	 2.7441699829e+00
 1.1928019406e+00	 2.2740554357e-01	 2.7204791579e+00
 1.1875883188e+00	 2.5322683999e-01	 2.6921790147e+00
 1.2285707441e+00	 0.0000000000e+00	 2.7938998224e+00
 1.2283179210e+00	 2.4922685409e-02	 2.7971140679e+00
 1.2275512168e+00	 5.0040225705e-02	 2.7990543690e+00
 1.2262585419e+00	 7.5338939895e-02	 2.7990557308e+00
 1.2244281914e+00	 1.0080443204e-01	 2.7964849650e+00
 1.2220488905e+00	 1.2642159812e-01	 2.7907454327e+00
 1.2191098392e+00	 1.5217463598e-01	 2.7812816346e+00
 1.2156007582e+00	 1.7804705825e-01	 2.7675835923e+00
 1.2115119344e+00	 2.0402170863e-01	 2.7491909630e+00
 1.2068342668e+00	 2.3008078130e-01	 2.7256968294e+00
 1.2015593110e+00	 2.5620584387e-01	 2.6967511080e+00
 1.2428558020e+00	 0.0000000000e+00	 2.7376015263e+00
 1.2426000392e+00	 2.5212470921e-02	 2.7461454003e+00
 1.2418244203e+00	 5.0622062382e-02	 2.7533126844e+00
 1.2405167149e+00	 7.6214934315e-02	 2.7583560495e+00
 1.2386650823e+00	 1.0197652339e-01	 2.7605628468e+00
 1.2362581163e+00	 1.2789154998e-01	 2.7592605939e+00
 1.2332848916e+00	 1.5394402817e-01	 2.7538223241e+00
 1.2297350091e+00	 1.8011727891e-01	 2.7436717379e+00
 1.2255986431e+00	 2.0639394639e-01	 2.7282880912e+00
 1.2208665864e+00	 2.3275601779e-01	 2.7072107566e+00
 1.2155302967e+00	 2.5918484637e-01	 2.6800433937e+00
 1.2571408549e+00	 0.0000000000e+00	 2.7781412470e+00
 1.2568821524e+00	 2.5502256333e-02	 2.7835383626e+00
 1.2560976188e+00	 5.1203898855e-02	 2.7787453670e+00
 1.2547748830e+00	 7.7090928428e-02	 2.7637059796e+00
 1.2529019682e+00	 1.0314861433e-01	 2.7383989493e+00
 1.2504673372e+00	 1.2936150132e-01	 2.7028403871e+00
 1.2474599390e+00	 1.5571341975e-01	 2.6956907700e+00
 1.2438692551e+00	 1.8218749884e-01	 2.6908977653e+00
 1.2396853468e+00	 2.0876618333e-01	 2.6805159805e+00
 1.2348989011e+00	 2.3543125334e-01	 2.6640462818e+00
 1.2295012776e+00	 2.6216384782e-01	 2.6410636854e+00
 1.2714259045e+00	 0.0000000000e+00	 2.9138038320e+00
 1.2711642623e+00	 2.5792041677e-02	 2.9167655274e+00
 1.2703708139e+00	 5.1785735194e-02	 2.9098530390e+00
 1.2690330477e+00	 7.7966922337e-02	 2.8929524273e+00
 1.2671388507e+00	 1.0432070500e-01	 2.8659903853e+00
 1.2646765547e+00	 1.3083145232e-01	 2.8289373526e+00
 1.2616349830e+00	 1.5748281091e-01	 2.7818106143e+00
 1.2580034978e+00	 1.8425771829e-01	 2.7246773562e+00
 1.2537720472e+00	 2.1113841971e-01	 2.6576576461e+00
 1.2489312125e+00	 2.3810648826e-01	 2.5952719068e+00
 1.2434722551e+00	 2.6514284858e-01	 2.5788636436e+00
 1.2857109524e+00	 0.0000000000e+00	 3.0087066769e+00
 1.2854463705e+00	 2.6081826987e-02	 3.0097516920e+00
 1.2846440074e+00	 5.2367571465e-02	 3.0014163634e+00
 1.2832912108e+00	 7.8842916145e-02	 2.9835305001e+00
 1.2813757316e+00	 1.0549279553e-01	 2.9559720757e+00
 1.2788857706e+00	 1.3230140315e-01	 2.9186712067e+00
 1.2758100255e+00	 1.5925220186e-01	 2.8716141083e+00
 1.2721377389e+00	 1.8632793750e-01	 2.8148469911e+00
 1.2678587460e+00	 2.1351065582e-01	 2.7484798595e+00
 1.2629635224e+00	 2.4078172288e-01	 2.6726901699e+00
 1.2574432311e+00	 2.6812184899e-01	 2.5877263026e+00
 1.1177332028e+00	 2.3833178755e-01	 2.3882624038e+00
 1.1122638330e+00	 2.6267623005e-01	 2.4004750227e+00
 1.1062252131e+00	 2.8704614204e-01	 2.4104797246e+00
 1.0996115674e+00	 3.1142281934e-01	 2.4179003640e+00
 1.0924178900e+00	 3.3578709316e-01	 2.4223962207e+00
 1.0846399814e+00	 3.6011936715e-01	 2.4236651011e+00
 1.0762744826e+00	 3.8439965732e-01	 2.4214461708e+00
 1.0673189073e+00	 4.0860763499e-01	 2.4155224834e+00
 1.0577716711e+00	 4.3272267244e-01	 2.4057231764e+00
 1.0476321190e+00	 4.5672389122e-01	 2.3919253092e+00
 1.0369005487e+00	 4.8059021287e-01	 2.3740553201e+00
 1.1317042520e+00	 2.4131080360e-01	 2.4826224492e+00
 1.1261665182e+00	 2.6595953822e-01	 2.4799771105e+00
 1.1200524189e+00	 2.9063406069e-01	 2.4734891079e+00
 1.1133561062e+00	 3.1531543302e-01	 2.4630830779e+00
 1.1060725118e+00	 3.3998424684e-01	 2.4487297204e+00
 1.0981973836e+00	 3.6462066085e-01	 2.4304470043e+00
 1.0897273208e+00	 3.8920444128e-01	 2.4083009491e+00
 1.0806598056e+00	 4.1371500533e-01	 2.3824059599e+00
 1.0709932343e+00	 4.3813146746e-01	 2.3529247019e+00
 1.0607269434e+00	 4.6243268825e-01	 2.3200675031e+00
 1.0498612344e+00	 4.8659732577e-01	 2.2840912829e+00
 1.1456752867e+00	 2.4428981652e-01	 2.5614195830e+00
 1.1400691888e+00	 2.6924284294e-01	 2.5466097098e+00
 1.1338796101e+00	 2.9422197556e-01	 2.5264716387e+00
 1.1271006306e+00	 3.1920804261e-01	 2.5011698770e+00
 1.1197271193e+00	 3.4418139612e-01	 2.4709236639e+00
 1.1117547717e+00	 3.6912194983e-01	 2.4360066512e+00
 1.1031801447e+00	 3.9400922018e-01	 2.3967460352e+00
 1.0940006900e+00	 4.1882237031e-01	 2.3535211265e+00
 1.0842147836e+00	 4.4354025681e-01	 2.3067613547e+00
 1.0738217540e+00	 4.6814147929e-01	 2.2569437102e+00
 1.0628219064e+00	 4.9260443237e-01	 2.2045896357e+00
 1.1596463082e+00	 2.4726882666e-01	 2.6233992289e+00
 1.1539718464e+00	 2.7252614460e-01	 2.5991003177e+00
 1.1477067885e+00	 2.9780988709e-01	 2.5681313035e+00
 1.1408451422e+00	 3.2310064857e-01	 2.5308377875e+00
 1.1333817140e+00	 3.4837854147e-01	 2.4876268552e+00
 1.1253121470e+00	 3.7362323460e-01	 2.4389655962e+00
 1.1166329562e+00	 3.9881399461e-01	 2.3853789787e+00
 1.1073415619e+00	 4.2392973052e-01	 2.3274470740e+00
 1.0974363205e+00	 4.4894904110e-01	 2.2658016334e+00
 1.0869165524e+00	 4.7385026501e-01	 2.2011220338e+00
 1.0757825663e+00	 4.9861153337e-01	 2.1341306130e+00
 1.1736173184e+00	 2.5024783437e-01	 2.6673657564e+00
 1.1678744926e+00	 2.7580944357e-01	 2.6362361206e+00
 1.1615339555e+00	 3.0139779569e-01	 2.5972327838e+00
 1.1545896425e+00	 3.2699325135e-01	 2.5508256973e+00
 1.1470362976e+00	 3.5257568340e-01	 2.4975511838e+00
 1.1388695113e+00	 3.7812451570e-01	 2.4380096542e+00
 1.1300857566e+00	 4.0361876511e-01	 2.3728626087e+00
 1.1206824229e+00	 4.2903708656e-01	 2.3028289259e+00
 1.1106578467e+00	 4.5435782098e-01	 2.2286804474e+00
 1.1000113401e+00	 4.7955904606e-01	 2.1512368804e+00
 1.0887432157e+00	 5.0461862946e-01	 2.0713600491e+00
 1.1875883188e+00	 2.5322683999e-01	 2.6921790147e+00
 1.1817771291e+00	 2.7909274025e-01	 2.6568604844e+00
 1.1753611129e+00	 3.0498570177e-01	 2.6125978872e+00
 1.1683341332e+00	 3.3088585141e-01	 2.5599307177e+00
 1.1606908716e+00	 3.5677282240e-01	 2.4994679144e+00
 1.1524268661e+00	 3.8262579365e-01	 2.4318851211e+00
 1.1435385477e+00	 4.0842353225e-01	 2.3579211934e+00
 1.1340232746e+00	 4.3414443902e-01	 2.2783739540e+00
 1.1238793636e+00	 4.5976659707e-01	 2.1940952101e+00
 1.1131061186e+00	 4.8526782311e-01	 2.1059850596e+00
 1.1017038560e+00	 5.1062572134e-01	 2.0149855194e+00
 1.2015593110e+00	 2.5620584387e-01	 2.6967511080e+00
 1.1956797576e+00	 2.8237603501e-01	 2.6598696891e+00
 1.1891882622e+00	 3.0857360577e-01	 2.6131022265e+00
 1.1820786159e+00	 3.3477844920e-01	 2.5570047997e+00
 1.1743454377e+00	 3.6096995894e-01	 2.4922042355e+00
 1.1659842130e+00	 3.8712706897e-01	 2.4193952581e+00
 1.1569913309e+00	 4.1322829658e-01	 2.3393368693e+00
 1.1473641185e+00	 4.3925178850e-01	 2.2528479656e+00
 1.1371008728e+00	 4.6517537001e-01	 2.1608022057e+00
 1.1262008895e+00	 4.9097659684e-01	 2.0641221562e+00
 1.1146644887e+00	 5.1663280972e-01	 1.9637727514e+00
 1.2155302967e+00	 2.5918484637e-01	 2.6800433937e+00
 1.2095823795e+00	 2.8565932825e-01	 2.6442098892e+00
 1.2030154050e+00	 3.1216150809e-01	 2.5976721291e+00
 1.1958230922e+00	 3.3867104517e-01	 2.5409515825e+00
 1.1879999974e+00	 3.6516709353e-01	 2.4746400462e+00
 1.1795415536e+00	 3.9162834219e-01	 2.3993970181e+00
 1.1704441078e+00	 4.1803305867e-01	 2.3159463154e+00
 1.1607049561e+00	 4.4435913560e-01	 2.2250719400e+00
 1.1503223758e+00	 4.7058414042e-01	 2.1276132058e+00
 1.1392956543e+00	 4.9668536790e-01	 2.0244591524e+00
 1.1276251153e+00	 5.2263989530e-01	 1.9165422821e+00
 1.2295012776e+00	 2.6216384782e-01	 2.6410636854e+00
 1.2234849965e+00	 2.8894262033e-01	 2.6088742806e+00
 1.2168425430e+00	 3.1574940915e-01	 2.5652817557e+00
 1.2095675637e+00	 3.4256363978e-01	 2.5107234583e+00
 1.2016545523e+00	 3.6936422664e-01	 2.4457049623e+00
 1.1930988894e+00	 3.9612961384e-01	 2.3707979964e+00
 1.1838968800e+00	 4.2283781909e-01	 2.2866376552e+00
 1.1740457891e+00	 4.4946648092e-01	 2.1939188939e+00
 1.1635438742e+00	 4.7599290894e-01	 2.0933923169e+00
 1.1523904145e+00	 5.0239413696e-01	 1.9858592809e+00
 1.1405857375e+00	 5.2864697877e-01	 1.8721663444e+00
 1.2434722551e+00	 2.6514284858e-01	 2.5788636436e+00
 1.2373876103e+00	 2.9222591164e-01	 2.5529004593e+00
 1.2306696778e+00	 3.1933730938e-01	 2.5149504149e+00
 1.2233120320e+00	 3.4645623348e-01	 2.4653188334e+00
 1.2153091040e+00	 3.7356135878e-01	 2.4043755234e+00
 1.2066562220e+00	 4.0063088444e-01	 2.3325535854e+00
 1.1973496491e+00	 4.2764257838e-01	 2.2503475667e+00
 1.1873866190e+00	 4.5457382504e-01	 2.1583109585e+00
 1.1767653695e+00	 4.8140167620e-01	 2.0570530411e+00
 1.1654851716e+00	 5.0810290469e-01	 1.9472350890e+00
 1.1535463566e+00	 5.3465406084e-01	 1.8295659628e+00
 1.2574432311e+00	 2.6812184899e-01	 2.5877263026e+00
 1.2512902225e+00	 2.9550920258e-01	 2.4912009338e+00
 1.2444968109e+00	 3.2292520919e-01	 2.4457400552e+00
 1.2370564986e+00	 3.5034882672e-01	 2.4037795736e+00
 1.2289636542e+00	 3.7775849043e-01	 2.3496725874e+00
 1.2202135531e+00	 4.0513215451e-01	 2.2836643205e+00
 1.2108024166e+00	 4.3244733711e-01	 2.2060585857e+00
 1.2007274473e+00	 4.5968116857e-01	 2.1172166515e+00
 1.1899868632e+00	 4.8681044283e-01	 2.0175555317e+00
 1.1785799272e+00	 5.1381167176e-01	 1.9075456998e+00
 1.1665069742e+00	 5.4066114221e-01	 1.7877082430e+00
 1.0369005487e+00	 4.8059021287e-01	 2.3740553201e+00
 1.0255774193e+00	 5.0430206465e-01	 2.3509486075e+00
 1.0136657292e+00	 5.2783644336e-01	 2.3209059632e+00
 1.0011687518e+00	 5.5117198494e-01	 2.2831193351e+00
 9.8809077496e-01	 5.7428734802e-01	 2.2368329291e+00
 9.7443710616e-01	 5.9716127332e-01	 2.1813519491e+00
 9.6021407437e-01	 6.1977264379e-01	 2.1160511554e+00
 9.4542902724e-01	 6.4210054532e-01	 2.0403831689e+00
 9.3009032415e-01	 6.6412432764e-01	 1.9538864483e+00
 9.1420732488e-01	 6.8582366495e-01	 1.8561928697e+00
 8.9779037395e-01	 7.0717861609e-01	 1.7470348387e+00
 1.0498612344e+00	 4.8659732577e-01	 2.2840912829e+00
 1.0383965721e+00	 5.1060556264e-01	 2.2440900603e+00
 1.0263359924e+00	 5.3443410812e-01	 2.1984474849e+00
 1.0136828097e+00	 5.5806133111e-01	 2.1464012058e+00
 1.0004413653e+00	 5.8146562350e-01	 2.0872222754e+00
 9.8661703318e-01	 6.0462546027e-01	 2.0202234458e+00
 9.7221622133e-01	 6.2751946041e-01	 1.9447674282e+00
 9.5724636925e-01	 6.5012644841e-01	 1.8602750467e+00
 9.4171594082e-01	 6.7242551587e-01	 1.7662332212e+00
 9.2563441281e-01	 6.9439608294e-01	 1.6622027103e+00
 9.0901225904e-01	 7.1601795922e-01	 1.5478255493e+00
 1.0628219064e+00	 4.9260443237e-01	 2.2045896357e+00
 1.0512157114e+00	 5.1690905401e-01	 2.1489907922e+00
 1.0390062422e+00	 5.4103176595e-01	 2.0886276826e+00
 1.0261968544e+00	 5.6495067005e-01	 2.0228342234e+00
 1.0127919427e+00	 5.8864389145e-01	 1.9509625563e+00
 9.9879694741e-01	 6.1208963938e-01	 1.8723905490e+00
 9.8421835568e-01	 6.3526626890e-01	 1.7865293648e+00
 9.6906369885e-01	 6.5815234307e-01	 1.6928310467e+00
 9.5334154529e-01	 6.8072669539e-01	 1.5907960555e+00
 9.3706148875e-01	 7.0296849194e-01	 1.4799807029e+00
 9.2023413234e-01	 7.2485729306e-01	 1.3600044197e+00
 1.0757825663e+00	 4.9861153337e-01	 2.1341306130e+00
 1.0640348387e+00	 5.2321253950e-01	 2.0642599984e+00
 1.0516764803e+00	 5.4762941763e-01	 1.9901031823e+00
 1.0387108874e+00	 5.7184000257e-01	 1.9111391769e+00
 1.0251425086e+00	 5.9582215269e-01	 1.8268536334e+00
 1.0109768503e+00	 6.1955381152e-01	 1.7367451981e+00
 9.9622047883e-01	 6.4301307015e-01	 1.6403320128e+00
 9.8088101743e-01	 6.6617823025e-01	 1.5371583145e+00
 9.6496713891e-01	 6.8902786716e-01	 1.4268010888e+00
 9.4848855402e-01	 7.1154089294e-01	 1.3088767273e+00
 9.3145599518e-01	 7.3369661865e-01	 1.1830476408e+00
 1.0887432157e+00	 5.0461862946e-01	 2.0713600491e+00
 1.0768539556e+00	 5.2951601985e-01	 1.9885709710e+00
 1.0643467080e+00	 5.5422706392e-01	 1.9015923263e+00
 1.0512249103e+00	 5.7872932945e-01	 1.8100953971e+00
 1.0374930643e+00	 6.0300040807e-01	 1.7137500278e+00
 1.0231567432e+00	 6.2701797757e-01	 1.6122294955e+00
 1.0082225922e+00	 6.5075986508e-01	 1.5052155653e+00
 9.9269832635e-01	 6.7420411086e-01	 1.3924037010e+00
 9.7659272303e-01	 6.9732903216e-01	 1.2735084007e+00
 9.5991560995e-01	 7.2011328694e-01	 1.1482686224e+00
 9.4267784885e-01	 7.4253593703e-01	 1.0164532644e+00
 1.1017038560e+00	 5.1062572134e-01	 2.0149855194e+00
 1.0896730634e+00	 5.3581949578e-01	 1.9206573285e+00
 1.0770169269e+00	 5.6082470559e-01	 1.8218715423e+00
 1.0637389243e+00	 5.8561865152e-01	 1.7185373122e+00
 1.0498436115e+00	 6.1017865843e-01	 1.6105577057e+00
 1.0353366276e+00	 6.3448213839e-01	 1.4978327562e+00
 1.0202246971e+00	 6.5850665459e-01	 1.3802627053e+00
 1.0045156270e+00	 6.8222998587e-01	 1.2577514264e+00
 9.8821829901e-01	 7.0563019134e-01	 1.1302100164e+00
 9.7134265789e-01	 7.2868567494e-01	 9.9756054141e-01
 9.5389969466e-01	 7.5137524922e-01	 8.5973991668e-01
 1.1146644887e+00	 5.1663280972e-01	 1.9637727514e+00
 1.1024921639e+00	 5.4212296803e-01	 1.8593095084e+00
 1.0896871383e+00	 5.6742234341e-01	 1.7497719669e+00
 1.0762529311e+00	 5.9250796956e-01	 1.6353512447e+00
 1.0621941514e+00	 6.1735690460e-01	 1.5162310862e+00
 1.0475165049e+00	 6.4194629486e-01	 1.3925887619e+00
 1.0322267951e+00	 6.6625343958e-01	 1.2645961351e+00
 1.0163329208e+00	 6.9025585619e-01	 1.1324209073e+00
 9.9984386822e-01	 7.1393134569e-01	 9.9622804866e-01
 9.8276969917e-01	 7.3725805793e-01	 8.5618142187e-01
 9.6512153393e-01	 7.6021455625e-01	 7.1244560199e-01
 1.1276251153e+00	 5.2263989530e-01	 1.9165422821e+00
 1.1153112583e+00	 5.4842643735e-01	 1.8033715021e+00
 1.1023573439e+00	 5.7401997816e-01	 1.6841763010e+00
 1.0887669320e+00	 5.9939728440e-01	 1.5594724289e+00
 1.0745446856e+00	 6.2453514743e-01	 1.4297702577e+00
 1.0596963765e+00	 6.4941044785e-01	 1.2955732062e+00
 1.0442288874e+00	 6.7400022096e-01	 1.1573762764e+00
 1.0281502090e+00	 6.9828172276e-01	 1.0156647343e+00
 1.0114694320e+00	 7.2223249615e-01	 8.7091296907e-01
 9.9419673511e-01	 7.4583043693e-01	 7.2358356097e-01
 9.7634336796e-01	 7.6905385916e-01	 5.7412658909e-01
 1.1405857375e+00	 5.2864697877e-01	 1.8721663444e+00
 1.1281303482e+00	 5.5472990445e-01	 1.7517378117e+00
 1.1150275450e+00	 5.8061761059e-01	 1.6240158804e+00
 1.1012809286e+00	 6.0628659682e-01	 1.4898822318e+00
 1.0868952154e+00	 6.3171338773e-01	 1.3502183820e+00
 1.0718762438e+00	 6.5687459822e-01	 1.2059013126e+00
 1.0562309756e+00	 6.8174699962e-01	 1.0577991267e+00
 1.0399674931e+00	 7.0630758653e-01	 9.0676678654e-01
 1.0230949917e+00	 7.3053364372e-01	 7.5364199619e-01
 1.0056237670e+00	 7.5440281293e-01	 5.9924128818e-01
 9.8756519807e-01	 7.7789315897e-01	 4.4435637301e-01
 1.1535463566e+00	 5.3465406084e-01	 1.8295659628e+00
 1.1409494352e+00	 5.6103337009e-01	 1.7033506128e+00
 1.1276977431e+00	 5.8721524149e-01	 1.5682679431e+00
 1.1137949222e+00	 6.1317590763e-01	 1.4256055615e+00
 1.0992457424e+00	 6.3889162637e-01	 1.2766592750e+00
 1.0840561083e+00	 6.6433874685e-01	 1.1227256140e+00
 1.0682330609e+00	 6.8949377648e-01	 9.6509426104e-01
 1.0517847745e+00	 7.1433344842e-01	 8.0504047377e-01
 1.0347205487e+00	 7.3883478934e-01	 6.4381759296e-01
 1.0170507963e+00	 7.6297518692e-01	 4.8264972727e-01
 9.9878702555e-01	 7.8673245672e-01	 3.2272470719e-01
 1.1665069742e+00	 5.4066114221e-01	 1.7877082430e+00
 1.1537685207e+00	 5.6733683499e-01	 1.6571971060e+00
 1.1403679398e+00	 5.9381287161e-01	 1.5159530797e+00
 1.1263089144e+00	 6.2006521764e-01	 1.3657084478e+00
 1.1115962679e+00	 6.4606986416e-01	 1.2082151482e+00
 1.0962359714e+00	 6.7180289461e-01	 1.0452338797e+00
 1.0802351449e+00	 6.9724055243e-01	 8.7852296607e-01
 1.0636020544e+00	 7.2235930937e-01	 7.0982709595e-01
 1.0463461043e+00	 7.4713593400e-01	 5.4086606405e-01
 1.0284778243e+00	 7.7154755992e-01	 3.7332364094e-01
 1.0100088517e+00	 7.9557175344e-01	 2.0883670000e-01
 8.9779037395e-01	 7.0717861609e-01	 1.7470348387e+00
 8.8085077813e-01	 7.2816968575e-01	 1.6257877252e+00
 8.6340077474e-01	 7.4877788830e-01	 1.4924161464e+00
 8.4545351079e-01	 7.6898479821e-01	 1.3476751401e+00
 8.2702301313e-01	 7.8877260239e-01	 1.1923985901e+00
 8.0812415225e-01	 8.0812415225e-01	 1.0274985111e+00
 7.8877260239e-01	 8.2702301313e-01	 8.5396392945e-01
 7.6898479821e-01	 8.4545351079e-01	 6.7285936415e-01
 7.4877788830e-01	 8.6340077474e-01	 4.8532291908e-01
 7.2816968575e-01	 8.8085077813e-01	 2.9256399790e-01
 7.0717861609e-01	 8.9779037395e-01	 9.5860654791e-02
 9.0901225904e-01	 7.1601795922e-01	 1.5478255493e+00
 8.9186092760e-01	 7.3727140568e-01	 1.4223435208e+00
 8.7419280878e-01	 7.5813719941e-01	 1.2857716374e+00
 8.5602121392e-01	 7.7859668456e-01	 1.1390440266e+00
 8.3736034520e-01	 7.9863182539e-01	 9.8318259297e-01
 8.1822525897e-01	 8.1822525897e-01	 8.1929464432e-01
 7.9863182539e-01	 8.3736034520e-01	 6.4857003903e-01
 7.7859668456e-01	 8.5602121392e-01	 4.7227787880e-01
 7.5813719941e-01	 8.7419280878e-01	 2.9176277471e-01
 7.3727140568e-01	 8.9186092760e-01	 1.0844071630e-01
 7.1601795922e-01	 9.0901225904e-01	-7.6205424046e-02
 9.2023413234e-01	 7.2485729306e-01	 1.3600044197e+00
 9.0287106551e-01	 7.4637311606e-01	 1.2300955389e+00
 8.8498483149e-01	 7.6749650070e-01	 1.0903621337e+00
 8.6658890596e-01	 7.8820856082e-01	 9.4186477873e-01
 8.4769766641e-01	 8.0849103804e-01	 7.8575478686e-01
 8.2832635508e-01	 8.2832635508e-01	 6.2327061462e-01
 8.0849103804e-01	 8.4769766641e-01	 4.5573376397e-01
 7.8820856082e-01	 8.6658890596e-01	 2.8454421671e-01
 7.6749650070e-01	 8.8498483149e-01	 1.1117544246e-01
 7.4637311606e-01	 9.0287106551e-01	-6.2830977033e-02
 7.2485729306e-01	 9.2023413234e-01	-2.3587106262e-01
 9.3145599518e-01	 7.3369661865e-01	 1.1830476408e+00
 9.1388119315e-01	 7.5547481794e-01	 1.0486298183e+00
 8.9577684414e-01	 7.7685579324e-01	 9.0585075048e-01
 8.7715658813e-01	 7.9782042811e-01	 7.5584680958e-01
 8.5803497797e-01	 8.1835024149e-01	 5.9984223624e-01
 8.3842744176e-01	 8.3842744176e-01	 4.3914475499e-01
 8.1835024149e-01	 8.5803497797e-01	 2.7514070674e-01
 7.9782042811e-01	 8.7715658813e-01	 1.0928974405e-01
 7.7685579324e-01	 8.9577684414e-01	-5.6880862468e-02
 7.5547481794e-01	 9.1388119315e-01	-2.2178225627e-01
 7.3369661865e-01	 9.3145599518e-01	-3.8377031389e-01
 9.4267784885e-01	 7.4253593703e-01	 1.0164532644e+00
 9.2489131180e-01	 7.6457651239e-01	 8.7754895148e-01
 9.0656884797e-01	 7.8621507815e-01	 7.3191341800e-01
 8.8772426168e-01	 8.0743228755e-01	 5.8071008193e-01
 8.6837228109e-01	 8.2820943689e-01	 4.2518166307e-01
 8.4852852020e-01	 8.4852852020e-01	 2.6664542906e-01
 8.2820943689e-01	 8.6837228109e-01	 1.0648802588e-01
 8.0743228755e-01	 8.8772426168e-01	-5.3840057639e-02
 7.8621507815e-01	 9.0656884797e-01	-2.1283033962e-01
 7.6457651239e-01	 9.2489131180e-01	-3.6892245700e-01
 7.4253593703e-01	 9.4267784885e-01	-5.2051048625e-01
 9.5389969466e-01	 7.5137524922e-01	 8.5973991668e-01
 9.3590142274e-01	 7.7367820046e-01	 7.1647111038e-01
 9.1736084424e-01	 7.9557435650e-01	 5.6823812684e-01
 8.9829192782e-01	 8.1704414026e-01	 4.1618448729e-01
 8.7870957698e-01	 8.3806862539e-01	 2.6151887828e-01
 8.5862959156e-01	 8.5862959156e-01	 1.0551044069e-01
 8.3806862539e-01	 8.7870957698e-01	-5.0516244177e-02
 8.1704414026e-01	 8.9829192782e-01	-2.0518642226e-01
 7.9557435650e-01	 9.1736084424e-01	-3.5708063822e-01
 7.7367820046e-01	 9.3590142274e-01	-5.0474036135e-01
 7.5137524922e-01	 9.5389969466e-01	-6.4667371730e-01
 9.6512153393e-01	 7.6021455625e-01	 7.1244560199e-01
 9.4691152726e-01	 7.8277988323e-01	 5.6502914045e-01
 9.2815283422e-01	 8.0493362940e-01	 4.1452422670e-01
 9.0885958781e-01	 8.2665598737e-01	 2.6200926833e-01
 8.8904686684e-01	 8.4792780814e-01	 1.0860825299e-01
 8.6873065703e-01	 8.6873065703e-01	-4.4513515325e-02
 8.4792780814e-01	 8.8904686684e-01	-1.9615382587e-01
 8.2665598737e-01	 9.0885958781e-01	-3.4507807200e-01
 8.0493362940e-01	 9.2815283422e-01	-4.9002381985e-01
 7.8277988323e-01	 9.4691152726e-01	-6.2970539346e-01
 7.6021455625e-01	 9.6512153393e-01	-7.6281843770e-01
 9.7634336796e-01	 7.6905385916e-01	 5.7412658909e-01
 9.5792162664e-01	 7.9188156175e-01	 4.2286971713e-01
 9.3894481916e-01	 8.1429289793e-01	 2.7048177326e-01
 9.1942724286e-01	 8.3626782999e-01	 1.1793248118e-01
 8.9938415187e-01	 8.5778698629e-01	-3.3787773790e-02
 8.7883171779e-01	 8.7883171779e-01	-1.8367136462e-01
 8.5778698629e-01	 8.9938415187e-01	-3.3069678765e-01
 8.3626782999e-01	 9.1942724286e-01	-4.7383193684e-01
 8.1429289793e-01	 9.3894481916e-01	-6.1203725480e-01
 7.9188156175e-01	 9.5792162664e-01	-7.4426873252e-01
 7.6905385916e-01	 9.7634336796e-01	-8.6948073416e-01
 9.8756519807e-01	 7.7789315897e-01	 4.4435637301e-01
 9.6893172216e-01	 8.0098323709e-01	 2.8965255978e-01
 9.4973680033e-01	 8.2365216318e-01	 1.3583091958e-01
 9.2999489421e-01	 8.4587966925e-01	-1.6289505725e-02
 9.0972143329e-01	 8.6764616098e-01	-1.6589915396e-01
 8.8893277501e-01	 8.8893277501e-01	-3.1220012975e-01
 8.6764616098e-01	 9.0972143329e-01	-4.5440809293e-01
 8.4587966925e-01	 9.2999489421e-01	-5.9175382505e-01
 8.2365216318e-01	 9.4973680033e-01	-7.2348445731e-01
 8.0098323709e-01	 9.6893172216e-01	-8.4886434986e-01
 7.7789315897e-01	 9.8756519807e-01	-9.6717561943e-01
 9.9878702555e-01	 7.8673245672e-01	 3.2272470719e-01
 9.7994181512e-01	 8.1008491030e-01	 1.6504969868e-01
 9.6052877898e-01	 8.3301142625e-01	 1.0301348590e-02
 9.4056254310e-01	 8.5549150626e-01	-1.4089247887e-01
 9.2005871229e-01	 8.7750533338e-01	-2.8794865814e-01
 8.9903382988e-01	 8.9903382988e-01	-4.3032937461e-01
 8.7750533338e-01	 9.2005871229e-01	-5.6754211200e-01
 8.5549150626e-01	 9.4056254310e-01	-6.9913904841e-01
 8.3301142625e-01	 9.6052877898e-01	-8.2471586440e-01
 8.1008491030e-01	 9.7994181512e-01	-9.4390997619e-01
 7.8673245672e-01	 9.9878702555e-01	-1.0563982167e+00
 1.0100088517e+00	 7.9557175344e-01	 2.0883670000e-01
 9.9095190679e-01	 8.1918658245e-01	 4.8744790837e-02
 9.7132075637e-01	 8.4237068822e-01	-1.0636825662e-01
 9.5113019075e-01	 8.6510334215e-01	-2.5610481585e-01
 9.3039599009e-01	 8.8736450462e-01	-4.0015227498e-01
 9.0913488357e-01	 9.0913488357e-01	-5.3828161916e-01
 8.8736450462e-01	 9.3039599009e-01	-6.7034509990e-01
 8.6510334215e-01	 9.5113019075e-01	-7.9627300586e-01
 8.4237068822e-01	 9.7132075637e-01	-9.1606956290e-01
 8.1918658245e-01	 9.9095190679e-01	-1.0298080043e+00
 7.9557175344e-01	 1.0100088517e+00	-1.1376248651e+00
 7.0717861609e-01	 8.9779037395e-01	 9.5860654791e-02
 6.8582366495e-01	 9.1420732488e-01	-1.0563439254e-01
 6.6412432764e-01	 9.3009032415e-01	-3.1257656700e-01
 6.4210054532e-01	 9.4542902724e-01	-5.2339286219e-01
 6.1977264379e-01	 9.6021407437e-01	-7.3657182155e-01
 5.9716127332e-01	 9.7443710616e-01	-9.5066888703e-01
 5.7428734802e-01	 9.8809077496e-01	-1.1643109462e+00
 5.5117198494e-01	 1.0011687518e+00	-1.3762000703e+00
 5.2783644336e-01	 1.0136657292e+00	-1.5851164458e+00
 5.0430206465e-01	 1.0255774193e+00	-1.7899205140e+00
 4.8059021287e-01	 1.0369005487e+00	-1.9895543414e+00
 7.1601795922e-01	 9.0901225904e-01	-7.6205424046e-02
 6.9439608294e-01	 9.2563441281e-01	-2.6327836074e-01
 6.7242551587e-01	 9.4171594082e-01	-4.5400296828e-01
 6.5012644841e-01	 9.5724636925e-01	-6.4709917012e-01
 6.2751946041e-01	 9.7221622133e-01	-8.4137876295e-01
 6.0462546027e-01	 9.8661703318e-01	-1.0357480088e+00
 5.8146562350e-01	 1.0004413653e+00	-1.2292092431e+00
 5.5806133111e-01	 1.0136828097e+00	-1.4208615225e+00
 5.3443410812e-01	 1.0263359924e+00	-1.6099003476e+00
 5.1060556264e-01	 1.0383965721e+00	-1.7956165084e+00
 4.8659732577e-01	 1.0498612344e+00	-1.9773941070e+00
 7.2485729306e-01	 9.2023413234e-01	-2.3587106262e-01
 7.0296849194e-01	 9.3706148875e-01	-4.0943269054e-01
 6.8072669539e-01	 9.5334154529e-01	-5.8532540901e-01
 6.5815234307e-01	 9.6906369885e-01	-7.6246871116e-01
 6.3526626890e-01	 9.8421835568e-01	-9.3989572328e-01
 6.1208963938e-01	 9.9879694741e-01	-1.1167539815e+00
 5.8864389145e-01	 1.0127919427e+00	-1.2923050867e+00
 5.6495067005e-01	 1.0261968544e+00	-1.4659232812e+00
 5.4103176595e-01	 1.0390062422e+00	-1.6370930068e+00
 5.1690905401e-01	 1.0512157114e+00	-1.8054055115e+00
 4.9260443237e-01	 1.0628219064e+00	-1.9705545855e+00
 7.3369661865e-01	 9.3145599518e-01	-3.8377031389e-01
 7.1154089294e-01	 9.4848855402e-01	-5.4481102428e-01
 6.8902786716e-01	 9.6496713891e-01	-7.0728119230e-01
 6.6617823025e-01	 9.8088101743e-01	-8.7021009654e-01
 6.4301307015e-01	 9.9622047883e-01	-1.0327540458e+00
 6.1955381152e-01	 1.0109768503e+00	-1.1941962620e+00
 5.9582215269e-01	 1.0251425086e+00	-1.3539455466e+00
 5.7184000257e-01	 1.0387108874e+00	-1.5115337856e+00
 5.4762941763e-01	 1.0516764803e+00	-1.6666123629e+00
 5.2321253950e-01	 1.0640348387e+00	-1.8189475642e+00
 4.9861153337e-01	 1.0757825663e+00	-1.9684150630e+00
 7.4253593703e-01	 9.4267784885e-01	-5.2051048625e-01
 7.2011328694e-01	 9.5991560995e-01	-6.7009645241e-01
 6.9732903216e-01	 9.7659272303e-01	-8.2057591490e-01
 6.7420411086e-01	 9.9269832635e-01	-9.7100155932e-01
 6.5075986508e-01	 1.0082225922e+00	-1.1205583268e+00
 6.2701797757e-01	 1.0231567432e+00	-1.2685633063e+00
 6.0300040807e-01	 1.0374930643e+00	-1.4144643574e+00
 5.7872932945e-01	 1.0512249103e+00	-1.5578375217e+00
 5.5422706392e-01	 1.0643467080e+00	-1.6983832933e+00
 5.2951601985e-01	 1.0768539556e+00	-1.8359218324e+00
 5.0461862946e-01	 1.0887432157e+00	-1.9703872188e+00
 7.5137524922e-01	 9.5389969466e-01	-6.4667371730e-01
 7.2868567494e-01	 9.7134265789e-01	-7.8594331114e-01
 7.0563019134e-01	 9.8821829901e-01	-9.2588533272e-01
 6.8222998587e-01	 1.0045156270e+00	-1.0654927418e+00
 6.5850665459e-01	 1.0202246971e+00	-1.2038879897e+00
 6.3448213839e-01	 1.0353366276e+00	-1.3403238056e+00
 6.1017865843e-01	 1.0498436115e+00	-1.4741827029e+00
 5.8561865152e-01	 1.0637389243e+00	-1.6049752552e+00
 5.6082470559e-01	 1.0770169269e+00	-1.7323372052e+00
 5.3581949578e-01	 1.0896730634e+00	-1.8560254827e+00
 5.1062572134e-01	 1.1017038560e+00	-1.9759132204e+00
 7.6021455625e-01	 9.6512153393e-01	-7.6281843770e-01
 7.3725805793e-01	 9.8276969917e-01	-8.9297885470e-01
 7.1393134569e-01	 9.9984386822e-01	-1.0238570962e+00
 6.9025585619e-01	 1.0163329208e+00	-1.1543063580e+00
 6.6625343958e-01	 1.0322267951e+00	-1.2832987484e+00
 6.4194629486e-01	 1.0475165049e+00	-1.4099278355e+00
 6.1735690460e-01	 1.0621941514e+00	-1.5334099460e+00
 5.9250796956e-01	 1.0762529311e+00	-1.6530842473e+00
 5.6742234341e-01	 1.0896871383e+00	-1.7684116561e+00
 5.4212296803e-01	 1.1024921639e+00	-1.8789726353e+00
 5.1663280972e-01	 1.1146644887e+00	-1.9844639509e+00
 7.6905385916e-01	 9.7634336796e-01	-8.6948073416e-01
 7.4583043693e-01	 9.9419673511e-01	-9.9180481220e-01
 7.2223249615e-01	 1.0114694320e+00	-1.1151123659e+00
 6.9828172276e-01	 1.0281502090e+00	-1.2380397420e+00
 6.7400022096e-01	 1.0442288874e+00	-1.3593239706e+00
 6.4941044785e-01	 1.0596963765e+00	-1.4778079259e+00
 6.2453514743e-01	 1.0745446856e+00	-1.5924443088e+00
 5.9939728440e-01	 1.0887669320e+00	-1.7022984574e+00
 5.7401997816e-01	 1.1023573439e+00	-1.8065500006e+00
 5.4842643735e-01	 1.1153112583e+00	-1.9044933906e+00
 5.2263989530e-01	 1.1276251153e+00	-1.9955373590e+00
 7.7789315897e-01	 9.8756519807e-01	-9.6717561943e-01
 7.5440281293e-01	 1.0056237670e+00	-1.0829988384e+00
 7.3053364372e-01	 1.0230949917e+00	-1.2002473183e+00
 7.0630758653e-01	 1.0399674931e+00	-1.3172662899e+00
 6.8174699962e-01	 1.0562309756e+00	-1.4324759477e+00
 6.5687459822e-01	 1.0718762438e+00	-1.5443800587e+00
 6.3171338773e-01	 1.0868952154e+00	-1.6515735054e+00
 6.0628659682e-01	 1.1012809286e+00	-1.7527487300e+00
 5.8061761059e-01	 1.1150275450e+00	-1.8467010613e+00
 5.5472990445e-01	 1.1281303482e+00	-1.9323329209e+00
 5.2864697877e-01	 1.1405857375e+00	-2.0086569213e+00
 7.8673245672e-01	 9.9878702555e-01	-1.0563982167e+00
 7.6297518692e-01	 1.0170507963e+00	-1.1671158665e+00
 7.3883478934e-01	 1.0347205487e+00	-1.2798345494e+00
 7.1433344842e-01	 1.0517847745e+00	-1.3925368054e+00
 6.8949377648e-01	 1.0682330609e+00	-1.5032470792e+00
 6.6433874685e-01	 1.0840561083e+00	-1.6100445975e+00
 6.3889162637e-01	 1.0992457424e+00	-1.7110753325e+00
 6.1317590763e-01	 1.1137949222e+00	-1.8045629703e+00
 5.8721524149e-01	 1.1276977431e+00	-1.8888188214e+00
 5.6103337009e-01	 1.1409494352e+00	-1.9622506240e+00
 5.3465406084e-01	 1.1535463566e+00	-2.0233702086e+00
 7.9557175344e-01	 1.0100088517e+00	-1.1376248651e+00
 7.7154755992e-01	 1.0284778243e+00	-1.2446893713e+00
 7.4713593400e-01	 1.0463461043e+00	-1.3544243854e+00
 7.2235930937e-01	 1.0636020544e+00	-1.4643807551e+00
 6.9724055243e-01	 1.0802351449e+00	-1.5721109779e+00
 6.7180289461e-01	 1.0962359714e+00	-1.6751871553e+00
 6.4606986416e-01	 1.1115962679e+00	-1.7712182208e+00
 6.2006521764e-01	 1.1263089144e+00	-1.8578663077e+00
 5.9381287161e-01	 1.1403679398e+00	-1.9328621387e+00
 5.6733683499e-01	 1.1537685207e+00	-1.9940193332e+00
 5.4066114221e-01	 1.1665069742e+00	-2.0392475473e+00
 4.8059021287e-01	 1.0369005487e+00	-1.9895543414e+00
 4.5672389122e-01	 1.0476321190e+00	-2.1862635855e+00
 4.3272267244e-01	 1.0577716711e+00	-2.3816641803e+00
 4.0860763499e-01	 1.0673189073e+00	-2.5738666664e+00
 3.8439965732e-01	 1.0762744826e+00	-2.7611104038e+00
 3.6011936715e-01	 1.0846399814e+00	-2.9417690358e+00
 3.3578709316e-01	 1.0924178900e+00	-3.1143546999e+00
 3.1142281934e-01	 1.0996115674e+00	-3.2775210197e+00
 2.8704614204e-01	 1.1062252131e+00	-3.4300649215e+00
 2.6267623005e-01	 1.1122638330e+00	-3.5709273287e+00
 2.3833178755e-01	 1.1177332028e+00	-3.6991927977e+00
 4.8659732577e-01	 1.0498612344e+00	-1.9773941070e+00
 4.6243268825e-01	 1.0607269434e+00	-2.1578426523e+00
 4.3813146746e-01	 1.0709932343e+00	-2.3385090775e+00
 4.1371500533e-01	 1.0806598056e+00	-2.5172912193e+00
 3.8920444128e-01	 1.0897273208e+00	-2.6921970854e+00
 3.6462066085e-01	 1.0981973836e+00	-2.8613533468e+00
 3.3998424684e-01	 1.1060725118e+00	-3.0230125639e+00
 3.1531543302e-01	 1.1133561062e+00	-3.1755591566e+00
 2.9063406069e-01	 1.1200524189e+00	-3.3175141326e+00
 2.6595953822e-01	 1.1261665182e+00	-3.4475386082e+00
 2.4131080360e-01	 1.1317042520e+00	-3.5644361610e+00
 4.9260443237e-01	 1.0628219064e+00	-1.9705545855e+00
 4.6814147929e-01	 1.0738217540e+00	-2.1353181263e+00
 4.4354025681e-01	 1.0842147836e+00	-2.3011429848e+00
 4.1882237031e-01	 1.0940006900e+00	-2.4658306447e+00
 3.9400922018e-01	 1.1031801447e+00	-2.6272779778e+00
 3.6912194983e-01	 1.1117547717e+00	-2.7834877081e+00
 3.4418139612e-01	 1.1197271193e+00	-2.9325776188e+00
 3.1920804261e-01	 1.1271006306e+00	-3.0727884918e+00
 2.9422197556e-01	 1.1338796101e+00	-3.2024907798e+00
 2.6924284294e-01	 1.1400691888e+00	-3.3201900256e+00
 2.4428981652e-01	 1.1456752867e+00	-3.4245310548e+00
 4.9861153337e-01	 1.0757825663e+00	-1.9684150630e+00
 4.7385026501e-01	 1.0869165524e+00	-2.1177993810e+00
 4.4894904110e-01	 1.0974363205e+00	-2.2684438361e+00
 4.2392973052e-01	 1.1073415619e+00	-2.4181653956e+00
 3.9881399461e-01	 1.1166329562e+00	-2.5648654343e+00
 3.7362323460e-01	 1.1253121470e+00	-2.7065411364e+00
 3.4837854147e-01	 1.1333817140e+00	-2.8412956687e+00
 3.2310064857e-01	 1.1408451422e+00	-2.9673471044e+00
 2.9780988709e-01	 1.1477067885e+00	-3.0830360879e+00
 2.7252614460e-01	 1.1539718464e+00	-3.1868322456e+00
 2.4726882666e-01	 1.1596463082e+00	-3.2773393605e+00
 5.0461862946e-01	 1.0887432157e+00	-1.9703872188e+00
 4.7955904606e-01	 1.1000113401e+00	-2.1044409276e+00
 4.5435782098e-01	 1.1106578467e+00	-2.2393456093e+00
 4.2903708656e-01	 1.1206824229e+00	-2.3730412521e+00
 4.0361876511e-01	 1.1300857566e+00	-2.5035450139e+00
 3.7812451570e-01	 1.1388695113e+00	-2.6289625476e+00
 3.5257568340e-01	 1.1470362976e+00	-2.7474981479e+00
 3.2699325135e-01	 1.1545896425e+00	-2.8574636927e+00
 3.0139779569e-01	 1.1615339555e+00	-2.9572863690e+00
 2.7580944357e-01	 1.1678744926e+00	-3.0455151863e+00
 2.5024783437e-01	 1.1736173184e+00	-3.1208262910e+00
 5.1062572134e-01	 1.1017038560e+00	-1.9759132204e+00
 4.8526782311e-01	 1.1131061186e+00	-2.0944397608e+00
 4.5976659707e-01	 1.1238793636e+00	-2.2128350302e+00
 4.3414443902e-01	 1.1340232746e+00	-2.3292654793e+00
 4.0842353225e-01	 1.1435385477e+00	-2.4419711748e+00
 3.8262579365e-01	 1.1524268661e+00	-2.5492760572e+00
 3.5677282240e-01	 1.1606908716e+00	-2.6495970847e+00
 3.3088585141e-01	 1.1683341332e+00	-2.7414522451e+00
 3.0498570177e-01	 1.1753611129e+00	-2.8234674307e+00
 2.7909274025e-01	 1.1817771291e+00	-2.8943821811e+00
 2.5322683999e-01	 1.1875883188e+00	-2.9530543134e+00
 5.1663280972e-01	 1.1146644887e+00	-1.9844639509e+00
 4.9097659684e-01	 1.1262008895e+00	-2.0870328886e+00
 4.6517537001e-01	 1.1371008728e+00	-2.1879485062e+00
 4.3925178850e-01	 1.1473641185e+00	-2.2857032523e+00
 4.1322829658e-01	 1.1569913309e+00	-2.3788632695e+00
 3.8712706897e-01	 1.1659842130e+00	-2.4660766090e+00
 3.6096995894e-01	 1.1743454377e+00	-2.5460804156e+00
 3.3477844920e-01	 1.1820786159e+00	-2.6177070815e+00
 3.0857360577e-01	 1.1891882622e+00	-2.6798893730e+00
 2.8237603501e-01	 1.1956797576e+00	-2.7316645489e+00
 2.5620584387e-01	 1.2015593110e+00	-2.7721774955e+00
 5.2263989530e-01	 1.1276251153e+00	-1.9955373590e+00
 4.9668536790e-01	 1.1392956543e+00	-2.0814950330e+00
 4.7058414042e-01	 1.1503223758e+00	-2.1637692707e+00
 4.4435913560e-01	 1.1607049561e+00	-2.2412743289e+00
 4.1803305867e-01	 1.1704441078e+00	-2.3130018159e+00
 3.9162834219e-01	 1.1795415536e+00	-2.3780259049e+00
 3.6516709353e-01	 1.1879999974e+00	-2.4355076241e+00
 3.3867104517e-01	 1.1958230922e+00	-2.4846982373e+00
 3.1216150809e-01	 1.2030154050e+00	-2.5249417453e+00
 2.8565932825e-01	 1.2095823795e+00	-2.5556765382e+00
 2.5918484637e-01	 1.2155302967e+00	-2.5764362424e+00
 5.2864697877e-01	 1.1405857375e+00	-2.0086569213e+00
 5.0239413696e-01	 1.1523904145e+00	-2.0771364875e+00
 4.7599290894e-01	 1.1635438742e+00	-2.1394247234e+00
 4.4946648092e-01	 1.1740457891e+00	-2.1949499488e+00
 4.2283781909e-01	 1.1838968800e+00	-2.2432250217e+00
 3.9612961384e-01	 1.1930988894e+00	-2.2838486126e+00
 3.6936422664e-01	 1.2016545523e+00	-2.3165056757e+00
 3.4256363978e-01	 1.2095675637e+00	-2.3409671627e+00
 3.1574940915e-01	 1.2168425430e+00	-2.3570890327e+00
 2.8894262033e-01	 1.2234849965e+00	-2.3648106162e+00
 2.6216384782e-01	 1.2295012776e+00	-2.3641523924e+00
 5.3465406084e-01	 1.1535463566e+00	-2.0233702086e+00
 5.0810290469e-01	 1.1654851716e+00	-2.0733011191e+00
 4.8140167620e-01	 1.1767653695e+00	-2.1140839493e+00
 4.5457382504e-01	 1.1873866190e+00	-2.1457499414e+00
 4.2764257838e-01	 1.1973496491e+00	-2.1684255448e+00
 4.0063088444e-01	 1.2066562220e+00	-2.1823288286e+00
 3.7356135878e-01	 1.2153091040e+00	-2.1877652280e+00
 3.4645623348e-01	 1.2233120320e+00	-2.1851227107e+00
 3.1933730938e-01	 1.2306696778e+00	-2.1748664474e+00
 2.9222591164e-01	 1.2373876103e+00	-2.1575330758e+00
 2.6514284858e-01	 1.2434722551e+00	-2.1337246428e+00
 5.4066114221e-01	 1.1665069742e+00	-2.0392475473e+00
 5.1381167176e-01	 1.1785799272e+00	-2.0693645030e+00
 4.8681044283e-01	 1.1899868632e+00	-2.0869554029e+00
 4.5968116857e-01	 1.2007274473e+00	-2.0927400269e+00
 4.3244733711e-01	 1.2108024166e+00	-2.0875474683e+00
 4.0513215451e-01	 1.2202135531e+00	-2.0723067773e+00
 3.7775849043e-01	 1.2289636542e+00	-2.0480370927e+00
 3.5034882672e-01	 1.2370564986e+00	-2.0158373941e+00
 3.2292520919e-01	 1.2444968109e+00	-1.9768760000e+00
 2.9550920258e-01	 1.2512902225e+00	-1.9562633754e+00
 2.6812184899e-01	 1.2574432311e+00	-2.0227602014e+00
 2.3833178755e-01	 1.1177332028e+00	-3.6991927977e+00
 2.1402932525e-01	 1.1226401542e+00	-3.8150859344e+00
 1.8978824910e-01	 1.1269914870e+00	-3.9192092180e+00
 1.6562570557e-01	 1.1307950562e+00	-4.0114869515e+00
 1.4155825826e-01	 1.1340593282e+00	-4.0920231529e+00
 1.1760186658e-01	 1.1367933383e+00	-4.1610916263e+00
 9.3771867651e-02	 1.1390066486e+00	-4.2191254089e+00
 7.0082961219e-02	 1.1407093057e+00	-4.2667057255e+00
 4.6549197565e-02	 1.1419117979e+00	-4.3045505773e+00
 2.3183968311e-02	 1.1426250134e+00	-4.3335030857e+00
 0.0000000000e+00	 1.1428601985e+00	-4.3545197043e+00
 2.4131080360e-01	 1.1317042520e+00	-3.5644361610e+00
 2.1670457391e-01	 1.1366725377e+00	-3.6684614489e+00
 1.9216049766e-01	 1.1410782597e+00	-3.7607610288e+00
 1.6769593565e-01	 1.1449293715e+00	-3.8417117781e+00
 1.4332765851e-01	 1.1482344451e+00	-3.9118220214e+00
 1.1907182513e-01	 1.1510026287e+00	-3.9717211160e+00
 9.4943964336e-02	 1.1532436042e+00	-4.0221487935e+00
 7.0958959624e-02	 1.1549675436e+00	-4.0639443670e+00
 4.7131036890e-02	 1.1561850663e+00	-4.0980359057e+00
 2.3473755142e-02	 1.1569071966e+00	-4.1254294741e+00
 0.0000000000e+00	 1.1571453214e+00	-4.1471985208e+00
 2.4428981652e-01	 1.1456752867e+00	-3.4245310548e+00
 2.1937981975e-01	 1.1507049064e+00	-3.5157968988e+00
 1.9453274372e-01	 1.1551650177e+00	-3.5955539937e+00
 1.6976616355e-01	 1.1590636719e+00	-3.6645712057e+00
 1.4509705689e-01	 1.1624095470e+00	-3.7237049661e+00
 1.2054178213e-01	 1.1652119043e+00	-3.7738885200e+00
 9.6116059790e-02	 1.1674805449e+00	-3.8161212698e+00
 7.1834957109e-02	 1.1692257666e+00	-3.8514583026e+00
 4.7712875603e-02	 1.1704583197e+00	-3.8810001843e+00
 2.3763541668e-02	 1.1711893648e+00	-3.9058830893e+00
 0.0000000000e+00	 1.1714304292e+00	-3.9272693312e+00
 2.4726882666e-01	 1.1596463082e+00	-3.2773393605e+00
 2.2205506311e-01	 1.1647372620e+00	-3.3548741688e+00
 1.9690498758e-01	 1.1692517625e+00	-3.4213101740e+00
 1.7183638952e-01	 1.1731979592e+00	-3.4777496250e+00
 1.4686645362e-01	 1.1765846358e+00	-3.5253427038e+00
 1.2201173775e-01	 1.1794211666e+00	-3.5652765828e+00
 9.7288154151e-02	 1.1817174723e+00	-3.5987648761e+00
 7.2710953776e-02	 1.1834839762e+00	-3.6270375563e+00
 4.8294713773e-02	 1.1847315598e+00	-3.6513313984e+00
 2.4053327925e-02	 1.1854715197e+00	-3.6728809999e+00
 0.0000000000e+00	 1.1857155238e+00	-3.6929104172e+00
 2.5024783437e-01	 1.1736173184e+00	-3.1208262910e+00
 2.2473030427e-01	 1.1787696062e+00	-3.1835821334e+00
 1.9927722950e-01	 1.1833384958e+00	-3.2358613168e+00
 1.7390661380e-01	 1.1873322348e+00	-3.2790427531e+00
 1.4863584891e-01	 1.1907597130e+00	-3.3145177755e+00
 1.2348169218e-01	 1.1936304173e+00	-3.3436791472e+00
 9.8460247554e-02	 1.1959543881e+00	-3.3679107262e+00
 7.3586949728e-02	 1.1977421742e+00	-3.3885778392e+00
 4.8876551468e-02	 1.1990047883e+00	-3.4070184075e+00
 2.4343113944e-02	 1.1997536629e+00	-3.4245348555e+00
 0.0000000000e+00	 1.2000006067e+00	-3.4423868217e+00
 2.5322683999e-01	 1.1875883188e+00	-2.9530543134e+00
 2.2740554357e-01	 1.1928019406e+00	-2.9999103642e+00
 2.0164946975e-01	 1.1974252192e+00	-3.0371424038e+00
 1.7597683663e-01	 1.2014665006e+00	-3.0663510859e+00
 1.5040524296e-01	 1.2049347802e+00	-3.0891179691e+00
 1.2495164558e-01	 1.2078396580e+00	-3.1069946200e+00
 9.9632340137e-02	 1.2101912939e+00	-3.1214925940e+00
 7.4462945067e-02	 1.2120003622e+00	-3.1340743344e+00
 4.9458388756e-02	 1.2132780067e+00	-3.1461450124e+00
 2.4632899761e-02	 1.2140357961e+00	-3.1590453245e+00
 0.0000000000e+00	 1.2142856796e+00	-3.1740452463e+00
 2.5620584387e-01	 1.2015593110e+00	-2.7721774955e+00
 2.3008078130e-01	 1.2068342668e+00	-2.8019432763e+00
 2.0402170863e-01	 1.2115119344e+00	-2.8231856504e+00
 1.7804705825e-01	 1.2156007582e+00	-2.8376738072e+00
 1.5217463598e-01	 1.2191098392e+00	-2.8471302021e+00
 1.2642159812e-01	 1.2220488905e+00	-2.8532198941e+00
 1.0080443204e-01	 1.2244281914e+00	-2.8575409460e+00
 7.5338939895e-02	 1.2262585419e+00	-2.8616159140e+00
 5.0040225705e-02	 1.2275512168e+00	-2.8668844365e+00
 2.4922685409e-02	 1.2283179210e+00	-2.8746969196e+00
 0.0000000000e+00	 1.2285707441e+00	-2.8863093051e+00
 2.5918484637e-01	 1.2155302967e+00	-2.5764362424e+00
 2.3275601779e-01	 1.2208665864e+00	-2.5878546785e+00
 2.0639394639e-01	 1.2255986431e+00	-2.5921149187e+00
 1.8011727891e-01	 1.2297350091e+00	-2.5911031182e+00
 1.5394402817e-01	 1.2332848916e+00	-2.5866348251e+00
 1.2789154998e-01	 1.2362581163e+00	-2.5804446896e+00
 1.0197652339e-01	 1.2386650823e+00	-2.5741773854e+00
 7.6214934315e-02	 1.2405167149e+00	-2.5693797567e+00
 5.0622062382e-02	 1.2418244203e+00	-2.5674941881e+00
 2.5212470921e-02	 1.2426000392e+00	-2.5698531806e+00
 0.0000000000e+00	 1.2428558020e+00	-2.5776751050e+00
 2.6216384782e-01	 1.2295012776e+00	-2.3641523924e+00
 2.3543125334e-01	 1.2348989011e+00	-2.3559026958e+00
 2.0876618333e-01	 1.2396853468e+00	-2.3421405114e+00
 1.8218749884e-01	 1.2438692551e+00	-2.3248189537e+00
 1.5571341975e-01	 1.2474599390e+00	-2.3058003148e+00
 1.2936150132e-01	 1.2504673372e+00	-2.2958305558e+00
 1.0314861433e-01	 1.2529019682e+00	-2.3257026984e+00
 7.7090928428e-02	 1.2547748830e+00	-2.3483661724e+00
 5.1203898855e-02	 1.2560976188e+00	-2.3652348552e+00
 2.5502256333e-02	 1.2568821524e+00	-2.3776474146e+00
 0.0000000000e+00	 1.2571408549e+00	-2.3868634700e+00
 2.6514284858e-01	 1.2434722551e+00	-2.1337246428e+00
 2.3810648826e-01	 1.2489312125e+00	-2.1044250330e+00
 2.1113841971e-01	 1.2537720472e+00	-2.1429774662e+00
 1.8425771829e-01	 1.2580034978e+00	-2.1897890917e+00
 1.5748281091e-01	 1.2616349830e+00	-2.2264299411e+00
 1.3083145232e-01	 1.2646765547e+00	-2.2544747749e+00
 1.0432070500e-01	 1.2671388507e+00	-2.2754258848e+00
 7.7966922337e-02	 1.2690330477e+00	-2.2907078927e+00
 5.1785735194e-02	 1.2703708139e+00	-2.3016633385e+00
 2.5792041677e-02	 1.2711642623e+00	-2.3095490413e+00
 0.0000000000e+00	 1.2714259045e+00	-2.3155332142e+00
 2.6812184899e-01	 1.2574432311e+00	-2.0227602014e+00
 2.4078172288e-01	 1.2629635224e+00	-2.0763943176e+00
 2.1351065582e-01	 1.2678587460e+00	-2.1185298911e+00
 1.8632793750e-01	 1.2721377389e+00	-2.1508144324e+00
 1.5925220186e-01	 1.2758100255e+00	-2.1748244204e+00
 1.3230140315e-01	 1.2788857706e+00	-2.1920594258e+00
 1.0549279553e-01	 1.2813757316e+00	-2.2039370519e+00
 7.8842916145e-02	 1.2832912108e+00	-2.2117886819e+00
 5.2367571465e-02	 1.2846440074e+00	-2.2168560169e+00
 2.6081826987e-02	 1.2854463705e+00	-2.2202883820e+00
 0.0000000000e+00	 1.2857109524e+00	-2.2231407715e+00
 1.2857109524e+00	 0.0000000000e+00	 3.0087066769e+00
 1.2854463705e+00	 2.6081826987e-02	 3.0097516920e+00
 1.2846440074e+00	 5.2367571465e-02	 3.0014163634e+00
 1.2832912108e+00	 7.8842916145e-02	 2.9835305001e+00
 1.2813757316e+00	 1.0549279553e-01	 2.9559720757e+00
 1.2788857706e+00	 1.3230140315e-01	 2.9186712067e+00
 1.2758100255e+00	 1.5925220186e-01	 2.8716141083e+00
 1.2721377389e+00	 1.8632793750e-01	 2.8148469911e+00
 1.2678587460e+00	 2.1351065582e-01	 2.7484798595e+00
 1.2629635224e+00	 2.4078172288e-01	 2.6726901699e+00
 1.2574432311e+00	 2.6812184899e-01	 2.5877263026e+00
 1.2999969994e+00	 0.0000000000e+00	 3.0798635067e+00
 1.2997294777e+00	 2.6371632567e-02	 3.0791942384e+00
 1.2989181992e+00	 5.2949448433e-02	 3.0696441074e+00
 1.2975503711e+00	 7.9718971224e-02	 3.0510074861e+00
 1.2956136083e+00	 1.0666496805e-01	 3.0231344790e+00
 1.2930959804e+00	 1.3377145680e-01	 2.9859356139e+00
 1.2899860594e+00	 1.6102171658e-01	 2.9393864945e+00
 1.2862729685e+00	 1.8839830152e-01	 2.8835323701e+00
 1.2819464301e+00	 2.1588305785e-01	 2.8184925756e+00
 1.2769968137e+00	 2.4345714461e-01	 2.7444647914e+00
 1.2714151842e+00	 2.7110105776e-01	 2.6617290690e+00
 1.3142830432e+00	 0.0000000000e+00	 3.1439700013e+00
 1.3140125816e+00	 2.6661438079e-02	 3.1416585034e+00
 1.3131923877e+00	 5.3531325265e-02	 3.1307767114e+00
 1.3118095281e+00	 8.0595026100e-02	 3.1111229835e+00
 1.3098514817e+00	 1.0783714029e-01	 3.0825571769e+00
 1.3073061868e+00	 1.3524151010e-01	 3.0450056742e+00
 1.3041620900e+00	 1.6279123088e-01	 2.9984663475e+00
 1.3004081949e+00	 1.9046866504e-01	 2.9430134123e+00
 1.2960341109e+00	 2.1825545933e-01	 2.8788021189e+00
 1.2910301017e+00	 2.4613256572e-01	 2.8060732264e+00
 1.2853871341e+00	 2.7408026585e-01	 2.7251572018e+00
 1.3285690802e+00	 0.0000000000e+00	 3.2003800172e+00
 1.3282956788e+00	 2.6951243456e-02	 3.1966525636e+00
 1.3274665695e+00	 5.4113201826e-02	 3.1844568386e+00
 1.3260686785e+00	 8.1471080567e-02	 3.1636332991e+00
 1.3240893484e+00	 1.0900931199e-01	 3.1340879079e+00
 1.3215163866e+00	 1.3671156272e-01	 3.0957971244e+00
 1.3183381140e+00	 1.6456074436e-01	 3.0488128015e+00
 1.3145434147e+00	 1.9253902761e-01	 2.9932669425e+00
 1.3101217851e+00	 2.2062785971e-01	 2.9293762607e+00
 1.3050633832e+00	 2.4880798558e-01	 2.8574464888e+00
 1.2993590775e+00	 2.7705947254e-01	 2.7778763766e+00
 1.3428551073e+00	 0.0000000000e+00	 3.2484748852e+00
 1.3425787660e+00	 2.7241048630e-02	 3.2437054809e+00
 1.3417407413e+00	 5.4695077980e-02	 3.2303424851e+00
 1.3403278189e+00	 8.2347134421e-02	 3.2083053131e+00
 1.3383272052e+00	 1.1018148287e-01	 3.1775811717e+00
 1.3357265764e+00	 1.3818161430e-01	 3.1382296484e+00
 1.3325141281e+00	 1.6633025660e-01	 3.0903871719e+00
 1.3286786246e+00	 1.9460938872e-01	 3.0342712954e+00
 1.3242094494e+00	 2.2300025842e-01	 2.9701847505e+00
 1.3190966548e+00	 2.5148340357e-01	 2.8985192180e+00
 1.3133310111e+00	 2.8003867715e-01	 2.8197587578e+00
 1.3571411210e+00	 0.0000000000e+00	 3.2876619634e+00
 1.3568618399e+00	 2.7530853534e-02	 3.2823661968e+00
 1.3560148998e+00	 5.5276953591e-02	 3.2681061719e+00
 1.3545869460e+00	 8.3223187458e-02	 3.2449159222e+00
 1.3525650487e+00	 1.1135365265e-01	 3.2128978724e+00
 1.3499367530e+00	 1.3965166452e-01	 3.1722266691e+00
 1.3466901289e+00	 1.6809976719e-01	 3.1231528399e+00
 1.3428138213e+00	 1.9667974790e-01	 3.0660062362e+00
 1.3382971007e+00	 2.2537265492e-01	 3.0011992113e+00
 1.3331299134e+00	 2.5415881906e-01	 2.9292294870e+00
 1.3273029316e+00	 2.8301787897e-01	 2.8506826563e+00
 1.3714271181e+00	 0.0000000000e+00	 3.3173732811e+00
 1.3711448971e+00	 2.7820658100e-02	 3.3122024958e+00
 1.3702890417e+00	 5.5858828523e-02	 3.2974341878e+00
 1.3688460564e+00	 8.4099239472e-02	 3.2732515170e+00
 1.3668028755e+00	 1.1252582106e-01	 3.2399049845e+00
 1.3641469131e+00	 1.4112171302e-01	 3.1977151524e+00
 1.3608661132e+00	 1.6986927572e-01	 3.1470751444e+00
 1.3569490015e+00	 1.9875010467e-01	 3.0884528848e+00
 1.3523847354e+00	 2.2774504865e-01	 3.0223930404e+00
 1.3471631556e+00	 2.5683423144e-01	 2.9495186225e+00
 1.3412748358e+00	 2.8599707732e-01	 2.8705322082e+00
 1.3857130952e+00	 0.0000000000e+00	 3.3370642654e+00
 1.3854279343e+00	 2.8110462260e-02	 3.3328000339e+00
 1.3845631636e+00	 5.6440702641e-02	 3.3180258787e+00
 1.3831051469e+00	 8.4975290260e-02	 3.2931074919e+00
 1.3810406825e+00	 1.1369798784e-01	 3.2584752389e+00
 1.3783570532e+00	 1.4259175946e-01	 3.2146254244e+00
 1.3750420777e+00	 1.7163878176e-01	 3.1621212797e+00
 1.3710841619e+00	 2.0082045854e-01	 3.1015936453e+00
 1.3664723505e+00	 2.3011743906e-01	 3.0337413182e+00
 1.3611963781e+00	 2.5950964006e-01	 2.9593310369e+00
 1.3552467205e+00	 2.8897627150e-01	 2.8791970741e+00
 1.3999990489e+00	 0.0000000000e+00	 3.3462125471e+00
 1.3997109481e+00	 2.8400265947e-02	 3.3437614253e+00
 1.3988372621e+00	 5.7022575808e-02	 3.3295929809e+00
 1.3973642141e+00	 8.5851339617e-02	 3.3042877845e+00
 1.3952784662e+00	 1.1487015270e-01	 3.2684868288e+00
 1.3925671701e+00	 1.4406180351e-01	 3.2228909985e+00
 1.3892180190e+00	 1.7340828492e-01	 3.1682602007e+00
 1.3852192993e+00	 2.0289080902e-01	 3.1054121395e+00
 1.3805599425e+00	 2.3248982560e-01	 3.0352207205e+00
 1.3752295777e+00	 2.6218504432e-01	 2.9586140694e+00
 1.3692185824e+00	 2.9195546082e-01	 2.8765721557e+00
 1.4142849760e+00	 0.0000000000e+00	 3.3443168383e+00
 1.4139939354e+00	 2.8690069092e-02	 3.3447053856e+00
 1.4131113340e+00	 5.7604447888e-02	 3.3318589940e+00
 1.4116232547e+00	 8.6727387339e-02	 3.3066044439e+00
 1.4095162233e+00	 1.1604231537e-01	 3.2698231326e+00
 1.4067772605e+00	 1.4553184480e-01	 3.2224484142e+00
 1.4033939338e+00	 1.7517778477e-01	 3.1654625327e+00
 1.3993544102e+00	 2.0496115564e-01	 3.0998931452e+00
 1.3946475083e+00	 2.3486220770e-01	 3.0268094376e+00
 1.3892627511e+00	 2.6486044358e-01	 2.9473178375e+00
 1.3831904182e+00	 2.9493464457e-01	 2.8625573307e+00
 1.4285708730e+00	 0.0000000000e+00	 3.3308958768e+00
 1.4282768926e+00	 2.8979871629e-02	 3.3352659251e+00
 1.4273853760e+00	 5.8186318747e-02	 3.3245585923e+00
 1.4258822653e+00	 8.7603433220e-02	 3.2998772242e+00
 1.4237539505e+00	 1.1721447557e-01	 3.2623724541e+00
 1.4209873210e+00	 1.4700188301e-01	 3.2132370847e+00
 1.4175698189e+00	 1.7694728091e-01	 3.1537004874e+00
 1.4134894915e+00	 2.0703149792e-01	 3.0850225367e+00
 1.4087350444e+00	 2.3723458483e-01	 3.0084870979e+00
 1.4032958951e+00	 2.6753583722e-01	 2.9253950976e+00
 1.3971622246e+00	 2.9791382207e-01	 2.8370572030e+00
 1.2574432311e+00	 2.6812184899e-01	 2.5877263026e+00
 1.2512902225e+00	 2.9550920258e-01	 2.4912009338e+00
 1.2444968109e+00	 3.2292520919e-01	 2.4457400552e+00
 1.2370564986e+00	 3.5034882672e-01	 2.4037795736e+00
 1.2289636542e+00	 3.7775849043e-01	 2.3496725874e+00
 1.2202135531e+00	 4.0513215451e-01	 2.2836643205e+00
 1.2108024166e+00	 4.3244733711e-01	 2.2060585857e+00
 1.2007274473e+00	 4.5968116857e-01	 2.1172166515e+00
 1.1899868632e+00	 4.8681044283e-01	 2.0175555317e+00
 1.1785799272e+00	 5.1381167176e-01	 1.9075456998e+00
 1.1665069742e+00	 5.4066114221e-01	 1.7877082430e+00
 1.2714151842e+00	 2.7110105776e-01	 2.6617290690e+00
 1.2651938071e+00	 2.9879272316e-01	 2.5676709321e+00
 1.2583249112e+00	 3.2651335995e-01	 2.4597737128e+00
 1.2508019267e+00	 3.5424169224e-01	 2.3385569955e+00
 1.2426191594e+00	 3.8195591565e-01	 2.2836044718e+00
 1.2337718325e+00	 4.0963373942e-01	 2.2247344673e+00
 1.2242561250e+00	 4.3725243191e-01	 2.1530889506e+00
 1.2140692088e+00	 4.6478886933e-01	 2.0688330940e+00
 1.2032092818e+00	 4.9221958777e-01	 1.9721887213e+00
 1.1916755987e+00	 5.1952083812e-01	 1.8634336069e+00
 1.1794684983e+00	 5.4666864375e-01	 1.7429002627e+00
 1.2853871341e+00	 2.7408026585e-01	 2.7251572018e+00
 1.2790973885e+00	 3.0207624298e-01	 2.6331938836e+00
 1.2721530083e+00	 3.3010150988e-01	 2.5272846076e+00
 1.2645473515e+00	 3.5813455684e-01	 2.4077962472e+00
 1.2562746614e+00	 3.8615333988e-01	 2.2751059401e+00
 1.2473301086e+00	 4.1413532329e-01	 2.1567139335e+00
 1.2377098303e+00	 4.4205752558e-01	 2.0910946275e+00
 1.2274109671e+00	 4.6989656889e-01	 2.0116893369e+00
 1.2164316972e+00	 4.9762873145e-01	 1.9185678312e+00
 1.2047712672e+00	 5.2523000315e-01	 1.8118601114e+00
 1.1924300194e+00	 5.5267614389e-01	 1.6917565554e+00
 1.2993590775e+00	 2.7705947254e-01	 2.7778763766e+00
 1.2930009634e+00	 3.0535976126e-01	 2.6875620593e+00
 1.2859810990e+00	 3.3368965813e-01	 2.5832332475e+00
 1.2782927699e+00	 3.6202741963e-01	 2.4651334472e+00
 1.2699301571e+00	 3.9035076216e-01	 2.3335149016e+00
 1.2608883785e+00	 4.1863690505e-01	 2.1886414962e+00
 1.2511635294e+00	 4.4686261702e-01	 2.0307918873e+00
 1.2407527192e+00	 4.7500426608e-01	 1.9452910777e+00
 1.2296541065e+00	 5.0303787261e-01	 1.8561829365e+00
 1.2178669296e+00	 5.3093916552e-01	 1.7523034672e+00
 1.2053915345e+00	 5.5868364122e-01	 1.6337459402e+00
 1.3133310111e+00	 2.8003867715e-01	 2.8197587578e+00
 1.3069045285e+00	 3.0864327725e-01	 2.7305774257e+00
 1.2998091799e+00	 3.3727780388e-01	 2.6273631943e+00
 1.2920381787e+00	 3.6592027970e-01	 2.5102645477e+00
 1.2835856432e+00	 3.9454818150e-01	 2.3794397450e+00
 1.2744466389e+00	 4.2313848366e-01	 2.2350606858e+00
 1.2646172190e+00	 4.5166770509e-01	 2.0773170348e+00
 1.2540944620e+00	 4.8011195969e-01	 1.9064205623e+00
 1.2428765065e+00	 5.0844700998e-01	 1.7845442192e+00
 1.2309625827e+00	 5.3664832389e-01	 1.6842624277e+00
 1.2183530405e+00	 5.6469113435e-01	 1.5683580266e+00
 1.3273029316e+00	 2.8301787897e-01	 2.8506826563e+00
 1.3208080807e+00	 3.1192679017e-01	 2.7620511335e+00
 1.3136372479e+00	 3.4086594627e-01	 2.6594297344e+00
 1.3057835747e+00	 3.6981313613e-01	 2.5428993116e+00
 1.2972411165e+00	 3.9874559693e-01	 2.4125540328e+00
 1.2880048866e+00	 4.2764005807e-01	 2.2685060817e+00
 1.2780708960e+00	 4.5647278868e-01	 2.1108906253e+00
 1.2674361923e+00	 4.8521964853e-01	 1.9398709976e+00
 1.2560988942e+00	 5.1385614230e-01	 1.7556440419e+00
 1.2440582237e+00	 5.4235747694e-01	 1.6072551656e+00
 1.2313145343e+00	 5.7069862187e-01	 1.4951021200e+00
 1.3412748358e+00	 2.8599707732e-01	 2.8705322082e+00
 1.3347116167e+00	 3.1521029926e-01	 2.7818030385e+00
 1.3274652999e+00	 3.4445408448e-01	 2.6791992679e+00
 1.3195289546e+00	 3.7370598802e-01	 2.5627605920e+00
 1.3108965739e+00	 4.0294300746e-01	 2.4325460054e+00
 1.3015631185e+00	 4.3214162723e-01	 2.2886392146e+00
 1.2915245574e+00	 4.6127786666e-01	 2.1311542980e+00
 1.2807779071e+00	 4.9032733141e-01	 1.9602415583e+00
 1.2693212665e+00	 5.1926526832e-01	 1.7760934998e+00
 1.2571538494e+00	 5.4806662332e-01	 1.5789508597e+00
 1.2442760131e+00	 5.7670610238e-01	 1.4135061953e+00
 1.3552467205e+00	 2.8897627150e-01	 2.8791970741e+00
 1.3486151331e+00	 3.1849380376e-01	 2.7896612517e+00
 1.3412933324e+00	 3.4804221766e-01	 2.6864487345e+00
 1.3332743153e+00	 3.7759883446e-01	 2.5695836566e+00
 1.3245520122e+00	 4.0714041211e-01	 2.4391178234e+00
 1.3151213314e+00	 4.3664319009e-01	 2.2951367135e+00
 1.3049781999e+00	 4.6608293792e-01	 2.1377656862e+00
 1.2941196032e+00	 4.9543500715e-01	 1.9671763294e+00
 1.2825436203e+00	 5.2467438676e-01	 1.7835928754e+00
 1.2702494568e+00	 5.5377576171e-01	 1.5872986047e+00
 1.2572374737e+00	 5.8271357448e-01	 1.3786421543e+00
 1.3692185824e+00	 2.9195546082e-01	 2.8765721557e+00
 1.3625186269e+00	 3.2177730289e-01	 2.7854617172e+00
 1.3551213424e+00	 3.5163034498e-01	 2.6809650748e+00
 1.3470196535e+00	 3.8149167454e-01	 2.5631155534e+00
 1.3382074282e+00	 4.1133780990e-01	 2.4319848561e+00
 1.3286795221e+00	 4.4114474559e-01	 2.2876895349e+00
 1.3184318205e+00	 4.7088800132e-01	 2.1303976006e+00
 1.3074612775e+00	 5.0054267454e-01	 1.9603351986e+00
 1.2957659524e+00	 5.3008349636e-01	 1.7777932690e+00
 1.2833450427e+00	 5.5948489078e-01	 1.5831341067e+00
 1.2701989132e+00	 5.8872103677e-01	 1.3767977290e+00
 1.3831904182e+00	 2.9493464457e-01	 2.8625573307e+00
 1.3764220947e+00	 3.2506079589e-01	 2.7690478158e+00
 1.3689493265e+00	 3.5521846561e-01	 2.6625447241e+00
 1.3607649661e+00	 3.8538450735e-01	 2.5431145146e+00
 1.3518628187e+00	 4.1553519986e-01	 2.4108750138e+00
 1.3422376876e+00	 4.4564629269e-01	 2.2660022375e+00
 1.3318854160e+00	 4.7569305576e-01	 2.1087372612e+00
 1.3208029269e+00	 5.0565033239e-01	 1.9393930572e+00
 1.3089882599e+00	 5.3549259587e-01	 1.7583612096e+00
 1.2964406043e+00	 5.6519400919e-01	 1.5661184168e+00
 1.2831603284e+00	 5.9472848784e-01	 1.3632326839e+00
 1.3971622246e+00	 2.9791382207e-01	 2.8370572030e+00
 1.3903255334e+00	 3.2834428200e-01	 2.7402699923e+00
 1.3827772816e+00	 3.5880657870e-01	 2.6309931369e+00
 1.3745102498e+00	 3.8927733199e-01	 2.5093493964e+00
 1.3655181805e+00	 4.1973258100e-01	 2.3755281195e+00
 1.3557958246e+00	 4.5014783034e-01	 2.2297923016e+00
 1.3453389831e+00	 4.8049810011e-01	 2.0724855763e+00
 1.3341445482e+00	 5.1075797952e-01	 1.9040390493e+00
 1.3222105396e+00	 5.4090168402e-01	 1.7249778826e+00
 1.3095361383e+00	 5.7090311561e-01	 1.5359275287e+00
 1.2961217165e+00	 6.0073592630e-01	 1.3376195162e+00
 1.1665069742e+00	 5.4066114221e-01	 1.7877082430e+00
 1.1537685207e+00	 5.6733683499e-01	 1.6571971060e+00
 1.1403679398e+00	 5.9381287161e-01	 1.5159530797e+00
 1.1263089144e+00	 6.2006521764e-01	 1.3657084478e+00
 1.1115962679e+00	 6.4606986416e-01	 1.2082151482e+00
 1.0962359714e+00	 6.7180289461e-01	 1.0452338797e+00
 1.0802351449e+00	 6.9724055243e-01	 8.7852296607e-01
 1.0636020544e+00	 7.2235930937e-01	 7.0982709595e-01
 1.0463461043e+00	 7.4713593400e-01	 5.4086606405e-01
 1.0284778243e+00	 7.7154755992e-01	 3.7332364094e-01
 1.0100088517e+00	 7.9557175344e-01	 2.0883670000e-01
 1.1794684983e+00	 5.4666864375e-01	 1.7429002627e+00
 1.1665885028e+00	 5.7364074079e-01	 1.6095911828e+00
 1.1530390227e+00	 6.0041096321e-01	 1.4636915582e+00
 1.1388237818e+00	 6.2695500952e-01	 1.3073528529e+00
 1.1239476573e+00	 6.5324860404e-01	 1.1427573561e+00
 1.1084166864e+00	 6.7926756446e-01	 9.7210402590e-01
 1.0922380683e+00	 7.0498787023e-01	 7.9759394470e-01
 1.0754201610e+00	 7.3038573170e-01	 6.2141553829e-01
 1.0579724731e+00	 7.5543765928e-01	 4.4572971379e-01
 1.0399056515e+00	 7.8012053251e-01	 2.7265507883e-01
 1.0212314628e+00	 8.0441166843e-01	 1.0425340557e-01
 1.1924300194e+00	 5.5267614389e-01	 1.6917565554e+00
 1.1794084819e+00	 5.7994464511e-01	 1.5571303509e+00
 1.1657101027e+00	 6.0700905327e-01	 1.4083453848e+00
 1.1513386463e+00	 6.3384479979e-01	 1.2478851922e+00
 1.1362990437e+00	 6.6042734225e-01	 1.0782717391e+00
 1.1205973985e+00	 6.8673223255e-01	 9.0204860648e-01
 1.1042409889e+00	 7.1273518622e-01	 7.2176368214e-01
 1.0872382648e+00	 7.3841215215e-01	 5.3995153633e-01
 1.0695988392e+00	 7.6373938262e-01	 3.5911566376e-01
 1.0513334760e+00	 7.8869350310e-01	 1.8171078170e-01
 1.0324540713e+00	 8.1325158135e-01	 1.0125376835e-02
 1.2053915345e+00	 5.5868364122e-01	 1.6337459402e+00
 1.1922284550e+00	 5.8624854650e-01	 1.4992667336e+00
 1.1783811767e+00	 6.1360714024e-01	 1.3493358360e+00
 1.1638535050e+00	 6.4073458685e-01	 1.1866844938e+00
 1.1486504245e+00	 6.6760607710e-01	 1.0140865015e+00
 1.1327781050e+00	 6.9419689717e-01	 8.3433931887e-01
 1.1162439040e+00	 7.2048249860e-01	 6.5024463088e-01
 1.0990563630e+00	 7.4643856886e-01	 4.6458854551e-01
 1.0812251999e+00	 7.7204110209e-01	 2.8012163326e-01
 1.0627612952e+00	 7.9726646969e-01	 9.9539020236e-02
 1.0436766745e+00	 8.2209149015e-01	-7.4539250316e-02
 1.2183530405e+00	 5.6469113435e-01	 1.5683580266e+00
 1.2050484191e+00	 5.9255244347e-01	 1.4354738471e+00
 1.1910522418e+00	 6.2020522260e-01	 1.2861067873e+00
 1.1763683550e+00	 6.4762436909e-01	 1.1231540784e+00
 1.1610017966e+00	 6.7478480693e-01	 9.4955620177e-01
 1.1449588029e+00	 7.0166155656e-01	 7.6827652141e-01
 1.1282468106e+00	 7.2822980555e-01	 5.8228033173e-01
 1.1108744530e+00	 7.5446497994e-01	 3.9451353074e-01
 1.0928515524e+00	 7.8034281575e-01	 2.0788113822e-01
 1.0741891064e+00	 8.0583943027e-01	 2.5225886579e-02
 1.0548992699e+00	 8.3093139275e-01	-1.5069288444e-01
 1.2313145343e+00	 5.7069862187e-01	 1.4951021200e+00
 1.2178683713e+00	 5.9885633455e-01	 1.3652454737e+00
 1.2037232952e+00	 6.2680329880e-01	 1.2181235229e+00
 1.1888831932e+00	 6.5451414489e-01	 1.0567202800e+00
 1.1733531571e+00	 6.8196353006e-01	 8.8406036517e-01
 1.1571394895e+00	 7.0912620898e-01	 7.0318772500e-01
 1.1402497060e+00	 7.3597710527e-01	 5.1714377775e-01
 1.1226925320e+00	 7.6249138354e-01	 3.2894520305e-01
 1.1044778940e+00	 7.8864452166e-01	 1.4156160763e-01
 1.0856169070e+00	 8.1441238286e-01	-4.2106695725e-02
 1.0661218548e+00	 8.3977128711e-01	-2.1925055455e-01
 1.2442760131e+00	 5.7670610238e-01	 1.4135061953e+00
 1.2306883085e+00	 6.0516021829e-01	 1.2880946056e+00
 1.2163943337e+00	 6.3340136731e-01	 1.1448716204e+00
 1.2013980169e+00	 6.6140391266e-01	 9.8683124762e-01
 1.1857045033e+00	 6.8914224481e-01	 8.1700218336e-01
 1.1693201619e+00	 7.1659085270e-01	 6.3842617887e-01
 1.1522525875e+00	 7.4372439596e-01	 4.5413588041e-01
 1.1345105971e+00	 7.7051777777e-01	 2.6713236640e-01
 1.1161042221e+00	 7.9694621788e-01	 8.0362617586e-02
 1.0970446942e+00	 8.2298532544e-01	-1.0330283746e-01
 1.0773444266e+00	 8.4861117115e-01	-2.8109185641e-01
 1.2572374737e+00	 5.8271357448e-01	 1.3786421543e+00
 1.2435082278e+00	 6.1146409319e-01	 1.2035524542e+00
 1.2290653545e+00	 6.3999942657e-01	 1.0658559042e+00
 1.2139128230e+00	 6.6829367078e-01	 9.1295581987e-01
 1.1980558321e+00	 6.9632094951e-01	 7.4780729430e-01
 1.1815008172e+00	 7.2405548596e-01	 5.7336954383e-01
 1.1642554521e+00	 7.5147167580e-01	 3.9258403068e-01
 1.1463286458e+00	 7.7854416076e-01	 2.0835236680e-01
 1.1277305340e+00	 8.0524790248e-01	 2.3514234636e-02
 1.1084724654e+00	 8.3155825603e-01	-1.5917443410e-01
 1.0885669827e+00	 8.5745104282e-01	-3.3706277847e-01
 1.2701989132e+00	 5.8872103677e-01	 1.3767977290e+00
 1.2563281261e+00	 6.1776795781e-01	 1.1569870956e+00
 1.2417363547e+00	 6.4659747506e-01	 9.8059946312e-01
 1.2264276087e+00	 6.7518341765e-01	 8.3458246947e-01
 1.2104071408e+00	 7.0349964249e-01	 6.7592263682e-01
 1.1936814526e+00	 7.3152010703e-01	 5.0741864679e-01
 1.1762582971e+00	 7.5921894298e-01	 3.3184074808e-01
 1.1581466751e+00	 7.8657053065e-01	 1.5190963630e-01
 1.1393568268e+00	 8.1354957353e-01	-2.9724539515e-02
 1.1199002179e+00	 8.4013117260e-01	-2.1050280896e-01
 1.0997895205e+00	 8.6629090005e-01	-3.8797741601e-01
 1.2831603284e+00	 5.9472848784e-01	 1.3632326839e+00
 1.2691480006e+00	 6.2407181065e-01	 1.1476640717e+00
 1.2544073311e+00	 6.5319551124e-01	 9.1875503027e-01
 1.2389423711e+00	 6.8207315165e-01	 7.5121831109e-01
 1.2227584264e+00	 7.1067832206e-01	 6.0081537464e-01
 1.2058620653e+00	 7.3898471417e-01	 4.3999631068e-01
 1.1882611197e+00	 7.6696619570e-01	 2.7128241172e-01
 1.1699646823e+00	 7.9459688555e-01	 9.7134325220e-02
 1.1509830979e+00	 8.2185122907e-01	-8.0067229040e-02
 1.1313279492e+00	 8.4870407318e-01	-2.5804025687e-01
 1.1110120373e+00	 8.7513074078e-01	-4.3461958144e-01
 1.2961217165e+00	 6.0073592630e-01	 1.3376195162e+00
 1.2819678480e+00	 6.3037565026e-01	 1.1277252372e+00
 1.2670782810e+00	 6.5979353355e-01	 9.0499340949e-01
 1.2514571071e+00	 6.8896287119e-01	 6.7178289968e-01
 1.2351096861e+00	 7.1785698657e-01	 5.2197188493e-01
 1.2180426524e+00	 7.4644930563e-01	 3.7054625461e-01
 1.2002639171e+00	 7.7471343215e-01	 2.1030806734e-01
 1.1817826648e+00	 8.0262322360e-01	 4.3381016489e-02
 1.1626093447e+00	 8.3015286718e-01	-1.2820125738e-01
 1.1427556564e+00	 8.5727695575e-01	-3.0251149518e-01
 1.1222345306e+00	 8.8397056294e-01	-4.7774431800e-01
 1.0100088517e+00	 7.9557175344e-01	 2.0883670000e-01
 9.9095190679e-01	 8.1918658245e-01	 4.8744790837e-02
 9.7132075637e-01	 8.4237068822e-01	-1.0636825662e-01
 9.5113019075e-01	 8.6510334215e-01	-2.5610481585e-01
 9.3039599009e-01	 8.8736450462e-01	-4.0015227498e-01
 9.0913488357e-01	 9.0913488357e-01	-5.3828161916e-01
 8.8736450462e-01	 9.3039599009e-01	-6.7034509990e-01
 8.6510334215e-01	 9.5113019075e-01	-7.9627300586e-01
 8.4237068822e-01	 9.7132075637e-01	-9.1606956290e-01
 8.1918658245e-01	 9.9095190679e-01	-1.0298080043e+00
 7.9557175344e-01	 1.0100088517e+00	-1.1376248651e+00
 1.0212314628e+00	 8.0441166843e-01	 1.0425340557e-01
 1.0019627686e+00	 8.2828889121e-01	-5.7873522582e-02
 9.8211348860e-01	 8.5173060483e-01	-2.1326788398e-01
 9.6169857756e-01	 8.7471585034e-01	-3.6172904622e-01
 9.4073399092e-01	 8.9722436546e-01	-5.0318006297e-01
 9.1923664377e-01	 9.1923664377e-01	-6.3766450735e-01
 8.9722436546e-01	 9.4073399092e-01	-7.6534207459e-01
 8.7471585034e-01	 9.6169857756e-01	-8.8648298683e-01
 8.5173060483e-01	 9.8211348860e-01	-1.0014612498e+00
 8.2828889121e-01	 1.0019627686e+00	-1.1107468280e+00
 8.0441166843e-01	 1.0212314628e+00	-1.2148968206e+00
 1.0324540713e+00	 8.1325158135e-01	 1.0125376835e-02
 1.0129736278e+00	 8.3739119786e-01	-1.5388612686e-01
 9.9290621832e-01	 8.6109051926e-01	-3.0997266918e-01
 9.7226696191e-01	 8.8432835629e-01	-4.5802816802e-01
 9.5107198935e-01	 9.0708422401e-01	-5.9810085031e-01
 9.2933840162e-01	 9.2933840162e-01	-7.3038917914e-01
 9.0708422401e-01	 9.5107198935e-01	-8.5523629375e-01
 8.8432835629e-01	 9.7226696191e-01	-9.7312300513e-01
 8.6109051926e-01	 9.9290621832e-01	-1.0846594099e+00
 8.3739119786e-01	 1.0129736278e+00	-1.1905752050e+00
 8.1325158135e-01	 1.0324540713e+00	-1.2917088030e+00
 1.0436766745e+00	 8.2209149015e-01	-7.4539250316e-02
 1.0239844818e+00	 8.4649350025e-01	-2.4029762003e-01
 1.0036989430e+00	 8.7045042932e-01	-3.9745851691e-01
 9.8283534132e-01	 8.9394085776e-01	-5.4591117691e-01
 9.6140998295e-01	 9.1694407795e-01	-6.8572189235e-01
 9.3944015476e-01	 9.3944015476e-01	-8.1712986038e-01
 9.1694407795e-01	 9.6140998295e-01	-9.4054134822e-01
 8.9394085776e-01	 9.8283534132e-01	-1.0565222193e+00
 8.7045042932e-01	 1.0036989430e+00	-1.1657888872e+00
 8.4649350025e-01	 1.0239844818e+00	-1.2691977851e+00
 8.2209149015e-01	 1.0436766745e+00	-1.3677334612e+00
 1.0548992699e+00	 8.3093139275e-01	-1.5069288444e-01
 1.0349953282e+00	 8.5559579627e-01	-3.1807267046e-01
 1.0144916601e+00	 8.7981033282e-01	-4.7666268452e-01
 9.9340371333e-01	 9.0355335249e-01	-6.2625132273e-01
 9.7174796932e-01	 9.2680392499e-01	-7.6681907476e-01
 9.4954190082e-01	 9.4954190082e-01	-8.9853510682e-01
 9.2680392499e-01	 9.7174796932e-01	-1.0217520246e+00
 9.0355335249e-01	 9.9340371333e-01	-1.1369988533e+00
 8.7981033282e-01	 1.0144916601e+00	-1.2449722973e+00
 8.5559579627e-01	 1.0349953282e+00	-1.3465263628e+00
 8.3093139275e-01	 1.0548992699e+00	-1.4426604540e+00
 1.0661218548e+00	 8.3977128711e-01	-2.1925055455e-01
 1.0460061643e+00	 8.6469808380e-01	-3.8813811787e-01
 1.0252843672e+00	 8.8917022759e-01	-5.4848581552e-01
 1.0039720755e+00	 9.1316583825e-01	-6.9988799027e-01
 9.8208594603e-01	 9.3666376283e-01	-8.4213856401e-01
 9.5964363745e-01	 9.5964363745e-01	-9.7522915465e-01
 9.3666376283e-01	 9.8208594603e-01	-1.0993452943e+00
 9.1316583825e-01	 1.0039720755e+00	-1.2148607715e+00
 8.8917022759e-01	 1.0252843672e+00	-1.3223301446e+00
 8.6469808380e-01	 1.0460061643e+00	-1.4224795006e+00
 8.3977128711e-01	 1.0661218548e+00	-1.5161955542e+00
 1.0773444266e+00	 8.4861117115e-01	-2.8109185641e-01
 1.0570169875e+00	 8.7380036070e-01	-4.5138494294e-01
 1.0360770616e+00	 8.9853011144e-01	-6.1379384595e-01
 1.0145404253e+00	 9.2277831280e-01	-7.6762846250e-01
 9.9242391069e-01	 9.4652358916e-01	-9.1239835471e-01
 9.6974536230e-01	 9.6974536230e-01	-1.0478131867e+00
 9.4652358916e-01	 9.9242391069e-01	-1.1737812414e+00
 9.2277831280e-01	 1.0145404253e+00	-1.2904060176e+00
 8.9853011144e-01	 1.0360770616e+00	-1.3979809317e+00
 8.7380036070e-01	 1.0570169875e+00	-1.4969821758e+00
 8.4861117115e-01	 1.0773444266e+00	-1.5880598090e+00
 1.0885669827e+00	 8.5745104282e-01	-3.3706277847e-01
 1.0680277953e+00	 8.8290262487e-01	-5.0867011516e-01
 1.0468697410e+00	 9.0788998218e-01	-6.7341979283e-01
 1.0251087603e+00	 9.3239077389e-01	-8.3024957475e-01
 1.0027618609e+00	 9.5638340169e-01	-9.7828972125e-01
 9.7984707301e-01	 9.7984707301e-01	-1.1168665200e+00
 9.5638340169e-01	 1.0027618609e+00	-1.2455039320e+00
 9.3239077389e-01	 1.0251087603e+00	-1.3639233210e+00
 9.0788998218e-01	 1.0468697410e+00	-1.4720412622e+00
 8.8290262487e-01	 1.0680277953e+00	-1.5699654501e+00
 8.5745104282e-01	 1.0885669827e+00	-1.6579887520e+00
 1.0997895205e+00	 8.6629090005e-01	-3.8797741601e-01
 1.0790385852e+00	 8.9200487416e-01	-5.6081832760e-01
 1.0576624027e+00	 9.1724983764e-01	-7.2816543325e-01
 1.0356770781e+00	 9.4200321928e-01	-8.8849926768e-01
 1.0130997942e+00	 9.6624319812e-01	-1.0404785806e+00
 9.8994876722e-01	 9.8994876722e-01	-1.1829477216e+00
 9.6624319812e-01	 1.0130997942e+00	-1.3149422317e+00
 9.4200321928e-01	 1.0356770781e+00	-1.4356925708e+00
 9.1724983764e-01	 1.0576624027e+00	-1.5446259370e+00
 8.9200487416e-01	 1.0790385852e+00	-1.6413661580e+00
 8.6629090005e-01	 1.0997895205e+00	-1.7257316636e+00
 1.1110120373e+00	 8.7513074078e-01	-4.3461958144e-01
 1.0900493545e+00	 9.0110710647e-01	-6.0862362650e-01
 1.0684550443e+00	 9.2660967563e-01	-7.7880288156e-01
 1.0462453761e+00	 9.5161564672e-01	-9.4309804608e-01
 1.0234377082e+00	 9.7610297614e-01	-1.0996067724e+00
 1.0000504426e+00	 1.0000504426e+00	-1.2465956552e+00
 9.7610297614e-01	 1.0234377082e+00	-1.3825105724e+00
 9.5161564672e-01	 1.0462453761e+00	-1.5059852627e+00
 9.2660967563e-01	 1.0684550443e+00	-1.6158480451e+00
 9.0110710647e-01	 1.0900493545e+00	-1.7111266151e+00
 8.7513074078e-01	 1.1110120373e+00	-1.7910508763e+00
 1.1222345306e+00	 8.8397056294e-01	-4.7774431800e-01
 1.1010601006e+00	 9.1020931966e-01	-6.5285094311e-01
 1.0792476632e+00	 9.3596949396e-01	-8.2607607204e-01
 1.0568136520e+00	 9.6122805398e-01	-9.9474035017e-01
 1.0337756005e+00	 9.8596273346e-01	-1.1562932627e+00
 1.0101520967e+00	 1.0101520967e+00	-1.3083304665e+00
 9.8596273346e-01	 1.0337756005e+00	-1.4486096738e+00
 9.6122805398e-01	 1.0568136520e+00	-1.5750649176e+00
 9.3596949396e-01	 1.0792476632e+00	-1.6858190488e+00
 9.1020931966e-01	 1.1010601006e+00	-1.7791943435e+00
 8.8397056294e-01	 1.1222345306e+00	-1.8537211214e+00
 7.9557175344e-01	 1.0100088517e+00	-1.1376248651e+00
 7.7154755992e-01	 1.0284778243e+00	-1.2446893713e+00
 7.4713593400e-01	 1.0463461043e+00	-1.3544243854e+00
 7.2235930937e-01	 1.0636020544e+00	-1.4643807551e+00
 6.9724055243e-01	 1.0802351449e+00	-1.5721109779e+00
 6.7180289461e-01	 1.0962359714e+00	-1.6751871553e+00
 6.4606986416e-01	 1.1115962679e+00	-1.7712182208e+00
 6.2006521764e-01	 1.1263089144e+00	-1.8578663077e+00
 5.9381287161e-01	 1.1403679398e+00	-1.9328621387e+00
 5.6733683499e-01	 1.1537685207e+00	-1.9940193332e+00
 5.4066114221e-01	 1.1665069742e+00	-2.0392475473e+00
 8.0441166843e-01	 1.0212314628e+00	-1.2148968206e+00
 7.8012053251e-01	 1.0399056515e+00	-1.3191058668e+00
 7.5543765928e-01	 1.0579724731e+00	-1.4262839461e+00
 7.3038573170e-01	 1.0754201610e+00	-1.5335789934e+00
 7.0498787023e-01	 1.0922380683e+00	-1.6381017573e+00
 6.7926756446e-01	 1.1084166864e+00	-1.7369486255e+00
 6.5324860404e-01	 1.1239476573e+00	-1.8272239108e+00
 6.2695500952e-01	 1.1388237818e+00	-1.9060614083e+00
 6.0041096321e-01	 1.1530390227e+00	-1.9706450520e+00
 5.7364074079e-01	 1.1665885028e+00	-2.0182285167e+00
 5.4666864375e-01	 1.1794684983e+00	-2.0461536269e+00
 8.1325158135e-01	 1.0324540713e+00	-1.2917088030e+00
 7.8869350310e-01	 1.0513334760e+00	-1.3930264492e+00
 7.6373938262e-01	 1.0695988392e+00	-1.4968409821e+00
 7.3841215215e-01	 1.0872382648e+00	-1.6000194939e+00
 7.1273518622e-01	 1.1042409889e+00	-1.6993628617e+00
 6.8673223255e-01	 1.1205973985e+00	-1.7916322575e+00
 6.6042734225e-01	 1.1362990437e+00	-1.8735752546e+00
 6.3384479979e-01	 1.1513386463e+00	-1.9419513043e+00
 6.0700905327e-01	 1.1657101027e+00	-1.9935563687e+00
 5.7994464511e-01	 1.1794084819e+00	-2.0252465159e+00
 5.5267614389e-01	 1.1924300194e+00	-2.0339603017e+00
 8.2209149015e-01	 1.0436766745e+00	-1.3677334612e+00
 7.9726646969e-01	 1.0627612952e+00	-1.4659169333e+00
 7.7204110209e-01	 1.0812251999e+00	-1.5654111732e+00
 7.4643856886e-01	 1.0990563630e+00	-1.6629202899e+00
 7.2048249860e-01	 1.1162439040e+00	-1.7550627633e+00
 6.9419689717e-01	 1.1327781050e+00	-1.8384004711e+00
 6.6760607710e-01	 1.1486504245e+00	-1.9094674043e+00
 6.4073458685e-01	 1.1638535050e+00	-1.9647978159e+00
 6.1360714024e-01	 1.1783811767e+00	-2.0009535631e+00
 5.8624854650e-01	 1.1922284550e+00	-2.0145504199e+00
 5.5868364122e-01	 1.2053915345e+00	-2.0022831576e+00
 8.3093139275e-01	 1.0548992699e+00	-1.4426604540e+00
 8.0583943027e-01	 1.0741891064e+00	-1.5372689283e+00
 7.8034281575e-01	 1.0928515524e+00	-1.6313423551e+00
 7.5446497994e-01	 1.1108744530e+00	-1.7215356894e+00
 7.2822980555e-01	 1.1282468106e+00	-1.8044082716e+00
 7.0166155656e-01	 1.1449588029e+00	-1.8764542262e+00
 6.7478480693e-01	 1.1610017966e+00	-1.9341325956e+00
 6.4762436909e-01	 1.1763683550e+00	-1.9738969383e+00
 6.2020522260e-01	 1.1910522418e+00	-1.9922241352e+00
 5.9255244347e-01	 1.2050484191e+00	-1.9856421666e+00
 5.6469113435e-01	 1.2183530405e+00	-1.9507566432e+00
 8.3977128711e-01	 1.0661218548e+00	-1.5161955542e+00
 8.1441238286e-01	 1.0856169070e+00	-1.6065984797e+00
 7.8864452166e-01	 1.1044778940e+00	-1.6940128267e+00
 7.6249138354e-01	 1.1226925320e+00	-1.7751543653e+00
 7.3597710527e-01	 1.1402497060e+00	-1.8466425154e+00
 7.0912620898e-01	 1.1571394895e+00	-1.9050309934e+00
 6.8196353006e-01	 1.1733531571e+00	-1.9468381951e+00
 6.5451414489e-01	 1.1888831932e+00	-1.9685770418e+00
 6.2680329880e-01	 1.2037232952e+00	-1.9667840281e+00
 5.9885633455e-01	 1.2178683713e+00	-1.9380472334e+00
 5.7069862187e-01	 1.2313145343e+00	-1.8790330749e+00
 8.4861117115e-01	 1.0773444266e+00	-1.5880598090e+00
 8.2298532544e-01	 1.0970446942e+00	-1.6734447954e+00
 7.9694621788e-01	 1.1161042221e+00	-1.7528297622e+00
 7.7051777777e-01	 1.1345105971e+00	-1.8230975640e+00
 7.4372439596e-01	 1.1522525875e+00	-1.8810430496e+00
 7.1659085270e-01	 1.1693201619e+00	-1.9234028511e+00
 6.8914224481e-01	 1.1857045033e+00	-1.9468848689e+00
 6.6140391266e-01	 1.2013980169e+00	-1.9481971836e+00
 6.3340136731e-01	 1.2163943337e+00	-1.9240761452e+00
 6.0516021829e-01	 1.2306883085e+00	-1.8713134090e+00
 5.7670610238e-01	 1.2442760131e+00	-1.7867817042e+00
 8.5745104282e-01	 1.0885669827e+00	-1.6579887520e+00
 8.3155825603e-01	 1.1084724654e+00	-1.7373690518e+00
 8.0524790248e-01	 1.1277305340e+00	-1.8072277224e+00
 7.7854416076e-01	 1.1463286458e+00	-1.8647174262e+00
 7.5147167580e-01	 1.1642554521e+00	-1.9069200795e+00
 7.2405548596e-01	 1.1815008172e+00	-1.9308747003e+00
 6.9632094951e-01	 1.1980558321e+00	-1.9336048646e+00
 6.6829367078e-01	 1.2139128230e+00	-1.9121455248e+00
 6.3999942657e-01	 1.2290653545e+00	-1.8635689588e+00
 6.1146409319e-01	 1.2435082278e+00	-1.7850096414e+00
 5.8271357448e-01	 1.2572374737e+00	-1.7933392939e+00
 8.6629090005e-01	 1.0997895205e+00	-1.7257316636e+00
 8.4013117260e-01	 1.1199002179e+00	-1.7979532718e+00
 8.1354957353e-01	 1.1393568268e+00	-1.8566672566e+00
 7.8657053065e-01	 1.1581466751e+00	-1.8993954092e+00
 7.5921894298e-01	 1.1762582971e+00	-1.9236147944e+00
 7.3152010703e-01	 1.1936814526e+00	-1.9267825887e+00
 7.0349964249e-01	 1.2104071408e+00	-1.9063603988e+00
 6.7518341765e-01	 1.2264276087e+00	-1.8598378435e+00
 6.4659747506e-01	 1.2417363547e+00	-1.7847552035e+00
 6.1776795781e-01	 1.2563281261e+00	-1.7813556213e+00
 5.8872103677e-01	 1.2701989132e+00	-1.8731413572e+00
 8.7513074078e-01	 1.1110120373e+00	-1.7910508763e+00
 8.4870407318e-01	 1.1313279492e+00	-1.8547992719e+00
 8.2185122907e-01	 1.1509830979e+00	-1.9006335888e+00
 7.9459688555e-01	 1.1699646823e+00	-1.9265408054e+00
 7.6696619570e-01	 1.1882611197e+00	-1.9304978010e+00
 7.3898471417e-01	 1.2058620653e+00	-1.9104921366e+00
 7.1067832206e-01	 1.2227584264e+00	-1.8645421417e+00
 6.8207315165e-01	 1.2389423711e+00	-1.7907161389e+00
 6.5319551124e-01	 1.2544073311e+00	-1.7571597077e+00
 6.2407181065e-01	 1.2691480006e+00	-1.8621796161e+00
 5.9472848784e-01	 1.2831603284e+00	-1.9311322171e+00
 8.8397056294e-01	 1.1222345306e+00	-1.8537211214e+00
 8.5727695575e-01	 1.1427556564e+00	-1.9075276710e+00
 8.3015286718e-01	 1.1626093447e+00	-1.9386353839e+00
 8.0262322360e-01	 1.1817826648e+00	-1.9455893497e+00
 7.7471343215e-01	 1.2002639171e+00	-1.9269676520e+00
 7.4644930563e-01	 1.2180426524e+00	-1.8813970563e+00
 7.1785698657e-01	 1.2351096861e+00	-1.8075677931e+00
 6.8896287119e-01	 1.2514571071e+00	-1.7268802590e+00
 6.5979353355e-01	 1.2670782810e+00	-1.8410064400e+00
 6.3037565026e-01	 1.2819678480e+00	-1.9216037201e+00
 6.0073592630e-01	 1.2961217165e+00	-1.9669567376e+00
 5.4066114221e-01	 1.1665069742e+00	-2.0392475473e+00
 5.1381167176e-01	 1.1785799272e+00	-2.0693645030e+00
 4.8681044283e-01	 1.1899868632e+00	-2.0869554029e+00
 4.5968116857e-01	 1.2007274473e+00	-2.0927400269e+00
 4.3244733711e-01	 1.2108024166e+00	-2.0875474683e+00
 4.0513215451e-01	 1.2202135531e+00	-2.0723067773e+00
 3.7775849043e-01	 1.2289636542e+00	-2.0480370927e+00
 3.5034882672e-01	 1.2370564986e+00	-2.0158373941e+00
 3.2292520919e-01	 1.2444968109e+00	-1.9768760000e+00
 2.9550920258e-01	 1.2512902225e+00	-1.9562633754e+00
 2.6812184899e-01	 1.2574432311e+00	-2.0227602014e+00
 5.4666864375e-01	 1.1794684983e+00	-2.0461536269e+00
 5.1952083812e-01	 1.1916755987e+00	-2.0550810321e+00
 4.9221958777e-01	 1.2032092818e+00	-2.0482711133e+00
 4.6478886933e-01	 1.2140692088e+00	-2.0271387117e+00
 4.3725243191e-01	 1.2242561250e+00	-1.9932208619e+00
 4.0963373942e-01	 1.2337718325e+00	-1.9481615771e+00
 3.8195591565e-01	 1.2426191594e+00	-1.8936962930e+00
 3.5424169224e-01	 1.2508019267e+00	-1.8462130647e+00
 3.2651335995e-01	 1.2583249112e+00	-1.9168962604e+00
 2.9879272316e-01	 1.2651938071e+00	-1.9745902554e+00
 2.7110105776e-01	 1.2714151842e+00	-2.0207863792e+00
 5.5267614389e-01	 1.1924300194e+00	-2.0339603017e+00
 5.2523000315e-01	 1.2047712672e+00	-2.0204274816e+00
 4.9762873145e-01	 1.2164316972e+00	-1.9886565314e+00
 4.6989656889e-01	 1.2274109671e+00	-1.9406884992e+00
 4.4205752558e-01	 1.2377098303e+00	-1.8786937119e+00
 4.1413532329e-01	 1.2473301086e+00	-1.8049514140e+00
 3.8615333988e-01	 1.2562746614e+00	-1.8348384816e+00
 3.5813455684e-01	 1.2645473515e+00	-1.8969930362e+00
 3.3010150988e-01	 1.2721530083e+00	-1.9458734890e+00
 3.0207624298e-01	 1.2790973885e+00	-1.9834706846e+00
 2.7408026585e-01	 1.2853871341e+00	-2.0118198881e+00
 5.5868364122e-01	 1.2053915345e+00	-2.0022831576e+00
 5.3093916552e-01	 1.2178669296e+00	-1.9651453483e+00
 5.0303787261e-01	 1.2296541065e+00	-1.9079400461e+00
 4.7500426608e-01	 1.2407527192e+00	-1.8332681578e+00
 4.4686261702e-01	 1.2511635294e+00	-1.7643121663e+00
 4.1863690505e-01	 1.2608883785e+00	-1.8365829016e+00
 3.9035076216e-01	 1.2699301571e+00	-1.8921357758e+00
 3.6202741963e-01	 1.2782927699e+00	-1.9333378202e+00
 3.3368965813e-01	 1.2859810990e+00	-1.9626123056e+00
 3.0535976126e-01	 1.2930009634e+00	-1.9824222554e+00
 2.7705947254e-01	 1.2993590775e+00	-1.9952543335e+00
 5.6469113435e-01	 1.2183530405e+00	-1.9507566432e+00
 5.3664832389e-01	 1.2309625827e+00	-1.8889895346e+00
 5.0844700998e-01	 1.2428765065e+00	-1.8059596507e+00
 4.8011195969e-01	 1.2540944620e+00	-1.7757973097e+00
 4.5166770509e-01	 1.2646172190e+00	-1.8459625625e+00
 4.2313848366e-01	 1.2744466389e+00	-1.8973835089e+00
 3.9454818150e-01	 1.2835856432e+00	-1.9327901792e+00
 3.6592027970e-01	 1.2920381787e+00	-1.9549708807e+00
 3.3727780388e-01	 1.2998091799e+00	-1.9667527006e+00
 3.0864327725e-01	 1.3069045285e+00	-1.9709825102e+00
 2.8003867715e-01	 1.3133310111e+00	-1.9705086044e+00
 5.7069862187e-01	 1.2313145343e+00	-1.8790330749e+00
 5.4235747694e-01	 1.2440582237e+00	-1.7917276412e+00
 5.1385614230e-01	 1.2560988942e+00	-1.7868426646e+00
 4.8521964853e-01	 1.2674361923e+00	-1.8578888485e+00
 4.5647278868e-01	 1.2780708960e+00	-1.9078350177e+00
 4.2764005807e-01	 1.2880048866e+00	-1.9397075822e+00
 3.9874559693e-01	 1.2972411165e+00	-1.9565952018e+00
 3.6981313613e-01	 1.3057835747e+00	-1.9616266374e+00
 3.4086594627e-01	 1.3136372479e+00	-1.9579491916e+00
 3.1192679017e-01	 1.3208080807e+00	-1.9487078899e+00
 2.8301787897e-01	 1.3273029316e+00	-1.9370255414e+00
 5.7670610238e-01	 1.2442760131e+00	-1.7867817042e+00
 5.4806662332e-01	 1.2571538494e+00	-1.7935087431e+00
 5.1926526832e-01	 1.2693212665e+00	-1.8681300704e+00
 4.9032733141e-01	 1.2807779071e+00	-1.9191307694e+00
 4.6127786666e-01	 1.2915245574e+00	-1.9497742586e+00
 4.3214162723e-01	 1.3015631185e+00	-1.9633906251e+00
 4.0294300746e-01	 1.3108965739e+00	-1.9633522188e+00
 3.7370598802e-01	 1.3195289546e+00	-1.9530498934e+00
 3.4445408448e-01	 1.3274652999e+00	-1.9358700659e+00
 3.1521029926e-01	 1.3347116167e+00	-1.9151727484e+00
 2.8599707732e-01	 1.3412748358e+00	-1.8942706888e+00
 5.8271357448e-01	 1.2572374737e+00	-1.7933392939e+00
 5.5377576171e-01	 1.2702494568e+00	-1.8736966672e+00
 5.2467438676e-01	 1.2825436203e+00	-1.9278851182e+00
 4.9543500715e-01	 1.2941196032e+00	-1.9593559609e+00
 4.6608293792e-01	 1.3049781999e+00	-1.9716305735e+00
 4.3664319009e-01	 1.3151213314e+00	-1.9682741371e+00
 4.0714041211e-01	 1.3245520122e+00	-1.9528700634e+00
 3.7759883446e-01	 1.3332743153e+00	-1.9289952983e+00
 3.4804221766e-01	 1.3412933324e+00	-1.9001966691e+00
 3.1849380376e-01	 1.3486151331e+00	-1.8699684282e+00
 2.8897627150e-01	 1.3552467205e+00	-1.8417311225e+00
 5.8872103677e-01	 1.2701989132e+00	-1.8731413572e+00
 5.5948489078e-01	 1.2833450427e+00	-1.9320400675e+00
 5.3008349636e-01	 1.2957659524e+00	-1.9659026118e+00
 5.0054267454e-01	 1.3074612775e+00	-1.9784032458e+00
 4.7088800132e-01	 1.3184318205e+00	-1.9732595267e+00
 4.4114474559e-01	 1.3286795221e+00	-1.9542053055e+00
 4.1133780990e-01	 1.3382074282e+00	-1.9249646449e+00
 3.8149167454e-01	 1.3470196535e+00	-1.8892268448e+00
 3.5163034498e-01	 1.3551213424e+00	-1.8506227374e+00
 3.2177730289e-01	 1.3625186269e+00	-1.8127023919e+00
 2.9195546082e-01	 1.3692185824e+00	-1.7789143503e+00
 5.9472848784e-01	 1.2831603284e+00	-1.9311322171e+00
 5.6519400919e-01	 1.2964406043e+00	-1.9682706412e+00
 5.3549259587e-01	 1.3089882599e+00	-1.9819847174e+00
 5.0565033239e-01	 1.3208029269e+00	-1.9761170803e+00
 4.7569305576e-01	 1.3318854160e+00	-1.9545216908e+00
 4.4564629269e-01	 1.3422376876e+00	-1.9210367172e+00
 4.1553519986e-01	 1.3518628187e+00	-1.8794585892e+00
 3.8538450735e-01	 1.3607649661e+00	-1.8335173950e+00
 3.5521846561e-01	 1.3689493265e+00	-1.7868537707e+00
 3.2506079589e-01	 1.3764220947e+00	-1.7429974073e+00
 2.9493464457e-01	 1.3831904182e+00	-1.7053472795e+00
 6.0073592630e-01	 1.2961217165e+00	-1.9669567376e+00
 5.7090311561e-01	 1.3095361383e+00	-1.9821298497e+00
 5.4090168402e-01	 1.3222105396e+00	-1.9759405936e+00
 5.1075797952e-01	 1.3341445482e+00	-1.9523472701e+00
 4.8049810011e-01	 1.3453389831e+00	-1.9152823938e+00
 4.5014783034e-01	 1.3557958246e+00	-1.8686260864e+00
 4.1973258100e-01	 1.3655181805e+00	-1.8161809021e+00
 3.8927733199e-01	 1.3745102498e+00	-1.7616482354e+00
 3.5880657870e-01	 1.3827772816e+00	-1.7086064426e+00
 3.2834428200e-01	 1.3903255334e+00	-1.6604907804e+00
 2.9791382207e-01	 1.3971622246e+00	-1.6205752449e+00
 2.6812184899e-01	 1.2574432311e+00	-2.0227602014e+00
 2.4078172288e-01	 1.2629635224e+00	-2.0763943176e+00
 2.1351065582e-01	 1.2678587460e+00	-2.1185298911e+00
 1.8632793750e-01	 1.2721377389e+00	-2.1508144324e+00
 1.5925220186e-01	 1.2758100255e+00	-2.1748244204e+00
 1.3230140315e-01	 1.2788857706e+00	-2.1920594258e+00
 1.0549279553e-01	 1.2813757316e+00	-2.2039370519e+00
 7.8842916145e-02	 1.2832912108e+00	-2.2117886819e+00
 5.2367571465e-02	 1.2846440074e+00	-2.2168560169e+00
 2.6081826987e-02	 1.2854463705e+00	-2.2202883820e+00
 0.0000000000e+00	 1.2857109524e+00	-2.2231407715e+00
 2.7110105776e-01	 1.2714151842e+00	-2.0207863792e+00
 2.4345714461e-01	 1.2769968137e+00	-2.0565196546e+00
 2.1588305785e-01	 1.2819464301e+00	-2.0828562601e+00
 1.8839830152e-01	 1.2862729685e+00	-2.1013299402e+00
 1.6102171658e-01	 1.2899860594e+00	-2.1133968175e+00
 1.3377145680e-01	 1.2930959804e+00	-2.1204306021e+00
 1.0666496805e-01	 1.2956136083e+00	-2.1237185898e+00
 7.9718971224e-02	 1.2975503711e+00	-2.1244584348e+00
 5.2949448433e-02	 1.2989181992e+00	-2.1237556718e+00
 2.6371632567e-02	 1.2997294777e+00	-2.1226219619e+00
 0.0000000000e+00	 1.2999969994e+00	-2.1219740272e+00
 2.7408026585e-01	 1.2853871341e+00	-2.0118198881e+00
 2.4613256572e-01	 1.2910301017e+00	-2.0320546186e+00
 2.1825545933e-01	 1.2960341109e+00	-2.0448670874e+00
 1.9046866504e-01	 1.3004081949e+00	-2.0516050483e+00
 1.6279123088e-01	 1.3041620900e+00	-2.0535380542e+00
 1.3524151010e-01	 1.3073061868e+00	-2.0518539405e+00
 1.0783714029e-01	 1.3098514817e+00	-2.0476560169e+00
 8.0595026100e-02	 1.3118095281e+00	-2.0419609463e+00
 5.3531325265e-02	 1.3131923877e+00	-2.0356972836e+00
 2.6661438079e-02	 1.3140125816e+00	-2.0297046450e+00
 0.0000000000e+00	 1.3142830432e+00	-2.0247334731e+00
 2.7705947254e-01	 1.2993590775e+00	-1.9952543335e+00
 2.4880798558e-01	 1.3050633832e+00	-2.0022713264e+00
 2.2062785971e-01	 1.3101217851e+00	-2.0037343990e+00
 1.9253902761e-01	 1.3145434147e+00	-2.0007350757e+00
 1.6456074436e-01	 1.3183381140e+00	-1.9942919829e+00
 1.3671156272e-01	 1.3215163866e+00	-1.9853487941e+00
 1.0900931199e-01	 1.3240893484e+00	-1.9747727476e+00
 8.1471080567e-02	 1.3260686785e+00	-1.9633537127e+00
 5.4113201826e-02	 1.3274665695e+00	-1.9518037771e+00
 2.6951243456e-02	 1.3282956788e+00	-1.9407573244e+00
 0.0000000000e+00	 1.3285690802e+00	-1.9307715715e+00
 2.8003867715e-01	 1.3133310111e+00	-1.9705086044e+00
 2.5148340357e-01	 1.3190966548e+00	-1.9664724057e+00
 2.2300025842e-01	 1.3242094494e+00	-1.9586650475e+00
 1.9460938872e-01	 1.3286786246e+00	-1.9478534872e+00
 1.6633025660e-01	 1.3325141281e+00	-1.9347428462e+00
 1.3818161430e-01	 1.3357265764e+00	-1.9199760012e+00
 1.1018148287e-01	 1.3383272052e+00	-1.9041335592e+00
 8.2347134421e-02	 1.3403278189e+00	-1.8877341912e+00
 5.4695077980e-02	 1.3417407413e+00	-1.8712352996e+00
 2.7241048630e-02	 1.3425787660e+00	-1.8550339903e+00
 0.0000000000e+00	 1.3428551073e+00	-1.8394683240e+00
 2.8301787897e-01	 1.3273029316e+00	-1.9370255414e+00
 2.5415881906e-01	 1.3331299134e+00	-1.9239893881e+00
 2.2537265492e-01	 1.3382971007e+00	-1.9088988782e+00
 1.9667974790e-01	 1.3428138213e+00	-1.8921298853e+00
 1.6809976719e-01	 1.3466901289e+00	-1.8740131505e+00
 1.3965166452e-01	 1.3499367530e+00	-1.8548357012e+00
 1.1135365265e-01	 1.3525650487e+00	-1.8348424141e+00
 8.3223187458e-02	 1.3545869460e+00	-1.8142376958e+00
 5.5276953591e-02	 1.3560148998e+00	-1.7931872615e+00
 2.7530853534e-02	 1.3568618399e+00	-1.7718199877e+00
 0.0000000000e+00	 1.3571411210e+00	-1.7502298216e+00
 2.8599707732e-01	 1.3412748358e+00	-1.8942706888e+00
 2.5683423144e-01	 1.3471631556e+00	-1.8741812028e+00
 2.2774504865e-01	 1.3523847354e+00	-1.8537070098e+00
 1.9875010467e-01	 1.3569490015e+00	-1.8327681275e+00
 1.6986927572e-01	 1.3608661132e+00	-1.8112616723e+00
 1.4112171302e-01	 1.3641469131e+00	-1.7890652870e+00
 1.1252582106e-01	 1.3668028755e+00	-1.7660404187e+00
 8.4099239472e-02	 1.3688460564e+00	-1.7420354258e+00
 5.5858828523e-02	 1.3702890417e+00	-1.7168884992e+00
 2.7820658100e-02	 1.3711448971e+00	-1.6904303826e+00
 0.0000000000e+00	 1.3714271181e+00	-1.6624868851e+00
 2.8897627150e-01	 1.3552467205e+00	-1.8417311225e+00
 2.5950964006e-01	 1.3611963781e+00	-1.8164327633e+00
 2.3011743906e-01	 1.3664723505e+00	-1.7923902216e+00
 2.0082045854e-01	 1.3710841619e+00	-1.7690045592e+00
 1.7163878176e-01	 1.3750420777e+00	-1.7456815882e+00
 1.4259175946e-01	 1.3783570532e+00	-1.7218374844e+00
 1.1369798784e-01	 1.3810406825e+00	-1.6969039080e+00
 8.4975290260e-02	 1.3831051469e+00	-1.6703326150e+00
 5.6440702641e-02	 1.3845631636e+00	-1.6415995517e+00
 2.8110462260e-02	 1.3854279343e+00	-1.6102084301e+00
 0.0000000000e+00	 1.3857130952e+00	-1.5756937904e+00
 2.9195546082e-01	 1.3692185824e+00	-1.7789143503e+00
 2.6218504432e-01	 1.3752295777e+00	-1.7501536405e+00
 2.3248982560e-01	 1.3805599425e+00	-1.7242774391e+00
 2.0289080902e-01	 1.3852192993e+00	-1.7001063560e+00
 1.7340828492e-01	 1.3892180190e+00	-1.6764987188e+00
 1.4406180351e-01	 1.3925671701e+00	-1.6523585484e+00
 1.1487015270e-01	 1.3952784662e+00	-1.6266426479e+00
 8.5851339617e-02	 1.3973642141e+00	-1.5983667950e+00
 5.7022575808e-02	 1.3988372621e+00	-1.5666110422e+00
 2.8400265947e-02	 1.3997109481e+00	-1.5305241349e+00
 0.0000000000e+00	 1.3999990489e+00	-1.4893270705e+00
 2.9493464457e-01	 1.3831904182e+00	-1.7053472795e+00
 2.6486044358e-01	 1.3892627511e+00	-1.6747768166e+00
 2.3486220770e-01	 1.3946475083e+00	-1.6487243117e+00
 2.0496115564e-01	 1.3993544102e+00	-1.6253699653e+00
 1.7517778477e-01	 1.4033939338e+00	-1.6029698795e+00
 1.4553184480e-01	 1.4067772605e+00	-1.5798665697e+00
 1.1604231537e-01	 1.4095162233e+00	-1.5544981459e+00
 8.6727387339e-02	 1.4116232547e+00	-1.5254061633e+00
 5.7604447888e-02	 1.4131113340e+00	-1.4912421589e+00
 2.8690069092e-02	 1.4139939354e+00	-1.4507729007e+00
 0.0000000000e+00	 1.4142849760e+00	-1.4028843916e+00
 2.9791382207e-01	 1.3971622246e+00	-1.6205752449e+00
 2.6753583722e-01	 1.4032958951e+00	-1.5897575133e+00
 2.3723458483e-01	 1.4087350444e+00	-1.5651118756e+00
 2.0703149792e-01	 1.4134894915e+00	-1.5441196422e+00
 1.7694728091e-01	 1.4175698189e+00	-1.5243813300e+00
 1.4700188301e-01	 1.4209873210e+00	-1.5036298818e+00
 1.1721447557e-01	 1.4237539505e+00	-1.4797420638e+00
 8.7603433220e-02	 1.4258822653e+00	-1.4507480498e+00
 5.8186318747e-02	 1.4273853760e+00	-1.4148392257e+00
 2.8979871629e-02	 1.4282768926e+00	-1.3703742588e+00
 0.0000000000e+00	 1.4285708730e+00	-1.3158834954e+00
 1.4285708730e+00	 0.0000000000e+00	 3.3308958768e+00
 1.4282768926e+00	 2.8979871629e-02	 3.3352659251e+00
 1.4273853760e+00	 5.8186318747e-02	 3.3245585923e+00
 1.4258822653e+00	 8.7603433220e-02	 3.2998772242e+00
 1.4237539505e+00	 1.1721447557e-01	 3.2623724541e+00
 1.4209873210e+00	 1.4700188301e-01	 3.2132370847e+00
 1.4175698189e+00	 1.7694728091e-01	 3.1537004874e+00
 1.4134894915e+00	 2.0703149792e-01	 3.0850225367e+00
 1.4087350444e+00	 2.3723458483e-01	 3.0084870979e+00
 1.4032958951e+00	 2.6753583722e-01	 2.9253950976e+00
 1.3971622246e+00	 2.9791382207e-01	 2.8370572030e+00
 1.4428567384e+00	 0.0000000000e+00	 3.3124218517e+00
 1.4425598181e+00	 2.9269673523e-02	 3.3209284321e+00
 1.4416593863e+00	 5.8768188315e-02	 3.3126131009e+00
 1.4401412443e+00	 8.8479477159e-02	 3.2888202984e+00
 1.4379916461e+00	 1.1838663318e-01	 3.2509325524e+00
 1.4351973501e+00	 1.4847191796e-01	 3.2003630560e+00
 1.4317456726e+00	 1.7871677312e-01	 3.1385477107e+00
 1.4276245414e+00	 2.0910183560e-01	 3.0669366699e+00
 1.4228225494e+00	 2.3960695669e-01	 2.9869854231e+00
 1.4173290079e+00	 2.7021122493e-01	 2.9001454662e+00
 1.4111340001e+00	 3.0089299296e-01	 2.8078546106e+00
 1.4571425772e+00	 0.0000000000e+00	 3.2956465654e+00
 1.4568427170e+00	 2.9559474876e-02	 3.3073277225e+00
 1.4559333699e+00	 5.9350056796e-02	 3.3009763784e+00
 1.4544001967e+00	 8.9355519462e-02	 3.2780794752e+00
 1.4522293152e+00	 1.1955878861e-01	 3.2401506361e+00
 1.4494073526e+00	 1.4994195017e-01	 3.1887210647e+00
 1.4459214998e+00	 1.8048626203e-01	 3.1253299092e+00
 1.4417595649e+00	 2.1117216942e-01	 3.0515141422e+00
 1.4369100280e+00	 2.4197932413e-01	 2.9687980106e+00
 1.4313620946e+00	 2.7288660765e-01	 2.8786821186e+00
 1.4251057495e+00	 3.0387215829e-01	 2.7826322159e+00
 1.4714283959e+00	 0.0000000000e+00	 3.2805239836e+00
 1.4711255959e+00	 2.9849275823e-02	 3.2943368311e+00
 1.4702073336e+00	 5.9931924463e-02	 3.2894461287e+00
 1.4686591292e+00	 9.0231560538e-02	 3.2673857489e+00
 1.4664669643e+00	 1.2073094239e-01	 3.2297026745e+00
 1.4636173352e+00	 1.5141198032e-01	 3.1779468355e+00
 1.4600973071e+00	 1.8225574847e-01	 3.1136604613e+00
 1.4558945687e+00	 2.1324250034e-01	 3.0383670089e+00
 1.4509974869e+00	 2.4435168824e-01	 2.9535597373e+00
 1.4453951616e+00	 2.7556198662e-01	 2.8606900035e+00
 1.4390774793e+00	 3.0685131945e-01	 2.7611553622e+00
 1.4857142013e+00	 0.0000000000e+00	 3.2670098527e+00
 1.4854084615e+00	 3.0139076500e-02	 3.2818337549e+00
 1.4844812839e+00	 6.0513791587e-02	 3.2778279844e+00
 1.4829180483e+00	 9.1107600796e-02	 3.2564806774e+00
 1.4807046001e+00	 1.2190309507e-01	 3.2192773867e+00
 1.4778273046e+00	 1.5288200909e-01	 3.1676904620e+00
 1.4742731012e+00	 1.8402523325e-01	 3.1031680444e+00
 1.4700295592e+00	 2.1531282933e-01	 3.0271227465e+00
 1.4650849327e+00	 2.4672405014e-01	 2.9409200964e+00
 1.4594282155e+00	 2.7823736310e-01	 2.8458668323e+00
 1.4530491961e+00	 3.0983047783e-01	 2.7431991364e+00
 1.5000000000e+00	 0.0000000000e+00	 3.2550616151e+00
 1.4996913204e+00	 3.0428877041e-02	 3.2697012169e+00
 1.4987552276e+00	 6.1095658438e-02	 3.2659351294e+00
 1.4971769608e+00	 9.1983640646e-02	 3.2451158799e+00
 1.4949422293e+00	 1.2307524721e-01	 3.2085756353e+00
 1.4920372673e+00	 1.5435203718e-01	 3.1576157217e+00
 1.4884488887e+00	 1.8579471720e-01	 3.0934959062e+00
 1.4841645432e+00	 2.1738315735e-01	 3.0174235186e+00
 1.4791723719e+00	 2.4909641093e-01	 2.9305425005e+00
 1.4734612629e+00	 2.8091273832e-01	 2.8339224713e+00
 1.4670209063e+00	 3.1280963482e-01	 2.7285479053e+00
 1.5142857987e+00	 0.0000000000e+00	 3.2446383291e+00
 1.5139741793e+00	 3.0718677582e-02	 3.2578264431e+00
 1.5130291713e+00	 6.1677525290e-02	 3.2535879424e+00
 1.5114358733e+00	 9.2859680495e-02	 3.2330525617e+00
 1.5091798585e+00	 1.2424739935e-01	 3.1973098531e+00
 1.5062472300e+00	 1.5582206527e-01	 3.1473994315e+00
 1.5026246762e+00	 1.8756420116e-01	 3.0843011777e+00
 1.4982995272e+00	 2.1945348537e-01	 3.0089254829e+00
 1.4932598111e+00	 2.5146877173e-01	 2.9221036249e+00
 1.4874943102e+00	 2.8358811355e-01	 2.8245783675e+00
 1.4809926166e+00	 3.1578879180e-01	 2.7169948767e+00
 1.5285716041e+00	 0.0000000000e+00	 3.2357005929e+00
 1.5282570449e+00	 3.1008478258e-02	 3.2461009525e+00
 1.5273031216e+00	 6.2259392413e-02	 3.2406136616e+00
 1.5256947924e+00	 9.3735720753e-02	 3.2200610673e+00
 1.5234174944e+00	 1.2541955203e-01	 3.1852035030e+00
 1.5204571994e+00	 1.5729209405e-01	 3.1367308376e+00
 1.5168004703e+00	 1.8933368594e-01	 3.0752542240e+00
 1.5124345177e+00	 2.2152381435e-01	 3.0012981370e+00
 1.5073472569e+00	 2.5384113363e-01	 2.9152927879e+00
 1.5015273641e+00	 2.8626349002e-01	 2.8175670075e+00
 1.4949643334e+00	 3.1876795018e-01	 2.7083416865e+00
 1.5428574228e+00	 0.0000000000e+00	 3.2282104740e+00
 1.5425399238e+00	 3.1298279206e-02	 3.2344203579e+00
 1.5415770853e+00	 6.2841260080e-02	 3.2268460666e+00
 1.5399537249e+00	 9.4611761829e-02	 3.2059204568e+00
 1.5376551435e+00	 1.2659170581e-01	 3.1719905675e+00
 1.5346671820e+00	 1.5876212420e-01	 3.1253110408e+00
 1.5309762776e+00	 1.9110317237e-01	 3.0660380323e+00
 1.5265695215e+00	 2.2359414527e-01	 2.9942237012e+00
 1.5214347158e+00	 2.5621349774e-01	 2.9098113652e+00
 1.5155604311e+00	 2.8893886899e-01	 2.8126314063e+00
 1.5089360632e+00	 3.2174711134e-01	 2.7023980077e+00
 1.5571432616e+00	 0.0000000000e+00	 3.2221314407e+00
 1.5568228227e+00	 3.1588080558e-02	 3.2226841787e+00
 1.5558510689e+00	 6.3423128561e-02	 3.2121251789e+00
 1.5542126773e+00	 9.5487804132e-02	 3.1904181067e+00
 1.5518928126e+00	 1.2776386123e-01	 3.1574150660e+00
 1.5488771845e+00	 1.6023215640e-01	 3.1128524526e+00
 1.5451521048e+00	 1.9287266128e-01	 3.0563476325e+00
 1.5407045450e+00	 2.2566447909e-01	 2.9873965343e+00
 1.5355221944e+00	 2.5858586517e-01	 2.9053722364e+00
 1.5295935178e+00	 2.9161425171e-01	 2.8095246235e+00
 1.5229078126e+00	 3.2472627667e-01	 2.6989811815e+00
 1.5714291270e+00	 0.0000000000e+00	 3.2174282992e+00
 1.5711057482e+00	 3.1877882452e-02	 3.2107956632e+00
 1.5701250792e+00	 6.4004998129e-02	 3.1962969785e+00
 1.5684716563e+00	 9.6363848071e-02	 3.1733493321e+00
 1.5661305082e+00	 1.2893601884e-01	 3.1412305994e+00
 1.5630872136e+00	 1.6170219135e-01	 3.0990782815e+00
 1.5593279585e+00	 1.9464215349e-01	 3.0458895498e+00
 1.5548395949e+00	 2.2773481677e-01	 2.9805225821e+00
 1.5496096993e+00	 2.6095823704e-01	 2.9016992623e+00
 1.5436266306e+00	 2.9428963942e-01	 2.8080093070e+00
 1.5368795881e+00	 3.2770544756e-01	 2.6979158688e+00
 1.3971622246e+00	 2.9791382207e-01	 2.8370572030e+00
 1.3903255334e+00	 3.2834428200e-01	 2.7402699923e+00
 1.3827772816e+00	 3.5880657870e-01	 2.6309931369e+00
 1.3745102498e+00	 3.8927733199e-01	 2.5093493964e+00
 1.3655181805e+00	 4.1973258100e-01	 2.3755281195e+00
 1.3557958246e+00	 4.5014783034e-01	 2.2297923016e+00
 1.3453389831e+00	 4.8049810011e-01	 2.0724855763e+00
 1.3341445482e+00	 5.1075797952e-01	 1.9040390493e+00
 1.3222105396e+00	 5.4090168402e-01	 1.7249778826e+00
 1.3095361383e+00	 5.7090311561e-01	 1.5359275287e+00
 1.2961217165e+00	 6.0073592630e-01	 1.3376195162e+00
 1.4111340001e+00	 3.0089299296e-01	 2.8078546106e+00
 1.4042289412e+00	 3.3162776083e-01	 2.7072740392e+00
 1.3966052061e+00	 3.6239468383e-01	 2.5947023096e+00
 1.3882555030e+00	 3.9317014801e-01	 2.4703441151e+00
 1.3791735121e+00	 4.2392995285e-01	 2.3344861642e+00
 1.3693539315e+00	 4.5464935801e-01	 2.1875042713e+00
 1.3587925205e+00	 4.8530313380e-01	 2.0298702548e+00
 1.3474861400e+00	 5.1586561533e-01	 1.8621585477e+00
 1.3354327900e+00	 5.4631076018e-01	 1.6850524200e+00
 1.3226316433e+00	 5.7661220937e-01	 1.4993497125e+00
 1.3090830758e+00	 6.0674335144e-01	 1.3059679777e+00
 1.4251057495e+00	 3.0387215829e-01	 2.7826322159e+00
 1.4181323230e+00	 3.3491123353e-01	 2.6782026801e+00
 1.4104331047e+00	 3.6598278227e-01	 2.5621436654e+00
 1.4020007306e+00	 3.9706295675e-01	 2.4347698354e+00
 1.3928288182e+00	 4.2812731685e-01	 2.2964915306e+00
 1.3829120131e+00	 4.5915087728e-01	 2.1478216031e+00
 1.3722460328e+00	 4.9010815853e-01	 1.9893819373e+00
 1.3608277069e+00	 5.2097324160e-01	 1.8219095574e+00
 1.3486550157e+00	 5.5171982624e-01	 1.6462622191e+00
 1.3357271238e+00	 5.8232129248e-01	 1.4634233851e+00
 1.3220444109e+00	 6.1275076537e-01	 1.2745064788e+00
 1.4390774793e+00	 3.0685131945e-01	 2.7611553622e+00
 1.4320356854e+00	 3.3819470163e-01	 2.6529117835e+00
 1.4242609840e+00	 3.6957087569e-01	 2.5332509553e+00
 1.4157459389e+00	 4.0095576004e-01	 2.4026247229e+00
 1.4064841051e+00	 4.3232467498e-01	 2.2615925452e+00
 1.3964700758e+00	 4.6365239024e-01	 2.1108277898e+00
 1.3856995262e+00	 4.9491317653e-01	 1.9511235954e+00
 1.3741692551e+00	 5.2608086073e-01	 1.7833982025e+00
 1.3618772229e+00	 5.5712888473e-01	 1.6086996497e+00
 1.3488225860e+00	 5.8803036759e-01	 1.4282097370e+00
 1.3350057279e+00	 6.1875817089e-01	 1.2432471550e+00
 1.4530491961e+00	 3.0983047783e-01	 2.7431991364e+00
 1.4459390348e+00	 3.4147816667e-01	 2.6312635537e+00
 1.4380888504e+00	 3.7315896575e-01	 2.5079613442e+00
 1.4294911344e+00	 4.0484855971e-01	 2.3739079532e+00
 1.4201393793e+00	 4.3652202919e-01	 2.2298366885e+00
 1.4100281258e+00	 4.6815389901e-01	 2.0766041970e+00
 1.3991530071e+00	 4.9971819004e-01	 1.9151953945e+00
 1.3875107909e+00	 5.3118847508e-01	 1.7467277482e+00
 1.3750994178e+00	 5.6253793817e-01	 1.5724548181e+00
 1.3619180360e+00	 5.9373943738e-01	 1.3937689584e+00
 1.3479670327e+00	 6.2476557081e-01	 1.2122030883e+00
 1.4670209063e+00	 3.1280963482e-01	 2.7285479053e+00
 1.4598423778e+00	 3.4476163017e-01	 2.6131262287e+00
 1.4519167104e+00	 3.7674705414e-01	 2.4862152483e+00
 1.4432363235e+00	 4.0874135755e-01	 2.3486196636e+00
 1.4337946472e+00	 4.4071938145e-01	 2.2012706340e+00
 1.4235861694e+00	 4.7265540567e-01	 2.0452301641e+00
 1.4126064816e+00	 5.0452320132e-01	 1.8816948273e+00
 1.4008523204e+00	 5.3629608706e-01	 1.7119987369e+00
 1.3883216065e+00	 5.6794698909e-01	 1.5376156746e+00
 1.3750134799e+00	 5.9944850450e-01	 1.3601602862e+00
 1.3609283316e+00	 6.3077296791e-01	 1.1813882627e+00
 1.4809926166e+00	 3.1578879180e-01	 2.7169948767e+00
 1.4737457207e+00	 3.4804509368e-01	 2.5983737950e+00
 1.4657445703e+00	 3.8033514254e-01	 2.4679561810e+00
 1.4569815126e+00	 4.1263415539e-01	 2.3267609067e+00
 1.4474499150e+00	 4.4491673370e-01	 2.1759402867e+00
 1.4371442131e+00	 4.7715691233e-01	 2.0167830994e+00
 1.4260599562e+00	 5.0932821259e-01	 1.8507168394e+00
 1.4141938499e+00	 5.4140369903e-01	 1.6793091158e+00
 1.4015437952e+00	 5.7335604000e-01	 1.5042681148e+00
 1.3881089238e+00	 6.0515757163e-01	 1.3274420487e+00
 1.3738896304e+00	 6.3678036502e-01	 1.1508175209e+00
 1.4949643334e+00	 3.1876795018e-01	 2.7083416865e+00
 1.4876490701e+00	 3.5132855872e-01	 2.5868857188e+00
 1.4795724367e+00	 3.8392323260e-01	 2.4531306075e+00
 1.4707267081e+00	 4.1652695505e-01	 2.3083336080e+00
 1.4611051892e+00	 4.4911408791e-01	 2.1538908179e+00
 1.4507022631e+00	 4.8165842109e-01	 1.9913385695e+00
 1.4395134371e+00	 5.1413322610e-01	 1.8223539478e+00
 1.4275353857e+00	 5.4651131339e-01	 1.6487543582e+00
 1.4147659900e+00	 5.7876509344e-01	 1.4724960753e+00
 1.4012043738e+00	 6.1086664141e-01	 1.2956717078e+00
 1.3868509352e+00	 6.4278776494e-01	 1.1205065242e+00
 1.5089360632e+00	 3.2174711134e-01	 2.7023980077e+00
 1.5015524325e+00	 3.5461202682e-01	 2.5785466915e+00
 1.4934003160e+00	 3.8751132602e-01	 2.4416878081e+00
 1.4844719164e+00	 4.2041975835e-01	 2.2933405243e+00
 1.4747604761e+00	 4.5331144604e-01	 2.1351666990e+00
 1.4642603257e+00	 4.8615993406e-01	 1.9689703849e+00
 1.4529669305e+00	 5.1893824410e-01	 1.7966963531e+00
 1.4408769339e+00	 5.5161893251e-01	 1.6204275774e+00
 1.4279881972e+00	 5.8417415193e-01	 1.4423816242e+00
 1.4142998360e+00	 6.1657571653e-01	 1.2649058993e+00
 1.3998122522e+00	 6.4879517046e-01	 1.0904717143e+00
 1.5229078126e+00	 3.2472627667e-01	 2.6989811815e+00
 1.5154558143e+00	 3.5789549951e-01	 2.5732463899e+00
 1.5072282146e+00	 3.9109942445e-01	 2.4335797483e+00
 1.4982171440e+00	 4.2431256709e-01	 2.2817852055e+00
 1.4884157822e+00	 4.5750881004e-01	 2.1198117331e+00
 1.4778184073e+00	 4.9066145333e-01	 1.9497506795e+00
 1.4664204428e+00	 5.2374326883e-01	 1.7738320453e+00
 1.4542185008e+00	 5.5672655879e-01	 1.5944196351e+00
 1.4412104230e+00	 5.8958321800e-01	 1.4140050465e+00
 1.4273953166e+00	 6.2228479964e-01	 1.2352004699e+00
 1.4127735873e+00	 6.5480258439e-01	 1.0607302777e+00
 1.5368795881e+00	 3.2770544756e-01	 2.6979158688e+00
 1.5293592221e+00	 3.6117897834e-01	 2.5708792492e+00
 1.5210561391e+00	 3.9468752959e-01	 2.4287609566e+00
 1.5119623972e+00	 4.2820538310e-01	 2.2736719578e+00
 1.5020711138e+00	 4.6170618189e-01	 2.1078690849e+00
 1.4913765143e+00	 4.9516298100e-01	 1.9337499867e+00
 1.4798739801e+00	 5.2854830253e-01	 1.7538469041e+00
 1.4675600926e+00	 5.6183419459e-01	 1.5708192428e+00
 1.4544326734e+00	 5.9499229416e-01	 1.3874449251e+00
 1.4404908216e+00	 6.2799389340e-01	 1.2066105134e+00
 1.4257349466e+00	 6.6081000953e-01	 1.0313001112e+00
 1.2961217165e+00	 6.0073592630e-01	 1.3376195162e+00
 1.2819678480e+00	 6.3037565026e-01	 1.1277252372e+00
 1.2670782810e+00	 6.5979353355e-01	 9.0499340949e-01
 1.2514571071e+00	 6.8896287119e-01	 6.7178289968e-01
 1.2351096861e+00	 7.1785698657e-01	 5.2197188493e-01
 1.2180426524e+00	 7.4644930563e-01	 3.7054625461e-01
 1.2002639171e+00	 7.7471343215e-01	 2.1030806734e-01
 1.1817826648e+00	 8.0262322360e-01	 4.3381016489e-02
 1.1626093447e+00	 8.3015286718e-01	-1.2820125738e-01
 1.1427556564e+00	 8.5727695575e-01	-3.0251149518e-01
 1.1222345306e+00	 8.8397056294e-01	-4.7774431800e-01
 1.3090830758e+00	 6.0674335144e-01	 1.3059679777e+00
 1.2947876671e+00	 6.3667947589e-01	 1.1022365889e+00
 1.2797492027e+00	 6.6639154124e-01	 8.8622908325e-01
 1.2639718154e+00	 6.9585257546e-01	 6.5998639173e-01
 1.2474609184e+00	 7.2503563516e-01	 4.4093761788e-01
 1.2302232125e+00	 7.5391388054e-01	 2.9944263466e-01
 1.2122666879e+00	 7.8246065143e-01	 1.4820105696e-01
 1.1936006210e+00	 8.1064954385e-01	-1.1018012314e-02
 1.1742355656e+00	 8.3845448689e-01	-1.7654474746e-01
 1.1541833383e+00	 8.6584981932e-01	-3.4682227616e-01
 1.1334569989e+00	 8.9281036551e-01	-5.2041940705e-01
 1.3220444109e+00	 6.1275076537e-01	 1.2745064788e+00
 1.3076074622e+00	 6.4298328975e-01	 1.0764537732e+00
 1.2924201008e+00	 6.7298953662e-01	 8.6662964797e-01
 1.2764865004e+00	 7.0274226687e-01	 6.4678335426e-01
 1.2598121277e+00	 7.3221427034e-01	 4.1858297922e-01
 1.2424037499e+00	 7.6137844153e-01	 2.2728243398e-01
 1.2242694363e+00	 7.9020785625e-01	 8.4503201284e-02
 1.2054185552e+00	 8.1867584912e-01	-6.7429646678e-02
 1.1858617648e+00	 8.4675609111e-01	-2.2716813617e-01
 1.1656109988e+00	 8.7442266689e-01	-3.9348158394e-01
 1.1446794464e+00	 9.0165015158e-01	-5.6526683641e-01
 1.3350057279e+00	 6.1875817089e-01	 1.2432471550e+00
 1.3204272394e+00	 6.4928709480e-01	 1.0503382915e+00
 1.3050909812e+00	 6.7958752276e-01	 8.4612045566e-01
 1.2890011678e+00	 7.0963194863e-01	 6.3207665767e-01
 1.2721633197e+00	 7.3939289548e-01	 4.0959669325e-01
 1.2545842702e+00	 7.6884299206e-01	 1.7997274312e-01
 1.2362721679e+00	 7.9795505023e-01	 1.9021665483e-02
 1.2172364729e+00	 8.2670214316e-01	-1.2602703111e-01
 1.1974879478e+00	 8.5505768370e-01	-2.8021601781e-01
 1.1770386434e+00	 8.8299550246e-01	-4.4259776557e-01
 1.1559018781e+00	 9.1048992527e-01	-6.1235221878e-01
 1.3479670327e+00	 6.2476557081e-01	 1.2122030883e+00
 1.3332470047e+00	 6.5559089395e-01	 1.0238545974e+00
 1.3177618498e+00	 6.8618550274e-01	 8.2463125467e-01
 1.3015158236e+00	 7.1652162396e-01	 6.1577448352e-01
 1.2845145001e+00	 7.4657151392e-01	 3.9842357836e-01
 1.2667647791e+00	 7.7630753562e-01	 1.7361325202e-01
 1.2482748883e+00	 8.0570223697e-01	-4.8431152961e-02
 1.2290543795e+00	 8.3472842971e-01	-1.8697891848e-01
 1.2091141199e+00	 8.6335926854e-01	-3.3582977216e-01
 1.1884662773e+00	 8.9156833002e-01	-4.9427742204e-01
 1.1671242993e+00	 9.1932969072e-01	-6.6174113364e-01
 1.3609283316e+00	 6.3077296791e-01	 1.1813882627e+00
 1.3460667639e+00	 6.6189469017e-01	 9.9696995520e-01
 1.3304327124e+00	 6.9278347964e-01	 8.0209598014e-01
 1.3140304735e+00	 7.2341129607e-01	 5.9779007159e-01
 1.2968656748e+00	 7.5375012901e-01	 3.8496799352e-01
 1.2789452824e+00	 7.8377207570e-01	 1.6443690612e-01
 1.2602776031e+00	 8.1344942010e-01	-6.3104388119e-02
 1.2408722806e+00	 8.4275471251e-01	-2.5044987942e-01
 1.2207402866e+00	 8.7166084951e-01	-3.9414771786e-01
 1.1998939058e+00	 9.0014115359e-01	-5.4862549174e-01
 1.1783467153e+00	 9.2816945203e-01	-7.1349912916e-01
 1.3738896304e+00	 6.3678036502e-01	 1.1508175209e+00
 1.3588865232e+00	 6.6819848638e-01	 9.6965430805e-01
 1.3431035750e+00	 6.9938145654e-01	 7.7845255655e-01
 1.3265451234e+00	 7.3030096819e-01	 5.7804148125e-01
 1.3092168494e+00	 7.6092874410e-01	 3.6913949776e-01
 1.2911257856e+00	 7.9123661579e-01	 1.5235528136e-01
 1.2722803179e+00	 8.2119660322e-01	-7.1810242724e-02
 1.2526901817e+00	 8.5078099531e-01	-3.0296100715e-01
 1.2323664533e+00	 8.7996243048e-01	-4.5530525708e-01
 1.2113215344e+00	 9.0871397715e-01	-6.0574532922e-01
 1.1895691313e+00	 9.3700921335e-01	-7.6769172414e-01
 1.3868509352e+00	 6.4278776494e-01	 1.1205065242e+00
 1.3717062884e+00	 6.7450228554e-01	 9.4188015212e-01
 1.3557744436e+00	 7.0597943653e-01	 7.5364271114e-01
 1.3390597792e+00	 7.3719064352e-01	 5.5645136627e-01
 1.3215680299e+00	 7.6810736254e-01	 3.5085260720e-01
 1.3033062946e+00	 7.9870115935e-01	 1.3728487604e-01
 1.2842830382e+00	 8.2894378997e-01	-8.3917849474e-02
 1.2645080883e+00	 8.5880728185e-01	-3.1252156243e-01
 1.2439926254e+00	 8.8826401533e-01	-5.1943501202e-01
 1.2227491683e+00	 9.1728680472e-01	-6.6573877951e-01
 1.2007915526e+00	 9.4584897880e-01	-8.2438440977e-01
 1.3998122522e+00	 6.4879517046e-01	 1.0904717143e+00
 1.3845260656e+00	 6.8080609058e-01	 9.1362241847e-01
 1.3684453240e+00	 7.1257742267e-01	 7.2761179790e-01
 1.3515744466e+00	 7.4408032528e-01	 5.3294676209e-01
 1.3339192218e+00	 7.7528598768e-01	 3.3002656562e-01
 1.3154868149e+00	 8.0616570988e-01	 1.1914688306e-01
 1.2962857698e+00	 8.3669098394e-01	-9.9495163453e-02
 1.2763260060e+00	 8.6683357589e-01	-3.2579508404e-01
 1.2556188084e+00	 8.9656560792e-01	-5.5973427975e-01
 1.2341768128e+00	 9.2585964028e-01	-7.2870624836e-01
 1.2120139843e+00	 9.5468875249e-01	-8.8364265131e-01
 1.4127735873e+00	 6.5480258439e-01	 1.0607302777e+00
 1.3973458607e+00	 6.8710990445e-01	 8.8485836129e-01
 1.3811162221e+00	 7.1917541804e-01	 7.0030863118e-01
 1.3640891316e+00	 7.5097001669e-01	 5.0745888495e-01
 1.3462704311e+00	 7.8246462287e-01	 3.0658512773e-01
 1.3276673523e+00	 8.1363027087e-01	 9.7866974679e-02
 1.3082885182e+00	 8.4443818876e-01	-1.1860602310e-01
 1.2881439401e+00	 8.7485988116e-01	-3.4282720370e-01
 1.2672450076e+00	 9.0486721213e-01	-5.7486485621e-01
 1.2456044734e+00	 9.3443248785e-01	-7.9474676863e-01
 1.2232364317e+00	 9.6352853856e-01	-9.4553188977e-01
 1.4257349466e+00	 6.6081000953e-01	 1.0313001112e+00
 1.4101656798e+00	 6.9341373009e-01	 8.5556745221e-01
 1.3937871438e+00	 7.2577342574e-01	 6.7168532836e-01
 1.3766038399e+00	 7.5785972096e-01	 4.7992294185e-01
 1.3586216634e+00	 7.8964327147e-01	 2.8045635422e-01
 1.3398479124e+00	 8.2109484578e-01	 7.3375099101e-02
 1.3202912890e+00	 8.5218540804e-01	-1.4131033715e-01
 1.2999618964e+00	 8.8288620142e-01	-3.6366025497e-01
 1.2788712286e+00	 9.1316883184e-01	-5.9379680032e-01
 1.2570321553e+00	 9.4300535142e-01	-8.3189445068e-01
 1.2344589001e+00	 9.7236834113e-01	-1.0101175434e+00
 1.1222345306e+00	 8.8397056294e-01	-4.7774431800e-01
 1.1010601006e+00	 9.1020931966e-01	-6.5285094311e-01
 1.0792476632e+00	 9.3596949396e-01	-8.2607607204e-01
 1.0568136520e+00	 9.6122805398e-01	-9.9474035017e-01
 1.0337756005e+00	 9.8596273346e-01	-1.1562932627e+00
 1.0101520967e+00	 1.0101520967e+00	-1.3083304665e+00
 9.8596273346e-01	 1.0337756005e+00	-1.4486096738e+00
 9.6122805398e-01	 1.0568136520e+00	-1.5750649176e+00
 9.3596949396e-01	 1.0792476632e+00	-1.6858190488e+00
 9.1020931966e-01	 1.1010601006e+00	-1.7791943435e+00
 8.8397056294e-01	 1.1222345306e+00	-1.8537211214e+00
 1.1334569989e+00	 8.9281036551e-01	-5.2041940705e-01
 1.1120708224e+00	 9.1931151267e-01	-6.9635507228e-01
 1.0900402582e+00	 9.4532929154e-01	-8.7228859971e-01
 1.0673819044e+00	 9.7084043994e-01	-1.0449110969e+00
 1.0441134698e+00	 9.9582246892e-01	-1.2110130889e+00
 1.0202537285e+00	 1.0202537285e+00	-1.3675073381e+00
 9.9582246892e-01	 1.0441134698e+00	-1.5114504268e+00
 9.7084043994e-01	 1.0673819044e+00	-1.6400628763e+00
 9.4532929154e-01	 1.0900402582e+00	-1.7507475961e+00
 9.1931151267e-01	 1.1120708224e+00	-1.8411064811e+00
 8.9281036551e-01	 1.1334569989e+00	-1.9089550011e+00
 1.1446794464e+00	 9.0165015158e-01	-5.6526683641e-01
 1.1230815236e+00	 9.2841368870e-01	-7.4151419376e-01
 1.1008328330e+00	 9.5468907165e-01	-9.1926968108e-01
 1.0779501371e+00	 9.8045280795e-01	-1.0946533778e+00
 1.0544513199e+00	 1.0056821860e+00	-1.2638594548e+00
 1.0303553413e+00	 1.0303553413e+00	-1.4231840475e+00
 1.0056821860e+00	 1.0544513199e+00	-1.5690520705e+00
 9.8045280795e-01	 1.0779501371e+00	-1.6980426991e+00
 9.5468907165e-01	 1.1008328330e+00	-1.8069132549e+00
 9.2841368870e-01	 1.1230815236e+00	-1.8926212628e+00
 9.0165015158e-01	 1.1446794464e+00	-1.9523444669e+00
 1.1559018781e+00	 9.1048992527e-01	-6.1235221878e-01
 1.1340922094e+00	 9.3751585198e-01	-7.8835844097e-01
 1.1116253928e+00	 9.6404883866e-01	-9.6703301836e-01
 1.0885183550e+00	 9.9006516250e-01	-1.1439817676e+00
 1.0647891555e+00	 1.0155418892e+00	-1.3148632898e+00
 1.0404569401e+00	 1.0404569401e+00	-1.4754214690e+00
 1.0155418892e+00	 1.0647891555e+00	-1.6215170631e+00
 9.9006516250e-01	 1.0885183550e+00	-1.7491580632e+00
 9.6404883866e-01	 1.1116253928e+00	-1.8545285115e+00
 9.3751585198e-01	 1.1340922094e+00	-1.9340154953e+00
 9.1048992527e-01	 1.1559018781e+00	-1.9842340565e+00
 1.1671242993e+00	 9.1932969072e-01	-6.6174113364e-01
 1.1451028849e+00	 9.4661800676e-01	-8.3691934234e-01
 1.1224179424e+00	 9.7340859693e-01	-1.0155943985e+00
 1.0990865630e+00	 9.9967750808e-01	-1.1929129436e+00
 1.0751269815e+00	 1.0254015833e+00	-1.3640570409e+00
 1.0505585294e+00	 1.0505585294e+00	-1.5242808803e+00
 1.0254015833e+00	 1.0751269815e+00	-1.6689466965e+00
 9.9967750808e-01	 1.0990865630e+00	-1.7935595316e+00
 9.7340859693e-01	 1.1224179424e+00	-1.8938004895e+00
 9.4661800676e-01	 1.1451028849e+00	-1.9655581540e+00
 9.1932969072e-01	 1.1671242993e+00	-2.0049578678e+00
 1.1783467153e+00	 9.2816945203e-01	-7.1349912916e-01
 1.1561135553e+00	 9.5572015730e-01	-8.8722975538e-01
 1.1332104870e+00	 9.8276835083e-01	-1.0649715944e+00
 1.1096547661e+00	 1.0092898492e+00	-1.2414655862e+00
 1.0854648026e+00	 1.0352612727e+00	-1.4114746018e+00
 1.0606601140e+00	 1.0606601140e+00	-1.5698239444e+00
 1.0352612727e+00	 1.0854648026e+00	-1.7114411532e+00
 1.0092898492e+00	 1.1096547661e+00	-1.8313947027e+00
 9.8276835083e-01	 1.1332104870e+00	-1.9249312068e+00
 9.5572015730e-01	 1.1561135553e+00	-1.9875107578e+00
 9.2816945203e-01	 1.1783467153e+00	-2.0148400588e+00
 1.1895691313e+00	 9.3700921335e-01	-7.6769172414e-01
 1.1671242256e+00	 9.6482230784e-01	-9.3932380449e-01
 1.1440030317e+00	 9.9212810474e-01	-1.1151842720e+00
 1.1202229692e+00	 1.0189021903e+00	-1.2896602849e+00
 1.0958026237e+00	 1.0451209622e+00	-1.4571512455e+00
 1.0707616986e+00	 1.0707616986e+00	-1.6121126930e+00
 1.0451209622e+00	 1.0958026237e+00	-1.7490995601e+00
 1.0189021903e+00	 1.1202229692e+00	-1.8628083517e+00
 9.9212810474e-01	 1.1440030317e+00	-1.9481178189e+00
 9.6482230784e-01	 1.1671242256e+00	-2.0001277234e+00
 9.3700921335e-01	 1.1895691313e+00	-2.0141953183e+00
 1.2007915526e+00	 9.4584897880e-01	-8.2438440977e-01
 1.1781349011e+00	 9.7392446263e-01	-9.9323682232e-01
 1.1547955813e+00	 1.0014878630e+00	-1.1662539027e+00
 1.1307911772e+00	 1.0285145359e+00	-1.3375194508e+00
 1.1061404497e+00	 1.0549806562e+00	-1.5011235611e+00
 1.0808632879e+00	 1.0808632879e+00	-1.6512095099e+00
 1.0549806562e+00	 1.1061404497e+00	-1.7820200393e+00
 1.0285145359e+00	 1.1307911772e+00	-1.8879425646e+00
 1.0014878630e+00	 1.1547955813e+00	-1.9635528473e+00
 9.7392446263e-01	 1.1781349011e+00	-2.0036566987e+00
 9.4584897880e-01	 1.2007915526e+00	-2.0033293104e+00
 1.2120139843e+00	 9.5468875249e-01	-8.8364265131e-01
 1.1891455869e+00	 9.8302662591e-01	-1.0490052943e+00
 1.1655881411e+00	 1.0108476300e+00	-1.2182036800e+00
 1.1413593951e+00	 1.0381268904e+00	-1.3850672322e+00
 1.1164782853e+00	 1.0648403595e+00	-1.5434293935e+00
 1.0909648867e+00	 1.0909648867e+00	-1.6871771163e+00
 1.0648403595e+00	 1.1164782853e+00	-1.8102997560e+00
 1.0381268904e+00	 1.1413593951e+00	-1.9069368638e+00
 1.0108476300e+00	 1.1655881411e+00	-1.9714243960e+00
 9.8302662591e-01	 1.1891455869e+00	-1.9983388782e+00
 9.5468875249e-01	 1.2120139843e+00	-1.9825390949e+00
 1.2232364317e+00	 9.6352853856e-01	-9.4553188977e-01
 1.2001562881e+00	 9.9212880193e-01	-1.1066668066e+00
 1.1763807159e+00	 1.0202074101e+00	-1.2710584415e+00
 1.1519276278e+00	 1.0477392584e+00	-1.4323294365e+00
 1.1268161354e+00	 1.0747000765e+00	-1.5841077874e+00
 1.1010664996e+00	 1.1010664996e+00	-1.7200785569e+00
 1.0747000765e+00	 1.1268161354e+00	-1.8340349640e+00
 1.0477392584e+00	 1.1519276278e+00	-1.9199283277e+00
 1.0202074101e+00	 1.1763807159e+00	-1.9719163563e+00
 9.9212880193e-01	 1.2001562881e+00	-1.9844093012e+00
 9.6352853856e-01	 1.2232364317e+00	-1.9521135234e+00
 1.2344589001e+00	 9.7236834113e-01	-1.0101175434e+00
 1.2111670099e+00	 1.0012309949e+00	-1.1662599960e+00
 1.1871733109e+00	 1.0295672077e+00	-1.3248445950e+00
 1.1624958802e+00	 1.0573516444e+00	-1.4793334551e+00
 1.1371540047e+00	 1.0845598120e+00	-1.6231989334e+00
 1.1111681313e+00	 1.1111681313e+00	-1.7499771856e+00
 1.0845598120e+00	 1.1371540047e+00	-1.8533210483e+00
 1.0573516444e+00	 1.1624958802e+00	-1.9270517033e+00
 1.0295672077e+00	 1.1871733109e+00	-1.9652085998e+00
 1.0012309949e+00	 1.2111670099e+00	-1.9620971334e+00
 9.7236834113e-01	 1.2344589001e+00	-1.9123336154e+00
 8.8397056294e-01	 1.1222345306e+00	-1.8537211214e+00
 8.5727695575e-01	 1.1427556564e+00	-1.9075276710e+00
 8.3015286718e-01	 1.1626093447e+00	-1.9386353839e+00
 8.0262322360e-01	 1.1817826648e+00	-1.9455893497e+00
 7.7471343215e-01	 1.2002639171e+00	-1.9269676520e+00
 7.4644930563e-01	 1.2180426524e+00	-1.8813970563e+00
 7.1785698657e-01	 1.2351096861e+00	-1.8075677931e+00
 6.8896287119e-01	 1.2514571071e+00	-1.7268802590e+00
 6.5979353355e-01	 1.2670782810e+00	-1.8410064400e+00
 6.3037565026e-01	 1.2819678480e+00	-1.9216037201e+00
 6.0073592630e-01	 1.2961217165e+00	-1.9669567376e+00
 8.9281036551e-01	 1.1334569989e+00	-1.9089550011e+00
 8.6584981932e-01	 1.1541833383e+00	-1.9514654850e+00
 8.3845448689e-01	 1.1742355656e+00	-1.9665510064e+00
 8.1064954385e-01	 1.1936006210e+00	-1.9533578523e+00
 7.8246065143e-01	 1.2122666879e+00	-1.9111102196e+00
 7.5391388054e-01	 1.2302232125e+00	-1.8391203431e+00
 7.2503563516e-01	 1.2474609184e+00	-1.7367975017e+00
 6.9585257546e-01	 1.2639718154e+00	-1.8200601380e+00
 6.6639154124e-01	 1.2797492027e+00	-1.9098227498e+00
 6.3667947589e-01	 1.2947876671e+00	-1.9665636925e+00
 6.0674335144e-01	 1.3090830758e+00	-1.9893240819e+00
 9.0165015158e-01	 1.1446794464e+00	-1.9523444669e+00
 8.7442266689e-01	 1.1656109988e+00	-1.9824580973e+00
 8.4675609111e-01	 1.1858617648e+00	-1.9808733294e+00
 8.1867584912e-01	 1.2054185552e+00	-1.9473330861e+00
 7.9020785625e-01	 1.2242694363e+00	-1.8816984534e+00
 7.6137844153e-01	 1.2424037499e+00	-1.7839533337e+00
 7.3221427034e-01	 1.2598121277e+00	-1.8024556904e+00
 7.0274226687e-01	 1.2764865004e+00	-1.9017045239e+00
 6.7298953662e-01	 1.2924201008e+00	-1.9690812745e+00
 6.4298328975e-01	 1.3076074622e+00	-2.0042843155e+00
 6.1275076537e-01	 1.3220444109e+00	-2.0070758348e+00
 9.1048992527e-01	 1.1559018781e+00	-1.9842340565e+00
 8.8299550246e-01	 1.1770386434e+00	-2.0009073435e+00
 8.5505768370e-01	 1.1974879478e+00	-1.9820387320e+00
 8.2670214316e-01	 1.2172364729e+00	-1.9279634594e+00
 7.9795505023e-01	 1.2362721679e+00	-1.8391706088e+00
 7.6884299206e-01	 1.2545842702e+00	-1.7837492131e+00
 7.3939289548e-01	 1.2721633197e+00	-1.8937326333e+00
 7.0963194863e-01	 1.2890011678e+00	-1.9719999189e+00
 6.7958752276e-01	 1.3050909812e+00	-2.0188774536e+00
 6.4928709480e-01	 1.3204272394e+00	-2.0347509229e+00
 6.1875817089e-01	 1.3350057279e+00	-2.0200689699e+00
 9.1932969072e-01	 1.1671242993e+00	-2.0049578678e+00
 8.9156833002e-01	 1.1884662773e+00	-2.0072024039e+00
 8.6335926854e-01	 1.2091141199e+00	-1.9704695888e+00
 8.3472842971e-01	 1.2290543795e+00	-1.8956828847e+00
 8.0570223697e-01	 1.2482748883e+00	-1.7839507973e+00
 7.7630753562e-01	 1.2667647791e+00	-1.8820652253e+00
 7.4657151392e-01	 1.2845145001e+00	-1.9723733569e+00
 7.1652162396e-01	 1.3015158236e+00	-2.0311246298e+00
 6.8618550274e-01	 1.3177618498e+00	-2.0593020709e+00
 6.5559089395e-01	 1.3332470047e+00	-2.0579484656e+00
 6.2476557081e-01	 1.3479670327e+00	-2.0281650554e+00
 9.2816945203e-01	 1.1783467153e+00	-2.0148400588e+00
 9.0014115359e-01	 1.1998939058e+00	-2.0017204087e+00
 8.7166084951e-01	 1.2207402866e+00	-1.9465749395e+00
 8.4275471251e-01	 1.2408722806e+00	-1.8509114706e+00
 8.1344942010e-01	 1.2602776031e+00	-1.8626231695e+00
 7.8377207570e-01	 1.2789452824e+00	-1.9669227758e+00
 7.5375012901e-01	 1.2968656748e+00	-2.0386142378e+00
 7.2341129607e-01	 1.3140304735e+00	-2.0792491592e+00
 6.9278347964e-01	 1.3304327124e+00	-2.0904414769e+00
 6.6189469017e-01	 1.3460667639e+00	-2.0738615315e+00
 6.3077296791e-01	 1.3609283316e+00	-2.0312300356e+00
 9.3700921335e-01	 1.1895691313e+00	-2.0141953183e+00
 9.0871397715e-01	 1.2113215344e+00	-1.9848270086e+00
 8.7996243048e-01	 1.2323664533e+00	-1.9107511201e+00
 8.5078099531e-01	 1.2526901817e+00	-1.8311483781e+00
 8.2119660322e-01	 1.2722803179e+00	-1.9521121229e+00
 7.9123661579e-01	 1.2911257856e+00	-2.0385934738e+00
 7.6092874410e-01	 1.3092168494e+00	-2.0926816974e+00
 7.3030096819e-01	 1.3265451234e+00	-2.1165365757e+00
 6.9938145654e-01	 1.3431035750e+00	-2.1123777996e+00
 6.6819848638e-01	 1.3588865232e+00	-2.0824743638e+00
 6.3678036502e-01	 1.3738896304e+00	-2.0291340258e+00
 9.4584897880e-01	 1.2007915526e+00	-2.0033293104e+00
 9.1728680472e-01	 1.2227491683e+00	-1.9568769134e+00
 8.8826401533e-01	 1.2439926254e+00	-1.8633823588e+00
 8.5880728185e-01	 1.2645080883e+00	-1.9241934239e+00
 8.2894378997e-01	 1.2842830382e+00	-2.0280307676e+00
 7.9870115935e-01	 1.3033062946e+00	-2.0973377186e+00
 7.6810736254e-01	 1.3215680299e+00	-2.1347926694e+00
 7.3719064352e-01	 1.3390597792e+00	-2.1431428619e+00
 7.0597943653e-01	 1.3557744436e+00	-2.1251891432e+00
 6.7450228554e-01	 1.3717062884e+00	-2.0837708773e+00
 6.4278776494e-01	 1.3868509352e+00	-2.0217511177e+00
 9.5468875249e-01	 1.2120139843e+00	-1.9825390949e+00
 9.2585964028e-01	 1.2341768128e+00	-1.9182144009e+00
 8.9656560792e-01	 1.2556188084e+00	-1.8792214117e+00
 8.6683357589e-01	 1.2763260060e+00	-2.0036481080e+00
 8.3669098394e-01	 1.2962857698e+00	-2.0906533281e+00
 8.0616570988e-01	 1.3154868149e+00	-2.1434052198e+00
 7.7528598768e-01	 1.3339192218e+00	-2.1651550396e+00
 7.4408032528e-01	 1.3515744466e+00	-2.1592172445e+00
 7.1257742267e-01	 1.3684453240e+00	-2.1289497750e+00
 6.8080609058e-01	 1.3845260656e+00	-2.0777346757e+00
 6.4879517046e-01	 1.3998122522e+00	-2.0089591963e+00
 9.6352853856e-01	 1.2232364317e+00	-1.9521135234e+00
 9.3443248785e-01	 1.2456044734e+00	-1.8691737973e+00
 9.0486721213e-01	 1.2672450076e+00	-1.9619227027e+00
 8.7485988116e-01	 1.2881439401e+00	-2.0697820491e+00
 8.4443818876e-01	 1.3082885182e+00	-2.1402429019e+00
 8.1363027087e-01	 1.3276673523e+00	-2.1770354895e+00
 7.8246462287e-01	 1.3462704311e+00	-2.1839680630e+00
 7.5097001669e-01	 1.3640891316e+00	-2.1649025053e+00
 7.1917541804e-01	 1.3811162221e+00	-2.1237303029e+00
 6.8710990445e-01	 1.3973458607e+00	-2.0643490659e+00
 6.5480258439e-01	 1.4127735873e+00	-1.9906397669e+00
 9.7236834113e-01	 1.2344589001e+00	-1.9123336154e+00
 9.4300535142e-01	 1.2570321553e+00	-1.8990578674e+00
 9.1316883184e-01	 1.2788712286e+00	-2.0315835445e+00
 8.8288620142e-01	 1.2999618964e+00	-2.1228539809e+00
 8.5218540804e-01	 1.3202912890e+00	-2.1770519661e+00
 8.2109484578e-01	 1.3398479124e+00	-2.1984583072e+00
 7.8964327147e-01	 1.3586216634e+00	-2.1914227575e+00
 7.5785972096e-01	 1.3766038399e+00	-2.1603352752e+00
 7.2577342574e-01	 1.3937871438e+00	-2.1095978433e+00
 6.9341373009e-01	 1.4101656798e+00	-2.0435970730e+00
 6.6081000953e-01	 1.4257349466e+00	-1.9666777907e+00
 6.0073592630e-01	 1.2961217165e+00	-1.9669567376e+00
 5.7090311561e-01	 1.3095361383e+00	-1.9821298497e+00
 5.4090168402e-01	 1.3222105396e+00	-1.9759405936e+00
 5.1075797952e-01	 1.3341445482e+00	-1.9523472701e+00
 4.8049810011e-01	 1.3453389831e+00	-1.9152823938e+00
 4.5014783034e-01	 1.3557958246e+00	-1.8686260864e+00
 4.1973258100e-01	 1.3655181805e+00	-1.8161809021e+00
 3.8927733199e-01	 1.3745102498e+00	-1.7616482354e+00
 3.5880657870e-01	 1.3827772816e+00	-1.7086064426e+00
 3.2834428200e-01	 1.3903255334e+00	-1.6604907804e+00
 2.9791382207e-01	 1.3971622246e+00	-1.6205752449e+00
 6.0674335144e-01	 1.3090830758e+00	-1.9893240819e+00
 5.7661220937e-01	 1.3226316433e+00	-1.9838966876e+00
 5.4631076018e-01	 1.3354327900e+00	-1.9593642804e+00
 5.1586561533e-01	 1.3474861400e+00	-1.9197248538e+00
 4.8530313380e-01	 1.3587925205e+00	-1.8689137274e+00
 4.5464935801e-01	 1.3693539315e+00	-1.8107780265e+00
 4.2392995285e-01	 1.3791735121e+00	-1.7490528214e+00
 3.9317014801e-01	 1.3882555030e+00	-1.6873390602e+00
 3.6239468383e-01	 1.3966052061e+00	-1.6290833997e+00
 3.3162776083e-01	 1.4042289412e+00	-1.5775600171e+00
 3.0089299296e-01	 1.4111340001e+00	-1.5358544600e+00
 6.1275076537e-01	 1.3220444109e+00	-2.0070758348e+00
 5.8232129248e-01	 1.3357271238e+00	-1.9838308818e+00
 5.5171982624e-01	 1.3486550157e+00	-1.9437088001e+00
 5.2097324160e-01	 1.3608277069e+00	-1.8906485721e+00
 4.9010815853e-01	 1.3722460328e+00	-1.8284950811e+00
 4.5915087728e-01	 1.3829120131e+00	-1.7609751969e+00
 4.2812731685e-01	 1.3928288182e+00	-1.6916756864e+00
 3.9706295675e-01	 1.4020007306e+00	-1.6240230601e+00
 3.6598278227e-01	 1.4104331047e+00	-1.5612654354e+00
 3.3491123353e-01	 1.4181323230e+00	-1.5064564779e+00
 3.0387215829e-01	 1.4251057495e+00	-1.4624414518e+00
 6.1875817089e-01	 1.3350057279e+00	-2.0200689699e+00
 5.8803036759e-01	 1.3488225860e+00	-1.9816595336e+00
 5.5712888473e-01	 1.3618772229e+00	-1.9285877667e+00
 5.2608086073e-01	 1.3741692551e+00	-1.8646374551e+00
 4.9491317653e-01	 1.3856995262e+00	-1.7934722056e+00
 4.6365239024e-01	 1.3964700758e+00	-1.7186136511e+00
 4.3232467498e-01	 1.4064841051e+00	-1.6434215817e+00
 4.0095576004e-01	 1.4157459389e+00	-1.5710760893e+00
 3.6957087569e-01	 1.4242609840e+00	-1.5045617827e+00
 3.3819470163e-01	 1.4320356854e+00	-1.4466541092e+00
 3.0685131945e-01	 1.4390774793e+00	-1.3999077947e+00
 6.2476557081e-01	 1.3479670327e+00	-2.0281650554e+00
 5.9373943738e-01	 1.3619180360e+00	-1.9771193745e+00
 5.6253793817e-01	 1.3750994178e+00	-1.9136288313e+00
 5.3118847508e-01	 1.3875107909e+00	-1.8412282506e+00
 4.9971819004e-01	 1.3991530071e+00	-1.7633114320e+00
 4.6815389901e-01	 1.4100281258e+00	-1.6831119791e+00
 4.3652202919e-01	 1.4201393793e+00	-1.6036860962e+00
 4.0484855971e-01	 1.4294911344e+00	-1.5278974089e+00
 3.7315896575e-01	 1.4380888504e+00	-1.4584038455e+00
 3.4147816667e-01	 1.4459390348e+00	-1.3976465886e+00
 3.0983047783e-01	 1.4530491961e+00	-1.3478410894e+00
 6.3077296791e-01	 1.3609283316e+00	-2.0312300356e+00
 5.9944850450e-01	 1.3750134799e+00	-1.9699563084e+00
 5.6794698909e-01	 1.3883216065e+00	-1.8984730136e+00
 5.3629608706e-01	 1.4008523204e+00	-1.8199745807e+00
 5.0452320132e-01	 1.4126064816e+00	-1.7374986911e+00
 4.7265540567e-01	 1.4235861694e+00	-1.6539102340e+00
 4.4071938145e-01	 1.4337946472e+00	-1.5718872034e+00
 4.0874135755e-01	 1.4432363235e+00	-1.4939085710e+00
 3.7674705414e-01	 1.4519167104e+00	-1.4222441421e+00
 3.4476163017e-01	 1.4598423778e+00	-1.3589463845e+00
 3.1280963482e-01	 1.4670209063e+00	-1.3058441990e+00
 6.3678036502e-01	 1.3738896304e+00	-2.0291340258e+00
 6.0515757163e-01	 1.3881089238e+00	-1.9599249791e+00
 5.7335604000e-01	 1.4015437952e+00	-1.8827740722e+00
 5.4140369903e-01	 1.4141938499e+00	-1.8004461451e+00
 5.0932821259e-01	 1.4260599562e+00	-1.7155385888e+00
 4.7715691233e-01	 1.4371442131e+00	-1.6304689187e+00
 4.4491673370e-01	 1.4474499150e+00	-1.5474642050e+00
 4.1263415539e-01	 1.4569815126e+00	-1.4685523666e+00
 3.8033514254e-01	 1.4657445703e+00	-1.3955553082e+00
 3.4804509368e-01	 1.4737457207e+00	-1.3300838685e+00
 3.1578879180e-01	 1.4809926166e+00	-1.2735345277e+00
 6.4278776494e-01	 1.3868509352e+00	-2.0217511177e+00
 6.1086664141e-01	 1.4012043738e+00	-1.9467883627e+00
 5.7876509344e-01	 1.4147659900e+00	-1.8661979088e+00
 5.4651131339e-01	 1.4275353857e+00	-1.7822279705e+00
 5.1413322610e-01	 1.4395134371e+00	-1.6969535331e+00
 4.8165842109e-01	 1.4507022631e+00	-1.6122680298e+00
 4.4911408791e-01	 1.4611051892e+00	-1.5298767331e+00
 4.1652695505e-01	 1.4707267081e+00	-1.4512918323e+00
 3.8392323260e-01	 1.4795724367e+00	-1.3778291558e+00
 3.5132855872e-01	 1.4876490701e+00	-1.3106064776e+00
 3.1876795018e-01	 1.4949643334e+00	-1.2505433410e+00
 6.4879517046e-01	 1.3998122522e+00	-2.0089591963e+00
 6.1657571653e-01	 1.4142998360e+00	-1.9303173822e+00
 5.8417415193e-01	 1.4279881972e+00	-1.8484220069e+00
 5.5161893251e-01	 1.4408769339e+00	-1.7649197008e+00
 5.1893824410e-01	 1.4529669305e+00	-1.6812829095e+00
 4.8615993406e-01	 1.4642603257e+00	-1.5988061550e+00
 4.5331144604e-01	 1.4747604761e+00	-1.5186038083e+00
 4.2041975835e-01	 1.4844719164e+00	-1.4416093120e+00
 3.8751132602e-01	 1.4934003160e+00	-1.3685757844e+00
 3.5461202682e-01	 1.5015524325e+00	-1.3000779238e+00
 3.2174711134e-01	 1.5089360632e+00	-1.2365151225e+00
 6.5480258439e-01	 1.4127735873e+00	-1.9906397669e+00
 6.2228479964e-01	 1.4273953166e+00	-1.9102905438e+00
 5.8958321800e-01	 1.4412104230e+00	-1.8291349004e+00
 5.5672655879e-01	 1.4542185008e+00	-1.7481349264e+00
 5.2374326883e-01	 1.4664204428e+00	-1.6680823022e+00
 4.9066145333e-01	 1.4778184073e+00	-1.5895996196e+00
 4.5750881004e-01	 1.4884157822e+00	-1.5131429504e+00
 4.2431256709e-01	 1.4982171440e+00	-1.4390055705e+00
 3.9109942445e-01	 1.5072282146e+00	-1.3673227417e+00
 3.5789549951e-01	 1.5154558143e+00	-1.2980774460e+00
 3.2472627667e-01	 1.5229078126e+00	-1.2311069666e+00
 6.6081000953e-01	 1.4257349466e+00	-1.9666777907e+00
 6.2799389340e-01	 1.4404908216e+00	-1.8864935923e+00
 5.9499229416e-01	 1.4544326734e+00	-1.8080356719e+00
 5.6183419459e-01	 1.4675600926e+00	-1.7315005506e+00
 5.2854830253e-01	 1.4798739801e+00	-1.6569227577e+00
 4.9516298100e-01	 1.4913765143e+00	-1.5841816797e+00
 4.6170618189e-01	 1.5020711138e+00	-1.5130093360e+00
 4.2820538310e-01	 1.5119623972e+00	-1.4429989558e+00
 3.9468752959e-01	 1.5210561391e+00	-1.3736142291e+00
 3.6117897834e-01	 1.5293592221e+00	-1.3041991038e+00
 3.2770544756e-01	 1.5368795881e+00	-1.2339880049e+00
 2.9791382207e-01	 1.3971622246e+00	-1.6205752449e+00
 2.6753583722e-01	 1.4032958951e+00	-1.5897575133e+00
 2.3723458483e-01	 1.4087350444e+00	-1.5651118756e+00
 2.0703149792e-01	 1.4134894915e+00	-1.5441196422e+00
 1.7694728091e-01	 1.4175698189e+00	-1.5243813300e+00
 1.4700188301e-01	 1.4209873210e+00	-1.5036298818e+00
 1.1721447557e-01	 1.4237539505e+00	-1.4797420638e+00
 8.7603433220e-02	 1.4258822653e+00	-1.4507480498e+00
 5.8186318747e-02	 1.4273853760e+00	-1.4148392257e+00
 2.8979871629e-02	 1.4282768926e+00	-1.3703742588e+00
 0.0000000000e+00	 1.4285708730e+00	-1.3158834954e+00
 3.0089299296e-01	 1.4111340001e+00	-1.5358544600e+00
 2.7021122493e-01	 1.4173290079e+00	-1.5049764077e+00
 2.3960695669e-01	 1.4228225494e+00	-1.4818121661e+00
 2.0910183560e-01	 1.4276245414e+00	-1.4632145862e+00
 1.7871677312e-01	 1.4317456726e+00	-1.4461971847e+00
 1.4847191796e-01	 1.4351973501e+00	-1.4279497182e+00
 1.1838663318e-01	 1.4379916461e+00	-1.4058514755e+00
 8.8479477159e-02	 1.4401412443e+00	-1.3774823115e+00
 5.8768188315e-02	 1.4416593863e+00	-1.3406314679e+00
 2.9269673523e-02	 1.4425598181e+00	-1.2933042467e+00
 0.0000000000e+00	 1.4428567384e+00	-1.2337266205e+00
 3.0387215829e-01	 1.4251057495e+00	-1.4624414518e+00
 2.7288660765e-01	 1.4313620946e+00	-1.4304476830e+00
 2.4197932413e-01	 1.4369100280e+00	-1.4074437121e+00
 2.1117216942e-01	 1.4417595649e+00	-1.3898486770e+00
 1.8048626203e-01	 1.4459214998e+00	-1.3742752268e+00
 1.4994195017e-01	 1.4494073526e+00	-1.3575465805e+00
 1.1955878861e-01	 1.4522293152e+00	-1.3367109603e+00
 8.9355519462e-02	 1.4544001967e+00	-1.3090534341e+00
 5.9350056796e-02	 1.4559333699e+00	-1.2721052262e+00
 2.9559474876e-02	 1.4568427170e+00	-1.2236505784e+00
 0.0000000000e+00	 1.4571425772e+00	-1.1617312627e+00
 3.0685131945e-01	 1.4390774793e+00	-1.3999077947e+00
 2.7556198662e-01	 1.4453951616e+00	-1.3658520972e+00
 2.4435168824e-01	 1.4509974869e+00	-1.3417820301e+00
 2.1324250034e-01	 1.4558945687e+00	-1.3238724620e+00
 1.8225574847e-01	 1.4600973071e+00	-1.3085162022e+00
 1.5141198032e-01	 1.4636173352e+00	-1.2923416867e+00
 1.2073094239e-01	 1.4664669643e+00	-1.2722278095e+00
 9.0231560538e-02	 1.4686591292e+00	-1.2453159431e+00
 5.9931924463e-02	 1.4702073336e+00	-1.2090192201e+00
 2.9849275823e-02	 1.4711255959e+00	-1.1610291709e+00
 0.0000000000e+00	 1.4714283959e+00	-1.0993198337e+00
 3.0983047783e-01	 1.4530491961e+00	-1.3478410894e+00
 2.7823736310e-01	 1.4594282155e+00	-1.3108822866e+00
 2.4672405014e-01	 1.4650849327e+00	-1.2846109214e+00
 2.1531282933e-01	 1.4700295592e+00	-1.2651419382e+00
 1.8402523325e-01	 1.4742731012e+00	-1.2488244253e+00
 1.5288200909e-01	 1.4778273046e+00	-1.2322590843e+00
 1.2190309507e-01	 1.4807046001e+00	-1.2123127262e+00
 9.1107600796e-02	 1.4829180483e+00	-1.1861298492e+00
 6.0513791587e-02	 1.4844812839e+00	-1.1511413797e+00
 3.0139076500e-02	 1.4854084615e+00	-1.1050706816e+00
 0.0000000000e+00	 1.4857142013e+00	-1.0459369620e+00
 3.1280963482e-01	 1.4670209063e+00	-1.3058441990e+00
 2.8091273832e-01	 1.4734612629e+00	-1.2652421988e+00
 2.4909641093e-01	 1.4791723719e+00	-1.2357220764e+00
 2.1738315735e-01	 1.4841645432e+00	-1.2135182921e+00
 1.8579471720e-01	 1.4884488887e+00	-1.1951076092e+00
 1.5435203718e-01	 1.4920372673e+00	-1.1772255155e+00
 1.2307524721e-01	 1.4949422293e+00	-1.1568796622e+00
 9.1983640646e-02	 1.4971769608e+00	-1.1313603864e+00
 6.1095658438e-02	 1.4987552276e+00	-1.0982484068e+00
 3.0428877041e-02	 1.4996913204e+00	-1.0554198059e+00
 0.0000000000e+00	 1.5000000000e+00	-1.0010484342e+00
 3.1578879180e-01	 1.4809926166e+00	-1.2735345277e+00
 2.8358811355e-01	 1.4874943102e+00	-1.2286465584e+00
 2.5146877173e-01	 1.4932598111e+00	-1.1949147023e+00
 2.1945348537e-01	 1.4982995272e+00	-1.1688676543e+00
 1.8756420116e-01	 1.5026246762e+00	-1.1472767045e+00
 1.5582206527e-01	 1.5062472300e+00	-1.1271702898e+00
 1.2424739935e-01	 1.5091798585e+00	-1.1058456652e+00
 9.2859680495e-02	 1.5114358733e+00	-1.0808777661e+00
 6.1677525290e-02	 1.5130291713e+00	-1.0501253614e+00
 3.0718677582e-02	 1.5139741793e+00	-1.0117346152e+00
 0.0000000000e+00	 1.5142857987e+00	-9.6414019684e-01
 3.1876795018e-01	 1.4949643334e+00	-1.2505433410e+00
 2.8626349002e-01	 1.5015273641e+00	-1.2008203626e+00
 2.5384113363e-01	 1.5073472569e+00	-1.1619951706e+00
 2.2152381435e-01	 1.5124345177e+00	-1.1310608681e+00
 1.8933368594e-01	 1.5168004703e+00	-1.1052457477e+00
 1.5729209405e-01	 1.5204571994e+00	-1.0820251640e+00
 1.2541955203e-01	 1.5234174944e+00	-1.0591307338e+00
 9.3735720753e-02	 1.5256947924e+00	-1.0345569439e+00
 6.2259392413e-02	 1.5273031216e+00	-1.0065652704e+00
 3.1008478258e-02	 1.5282570449e+00	-9.7368593138e-01
 0.0000000000e+00	 1.5285716041e+00	-9.3471741307e-01
 3.2174711134e-01	 1.5089360632e+00	-1.2365151225e+00
 2.8893886899e-01	 1.5155604311e+00	-1.1814984047e+00
 2.5621349774e-01	 1.5214347158e+00	-1.1367766847e+00
 2.2359414527e-01	 1.5265695215e+00	-1.0999732706e+00
 1.9110317237e-01	 1.5309762776e+00	-1.0689317184e+00
 1.5876212420e-01	 1.5346671820e+00	-1.0417242282e+00
 1.2659170581e-01	 1.5376551435e+00	-1.0166576802e+00
 9.4611761829e-02	 1.5399537249e+00	-9.9227739996e-01
 6.2841260080e-02	 1.5415770853e+00	-9.6736875899e-01
 3.1298279206e-02	 1.5425399238e+00	-9.4095673590e-01
 0.0000000000e+00	 1.5428574228e+00	-9.1230357307e-01
 3.2472627667e-01	 1.5229078126e+00	-1.2311069666e+00
 2.9161425171e-01	 1.5295935178e+00	-1.1704248239e+00
 2.5858586517e-01	 1.5355221944e+00	-1.1190789664e+00
 2.2566447909e-01	 1.5407045450e+00	-1.0754844859e+00
 1.9287266128e-01	 1.5451521048e+00	-1.0382544032e+00
 1.6023215640e-01	 1.5488771845e+00	-1.0062037988e+00
 1.2776386123e-01	 1.5518928126e+00	-9.7835200194e-01
 9.5487804132e-02	 1.5542126773e+00	-9.5392293154e-01
 6.3423128561e-02	 1.5558510689e+00	-9.3234370185e-01
 3.1588080558e-02	 1.5568228227e+00	-9.1324161217e-01
 0.0000000000e+00	 1.5571432616e+00	-8.9643965267e-01
 3.2770544756e-01	 1.5368795881e+00	-1.2339880049e+00
 2.9428963942e-01	 1.5436266306e+00	-1.1673526799e+00
 2.6095823704e-01	 1.5496096993e+00	-1.1087279582e+00
 2.2773481677e-01	 1.5548395949e+00	-1.0574782300e+00
 1.9464215349e-01	 1.5593279585e+00	-1.0131362681e+00
 1.6170219135e-01	 1.5630872136e+00	-9.7540231727e-01
 1.2893601884e-01	 1.5661305082e+00	-9.4414175877e-01
 9.6363848071e-02	 1.5684716563e+00	-9.1938145648e-01
 6.4004998129e-02	 1.5701250792e+00	-9.0130489350e-01
 3.1877882452e-02	 1.5711057482e+00	-8.9024621777e-01
 0.0000000000e+00	 1.5714291270e+00	-8.8668331816e-01
 1.5714291270e+00	 0.0000000000e+00	 3.2174282992e+00
 1.5711057482e+00	 3.1877882452e-02	 3.2107956632e+00
 1.5701250792e+00	 6.4004998129e-02	 3.1962969785e+00
 1.5684716563e+00	 9.6363848071e-02	 3.1733493321e+00
 1.5661305082e+00	 1.2893601884e-01	 3.1412305994e+00
 1.5630872136e+00	 1.6170219135e-01	 3.0990782815e+00
 1.5593279585e+00	 1.9464215349e-01	 3.0458895498e+00
 1.5548395949e+00	 2.2773481677e-01	 2.9805225821e+00
 1.5496096993e+00	 2.6095823704e-01	 2.9016992623e+00
 1.5436266306e+00	 2.9428963942e-01	 2.8080093070e+00
 1.5368795881e+00	 3.2770544756e-01	 2.6979158688e+00
 1.5857150240e+00	 0.0000000000e+00	 3.2118034344e+00
 1.5853887055e+00	 3.2167684989e-02	 3.1980435093e+00
 1.5843991212e+00	 6.4586868987e-02	 3.1796150430e+00
 1.5827306669e+00	 9.7239893951e-02	 3.1554031794e+00
 1.5803682354e+00	 1.3010817905e-01	 3.1241283443e+00
 1.5772972741e+00	 1.6317222956e-01	 3.0843481124e+00
 1.5735038435e+00	 1.9641164963e-01	 3.0344606512e+00
 1.5689746762e+00	 2.2980515904e-01	 2.9727098196e+00
 1.5636972355e+00	 2.6333061416e-01	 2.8971919852e+00
 1.5576597746e+00	 2.9696503306e-01	 2.8058646094e+00
 1.5508513945e+00	 3.3068462505e-01	 2.6965566302e+00
 1.6000009511e+00	 0.0000000000e+00	 3.2029544796e+00
 1.5996716927e+00	 3.2457488135e-02	 3.1837258087e+00
 1.5986731931e+00	 6.5168741068e-02	 3.1623649229e+00
 1.5969897075e+00	 9.8115941672e-02	 3.1373281842e+00
 1.5946059925e+00	 1.3128034172e-01	 3.1068878227e+00
 1.5915073645e+00	 1.6464227086e-01	 3.0691363827e+00
 1.5876797584e+00	 1.9818114948e-01	 3.0219930454e+00
 1.5831097871e+00	 2.3187550566e-01	 2.9632118998e+00
 1.5777848012e+00	 2.6570299626e-01	 2.8903922186e+00
 1.5716929480e+00	 2.9964043232e-01	 2.8009907741e+00
 1.5648232303e+00	 3.3366380880e-01	 2.6923362089e+00
 1.6142869048e+00	 0.0000000000e+00	 3.1908411704e+00
 1.6139547065e+00	 3.2747291821e-02	 3.1677647565e+00
 1.6129472916e+00	 6.5750614234e-02	 3.1444476514e+00
 1.6112487747e+00	 9.8991991028e-02	 3.1190176809e+00
 1.6088437762e+00	 1.3245250658e-01	 3.0894051019e+00
 1.6057174814e+00	 1.6611231490e-01	 3.0533491840e+00
 1.6018556997e+00	 1.9995065263e-01	 3.0084068979e+00
 1.5972449245e+00	 2.3394585614e-01	 2.9519637780e+00
 1.5918723933e+00	 2.6807538279e-01	 2.8812470073e+00
 1.5857261476e+00	 3.0231583657e-01	 2.7933407483e+00
 1.5787950921e+00	 3.3664299811e-01	 2.6852037205e+00
 1.6285728819e+00	 0.0000000000e+00	 3.1754246445e+00
 1.6282377438e+00	 3.3037095981e-02	 3.1500853292e+00
 1.6272214135e+00	 6.6332488351e-02	 3.1257678484e+00
 1.6255078652e+00	 9.9868041815e-02	 3.1003689245e+00
 1.6230815831e+00	 1.3362467335e-01	 3.0715801389e+00
 1.6199276215e+00	 1.6758236134e-01	 3.0368962116e+00
 1.6160316641e+00	 2.0172015868e-01	 2.9936255508e+00
 1.6113800849e+00	 2.3601621001e-01	 2.9389031345e+00
 1.6059600083e+00	 2.7044777320e-01	 2.8697057648e+00
 1.5997593701e+00	 3.0499124519e-01	 2.7828697088e+00
 1.5927669768e+00	 3.3962219229e-01	 2.6751107132e+00
 1.6428588790e+00	 0.0000000000e+00	 3.1566673808e+00
 1.6425208010e+00	 3.3326900547e-02	 3.1306151637e+00
 1.6414955554e+00	 6.6914363283e-02	 3.1062335645e+00
 1.6397669756e+00	 1.0074409383e-01	 3.0812829202e+00
 1.6373194100e+00	 1.3479684176e-01	 3.0533166112e+00
 1.6341377815e+00	 1.6905240984e-01	 3.0196906079e+00
 1.6302076485e+00	 2.0348966720e-01	 2.9775753845e+00
 1.6255152651e+00	 2.3808656677e-01	 2.9239702556e+00
 1.6200476431e+00	 2.7282016693e-01	 2.8557201700e+00
 1.6137926123e+00	 3.0766665756e-01	 2.7695349653e+00
 1.6067388811e+00	 3.4260139064e-01	 2.6620110624e+00
 1.6571448927e+00	 0.0000000000e+00	 3.1345331414e+00
 1.6568038748e+00	 3.3616705451e-02	 3.1092844421e+00
 1.6557697139e+00	 6.7496238894e-02	 3.0857561331e+00
 1.6540261027e+00	 1.0162014686e-01	 3.0616642621e+00
 1.6515572535e+00	 1.3596901154e-01	 3.0345217567e+00
 1.6483479581e+00	 1.7052246005e-01	 3.0016488138e+00
 1.6443836493e+00	 2.0525917779e-01	 2.9601856867e+00
 1.6396504618e+00	 2.4015692595e-01	 2.9071079218e+00
 1.6341352943e+00	 2.7519256343e-01	 2.8392440694e+00
 1.6278258709e+00	 3.1034207305e-01	 2.7532958678e+00
 1.6207108016e+00	 3.4558059246e-01	 2.6458608699e+00
 1.6714309198e+00	 0.0000000000e+00	 3.1089869165e+00
 1.6710869620e+00	 3.3906510625e-02	 3.0860257834e+00
 1.6700438857e+00	 6.8078115048e-02	 3.0642500300e+00
 1.6682852431e+00	 1.0249620072e-01	 3.0414209792e+00
 1.6657951103e+00	 1.3714118242e-01	 3.0151062213e+00
 1.6625581480e+00	 1.7199251164e-01	 2.9826904276e+00
 1.6585596634e+00	 2.0702869002e-01	 2.9413885284e+00
 1.6537856717e+00	 2.4222728706e-01	 2.8882613007e+00
 1.6482229587e+00	 2.7756496214e-01	 2.8202333844e+00
 1.6418591425e+00	 3.1301749104e-01	 2.7341137196e+00
 1.6346827352e+00	 3.4855979707e-01	 2.6266183685e+00
 1.6857169568e+00	 0.0000000000e+00	 3.0799948717e+00
 1.6853700592e+00	 3.4196316002e-02	 3.0607741395e+00
 1.6843180675e+00	 6.8659991608e-02	 3.0416327402e+00
 1.6825443935e+00	 1.0337225518e-01	 3.0204643904e+00
 1.6800329770e+00	 1.3831335411e-01	 2.9949839146e+00
 1.6767683478e+00	 1.7346256425e-01	 2.9627380713e+00
 1.6727356874e+00	 2.0879820350e-01	 2.9211186454e+00
 1.6679208915e+00	 2.4429764962e-01	 2.8673778458e+00
 1.6623106329e+00	 2.7993736251e-01	 2.7986460232e+00
 1.6558924240e+00	 3.1569291090e-01	 2.7119516944e+00
 1.6486546786e+00	 3.5153900375e-01	 2.6042438319e+00
 1.7000030006e+00	 0.0000000000e+00	 3.0475242993e+00
 1.6996531631e+00	 3.4486121514e-02	 3.0334666976e+00
 1.6985922560e+00	 6.9241868441e-02	 3.0178246317e+00
 1.6968035505e+00	 1.0424831006e-01	 2.9987089659e+00
 1.6942708504e+00	 1.3948552636e-01	 2.9740718727e+00
 1.6909785542e+00	 1.7493261755e-01	 2.9417172638e+00
 1.6869117180e+00	 2.1056771780e-01	 2.8993133268e+00
 1.6820561178e+00	 2.4636801315e-01	 2.8444072005e+00
 1.6763983137e+00	 2.8230976399e-01	 2.7744417975e+00
 1.6699257120e+00	 3.1836833200e-01	 2.6867747576e+00
 1.6626266284e+00	 3.5451821183e-01	 2.5786994885e+00
 1.7142890476e+00	 0.0000000000e+00	 3.0115435701e+00
 1.7139362703e+00	 3.4775927094e-02	 3.0040427865e+00
 1.7128664478e+00	 6.9823745408e-02	 2.9927488348e+00
 1.7110627108e+00	 1.0512436514e-01	 2.9760721960e+00
 1.7085087271e+00	 1.4065769887e-01	 2.9522901280e+00
 1.7051887640e+00	 1.7640267120e-01	 2.9195562995e+00
 1.7010877519e+00	 2.1233723252e-01	 2.8759123082e+00
 1.6961913475e+00	 2.4843837716e-01	 2.8193011068e+00
 1.6904859978e+00	 2.8468216602e-01	 2.7475823426e+00
 1.6839590033e+00	 3.2104375374e-01	 2.6585495911e+00
 1.6765985816e+00	 3.5749742061e-01	 2.5499494400e+00
 1.5368795881e+00	 3.2770544756e-01	 2.6979158688e+00
 1.5293592221e+00	 3.6117897834e-01	 2.5708792492e+00
 1.5210561391e+00	 3.9468752959e-01	 2.4287609566e+00
 1.5119623972e+00	 4.2820538310e-01	 2.2736719578e+00
 1.5020711138e+00	 4.6170618189e-01	 2.1078690849e+00
 1.4913765143e+00	 4.9516298100e-01	 1.9337499867e+00
 1.4798739801e+00	 5.2854830253e-01	 1.7538469041e+00
 1.4675600926e+00	 5.6183419459e-01	 1.5708192428e+00
 1.4544326734e+00	 5.9499229416e-01	 1.3874449251e+00
 1.4404908216e+00	 6.2799389340e-01	 1.2066105134e+00
 1.4257349466e+00	 6.6081000953e-01	 1.0313001112e+00
 1.5508513945e+00	 3.3068462505e-01	 2.6965566302e+00
 1.5432626608e+00	 3.6446246445e-01	 2.5686400280e+00
 1.5348840942e+00	 3.9827564268e-01	 2.4244997798e+00
 1.5257076809e+00	 4.3209820774e-01	 2.2665324918e+00
 1.5157264756e+00	 4.6590356303e-01	 2.0972796031e+00
 1.5049346513e+00	 4.9966451864e-01	 1.9194200115e+00
 1.4933275473e+00	 5.3335334687e-01	 1.7357614448e+00
 1.4809017140e+00	 5.6694184173e-01	 1.5492305679e+00
 1.4676549531e+00	 6.0040138231e-01	 1.3628618283e+00
 1.4535863556e+00	 6.3370299983e-01	 1.1797850532e+00
 1.4386963347e+00	 6.6681744799e-01	 1.0032118271e+00
 1.5648232303e+00	 3.3366380880e-01	 2.6923362089e+00
 1.5571661286e+00	 3.6774595745e-01	 2.5637477955e+00
 1.5487120783e+00	 4.0186376330e-01	 2.4180384700e+00
 1.5394529935e+00	 4.3599104055e-01	 2.2578270404e+00
 1.5293818661e+00	 4.7010095299e-01	 2.0858738605e+00
 1.5184928167e+00	 5.0416606574e-01	 1.9050715334e+00
 1.5067811428e+00	 5.3815840131e-01	 1.7184343130e+00
 1.4942433634e+00	 5.7204949958e-01	 1.5290862125e+00
 1.4808772605e+00	 6.0581048182e-01	 1.3402478361e+00
 1.4666819171e+00	 6.3941211824e-01	 1.1552219674e+00
 1.4516577499e+00	 6.7282489907e-01	 9.7737796113e-01
 1.5787950921e+00	 3.3664299811e-01	 2.6852037205e+00
 1.5710696223e+00	 3.7102945658e-01	 2.5561391769e+00
 1.5625400883e+00	 4.0545189062e-01	 2.4092970571e+00
 1.5531983317e+00	 4.3988388063e-01	 2.2474566033e+00
 1.5430372821e+00	 4.7429835078e-01	 2.0735331015e+00
 1.5320510075e+00	 5.0866762125e-01	 1.8905670578e+00
 1.5202347633e+00	 5.4296346472e-01	 1.7017120610e+00
 1.5075850376e+00	 5.7715716698e-01	 1.5102213491e+00
 1.4940995927e+00	 6.1121959142e-01	 1.3194331142e+00
 1.4797775031e+00	 6.4512124731e-01	 1.1327545924e+00
 1.4646191894e+00	 6.7883236136e-01	 9.5364499845e-01
 1.5927669768e+00	 3.3962219229e-01	 2.6751107132e+00
 1.5849731388e+00	 3.7431296107e-01	 2.5457537372e+00
 1.5763681208e+00	 4.0904002380e-01	 2.3981991617e+00
 1.5669436924e+00	 4.4377672707e-01	 2.2353265073e+00
 1.5566927204e+00	 4.7849575543e-01	 2.0601436580e+00
 1.5456092204e+00	 5.1316918410e-01	 1.8757749022e+00
 1.5336884059e+00	 5.4776853597e-01	 1.6854476775e+00
 1.5209267337e+00	 5.8226484271e-01	 1.4924780487e+00
 1.5073219465e+00	 6.1662870987e-01	 1.3002549639e+00
 1.4928731105e+00	 6.5083038570e-01	 1.1122233475e+00
 1.4775806500e+00	 6.8483983347e-01	 9.3186610098e-01
 1.6067388811e+00	 3.4260139064e-01	 2.6620110624e+00
 1.5988766748e+00	 3.7759647016e-01	 2.5325338533e+00
 1.5901961727e+00	 4.1262816201e-01	 2.3846718394e+00
 1.5806890723e+00	 4.4766957896e-01	 2.2213462181e+00
 1.5703481778e+00	 4.8269316596e-01	 2.0455967286e+00
 1.5591674523e+00	 5.1767075326e-01	 1.8605689428e+00
 1.5471420673e+00	 5.5257361396e-01	 1.6695003079e+00
 1.5342684485e+00	 5.8737252559e-01	 1.4757049816e+00
 1.5205443187e+00	 6.2203783588e-01	 1.2825575117e+00
 1.5059687362e+00	 6.5653953209e-01	 1.0934754267e+00
 1.4905421288e+00	 6.9084731398e-01	 9.1190081734e-01
 1.6207108016e+00	 3.4558059246e-01	 2.6458608699e+00
 1.6127802270e+00	 3.8087998308e-01	 2.5164245930e+00
 1.6040242408e+00	 4.1621630440e-01	 2.3686454325e+00
 1.5944344683e+00	 4.5156243539e-01	 2.2054291617e+00
 1.5840036511e+00	 4.8689058138e-01	 2.0297881689e+00
 1.5727257000e+00	 5.2217232767e-01	 1.8448283756e+00
 1.5605957443e+00	 5.5737869754e-01	 1.6537349890e+00
 1.5476101788e+00	 5.9248021444e-01	 1.4597571328e+00
 1.5337667064e+00	 6.2744696821e-01	 1.2661914155e+00
 1.5190643771e+00	 6.6224868513e-01	 1.0763645070e+00
 1.5035036227e+00	 6.9685480151e-01	 8.9361480772e-01
 1.6346827352e+00	 3.4855979707e-01	 2.6266183685e+00
 1.6266837921e+00	 3.8416349906e-01	 2.4973735995e+00
 1.6178523217e+00	 4.1980445014e-01	 2.3500534292e+00
 1.6081798771e+00	 4.5545529545e-01	 2.1874925554e+00
 1.5976591372e+00	 4.9108800072e-01	 2.0126182919e+00
 1.5862839604e+00	 5.2667390629e-01	 1.8284374884e+00
 1.5740494339e+00	 5.6218378562e-01	 1.6380223972e+00
 1.5609519216e+00	 5.9758790805e-01	 1.4444955323e+00
 1.5469891064e+00	 6.3285610558e-01	 1.2510135858e+00
 1.5321600303e+00	 6.6795784351e-01	 1.0607504716e+00
 1.5164651287e+00	 7.0286229464e-01	 8.7687958290e-01
 1.6486546786e+00	 3.5153900375e-01	 2.6042438319e+00
 1.6405873670e+00	 3.8744701734e-01	 2.4753309824e+00
 1.6316804124e+00	 4.2339259839e-01	 2.3288323302e+00
 1.6219252955e+00	 4.5934815824e-01	 2.1674572466e+00
 1.6113146329e+00	 4.9528542300e-01	 1.9939916795e+00
 1.5998422302e+00	 5.3117548805e-01	 1.8112854458e+00
 1.5875031330e+00	 5.6698887705e-01	 1.6222386097e+00
 1.5742936737e+00	 6.0269560524e-01	 1.4297869988e+00
 1.5602115157e+00	 6.3826524674e-01	 1.2368869203e+00
 1.5452556927e+00	 6.7366700588e-01	 1.0464991471e+00
 1.5294266437e+00	 7.0886979197e-01	 8.6157225655e-01
 1.6626266284e+00	 3.5451821183e-01	 2.5786994885e+00
 1.6544909483e+00	 3.9073053716e-01	 2.4502492134e+00
 1.6455085094e+00	 4.2698074831e-01	 2.3049215223e+00
 1.6356707203e+00	 4.6324102284e-01	 2.1452475603e+00
 1.6249701349e+00	 4.9948284723e-01	 1.9738170030e+00
 1.6134005064e+00	 5.3567707191e-01	 1.7932660836e+00
 1.6009568383e+00	 5.7179397073e-01	 1.6062648775e+00
 1.5876354321e+00	 6.0780330480e-01	 1.4155038970e+00
 1.5734339312e+00	 6.4367439042e-01	 1.2236800532e+00
 1.5583513612e+00	 6.7937617092e-01	 1.0334820537e+00
 1.5423881648e+00	 7.1487729211e-01	 8.4757530992e-01
 1.6765985816e+00	 3.5749742061e-01	 2.5499494400e+00
 1.6683945330e+00	 3.9401405774e-01	 2.4220830284e+00
 1.6593366097e+00	 4.3056889908e-01	 2.2782631576e+00
 1.6494161483e+00	 4.6713388836e-01	 2.1207911545e+00
 1.6386256401e+00	 5.0368027245e-01	 1.9520068527e+00
 1.6269587858e+00	 5.4017865683e-01	 1.7742777144e+00
 1.6144105468e+00	 5.7659906553e-01	 1.5899874101e+00
 1.6009771935e+00	 6.1291100557e-01	 1.4015239062e+00
 1.5866563497e+00	 6.4908353537e-01	 1.2112671157e+00
 1.5714470327e+00	 6.8508533728e-01	 1.0215761684e+00
 1.5553496890e+00	 7.2088479365e-01	 8.3477636838e-01
 1.4257349466e+00	 6.6081000953e-01	 1.0313001112e+00
 1.4101656798e+00	 6.9341373009e-01	 8.5556745221e-01
 1.3937871438e+00	 7.2577342574e-01	 6.7168532836e-01
 1.3766038399e+00	 7.5785972096e-01	 4.7992294185e-01
 1.3586216634e+00	 7.8964327147e-01	 2.8045635422e-01
 1.3398479124e+00	 8.2109484578e-01	 7.3375099101e-02
 1.3202912890e+00	 8.5218540804e-01	-1.4131033715e-01
 1.2999618964e+00	 8.8288620142e-01	-3.6366025497e-01
 1.2788712286e+00	 9.1316883184e-01	-5.9379680032e-01
 1.2570321553e+00	 9.4300535142e-01	-8.3189445068e-01
 1.2344589001e+00	 9.7236834113e-01	-1.0101175434e+00
 1.4386963347e+00	 6.6681744799e-01	 1.0032118271e+00
 1.4229855273e+00	 6.9971756970e-01	 8.2703712949e-01
 1.4064580937e+00	 7.3237144806e-01	 6.4318089645e-01
 1.3891185759e+00	 7.6474944050e-01	 4.5184280609e-01
 1.3709729231e+00	 7.9682193597e-01	 2.5314037002e-01
 1.3520284995e+00	 8.2855943725e-01	 4.7116480898e-02
 1.3322940864e+00	 8.5993264450e-01	-1.6625225233e-01
 1.3117798788e+00	 8.9091253947e-01	-3.8704648108e-01
 1.2904974753e+00	 9.2147046996e-01	-6.1539451526e-01
 1.2684598625e+00	 9.5157823400e-01	-8.5146226095e-01
 1.2456813934e+00	 9.8120816329e-01	-1.0765596999e+00
 1.4516577499e+00	 6.7282489907e-01	 9.7737796113e-01
 1.4358054017e+00	 7.0602142254e-01	 8.0047641050e-01
 1.4191290702e+00	 7.3896948423e-01	 6.1619164739e-01
 1.4016333383e+00	 7.7163917451e-01	 4.2471082955e-01
 1.3833242087e+00	 8.0400061555e-01	 2.2615179229e-01
 1.3642091122e+00	 8.3602404439e-01	 2.0571100159e-02
 1.3442969091e+00	 8.6767989722e-01	-1.9202721692e-01
 1.3235978861e+00	 8.9893889437e-01	-4.1168235052e-01
 1.3021237464e+00	 9.2977212550e-01	-6.3846693988e-01
 1.2798875937e+00	 9.6015113458e-01	-8.7247696079e-01
 1.2569039102e+00	 9.9004800402e-01	-1.1138214055e+00
 1.4646191894e+00	 6.7883236136e-01	 9.5364499845e-01
 1.4486253000e+00	 7.1232528716e-01	 7.7575337927e-01
 1.4318000703e+00	 7.4556753273e-01	 5.9061200393e-01
 1.4141481240e+00	 7.7852892139e-01	 3.9845101078e-01
 1.3956755174e+00	 8.1117930853e-01	 1.9944590078e-01
 1.3763897476e+00	 8.4348866546e-01	-6.2743306328e-03
 1.3562997541e+00	 8.7542716441e-01	-2.1861850353e-01
 1.3354159154e+00	 9.0696526426e-01	-4.3752411671e-01
 1.3137500393e+00	 9.3807379655e-01	-6.6294788322e-01
 1.2913153462e+00	 9.6872405116e-01	-8.9485606275e-01
 1.2681264479e+00	 9.9888786125e-01	-1.1332147187e+00
 1.4775806500e+00	 6.8483983347e-01	 9.3186610098e-01
 1.4614452193e+00	 7.1862916207e-01	 7.5274209102e-01
 1.4444710911e+00	 7.5216559200e-01	 5.6634148477e-01
 1.4266629301e+00	 7.8541867951e-01	 3.7299145179e-01
 1.4080268463e+00	 8.1835801324e-01	 1.7298102266e-01
 1.3885704029e+00	 8.5095329873e-01	-3.3431116847e-02
 1.3683026187e+00	 8.8317444425e-01	-2.4600842217e-01
 1.3472339641e+00	 9.1499164726e-01	-4.6452798896e-01
 1.3253763511e+00	 9.4637548115e-01	-6.8877187237e-01
 1.3027431175e+00	 9.7729698174e-01	-9.1851834811e-01
 1.2793490040e+00	 1.0077277329e+00	-1.1535332380e+00
 1.4905421288e+00	 6.9084731398e-01	 9.1190081734e-01
 1.4742651565e+00	 7.2493304581e-01	 7.3132231276e-01
 1.4571421297e+00	 7.5876366050e-01	 5.4328448314e-01
 1.4391777538e+00	 7.9230844728e-01	 3.4826417982e-01
 1.4203781924e+00	 8.2553672799e-01	 1.4671840015e-01
 1.4007510753e+00	 8.5841794245e-01	-6.0908667757e-02
 1.3803055001e+00	 8.9092173493e-01	-2.7417836196e-01
 1.3590520292e+00	 9.2301804149e-01	-4.9265013428e-01
 1.3370026792e+00	 9.5467717738e-01	-7.1587412115e-01
 1.3141709047e+00	 9.8586992433e-01	-9.4338381162e-01
 1.2905715759e+00	 1.0165676170e+00	-1.1746889260e+00
 1.5035036227e+00	 6.9685480151e-01	 8.9361480772e-01
 1.4870851087e+00	 7.3123693690e-01	 7.1137927732e-01
 1.4698131830e+00	 7.6536173671e-01	 5.2135005692e-01
 1.4516925920e+00	 7.9919822309e-01	 3.2420497832e-01
 1.4327295530e+00	 8.3271545112e-01	 1.2062206503e-01
 1.4129317619e+00	 8.6588259487e-01	-8.8714578158e-02
 1.3923083956e+00	 8.9866903466e-01	-3.0310883072e-01
 1.3708701082e+00	 9.3104444509e-01	-5.2184667915e-01
 1.3486290209e+00	 9.6297888329e-01	-7.4419050050e-01
 1.3255987052e+00	 9.9444287691e-01	-9.6937360912e-01
 1.3017941608e+00	 1.0254075113e+00	-1.1965951664e+00
 1.5164651287e+00	 7.0286229464e-01	 8.7687958290e-01
 1.4999050729e+00	 7.3754083387e-01	 6.9280344993e-01
 1.4824842482e+00	 7.7195981907e-01	 5.0045172947e-01
 1.4642074420e+00	 8.0608800533e-01	 3.0075322656e-01
 1.4450809251e+00	 8.3989418096e-01	 9.4658719565e-02
 1.4251124598e+00	 8.7334725427e-01	-1.1685470580e-01
 1.4043113022e+00	 9.0641634162e-01	-3.3277949261e-01
 1.3826881982e+00	 9.3907085618e-01	-5.5207371119e-01
 1.3602553734e+00	 9.7128059695e-01	-7.7365751026e-01
 1.3370265164e+00	 1.0030158375e+00	-9.9641000788e-01
 1.3130167561e+00	 1.0342474139e+00	-1.2191667036e+00
 1.5294266437e+00	 7.0886979197e-01	 8.6157225655e-01
 1.5127250460e+00	 7.4384473526e-01	 6.7549030670e-01
 1.4951553222e+00	 7.7855790605e-01	 4.8050730057e-01
 1.4767223007e+00	 8.1297779239e-01	 2.7785174746e-01
 1.4574323058e+00	 8.4707291581e-01	 6.8797623459e-02
 1.4372931663e+00	 8.8081191888e-01	-1.4533324487e-01
 1.4163142172e+00	 9.1416365400e-01	-3.6316920374e-01
 1.3945062965e+00	 9.4709727289e-01	-5.8328728072e-01
 1.3718817340e+00	 9.7958231642e-01	-8.0421225256e-01
 1.3484543356e+00	 1.0115888041e+00	-1.0244163394e+00
 1.3242393594e+00	 1.0430873227e+00	-1.2423195850e+00
 1.5423881648e+00	 7.1487729211e-01	 8.4757530992e-01
 1.5255450251e+00	 7.5014863959e-01	 6.5934012423e-01
 1.5078264021e+00	 7.8515599611e-01	 4.6143866688e-01
 1.4892371652e+00	 8.1986758267e-01	 2.5544666299e-01
 1.4697836923e+00	 8.5425165402e-01	 4.3010486530e-02
 1.4494738784e+00	 8.8827658699e-01	-1.7415279586e-01
 1.4283171379e+00	 9.2191096999e-01	-3.9425604608e-01
 1.4063244002e+00	 9.5512369334e-01	-6.1544340229e-01
 1.3835081001e+00	 9.8788403976e-01	-8.3579240637e-01
 1.3598821602e+00	 1.0201617747e+00	-1.0533169549e+00
 1.3354619678e+00	 1.0519272357e+00	-1.2659711059e+00
 1.5553496890e+00	 7.2088479365e-01	 8.3477636838e-01
 1.5383650072e+00	 7.5645254539e-01	 6.4425777974e-01
 1.5204974850e+00	 7.9175408771e-01	 4.4317165141e-01
 1.5017520327e+00	 8.2675737455e-01	 2.3348725687e-01
 1.4821350817e+00	 8.6143039390e-01	 1.7271366718e-02
 1.4616545934e+00	 8.9574125683e-01	-2.0331443180e-01
 1.4403200613e+00	 9.2965828779e-01	-4.2601735965e-01
 1.4181425068e+00	 9.6315011567e-01	-6.4849805614e-01
 1.3951344689e+00	 9.9618576505e-01	-8.6833620350e-01
 1.3713099874e+00	 1.0287347473e+00	-1.0830371821e+00
 1.3466845789e+00	 1.0607671506e+00	-1.2900397577e+00
 1.2344589001e+00	 9.7236834113e-01	-1.0101175434e+00
 1.2111670099e+00	 1.0012309949e+00	-1.1662599960e+00
 1.1871733109e+00	 1.0295672077e+00	-1.3248445950e+00
 1.1624958802e+00	 1.0573516444e+00	-1.4793334551e+00
 1.1371540047e+00	 1.0845598120e+00	-1.6231989334e+00
 1.1111681313e+00	 1.1111681313e+00	-1.7499771856e+00
 1.0845598120e+00	 1.1371540047e+00	-1.8533210483e+00
 1.0573516444e+00	 1.1624958802e+00	-1.9270517033e+00
 1.0295672077e+00	 1.1871733109e+00	-1.9652085998e+00
 1.0012309949e+00	 1.2111670099e+00	-1.9620971334e+00
 9.7236834113e-01	 1.2344589001e+00	-1.9123336154e+00
 1.2456813934e+00	 9.8120816329e-01	-1.0765596999e+00
 1.2221777561e+00	 1.0103332081e+00	-1.2270090464e+00
 1.1979659298e+00	 1.0389270260e+00	-1.3788528719e+00
 1.1730641561e+00	 1.0669640516e+00	-1.5254570775e+00
 1.1474918970e+00	 1.0944195693e+00	-1.6602055088e+00
 1.1212697855e+00	 1.1212697855e+00	-1.7765548267e+00
 1.0944195693e+00	 1.1474918970e+00	-1.8680886330e+00
 1.0669640516e+00	 1.1730641561e+00	-1.9285702914e+00
 1.0389270260e+00	 1.1979659298e+00	-1.9519939055e+00
 1.0103332081e+00	 1.2221777561e+00	-1.9326329436e+00
 9.8120816329e-01	 1.2456813934e+00	-1.8650860313e+00
 1.2569039102e+00	 9.9004800402e-01	-1.1138214055e+00
 1.2331885253e+00	 1.0194354404e+00	-1.2881265211e+00
 1.2087585714e+00	 1.0482868640e+00	-1.4323777493e+00
 1.1836324541e+00	 1.0765764791e+00	-1.5700928034e+00
 1.1578298110e+00	 1.1042793473e+00	-1.6946508670e+00
 1.1313714608e+00	 1.1313714608e+00	-1.7995143718e+00
 1.1042793473e+00	 1.1578298110e+00	-1.8782836745e+00
 1.0765764791e+00	 1.1836324541e+00	-1.9247503351e+00
 1.0482868640e+00	 1.2087585714e+00	-1.9329484521e+00
 1.0194354404e+00	 1.2331885253e+00	-1.8972035367e+00
 9.9004800402e-01	 1.2569039102e+00	-1.8952735205e+00
 1.2681264479e+00	 9.9888786125e-01	-1.1332147187e+00
 1.2441993152e+00	 1.0285376897e+00	-1.3496355650e+00
 1.2195512331e+00	 1.0576467195e+00	-1.4854533068e+00
 1.1942007719e+00	 1.0861889245e+00	-1.6132917221e+00
 1.1681677443e+00	 1.1141391438e+00	-1.7266069874e+00
 1.1414731550e+00	 1.1414731550e+00	-1.8189503547e+00
 1.1141391438e+00	 1.1681677443e+00	-1.8840227001e+00
 1.0861889245e+00	 1.1942007719e+00	-1.9157275705e+00
 1.0576467195e+00	 1.2195512331e+00	-1.9082221852e+00
 1.0285376897e+00	 1.2441993152e+00	-1.8559658764e+00
 9.9888786125e-01	 1.2681264479e+00	-1.9694815942e+00
 1.2793490040e+00	 1.0077277329e+00	-1.1535332380e+00
 1.2552101230e+00	 1.0376399539e+00	-1.3895573468e+00
 1.2303439125e+00	 1.0670065902e+00	-1.5381148043e+00
 1.2047691069e+00	 1.0958013856e+00	-1.6551055497e+00
 1.1785056945e+00	 1.1239989563e+00	-1.7561457790e+00
 1.1515748657e+00	 1.1515748657e+00	-1.8349564770e+00
 1.1239989563e+00	 1.1785056945e+00	-1.8854206563e+00
 1.0958013856e+00	 1.2047691069e+00	-1.9016354941e+00
 1.0670065902e+00	 1.2303439125e+00	-1.8779623209e+00
 1.0376399539e+00	 1.2552101230e+00	-1.8684106567e+00
 1.0077277329e+00	 1.2793490040e+00	-2.0352075033e+00
 1.2905715759e+00	 1.0165676170e+00	-1.1746889260e+00
 1.2662209462e+00	 1.0467422308e+00	-1.4052194885e+00
 1.2411366069e+00	 1.0763664741e+00	-1.5903986311e+00
 1.2153374567e+00	 1.1054138601e+00	-1.6955866011e+00
 1.1888436592e+00	 1.1338587826e+00	-1.7833390835e+00
 1.1616765906e+00	 1.1616765906e+00	-1.8476256440e+00
 1.1338587826e+00	 1.1888436592e+00	-1.8825909761e+00
 1.1054138601e+00	 1.2153374567e+00	-1.8826054592e+00
 1.0763664741e+00	 1.2411366069e+00	-1.8423134633e+00
 1.0467422308e+00	 1.2662209462e+00	-1.9389936619e+00
 1.0165676170e+00	 1.2905715759e+00	-2.0924951391e+00
 1.3017941608e+00	 1.0254075113e+00	-1.1965951664e+00
 1.2772317823e+00	 1.0558445183e+00	-1.4209804331e+00
 1.2519293140e+00	 1.0857263688e+00	-1.6343917448e+00
 1.2259058189e+00	 1.1150263459e+00	-1.7347877639e+00
 1.1991816359e+00	 1.1437186205e+00	-1.8082586771e+00
 1.1717783272e+00	 1.1717783272e+00	-1.8570499980e+00
 1.1437186205e+00	 1.1991816359e+00	-1.8756456441e+00
 1.1150263459e+00	 1.2259058189e+00	-1.8587667678e+00
 1.0857263688e+00	 1.2519293140e+00	-1.8220880887e+00
 1.0558445183e+00	 1.2772317823e+00	-2.0008479031e+00
 1.0254075113e+00	 1.3017941608e+00	-2.1413857412e+00
 1.3130167561e+00	 1.0342474139e+00	-1.2191667036e+00
 1.2882426287e+00	 1.0649468144e+00	-1.4367555363e+00
 1.2627220311e+00	 1.0950862724e+00	-1.6412353930e+00
 1.2364741909e+00	 1.1246388406e+00	-1.7727624736e+00
 1.2095196222e+00	 1.1535784675e+00	-1.8309762730e+00
 1.1818800733e+00	 1.1818800733e+00	-1.8633209504e+00
 1.1535784675e+00	 1.2095196222e+00	-1.8646952573e+00
 1.1246388406e+00	 1.2364741909e+00	-1.8302467575e+00
 1.0950862724e+00	 1.2627220311e+00	-1.8896412444e+00
 1.0649468144e+00	 1.2882426287e+00	-2.0540135609e+00
 1.0342474139e+00	 1.3130167561e+00	-2.1819180101e+00
 1.3242393594e+00	 1.0430873227e+00	-1.2423195850e+00
 1.2992534828e+00	 1.0740491168e+00	-1.4524614237e+00
 1.2735147558e+00	 1.1044461824e+00	-1.6471859130e+00
 1.2470425703e+00	 1.1342513421e+00	-1.8095646892e+00
 1.2198576158e+00	 1.1634383214e+00	-1.8515635235e+00
 1.1919818264e+00	 1.1919818264e+00	-1.8665292121e+00
 1.1634383214e+00	 1.2198576158e+00	-1.8498490832e+00
 1.1342513421e+00	 1.2470425703e+00	-1.7971708838e+00
 1.1044461824e+00	 1.2735147558e+00	-1.9486264696e+00
 1.0740491168e+00	 1.2992534828e+00	-2.0985283203e+00
 1.0430873227e+00	 1.3242393594e+00	-2.2141282148e+00
 1.3354619678e+00	 1.0519272357e+00	-1.2659711059e+00
 1.3102643420e+00	 1.0831514234e+00	-1.4680159371e+00
 1.2843074855e+00	 1.1138060968e+00	-1.6521686419e+00
 1.2576109546e+00	 1.1438638480e+00	-1.8140385397e+00
 1.2301956143e+00	 1.1732981800e+00	-1.8700920219e+00
 1.2020835843e+00	 1.2020835843e+00	-1.8667648223e+00
 1.1732981800e+00	 1.2301956143e+00	-1.8312151154e+00
 1.1438638480e+00	 1.2576109546e+00	-1.8345324263e+00
 1.1138060968e+00	 1.2843074855e+00	-1.9990730950e+00
 1.0831514234e+00	 1.3102643420e+00	-2.1344274745e+00
 1.0519272357e+00	 1.3354619678e+00	-2.2380502942e+00
 1.3466845789e+00	 1.0607671506e+00	-1.2900397577e+00
 1.3212752037e+00	 1.0922537322e+00	-1.4833380840e+00
 1.2951002177e+00	 1.1231660134e+00	-1.6561098246e+00
 1.2681793414e+00	 1.1534763562e+00	-1.8045553676e+00
 1.2405336151e+00	 1.1831580408e+00	-1.8866333043e+00
 1.2121853445e+00	 1.2121853445e+00	-1.8641171759e+00
 1.1831580408e+00	 1.2405336151e+00	-1.8089001255e+00
 1.1534763562e+00	 1.2681793414e+00	-1.8934001640e+00
 1.1231660134e+00	 1.2951002177e+00	-2.0410083477e+00
 1.0922537322e+00	 1.3212752037e+00	-2.1617440244e+00
 1.0607671506e+00	 1.3466845789e+00	-2.2537159537e+00
 9.7236834113e-01	 1.2344589001e+00	-1.9123336154e+00
 9.4300535142e-01	 1.2570321553e+00	-1.8990578674e+00
 9.1316883184e-01	 1.2788712286e+00	-2.0315835445e+00
 8.8288620142e-01	 1.2999618964e+00	-2.1228539809e+00
 8.5218540804e-01	 1.3202912890e+00	-2.1770519661e+00
 8.2109484578e-01	 1.3398479124e+00	-2.1984583072e+00
 7.8964327147e-01	 1.3586216634e+00	-2.1914227575e+00
 7.5785972096e-01	 1.3766038399e+00	-2.1603352752e+00
 7.2577342574e-01	 1.3937871438e+00	-2.1095978433e+00
 6.9341373009e-01	 1.4101656798e+00	-2.0435970730e+00
 6.6081000953e-01	 1.4257349466e+00	-1.9666777907e+00
 9.8120816329e-01	 1.2456813934e+00	-1.8650860313e+00
 9.5157823400e-01	 1.2684598625e+00	-1.9749164803e+00
 9.2147046996e-01	 1.2904974753e+00	-2.0915671664e+00
 8.9091253947e-01	 1.3117798788e+00	-2.1670376152e+00
 8.5993264450e-01	 1.3322940864e+00	-2.2060011830e+00
 8.2855943725e-01	 1.3520284995e+00	-2.2132223655e+00
 7.9682193597e-01	 1.3709729231e+00	-2.1935237351e+00
 7.6474944050e-01	 1.3891185759e+00	-2.1517533720e+00
 7.3237144806e-01	 1.4064580937e+00	-2.0927530580e+00
 6.9971756970e-01	 1.4229855273e+00	-2.0213274796e+00
 6.6681744799e-01	 1.4386963347e+00	-1.9422146705e+00
 9.9004800402e-01	 1.2569039102e+00	-1.8952735205e+00
 9.6015113458e-01	 1.2798875937e+00	-2.0430418121e+00
 9.2977212550e-01	 1.3021237464e+00	-2.1450835662e+00
 8.9893889437e-01	 1.3235978861e+00	-2.2063227574e+00
 8.6767989722e-01	 1.3442969091e+00	-2.2318035022e+00
 8.3602404439e-01	 1.3642091122e+00	-2.2266535998e+00
 8.0400061555e-01	 1.3833242087e+00	-2.1960484074e+00
 7.7163917451e-01	 1.4016333383e+00	-2.1451753551e+00
 7.3896948423e-01	 1.4191290702e+00	-2.0791993923e+00
 7.0602142254e-01	 1.4358054017e+00	-2.0032296355e+00
 6.7282489907e-01	 1.4516577499e+00	-1.9222874672e+00
 9.9888786125e-01	 1.2681264479e+00	-1.9694815942e+00
 9.6872405116e-01	 1.2913153462e+00	-2.1034694403e+00
 9.3807379655e-01	 1.3137500393e+00	-2.1921424013e+00
 9.0696526426e-01	 1.3354159154e+00	-2.2406842522e+00
 8.7542716441e-01	 1.3562997541e+00	-2.2543931240e+00
 8.4348866546e-01	 1.3763897476e+00	-2.2386427942e+00
 8.1117930853e-01	 1.3956755174e+00	-2.1988444161e+00
 7.7852892139e-01	 1.4141481240e+00	-2.1404090138e+00
 7.4556753273e-01	 1.4318000703e+00	-2.0687110487e+00
 7.1232528716e-01	 1.4486253000e+00	-1.9890533437e+00
 6.7883236136e-01	 1.4646191894e+00	-1.9066336260e+00
 1.0077277329e+00	 1.2793490040e+00	-2.0352075033e+00
 9.7729698174e-01	 1.3027431175e+00	-2.1562325548e+00
 9.4637548115e-01	 1.3253763511e+00	-2.2327518723e+00
 9.1499164726e-01	 1.3472339641e+00	-2.2700967338e+00
 8.8317444425e-01	 1.3683026187e+00	-2.2737054923e+00
 8.5095329873e-01	 1.3885704029e+00	-2.2490835302e+00
 8.1835801324e-01	 1.4080268463e+00	-2.2017637467e+00
 7.8541867951e-01	 1.4266629301e+00	-2.1372679147e+00
 7.5216559200e-01	 1.4444710911e+00	-2.0610692229e+00
 7.1862916207e-01	 1.4614452193e+00	-1.9785562950e+00
 6.8483983347e-01	 1.4775806500e+00	-1.8949989532e+00
 1.0165676170e+00	 1.2905715759e+00	-2.0924951391e+00
 9.8586992433e-01	 1.3141709047e+00	-2.2013620611e+00
 9.5467717738e-01	 1.3370026792e+00	-2.2669187861e+00
 9.2301804149e-01	 1.3590520292e+00	-2.2945346351e+00
 8.9092173493e-01	 1.3803055001e+00	-2.2896772404e+00
 8.5841794245e-01	 1.4007510753e+00	-2.2578720652e+00
 8.2553672799e-01	 1.4203781924e+00	-2.2046625399e+00
 7.9230844728e-01	 1.4391777538e+00	-2.1355711508e+00
 7.5876366050e-01	 1.4571421297e+00	-2.0560617995e+00
 7.2493304581e-01	 1.4742651565e+00	-1.9715037249e+00
 6.9084731398e-01	 1.4905421288e+00	-1.8871372526e+00
 1.0254075113e+00	 1.3017941608e+00	-2.1413857412e+00
 9.9444287691e-01	 1.3255987052e+00	-2.2388866788e+00
 9.6297888329e-01	 1.3486290209e+00	-2.2946486159e+00
 9.3104444509e-01	 1.3708701082e+00	-2.3139721960e+00
 8.9866903466e-01	 1.3923083956e+00	-2.3022461392e+00
 8.6588259487e-01	 1.4129317619e+00	-2.2649072168e+00
 8.3271545112e-01	 1.4327295530e+00	-2.2074009129e+00
 7.9919822309e-01	 1.4516925920e+00	-2.1351431036e+00
 7.6536173671e-01	 1.4698131830e+00	-2.0534830641e+00
 7.3123693690e-01	 1.4870851087e+00	-1.9676680886e+00
 6.9685480151e-01	 1.5035036227e+00	-1.8828099812e+00
 1.0342474139e+00	 1.3130167561e+00	-2.1819180101e+00
 1.0030158375e+00	 1.3370265164e+00	-2.2688330342e+00
 9.7128059695e-01	 1.3602553734e+00	-2.3159455576e+00
 9.3907085618e-01	 1.3826881982e+00	-2.3283834714e+00
 9.0641634162e-01	 1.4043113022e+00	-2.3113510491e+00
 8.7334725427e-01	 1.4251124598e+00	-2.2700902534e+00
 8.3989418096e-01	 1.4450809251e+00	-2.2098427888e+00
 8.0608800533e-01	 1.4642074420e+00	-2.1358132169e+00
 7.7195981907e-01	 1.4824842482e+00	-2.0531334297e+00
 7.3754083387e-01	 1.4999050729e+00	-1.9668287531e+00
 7.0286229464e-01	 1.5164651287e+00	-1.8817859225e+00
 1.0430873227e+00	 1.3242393594e+00	-2.2141282148e+00
 1.0115888041e+00	 1.3484543356e+00	-2.2912257487e+00
 9.7958231642e-01	 1.3718817340e+00	-2.3308125839e+00
 9.4709727289e-01	 1.3945062965e+00	-2.3377423388e+00
 9.1416365400e-01	 1.4163142172e+00	-2.3169318730e+00
 8.8081191888e-01	 1.4372931663e+00	-2.2733247904e+00
 8.4707291581e-01	 1.4574323058e+00	-2.2118557362e+00
 8.1297779239e-01	 1.4767223007e+00	-2.1374157828e+00
 7.7855790605e-01	 1.4951553222e+00	-2.0548191778e+00
 7.4384473526e-01	 1.5127250460e+00	-1.9687717042e+00
 7.0886979197e-01	 1.5294266437e+00	-1.8838408760e+00
 1.0519272357e+00	 1.3354619678e+00	-2.2380502942e+00
 1.0201617747e+00	 1.3598821602e+00	-2.3060875230e+00
 9.8788403976e-01	 1.3835081001e+00	-2.3392514949e+00
 9.5512369334e-01	 1.4063244002e+00	-2.3420225054e+00
 9.2191096999e-01	 1.4283171379e+00	-2.3189295129e+00
 8.8827658699e-01	 1.4494738784e+00	-2.2745166914e+00
 8.5425165402e-01	 1.4697836923e+00	-2.2133108152e+00
 8.1986758267e-01	 1.4892371652e+00	-2.1397897376e+00
 7.8515599611e-01	 1.5078264021e+00	-2.0583522111e+00
 7.5014863959e-01	 1.5255450251e+00	-1.9732892689e+00
 7.1487729211e-01	 1.5423881648e+00	-1.8887573630e+00
 1.0607671506e+00	 1.3466845789e+00	-2.2537159537e+00
 1.0287347473e+00	 1.3713099874e+00	-2.3134392161e+00
 9.9618576505e-01	 1.3951344689e+00	-2.3412629671e+00
 9.6315011567e-01	 1.4181425068e+00	-2.3411975153e+00
 9.2965828779e-01	 1.4403200613e+00	-2.3172858277e+00
 8.9574125683e-01	 1.4616545934e+00	-2.2735739748e+00
 8.6143039390e-01	 1.4821350817e+00	-2.2140824327e+00
 8.2675737455e-01	 1.5017520327e+00	-2.1427784688e+00
 7.9175408771e-01	 1.5204974850e+00	-2.0635498206e+00
 7.5645254539e-01	 1.5383650072e+00	-1.9801798511e+00
 7.2088479365e-01	 1.5553496890e+00	-1.8963243464e+00
 6.6081000953e-01	 1.4257349466e+00	-1.9666777907e+00
 6.2799389340e-01	 1.4404908216e+00	-1.8864935923e+00
 5.9499229416e-01	 1.4544326734e+00	-1.8080356719e+00
 5.6183419459e-01	 1.4675600926e+00	-1.7315005506e+00
 5.2854830253e-01	 1.4798739801e+00	-1.6569227577e+00
 4.9516298100e-01	 1.4913765143e+00	-1.5841816797e+00
 4.6170618189e-01	 1.5020711138e+00	-1.5130093360e+00
 4.2820538310e-01	 1.5119623972e+00	-1.4429989558e+00
 3.9468752959e-01	 1.5210561391e+00	-1.3736142291e+00
 3.6117897834e-01	 1.5293592221e+00	-1.3041991038e+00
 3.2770544756e-01	 1.5368795881e+00	-1.2339880049e+00
 6.6681744799e-01	 1.4386963347e+00	-1.9422146705e+00
 6.3370299983e-01	 1.4535863556e+00	-1.8630014513e+00
 6.0040138231e-01	 1.4676549531e+00	-1.7878651469e+00
 5.6694184173e-01	 1.4809017140e+00	-1.7162596018e+00
 5.3335334687e-01	 1.4933275473e+00	-1.6474878513e+00
 4.9966451864e-01	 1.5049346513e+00	-1.5807142625e+00
 4.6590356303e-01	 1.5157264756e+00	-1.5149772709e+00
 4.3209820774e-01	 1.5257076809e+00	-1.4492025539e+00
 3.9827564268e-01	 1.5348840942e+00	-1.3822164888e+00
 3.6446246445e-01	 1.5432626608e+00	-1.3127597474e+00
 3.3068462505e-01	 1.5508513945e+00	-1.2395008872e+00
 6.7282489907e-01	 1.4516577499e+00	-1.9222874672e+00
 6.3941211824e-01	 1.4666819171e+00	-1.8438515693e+00
 6.0581048182e-01	 1.4808772605e+00	-1.7713964613e+00
 5.7204949958e-01	 1.4942433634e+00	-1.7037566549e+00
 5.3815840131e-01	 1.5067811428e+00	-1.6396279839e+00
 5.0416606574e-01	 1.5184928167e+00	-1.5775841100e+00
 4.7010095299e-01	 1.5293818661e+00	-1.5160933265e+00
 4.3599104055e-01	 1.5394529935e+00	-1.4535354772e+00
 4.0186376330e-01	 1.5487120783e+00	-1.3882188167e+00
 3.6774595745e-01	 1.5571661286e+00	-1.3183966498e+00
 3.3366380880e-01	 1.5648232303e+00	-1.2422835974e+00
 6.7883236136e-01	 1.4646191894e+00	-1.9066336260e+00
 6.4512124731e-01	 1.4797775031e+00	-1.8287851391e+00
 6.1121959142e-01	 1.4940995927e+00	-1.7583907049e+00
 5.7715716698e-01	 1.5075850376e+00	-1.6937856102e+00
 5.4296346472e-01	 1.5202347633e+00	-1.6331795463e+00
 5.0866762125e-01	 1.5320510075e+00	-1.5746765666e+00
 4.7429835078e-01	 1.5430372821e+00	-1.5162950778e+00
 4.3988388063e-01	 1.5531983317e+00	-1.4559876653e+00
 4.0545189062e-01	 1.5625400883e+00	-1.3916605638e+00
 3.7102945658e-01	 1.5710696223e+00	-1.3211925990e+00
 3.3664299811e-01	 1.5787950921e+00	-1.2424534439e+00
 6.8483983347e-01	 1.4775806500e+00	-1.8949989532e+00
 6.5083038570e-01	 1.4928731105e+00	-1.8175516236e+00
 6.1662870987e-01	 1.5073219465e+00	-1.7486165810e+00
 5.8226484271e-01	 1.5209267337e+00	-1.6861468725e+00
 5.4776853597e-01	 1.5336884059e+00	-1.6279839861e+00
 5.1316918410e-01	 1.5456092204e+00	-1.5718803597e+00
 4.7849575543e-01	 1.5566927204e+00	-1.5155216943e+00
 4.4377672707e-01	 1.5669436924e+00	-1.4565488596e+00
 4.0904002380e-01	 1.5763681208e+00	-1.3925791933e+00
 3.7431296107e-01	 1.5849731388e+00	-1.3212270164e+00
 3.3962219229e-01	 1.5927669768e+00	-1.2401232026e+00
 6.9084731398e-01	 1.4905421288e+00	-1.8871372526e+00
 6.5653953209e-01	 1.5059687362e+00	-1.8099083965e+00
 6.2203783588e-01	 1.5205443187e+00	-1.7418500756e+00
 5.8737252559e-01	 1.5342684485e+00	-1.6806470687e+00
 5.5257361396e-01	 1.5471420673e+00	-1.6238875878e+00
 5.1767075326e-01	 1.5591674523e+00	-1.5690874522e+00
 4.8269316596e-01	 1.5703481778e+00	-1.5137138702e+00
 4.4766957896e-01	 1.5806890723e+00	-1.4552086109e+00
 4.1262816201e-01	 1.5901961727e+00	-1.3910103629e+00
 3.7759647016e-01	 1.5988766748e+00	-1.3185761031e+00
 3.4260139064e-01	 1.6067388811e+00	-1.2354013138e+00
 6.9685480151e-01	 1.5035036227e+00	-1.8828099812e+00
 6.6224868513e-01	 1.5190643771e+00	-1.8056204014e+00
 6.2744696821e-01	 1.5337667064e+00	-1.7378741439e+00
 5.9248021444e-01	 1.5476101788e+00	-1.6770987799e+00
 5.5737869754e-01	 1.5605957443e+00	-1.6207412647e+00
 5.2217232767e-01	 1.5727257000e+00	-1.5661929032e+00
 4.8689058138e-01	 1.5840036511e+00	-1.5108137589e+00
 4.5156243539e-01	 1.5944344683e+00	-1.4519562883e+00
 4.1621630440e-01	 1.6040242408e+00	-1.3869880024e+00
 3.8087998308e-01	 1.6127802270e+00	-1.3133129783e+00
 3.4558059246e-01	 1.6207108016e+00	-1.2283920686e+00
 7.0286229464e-01	 1.5164651287e+00	-1.8817859225e+00
 6.6795784351e-01	 1.5321600303e+00	-1.8044598290e+00
 6.3285610558e-01	 1.5469891064e+00	-1.7364784125e+00
 5.9758790805e-01	 1.5609519216e+00	-1.6753202867e+00
 5.6218378562e-01	 1.5740494339e+00	-1.6184003610e+00
 5.2667390629e-01	 1.5862839604e+00	-1.5630947360e+00
 4.9108800072e-01	 1.5976591372e+00	-1.5067649102e+00
 4.5545529545e-01	 1.6081798771e+00	-1.4467810862e+00
 4.1980445014e-01	 1.6178523217e+00	-1.3805443869e+00
 3.8416349906e-01	 1.6266837921e+00	-1.3055078108e+00
 3.4855979707e-01	 1.6346827352e+00	-1.2191957863e+00
 7.0886979197e-01	 1.5294266437e+00	-1.8838408760e+00
 6.7366700588e-01	 1.5452556927e+00	-1.8062058099e+00
 6.3826524674e-01	 1.5602115157e+00	-1.7374588970e+00
 6.0269560524e-01	 1.5742936737e+00	-1.6751353281e+00
 5.6698887705e-01	 1.5875031330e+00	-1.6167244641e+00
 5.3117548805e-01	 1.5998422302e+00	-1.5596938120e+00
 4.9528542300e-01	 1.6113146329e+00	-1.5015122112e+00
 4.5934815824e-01	 1.6219252955e+00	-1.4396720321e+00
 4.2339259839e-01	 1.6316804124e+00	-1.3717102074e+00
 3.8744701734e-01	 1.6405873670e+00	-1.2952279438e+00
 3.5153900375e-01	 1.6486546786e+00	-1.2079089819e+00
 7.1487729211e-01	 1.5423881648e+00	-1.8887573630e+00
 6.7937617092e-01	 1.5583513612e+00	-1.8106441233e+00
 6.4367439042e-01	 1.5734339312e+00	-1.7406177338e+00
 6.0780330480e-01	 1.5876354321e+00	-1.6763728723e+00
 5.7179397073e-01	 1.6009568383e+00	-1.6155772265e+00
 5.3567707191e-01	 1.6134005064e+00	-1.5558937117e+00
 4.9948284723e-01	 1.6249701349e+00	-1.4950018305e+00
 4.6324102284e-01	 1.6356707203e+00	-1.4306179927e+00
 4.2698074831e-01	 1.6455085094e+00	-1.3605146365e+00
 3.9073053716e-01	 1.6544909483e+00	-1.2825380136e+00
 3.5451821183e-01	 1.6626266284e+00	-1.1946245265e+00
 7.2088479365e-01	 1.5553496890e+00	-1.8963243464e+00
 6.8508533728e-01	 1.5714470327e+00	-1.8175669204e+00
 6.4908353537e-01	 1.5866563497e+00	-1.7457629251e+00
 6.1291100557e-01	 1.6009771935e+00	-1.6788668990e+00
 5.7659906553e-01	 1.6144105468e+00	-1.6148261963e+00
 5.4017865683e-01	 1.6269587858e+00	-1.5516006213e+00
 5.0368027245e-01	 1.6386256401e+00	-1.4871811638e+00
 4.6713388836e-01	 1.6494161483e+00	-1.4196076816e+00
 4.3056889908e-01	 1.6593366097e+00	-1.3469853922e+00
 3.9401405774e-01	 1.6683945330e+00	-1.2675000619e+00
 3.5749742061e-01	 1.6765985816e+00	-1.1794317981e+00
 3.2770544756e-01	 1.5368795881e+00	-1.2339880049e+00
 2.9428963942e-01	 1.5436266306e+00	-1.1673526799e+00
 2.6095823704e-01	 1.5496096993e+00	-1.1087279582e+00
 2.2773481677e-01	 1.5548395949e+00	-1.0574782300e+00
 1.9464215349e-01	 1.5593279585e+00	-1.0131362681e+00
 1.6170219135e-01	 1.5630872136e+00	-9.7540231727e-01
 1.2893601884e-01	 1.5661305082e+00	-9.4414175877e-01
 9.6363848071e-02	 1.5684716563e+00	-9.1938145648e-01
 6.4004998129e-02	 1.5701250792e+00	-9.0130489350e-01
 3.1877882452e-02	 1.5711057482e+00	-8.9024621777e-01
 0.0000000000e+00	 1.5714291270e+00	-8.8668331816e-01
 3.3068462505e-01	 1.5508513945e+00	-1.2395008872e+00
 2.9696503306e-01	 1.5576597746e+00	-1.1671437103e+00
 2.6333061416e-01	 1.5636972355e+00	-1.1014577423e+00
 2.2980515904e-01	 1.5689746762e+00	-1.0427522592e+00
 1.9641164963e-01	 1.5735038435e+00	-9.9147125406e-01
 1.6317222956e-01	 1.5772972741e+00	-9.4818768615e-01
 1.3010817905e-01	 1.5803682354e+00	-9.1359684524e-01
 9.7239893951e-02	 1.5827306669e+00	-8.8850893967e-01
 6.4586868987e-02	 1.5843991212e+00	-8.7384101687e-01
 3.2167684989e-02	 1.5853887055e+00	-8.7060832712e-01
 0.0000000000e+00	 1.5857150240e+00	-8.7991524019e-01
 3.3366380880e-01	 1.5648232303e+00	-1.2422835974e+00
 2.9964043232e-01	 1.5716929480e+00	-1.1649093406e+00
 2.6570299626e-01	 1.5777848012e+00	-1.0931933698e+00
 2.3187550566e-01	 1.5831097871e+00	-1.0282291079e+00
 1.9818114948e-01	 1.5876797584e+00	-9.7120991271e-01
 1.6464227086e-01	 1.5915073645e+00	-9.2341965004e-01
 1.3128034172e-01	 1.5946059925e+00	-8.8622286043e-01
 9.8115941672e-02	 1.5969897075e+00	-8.6105462431e-01
 6.5168741068e-02	 1.5986731931e+00	-8.4941022891e-01
 3.2457488135e-02	 1.5996716927e+00	-8.5283473678e-01
 0.0000000000e+00	 1.6000009511e+00	-8.7291255138e-01
 3.3664299811e-01	 1.5787950921e+00	-1.2424534439e+00
 3.0231583657e-01	 1.5857261476e+00	-1.1607797695e+00
 2.6807538279e-01	 1.5918723933e+00	-1.0840483826e+00
 2.3394585614e-01	 1.5972449245e+00	-1.0139804429e+00
 1.9995065263e-01	 1.6018556997e+00	-9.5236113611e-01
 1.6611231490e-01	 1.6057174814e+00	-9.0102771987e-01
 1.3245250658e-01	 1.6088437762e+00	-8.6185757840e-01
 9.8991991028e-02	 1.6112487747e+00	-8.3675638461e-01
 6.5750614234e-02	 1.6129472916e+00	-8.2764646152e-01
 3.2747291821e-02	 1.6139547065e+00	-8.3645542913e-01
 0.0000000000e+00	 1.6142869048e+00	-8.6510521542e-01
 3.3962219229e-01	 1.5927669768e+00	-1.2401232026e+00
 3.0499124519e-01	 1.5997593701e+00	-1.1548802561e+00
 2.7044777320e-01	 1.6059600083e+00	-1.0741320129e+00
 2.3601621001e-01	 1.6113800849e+00	-1.0000751349e+00
 2.0172015868e-01	 1.6160316641e+00	-9.3493326687e-01
 1.6758236134e-01	 1.6199276215e+00	-8.8094368529e-01
 1.3362467335e-01	 1.6230815831e+00	-8.4034431230e-01
 9.9868041815e-02	 1.6255078652e+00	-8.1536117896e-01
 6.6332488351e-02	 1.6272214135e+00	-8.0819641584e-01
 3.3037095981e-02	 1.6282377438e+00	-8.2101683904e-01
 0.0000000000e+00	 1.6285728819e+00	-8.5594319145e-01
 3.4260139064e-01	 1.6067388811e+00	-1.2354013138e+00
 3.0766665756e-01	 1.6137926123e+00	-1.1473313346e+00
 2.7282016693e-01	 1.6200476431e+00	-1.0635493701e+00
 2.3808656677e-01	 1.6255152651e+00	-9.8657938038e-01
 2.0348966720e-01	 1.6302076485e+00	-9.1893412202e-01
 1.6905240984e-01	 1.6341377815e+00	-8.6310151561e-01
 1.3479684176e-01	 1.6373194100e+00	-8.2153167351e-01
 1.0074409383e-01	 1.6397669756e+00	-7.9662465501e-01
 6.6914363283e-02	 1.6414955554e+00	-7.9071900716e-01
 3.3326900547e-02	 1.6425208010e+00	-8.0608113859e-01
 0.0000000000e+00	 1.6428588790e+00	-8.4489556464e-01
 3.4558059246e-01	 1.6207108016e+00	-1.2283920686e+00
 3.1034207305e-01	 1.6278258709e+00	-1.1382490176e+00
 2.7519256343e-01	 1.6341352943e+00	-1.0524016185e+00
 2.4015692595e-01	 1.6396504618e+00	-9.7355681633e-01
 2.0525917779e-01	 1.6443836493e+00	-9.0437101563e-01
 1.7052246005e-01	 1.6483479581e+00	-8.4743726583e-01
 1.3596901154e-01	 1.6515572535e+00	-8.0527334334e-01
 1.0162014686e-01	 1.6540261027e+00	-7.8031077521e-01
 6.7496238894e-02	 1.6557697139e+00	-7.7488483847e-01
 3.3616705451e-02	 1.6568038748e+00	-7.9122555869e-01
 0.0000000000e+00	 1.6571448927e+00	-8.3144972169e-01
 3.4855979707e-01	 1.6346827352e+00	-1.2191957863e+00
 3.1301749104e-01	 1.6418591425e+00	-1.1277449892e+00
 2.7756496214e-01	 1.6482229587e+00	-1.0407861457e+00
 2.4222728706e-01	 1.6537856717e+00	-9.6106862970e-01
 2.0702869002e-01	 1.6585596634e+00	-8.9125078018e-01
 1.7199251164e-01	 1.6625581480e+00	-8.3388898748e-01
 1.3714118242e-01	 1.6657951103e+00	-7.9142785637e-01
 1.0249620072e-01	 1.6682852431e+00	-7.6619146147e-01
 6.8078115048e-02	 1.6700438857e+00	-7.6037570104e-01
 3.3906510625e-02	 1.6710869620e+00	-7.7604174554e-01
 0.0000000000e+00	 1.6714309198e+00	-8.1511056855e-01
 3.5153900375e-01	 1.6486546786e+00	-1.2079089819e+00
 3.1569291090e-01	 1.6558924240e+00	-1.1159267883e+00
 2.7993736251e-01	 1.6623106329e+00	-1.0287967222e+00
 2.4429764962e-01	 1.6679208915e+00	-9.4917366104e-01
 2.0879820350e-01	 1.6727356874e+00	-8.7957978694e-01
 1.7346256425e-01	 1.6767683478e+00	-8.2239664400e-01
 1.3831335411e-01	 1.6800329770e+00	-7.7985839484e-01
 1.0337225518e-01	 1.6825443935e+00	-7.5404625799e-01
 6.8659991608e-02	 1.6843180675e+00	-7.4688410028e-01
 3.4196316002e-02	 1.6853700592e+00	-7.6013514974e-01
 0.0000000000e+00	 1.6857169568e+00	-7.9539978795e-01
 3.5451821183e-01	 1.6626266284e+00	-1.1946245265e+00
 3.1836833200e-01	 1.6699257120e+00	-1.1028979823e+00
 2.8230976399e-01	 1.6763983137e+00	-1.0165236535e+00
 2.4636801315e-01	 1.6820561178e+00	-9.3792850299e-01
 2.1056771780e-01	 1.6869117180e+00	-8.6936396524e-01
 1.7493261755e-01	 1.6909785542e+00	-8.1290203041e-01
 1.3948552636e-01	 1.6942708504e+00	-7.7043259333e-01
 1.0424831006e-01	 1.6968035505e+00	-7.4366201095e-01
 6.9241868441e-02	 1.6985922560e+00	-7.3411280565e-01
 3.4486121514e-02	 1.6996531631e+00	-7.4312444623e-01
 0.0000000000e+00	 1.7000030006e+00	-7.7185513430e-01
 3.5749742061e-01	 1.6765985816e+00	-1.1794317981e+00
 3.2104375374e-01	 1.6839590033e+00	-1.0887583326e+00
 2.8468216602e-01	 1.6904859978e+00	-1.0040539244e+00
 2.4843837716e-01	 1.6961913475e+00	-9.2738759383e-01
 2.1233723252e-01	 1.7010877519e+00	-8.6060882086e-01
 1.7640267120e-01	 1.7051887640e+00	-8.0534869695e-01
 1.4065769887e-01	 1.7085087271e+00	-7.6302235331e-01
 1.0512436514e-01	 1.7110627108e+00	-7.3483256429e-01
 6.9823745408e-02	 1.7128664478e+00	-7.2177442290e-01
 3.4775927094e-02	 1.7139362703e+00	-7.2464098317e-01
 0.0000000000e+00	 1.7142890476e+00	-7.4402976386e-01
 1.7142890476e+00	 0.0000000000e+00	 3.0115435701e+00
 1.7139362703e+00	 3.4775927094e-02	 3.0040427865e+00
 1.7128664478e+00	 6.9823745408e-02	 2.9927488348e+00
 1.7110627108e+00	 1.0512436514e-01	 2.9760721960e+00
 1.7085087271e+00	 1.4065769887e-01	 2.9522901280e+00
 1.7051887640e+00	 1.7640267120e-01	 2.9195562995e+00
 1.7010877519e+00	 2.1233723252e-01	 2.8759123082e+00
 1.6961913475e+00	 2.4843837716e-01	 2.8193011068e+00
 1.6904859978e+00	 2.8468216602e-01	 2.7475823426e+00
 1.6839590033e+00	 3.2104375374e-01	 2.6585495911e+00
 1.6765985816e+00	 3.5749742061e-01	 2.5499494400e+00
 1.7285740955e+00	 0.0000000000e+00	 2.9736991687e+00
 1.7282183785e+00	 3.5065712404e-02	 2.9733578383e+00
 1.7271396413e+00	 7.0405581679e-02	 2.9668056582e+00
 1.7253208739e+00	 1.0600035895e-01	 2.9527858728e+00
 1.7227456080e+00	 1.4182978940e-01	 2.9299356543e+00
 1.7193979799e+00	 1.7787262203e-01	 2.8967947386e+00
 1.7152627943e+00	 2.1410662347e-01	 2.8518156977e+00
 1.7103255886e+00	 2.5050859637e-01	 2.7933758664e+00
 1.7045726966e+00	 2.8705440212e-01	 2.7197909242e+00
 1.6979913131e+00	 3.2371898835e-01	 2.6293301126e+00
 1.6905695575e+00	 3.6047642102e-01	 2.5202330437e+00
 1.7428591451e+00	 0.0000000000e+00	 2.9355660989e+00
 1.7425004884e+00	 3.5355497748e-02	 2.9422396529e+00
 1.7414128364e+00	 7.0987418017e-02	 2.9403977774e+00
 1.7395790386e+00	 1.0687635285e-01	 2.9291020670e+00
 1.7369824905e+00	 1.4300188007e-01	 2.9073333777e+00
 1.7336071974e+00	 1.7934257302e-01	 2.8739994591e+00
 1.7294378384e+00	 2.1587601463e-01	 2.8279439873e+00
 1.7244598313e+00	 2.5257881582e-01	 2.7679570118e+00
 1.7186593970e+00	 2.8942663850e-01	 2.6927868147e+00
 1.7120236246e+00	 3.2639422327e-01	 2.6011531593e+00
 1.7045405351e+00	 3.6345542177e-01	 2.4917618882e+00
 1.7571441980e+00	 0.0000000000e+00	 2.8970173960e+00
 1.7567826016e+00	 3.5645283159e-02	 2.9105964093e+00
 1.7556860349e+00	 7.1569254491e-02	 2.9134609733e+00
 1.7538372067e+00	 1.0775234697e-01	 2.9049769562e+00
 1.7512193764e+00	 1.4417397102e-01	 2.8844530366e+00
 1.7478164183e+00	 1.8081252437e-01	 2.8511473262e+00
 1.7436128858e+00	 2.1764540620e-01	 2.8042751699e+00
 1.7385940773e+00	 2.5464903575e-01	 2.7430181326e+00
 1.7327461007e+00	 2.9179887544e-01	 2.6665341682e+00
 1.7260559393e+00	 3.2906945882e-01	 2.5739689485e+00
 1.7185115159e+00	 3.6643442322e-01	 2.4644683138e+00
 1.7714292559e+00	 0.0000000000e+00	 2.8579301946e+00
 1.7710647198e+00	 3.5935068672e-02	 2.8783393060e+00
 1.7699592384e+00	 7.2151091168e-02	 2.8859332122e+00
 1.7680953797e+00	 1.0862834139e-01	 2.8803683031e+00
 1.7654562673e+00	 1.4534606237e-01	 2.8612655758e+00
 1.7620256441e+00	 1.8228247622e-01	 2.8282162418e+00
 1.7577879382e+00	 2.1941479840e-01	 2.7807883000e+00
 1.7527283282e+00	 2.5671925640e-01	 2.7185340833e+00
 1.7468328094e+00	 2.9417111321e-01	 2.6409987703e+00
 1.7400882589e+00	 3.3174469531e-01	 2.5477298418e+00
 1.7324825016e+00	 3.6941342572e-01	 2.4382874450e+00
 1.7857143204e+00	 0.0000000000e+00	 2.8181855637e+00
 1.7853468447e+00	 3.6224854319e-02	 2.8453824403e+00
 1.7842324485e+00	 7.2732928116e-02	 2.8577545582e+00
 1.7823535594e+00	 1.0950433622e-01	 2.8552353918e+00
 1.7796931648e+00	 1.4651815427e-01	 2.8377430983e+00
 1.7762348765e+00	 1.8375242876e-01	 2.8051851025e+00
 1.7719629972e+00	 2.2118419141e-01	 2.7574634504e+00
 1.7668625858e+00	 2.5878947803e-01	 2.6944809330e+00
 1.7609195246e+00	 2.9654335208e-01	 2.6161479737e+00
 1.7541205851e+00	 3.3441993304e-01	 2.5223902592e+00
 1.7464534939e+00	 3.7239242960e-01	 2.4131570787e+00
 1.7999993933e+00	 0.0000000000e+00	 2.7776683516e+00
 1.7996289779e+00	 3.6514640136e-02	 2.8116426936e+00
 1.7985056669e+00	 7.3314765404e-02	 2.8288670902e+00
 1.7966117474e+00	 1.1038033155e-01	 2.8295389677e+00
 1.7939300706e+00	 1.4769024685e-01	 2.8138588190e+00
 1.7904441173e+00	 1.8522238216e-01	 2.7820337608e+00
 1.7861380644e+00	 2.2295358546e-01	 2.7342816725e+00
 1.7809968516e+00	 2.6085970086e-01	 2.6708359169e+00
 1.7750062480e+00	 2.9891559233e-01	 2.5919506352e+00
 1.7681529195e+00	 3.3709517233e-01	 2.4979065975e+00
 1.7604244943e+00	 3.7537143522e-01	 2.3890175780e+00
 1.8142844762e+00	 0.0000000000e+00	 2.7362670363e+00
 1.8139111211e+00	 3.6804426156e-02	 2.7770396212e+00
 1.8127788954e+00	 7.3896603099e-02	 2.7992148221e+00
 1.8108699454e+00	 1.1125632751e-01	 2.8032411795e+00
 1.8081669863e+00	 1.4886234025e-01	 2.7895870213e+00
 1.8046533680e+00	 1.8669233659e-01	 2.7587429870e+00
 1.8003131416e+00	 2.2472298075e-01	 2.7112249573e+00
 1.7951311272e+00	 2.6292992514e-01	 2.6475773907e+00
 1.7890929813e+00	 3.0128783425e-01	 2.5683770568e+00
 1.7821852637e+00	 3.3977041350e-01	 2.4742371523e+00
 1.7743955044e+00	 3.7835044293e-01	 2.3658117718e+00
 1.8285695708e+00	 0.0000000000e+00	 2.6938735843e+00
 1.8281932760e+00	 3.7094212412e-02	 2.7414953486e+00
 1.8270521355e+00	 7.4478441269e-02	 2.7687436280e+00
 1.8251281550e+00	 1.1213232417e-01	 2.7763055249e+00
 1.8224039137e+00	 1.5003443461e-01	 2.7649030153e+00
 1.8188626303e+00	 1.8816229222e-01	 2.7352944334e+00
 1.8144882303e+00	 2.2649237748e-01	 2.6882761989e+00
 1.8092654145e+00	 2.6500015111e-01	 2.6246847865e+00
 1.8031797261e+00	 3.0366007810e-01	 2.5453989292e+00
 1.7962176193e+00	 3.4244565685e-01	 2.4513420442e+00
 1.7883665260e+00	 3.8132945307e-01	 2.3434848578e+00
 1.8428546786e+00	 0.0000000000e+00	 2.6503833151e+00
 1.8424754442e+00	 3.7383998939e-02	 2.7049344714e+00
 1.8413253889e+00	 7.5060279982e-02	 2.7374011696e+00
 1.8393863780e+00	 1.1300832166e-01	 2.7486967982e+00
 1.8366408544e+00	 1.5120653007e-01	 2.7397830978e+00
 1.8330719058e+00	 1.8963224922e-01	 2.7116706002e+00
 1.8286633323e+00	 2.2826177587e-01	 2.6654191594e+00
 1.8233997149e+00	 2.6707037901e-01	 2.6021385712e+00
 1.8172664841e+00	 3.0603232417e-01	 2.5229892779e+00
 1.8102499881e+00	 3.4512090270e-01	 2.4291831476e+00
 1.8023375606e+00	 3.8430846599e-01	 2.3219843109e+00
 1.8571398015e+00	 0.0000000000e+00	 2.6056947727e+00
 1.8567576274e+00	 3.7673785770e-02	 2.6672839604e+00
 1.8555986573e+00	 7.5642119307e-02	 2.7051368274e+00
 1.8536446159e+00	 1.1388432006e-01	 2.7203810402e+00
 1.8508778101e+00	 1.5237862675e-01	 2.7142045144e+00
 1.8472811963e+00	 1.9110220776e-01	 2.6878548030e+00
 1.8428384492e+00	 2.3003117611e-01	 2.6426384356e+00
 1.8375340302e+00	 2.6914060908e-01	 2.5799202068e+00
 1.8313532568e+00	 3.0840457273e-01	 2.5011224120e+00
 1.8242823715e+00	 3.4779615135e-01	 2.4077240232e+00
 1.8163086099e+00	 3.8728748204e-01	 2.3012597957e+00
 1.6765985816e+00	 3.5749742061e-01	 2.5499494400e+00
 1.6683945330e+00	 3.9401405774e-01	 2.4220830284e+00
 1.6593366097e+00	 4.3056889908e-01	 2.2782631576e+00
 1.6494161483e+00	 4.6713388836e-01	 2.1207911545e+00
 1.6386256401e+00	 5.0368027245e-01	 1.9520068527e+00
 1.6269587858e+00	 5.4017865683e-01	 1.7742777144e+00
 1.6144105468e+00	 5.7659906553e-01	 1.5899874101e+00
 1.6009771935e+00	 6.1291100557e-01	 1.4015239062e+00
 1.5866563497e+00	 6.4908353537e-01	 1.2112671157e+00
 1.5714470327e+00	 6.8508533728e-01	 1.0215761684e+00
 1.5553496890e+00	 7.2088479365e-01	 8.3477636838e-01
 1.6905695575e+00	 3.6047642102e-01	 2.5202330437e+00
 1.6822971451e+00	 3.9729734867e-01	 2.3930624850e+00
 1.6731637429e+00	 4.3415679888e-01	 2.2509032866e+00
 1.6631606150e+00	 4.7102648160e-01	 2.0958112961e+00
 1.6522801903e+00	 5.0787740410e-01	 1.9298608793e+00
 1.6405161168e+00	 5.4467992690e-01	 1.7551352790e+00
 1.6278633143e+00	 5.8140382426e-01	 1.5737166404e+00
 1.6143180218e+00	 6.1801834909e-01	 1.3876757482e+00
 1.5998778435e+00	 6.5449230200e-01	 1.1990615212e+00
 1.5845417883e+00	 6.9079410435e-01	 1.0098903171e+00
 1.5683103066e+00	 7.2689187503e-01	 8.2213509947e-01
 1.7045405351e+00	 3.6345542177e-01	 2.4917618882e+00
 1.6961997590e+00	 4.0058063999e-01	 2.3653851449e+00
 1.6869908777e+00	 4.3774469911e-01	 2.2248579387e+00
 1.6769050833e+00	 4.7491907530e-01	 2.0720096909e+00
 1.6659347420e+00	 5.1207453624e-01	 1.9086703493e+00
 1.6540734495e+00	 5.4918119749e-01	 1.7366619188e+00
 1.6413160833e+00	 5.8620858355e-01	 1.5577898489e+00
 1.6276588517e+00	 6.2312569322e-01	 1.3738343168e+00
 1.6130993388e+00	 6.5990106926e-01	 1.1865414487e+00
 1.5976365454e+00	 6.9650287208e-01	 9.9761452057e-01
 1.5812709257e+00	 7.3289895710e-01	 8.0870518074e-01
 1.7185115159e+00	 3.6643442322e-01	 2.4644683138e+00
 1.7101023760e+00	 4.0386393207e-01	 2.3389674854e+00
 1.7008180157e+00	 4.4133260017e-01	 2.2000349966e+00
 1.6906495548e+00	 4.7881166991e-01	 2.0492924067e+00
 1.6795892969e+00	 5.1627166935e-01	 1.8883457709e+00
 1.6676307853e+00	 5.5368246914e-01	 1.7187782790e+00
 1.6547688555e+00	 5.9101334397e-01	 1.5421429214e+00
 1.6409996847e+00	 6.2823303853e-01	 1.3599552193e+00
 1.6263208372e+00	 6.6530983778e-01	 1.1736860538e+00
 1.6107313056e+00	 7.0221164115e-01	 9.8475462831e-01
 1.5942315478e+00	 7.3890604058e-01	 7.9452159458e-01
 1.7324825016e+00	 3.6941342572e-01	 2.4382874450e+00
 1.7240049979e+00	 4.0714722530e-01	 2.3137293423e+00
 1.7146451585e+00	 4.4492050249e-01	 2.1763460416e+00
 1.7043940311e+00	 4.8270426588e-01	 2.0275693304e+00
 1.6932438566e+00	 5.2046880394e-01	 1.8688013894e+00
 1.6811881259e+00	 5.5818374236e-01	 1.7014084746e+00
 1.6682216324e+00	 5.9581810606e-01	 1.5267147810e+00
 1.6543405224e+00	 6.3334038563e-01	 1.3459965207e+00
 1.6395423402e+00	 6.7071860819e-01	 1.1604762451e+00
 1.6238260704e+00	 7.0792041221e-01	 9.7131743448e-01
 1.6071921745e+00	 7.4491312615e-01	 7.7961937869e-01
 1.7464534939e+00	 3.7239242960e-01	 2.4131570787e+00
 1.7379076264e+00	 4.1043052006e-01	 2.2895937757e+00
 1.7284723078e+00	 4.4850840648e-01	 2.1537062050e+00
 1.7181385138e+00	 4.8659686367e-01	 2.0067540147e+00
 1.7068984227e+00	 5.2466594048e-01	 1.8499550372e+00
 1.6947454728e+00	 5.6268501769e-01	 1.6844799515e+00
 1.6816744156e+00	 6.0062287039e-01	 1.5114472657e+00
 1.6676813663e+00	 6.3844773512e-01	 1.3319186455e+00
 1.6527638494e+00	 6.7612738113e-01	 1.1468946142e+00
 1.6369208413e+00	 7.1362918593e-01	 9.5731064020e-01
 1.6201528072e+00	 7.5092021453e-01	 7.6403362385e-01
 1.7604244943e+00	 3.7537143522e-01	 2.3890175780e+00
 1.7518102629e+00	 4.1371381674e-01	 2.2664869417e+00
 1.7422994652e+00	 4.5209631257e-01	 2.1320340278e+00
 1.7318830045e+00	 4.9048946372e-01	 1.9867635332e+00
 1.7205529967e+00	 5.2886307947e-01	 1.8317279915e+00
 1.7083028276e+00	 5.6718629563e-01	 1.6679233545e+00
 1.6951272067e+00	 6.0542763753e-01	 1.4962850135e+00
 1.6810222180e+00	 6.4355508758e-01	 1.3176842834e+00
 1.6659853663e+00	 6.8153615722e-01	 1.1329253685e+00
 1.6500156198e+00	 7.1933796299e-01	 9.4274281752e-01
 1.6331134475e+00	 7.5692730642e-01	 7.4779947179e-01
 1.7743955044e+00	 3.7835044293e-01	 2.3658117718e+00
 1.7657129091e+00	 4.1699711571e-01	 2.2443379707e+00
 1.7561266322e+00	 4.5568422117e-01	 2.1112513261e+00
 1.7456275048e+00	 4.9438206651e-01	 1.9675183412e+00
 1.7342075803e+00	 5.3306022140e-01	 1.8140448390e+00
 1.7218601919e+00	 5.7168757673e-01	 1.6516724012e+00
 1.7085800071e+00	 6.1023240803e-01	 1.4811753514e+00
 1.6943630790e+00	 6.4866244362e-01	 1.3032583010e+00
 1.6792068925e+00	 6.8694493710e-01	 1.1185542682e+00
 1.6631104075e+00	 7.2504674404e-01	 9.2762337516e-01
 1.6460740968e+00	 7.6293440251e-01	 7.3095211324e-01
 1.7883665260e+00	 3.8132945307e-01	 2.3434848578e+00
 1.7796155667e+00	 4.2028041737e-01	 2.2230788513e+00
 1.7699538106e+00	 4.5927213270e-01	 2.0912830633e+00
 1.7593720164e+00	 4.9827467247e-01	 1.9489421440e+00
 1.7478621750e+00	 5.3725736676e-01	 1.7968333461e+00
 1.7354175672e+00	 5.7618886151e-01	 1.6356637618e+00
 1.7220328186e+00	 6.1503718246e-01	 1.4660681912e+00
 1.7077039509e+00	 6.5376980383e-01	 1.2886076560e+00
 1.6924284294e+00	 6.9235372139e-01	 1.1037685652e+00
 1.6762052059e+00	 7.3075552975e-01	 9.1196252583e-01
 1.6590347568e+00	 7.6894150350e-01	 7.1352678596e-01
 1.8023375606e+00	 3.8430846599e-01	 2.3219843109e+00
 1.7935182373e+00	 4.2356372209e-01	 2.2026443191e+00
 1.7837810018e+00	 4.6286004757e-01	 2.0720572280e+00
 1.7731165408e+00	 5.0216728206e-01	 1.9309617707e+00
 1.7615167825e+00	 5.4145451604e-01	 1.7800243363e+00
 1.7489749552e+00	 5.8069015048e-01	 1.6198369454e+00
 1.7354856426e+00	 6.1984196137e-01	 1.4509159284e+00
 1.7210448352e+00	 6.5887716880e-01	 1.2737013168e+00
 1.7056499787e+00	 6.9776251074e-01	 1.0885569454e+00
 1.6893000165e+00	 7.3646432079e-01	 8.9577125508e-01
 1.6719954288e+00	 7.7494861010e-01	 6.9555877297e-01
 1.8163086099e+00	 3.8728748204e-01	 2.3012597957e+00
 1.8074209225e+00	 4.2684703026e-01	 2.1829717514e+00
 1.7976082076e+00	 4.6644796621e-01	 2.0535047175e+00
 1.7868610796e+00	 5.0605989574e-01	 1.9135070540e+00
 1.7751714043e+00	 5.4565166972e-01	 1.7635515720e+00
 1.7625323575e+00	 5.8519144419e-01	 1.6041341897e+00
 1.7489384807e+00	 6.2464674532e-01	 1.4356733474e+00
 1.7343857336e+00	 6.6398453914e-01	 1.2585101846e+00
 1.7188715419e+00	 7.0317130576e-01	 1.0729094735e+00
 1.7023948409e+00	 7.4217311783e-01	 8.7906129154e-01
 1.6849561144e+00	 7.8095572301e-01	 6.7708340080e-01
 1.5553496890e+00	 7.2088479365e-01	 8.3477636838e-01
 1.5383650072e+00	 7.5645254539e-01	 6.4425777974e-01
 1.5204974850e+00	 7.9175408771e-01	 4.4317165141e-01
 1.5017520327e+00	 8.2675737455e-01	 2.3348725687e-01
 1.4821350817e+00	 8.6143039390e-01	 1.7271366718e-02
 1.4616545934e+00	 8.9574125683e-01	-2.0331443180e-01
 1.4403200613e+00	 9.2965828779e-01	-4.2601735965e-01
 1.4181425068e+00	 9.6315011567e-01	-6.4849805614e-01
 1.3951344689e+00	 9.9618576505e-01	-8.6833620350e-01
 1.3713099874e+00	 1.0287347473e+00	-1.0830371821e+00
 1.3466845789e+00	 1.0607671506e+00	-1.2900397577e+00
 1.5683103066e+00	 7.2689187503e-01	 8.2213509947e-01
 1.5511840927e+00	 7.6275601029e-01	 6.2923773924e-01
 1.5331676817e+00	 7.9835171784e-01	 4.2489327263e-01
 1.5142660248e+00	 8.3364668457e-01	 2.1147181709e-01
 1.4944856072e+00	 8.6860863170e-01	-8.5325934986e-03
 1.4738344565e+00	 9.0320540459e-01	-2.3250751415e-01
 1.4523221453e+00	 9.3740506375e-01	-4.5772881677e-01
 1.4299597868e+00	 9.7117597662e-01	-6.8136866036e-01
 1.4067600246e+00	 1.0044869097e+00	-9.0050470748e-01
 1.3827370153e+00	 1.0373071203e+00	-1.1121305742e+00
 1.3579064051e+00	 1.0696064474e+00	-1.3131674836e+00
 1.5812709257e+00	 7.3289895710e-01	 8.0870518074e-01
 1.5640031796e+00	 7.6905947593e-01	 6.1337415330e-01
 1.5458378799e+00	 8.0494934874e-01	 4.0588707011e-01
 1.5267800185e+00	 8.4053599538e-01	 1.8898447769e-01
 1.5068361342e+00	 8.7578687034e-01	-3.4445217488e-02
 1.4860143210e+00	 9.1066955323e-01	-2.6137390119e-01
 1.4643242306e+00	 9.4515184060e-01	-4.8864338210e-01
 1.4417770681e+00	 9.7920183852e-01	-7.1297650038e-01
 1.4183855816e+00	 1.0127880553e+00	-9.3098969445e-01
 1.3941640446e+00	 1.0458794943e+00	-1.1392069864e+00
 1.3691282326e+00	 1.0784457451e+00	-1.3340753262e+00
 1.5942315478e+00	 7.3890604058e-01	 7.9452159458e-01
 1.5768222696e+00	 7.7536294304e-01	 5.9672727119e-01
 1.5585080810e+00	 8.1154698118e-01	 3.8622933367e-01
 1.5392940150e+00	 8.4742530780e-01	 1.6610907679e-01
 1.5191866640e+00	 8.8296511065e-01	-6.0382833137e-02
 1.4981941884e+00	 9.1813370360e-01	-2.8983698205e-01
 1.4763263187e+00	 9.5289861927e-01	-5.1869754399e-01
 1.4535943522e+00	 9.8722770228e-01	-7.4327630956e-01
 1.4300111413e+00	 1.0210892029e+00	-9.5976836510e-01
 1.4055910765e+00	 1.0544518703e+00	-1.1642693581e+00
 1.3803500627e+00	 1.0872850449e+00	-1.3527942613e+00
 1.6071921745e+00	 7.4491312615e-01	 7.7961937869e-01
 1.5896413640e+00	 7.8166641235e-01	 5.7935663000e-01
 1.5711782865e+00	 8.1814461592e-01	 3.6599516816e-01
 1.5518080159e+00	 8.5431462263e-01	 1.4292806551e-01
 1.5315371982e+00	 8.9014335347e-01	-8.6263111938e-02
 1.5103740600e+00	 9.2559785659e-01	-3.1782122719e-01
 1.4883284111e+00	 9.6064540064e-01	-5.4782841878e-01
 1.4654116405e+00	 9.9525356886e-01	-7.7222283376e-01
 1.4416367050e+00	 1.0293903534e+00	-9.8681718495e-01
 1.4170181125e+00	 1.0630242493e+00	-1.1873190445e+00
 1.3915718967e+00	 1.0961243478e+00	-1.3693527607e+00
 1.6201528072e+00	 7.5092021453e-01	 7.6403362385e-01
 1.6024604644e+00	 7.8796988461e-01	 5.6132108316e-01
 1.5838484980e+00	 8.2474225374e-01	 3.4525854085e-01
 1.5643220227e+00	 8.6120394068e-01	 1.1952256339e-01
 1.5438877381e+00	 8.9732159964e-01	-1.1200501528e-01
 1.5225539372e+00	 9.3306201306e-01	-3.4525214520e-01
 1.5003305090e+00	 9.6839218564e-01	-5.7597372570e-01
 1.4772289342e+00	 1.0032794392e+00	-7.9977083090e-01
 1.4532622743e+00	 1.0376915077e+00	-1.0121119138e+00
 1.4284451538e+00	 1.0715966323e+00	-1.2083558799e+00
 1.4027937360e+00	 1.1049636549e+00	-1.3837768932e+00
 1.6331134475e+00	 7.5692730642e-01	 7.4779947179e-01
 1.6152795723e+00	 7.9427336054e-01	 5.4267882755e-01
 1.5965187168e+00	 8.3133989541e-01	 3.2409232655e-01
 1.5768360368e+00	 8.6809326275e-01	 9.5972411225e-02
 1.5562382852e+00	 9.0449985000e-01	-1.3752874330e-01
 1.5347338216e+00	 9.4052617388e-01	-3.7205624160e-01
 1.5123326140e+00	 9.7613897514e-01	-6.0307176307e-01
 1.4890462349e+00	 1.0113053142e+00	-8.2587507059e-01
 1.4648878502e+00	 1.0459926669e+00	-1.0356276338e+00
 1.4398722017e+00	 1.0801690203e+00	-1.2273782380e+00
 1.4140155818e+00	 1.1138029671e+00	-1.3960904198e+00
 1.6460740968e+00	 7.6293440251e-01	 7.3095211324e-01
 1.6280986892e+00	 8.0057684088e-01	 5.2348742932e-01
 1.6091889446e+00	 8.3793754170e-01	 3.0256835062e-01
 1.5893500596e+00	 8.7498258963e-01	 7.2356221389e-02
 1.5685888410e+00	 9.1167810538e-01	-1.6275568613e-01
 1.5469137145e+00	 9.4799033993e-01	-3.9816097970e-01
 1.5243347273e+00	 9.8388577008e-01	-6.2906138548e-01
 1.5008635438e+00	 1.0193311948e+00	-8.5049033368e-01
 1.4765134344e+00	 1.0542938319e+00	-1.0573387763e+00
 1.4512992576e+00	 1.0887414143e+00	-1.2443830898e+00
 1.4252374355e+00	 1.1226422854e+00	-1.4063148846e+00
 1.6590347568e+00	 7.6894150350e-01	 7.1352678596e-01
 1.6409178165e+00	 8.0688032637e-01	 5.0380384854e-01
 1.6218591826e+00	 8.4453519338e-01	 2.8075742994e-01
 1.6018640926e+00	 8.8187192215e-01	 4.8751425797e-02
 1.5809394069e+00	 9.1885636663e-01	-1.8760837747e-01
 1.5590936174e+00	 9.5545451207e-01	-4.2349474317e-01
 1.5363368505e+00	 9.9163257133e-01	-6.5388198217e-01
 1.5126808624e+00	 1.0273570820e+00	-8.7357141193e-01
 1.4881390280e+00	 1.0625950037e+00	-1.0772191471e+00
 1.4627263229e+00	 1.0973138153e+00	-1.2593660581e+00
 1.4364592983e+00	 1.1314816110e+00	-1.4144697015e+00
 1.6719954288e+00	 7.7494861010e-01	 6.9555877297e-01
 1.6537369558e+00	 8.1318381775e-01	 4.8368446270e-01
 1.6345294325e+00	 8.5113285122e-01	 2.5872941199e-01
 1.6143781374e+00	 8.8876126109e-01	 2.5234321643e-02
 1.5932899843e+00	 9.2603463457e-01	-2.1201045025e-01
 1.5712735316e+00	 9.6291869118e-01	-4.4798680045e-01
 1.5483389849e+00	 9.9937937982e-01	-6.7747345633e-01
 1.5244981920e+00	 1.0353829766e+00	-8.9507310760e-01
 1.4997646324e+00	 1.0708961832e+00	-1.0952419510e+00
 1.4741533988e+00	 1.1058862243e+00	-1.2723214701e+00
 1.4476811716e+00	 1.1403209449e+00	-1.4205722369e+00
 1.6849561144e+00	 7.8095572301e-01	 6.7708340080e-01
 1.6665561086e+00	 8.1948731574e-01	 4.6318508914e-01
 1.6471996957e+00	 8.5773051598e-01	 2.3655321214e-01
 1.6268921952e+00	 8.9565060726e-01	 1.8801150282e-03
 1.6056405746e+00	 9.3321291005e-01	-2.3588659442e-01
 1.5834534587e+00	 9.7038287813e-01	-4.7156727072e-01
 1.5603411318e+00	 1.0071261964e+00	-6.9977620538e-01
 1.5363155340e+00	 1.0434088797e+00	-9.1495023315e-01
 1.5113902491e+00	 1.0791973714e+00	-1.1113798151e+00
 1.4855804868e+00	 1.1144586423e+00	-1.2832424072e+00
 1.4589030567e+00	 1.1491602880e+00	-1.4246378885e+00
 1.3466845789e+00	 1.0607671506e+00	-1.2900397577e+00
 1.3212752037e+00	 1.0922537322e+00	-1.4833380840e+00
 1.2951002177e+00	 1.1231660134e+00	-1.6561098246e+00
 1.2681793414e+00	 1.1534763562e+00	-1.8045553676e+00
 1.2405336151e+00	 1.1831580408e+00	-1.8866333043e+00
 1.2121853445e+00	 1.2121853445e+00	-1.8641171759e+00
 1.1831580408e+00	 1.2405336151e+00	-1.8089001255e+00
 1.1534763562e+00	 1.2681793414e+00	-1.8934001640e+00
 1.1231660134e+00	 1.2951002177e+00	-2.0410083477e+00
 1.0922537322e+00	 1.3212752037e+00	-2.1617440244e+00
 1.0607671506e+00	 1.3466845789e+00	-2.2537159537e+00
 1.3579064051e+00	 1.0696064474e+00	-1.3131674836e+00
 1.3322852954e+00	 1.1013554043e+00	-1.4973845986e+00
 1.3058921951e+00	 1.1325252754e+00	-1.6584738907e+00
 1.2787469891e+00	 1.1630881921e+00	-1.7932429823e+00
 1.2508708929e+00	 1.1930172121e+00	-1.8985848154e+00
 1.2222863982e+00	 1.2222863982e+00	-1.8603262512e+00
 1.1930172121e+00	 1.2508708929e+00	-1.7933208542e+00
 1.1630881921e+00	 1.2787469891e+00	-1.9472066605e+00
 1.1325252754e+00	 1.3058921951e+00	-2.0780130015e+00
 1.1013554043e+00	 1.3322852954e+00	-2.1843965667e+00
 1.0696064474e+00	 1.3579064051e+00	-2.2651297941e+00
 1.3691282326e+00	 1.0784457451e+00	-1.3340753262e+00
 1.3432953884e+00	 1.1104570775e+00	-1.5092058439e+00
 1.3166841738e+00	 1.1418845385e+00	-1.6588218512e+00
 1.2893146380e+00	 1.1727000291e+00	-1.7803051480e+00
 1.2612081719e+00	 1.2028763845e+00	-1.8711400485e+00
 1.2323874530e+00	 1.2323874530e+00	-1.8571910695e+00
 1.2028763845e+00	 1.2612081719e+00	-1.8630607206e+00
 1.1727000291e+00	 1.2893146380e+00	-1.9990186602e+00
 1.1418845385e+00	 1.3166841738e+00	-2.1136577431e+00
 1.1104570775e+00	 1.3432953884e+00	-2.2062663817e+00
 1.0784457451e+00	 1.3691282326e+00	-2.2762352392e+00
 1.3803500627e+00	 1.0872850449e+00	-1.3527942613e+00
 1.3543054839e+00	 1.1195587529e+00	-1.5188563895e+00
 1.3274761549e+00	 1.1512438037e+00	-1.6572218840e+00
 1.2998822893e+00	 1.1823118684e+00	-1.7658144993e+00
 1.2715454533e+00	 1.2127355592e+00	-1.8426751217e+00
 1.2424885102e+00	 1.2424885102e+00	-1.8548873610e+00
 1.2127355592e+00	 1.2715454533e+00	-1.9302116184e+00
 1.1823118684e+00	 1.2998822893e+00	-2.0488658093e+00
 1.1512438037e+00	 1.3274761549e+00	-2.1479443511e+00
 1.1195587529e+00	 1.3543054839e+00	-2.2273239107e+00
 1.0872850449e+00	 1.3803500627e+00	-2.2869689531e+00
 1.3915718967e+00	 1.0961243478e+00	-1.3693527607e+00
 1.3653155833e+00	 1.1286604314e+00	-1.5263875301e+00
 1.3382681399e+00	 1.1606030723e+00	-1.6537384466e+00
 1.3104499444e+00	 1.1919237110e+00	-1.7498398045e+00
 1.2818827384e+00	 1.2225947373e+00	-1.8132551091e+00
 1.2525895710e+00	 1.2525895710e+00	-1.8637685584e+00
 1.2225947373e+00	 1.2818827384e+00	-1.9948237788e+00
 1.1919237110e+00	 1.3104499444e+00	-2.0967757163e+00
 1.1606030723e+00	 1.3382681399e+00	-2.1808734727e+00
 1.1286604314e+00	 1.3653155833e+00	-2.2475394843e+00
 1.0961243478e+00	 1.3915718967e+00	-2.2972685923e+00
 1.4027937360e+00	 1.1049636549e+00	-1.3837768932e+00
 1.3763256878e+00	 1.1377621142e+00	-1.5318474165e+00
 1.3490601299e+00	 1.1699623452e+00	-1.6484324248e+00
 1.3210176044e+00	 1.2015355581e+00	-1.7324461206e+00
 1.2922200282e+00	 1.2324539201e+00	-1.7829414941e+00
 1.2626906365e+00	 1.2626906365e+00	-1.8998038509e+00
 1.2324539201e+00	 1.2922200282e+00	-2.0569447486e+00
 1.2015355581e+00	 1.3210176044e+00	-2.1427740332e+00
 1.1699623452e+00	 1.3490601299e+00	-2.2124446682e+00
 1.1377621142e+00	 1.3763256878e+00	-2.2668833268e+00
 1.1049636549e+00	 1.4027937360e+00	-2.3070727652e+00
 1.4140155818e+00	 1.1138029671e+00	-1.3960904198e+00
 1.3873357987e+00	 1.1468638022e+00	-1.5352811799e+00
 1.3598521261e+00	 1.1793216235e+00	-1.6413612752e+00
 1.3315852705e+00	 1.2111474108e+00	-1.7136949404e+00
 1.3025573241e+00	 1.2423131086e+00	-1.7517923113e+00
 1.2727917078e+00	 1.2727917078e+00	-1.9314876026e+00
 1.2423131086e+00	 1.3025573241e+00	-2.1166194967e+00
 1.2111474108e+00	 1.3315852705e+00	-2.1868845334e+00
 1.1793216235e+00	 1.3598521261e+00	-2.2426564548e+00
 1.1468638022e+00	 1.3873357987e+00	-2.2853255604e+00
 1.1138029671e+00	 1.4140155818e+00	-2.3163209951e+00
 1.4252374355e+00	 1.1226422854e+00	-1.4063148846e+00
 1.3983459174e+00	 1.1559654967e+00	-1.5367310516e+00
 1.3706441300e+00	 1.1886809084e+00	-1.6325791592e+00
 1.3421529441e+00	 1.2207592702e+00	-1.6936443329e+00
 1.3128946272e+00	 1.2521723040e+00	-1.7354761692e+00
 1.2828927863e+00	 1.2828927863e+00	-1.9589322946e+00
 1.2521723040e+00	 1.3128946272e+00	-2.1644787138e+00
 1.2207592702e+00	 1.3421529441e+00	-2.2291291853e+00
 1.1886809084e+00	 1.3706441300e+00	-2.2715063474e+00
 1.1559654967e+00	 1.3983459174e+00	-2.3028362091e+00
 1.1226422854e+00	 1.4252374355e+00	-2.3249536833e+00
 1.4364592983e+00	 1.1314816110e+00	-1.4144697015e+00
 1.4093560450e+00	 1.1650671986e+00	-1.5362364760e+00
 1.3814361426e+00	 1.1980402010e+00	-1.6221370729e+00
 1.3527206262e+00	 1.2303711375e+00	-1.6723490772e+00
 1.3232319388e+00	 1.2620315074e+00	-1.7713026321e+00
 1.2929938730e+00	 1.2929938730e+00	-1.9822475358e+00
 1.2620315074e+00	 1.3232319388e+00	-2.1759333409e+00
 1.2303711375e+00	 1.3527206262e+00	-2.2695282231e+00
 1.1980402010e+00	 1.3814361426e+00	-2.2989908975e+00
 1.1650671986e+00	 1.4093560450e+00	-2.3193852029e+00
 1.1314816110e+00	 1.4364592983e+00	-2.3329120757e+00
 1.4476811716e+00	 1.1403209449e+00	-1.4205722369e+00
 1.4203661829e+00	 1.1741689089e+00	-1.5338342186e+00
 1.3922281653e+00	 1.2073995023e+00	-1.6100829690e+00
 1.3632883183e+00	 1.2399830138e+00	-1.6498607900e+00
 1.3335692600e+00	 1.2718907201e+00	-1.8025993050e+00
 1.3030949691e+00	 1.3030949691e+00	-2.0015401738e+00
 1.2718907201e+00	 1.3335692600e+00	-2.1838950695e+00
 1.2399830138e+00	 1.3632883183e+00	-2.3081002139e+00
 1.2073995023e+00	 1.3922281653e+00	-2.3251057307e+00
 1.1741689089e+00	 1.4203661829e+00	-2.3349423808e+00
 1.1403209449e+00	 1.4476811716e+00	-2.3401382290e+00
 1.4589030567e+00	 1.1491602880e+00	-1.4246378885e+00
 1.4313763324e+00	 1.1832706289e+00	-1.5295584693e+00
 1.4030201994e+00	 1.2167588134e+00	-1.5964618744e+00
 1.3738560214e+00	 1.2495949002e+00	-1.6262280473e+00
 1.3439065921e+00	 1.2817499431e+00	-1.8294797765e+00
 1.3131960758e+00	 1.3131960758e+00	-2.0169144019e+00
 1.2817499431e+00	 1.3439065921e+00	-2.1884534023e+00
 1.2495949002e+00	 1.3738560214e+00	-2.3448621216e+00
 1.2167588134e+00	 1.4030201994e+00	-2.3498455824e+00
 1.1832706289e+00	 1.4313763324e+00	-2.3494774948e+00
 1.1491602880e+00	 1.4589030567e+00	-2.3465749803e+00
 1.0607671506e+00	 1.3466845789e+00	-2.2537159537e+00
 1.0287347473e+00	 1.3713099874e+00	-2.3134392161e+00
 9.9618576505e-01	 1.3951344689e+00	-2.3412629671e+00
 9.6315011567e-01	 1.4181425068e+00	-2.3411975153e+00
 9.2965828779e-01	 1.4403200613e+00	-2.3172858277e+00
 8.9574125683e-01	 1.4616545934e+00	-2.2735739748e+00
 8.6143039390e-01	 1.4821350817e+00	-2.2140824327e+00
 8.2675737455e-01	 1.5017520327e+00	-2.1427784688e+00
 7.9175408771e-01	 1.5204974850e+00	-2.0635498206e+00
 7.5645254539e-01	 1.5383650072e+00	-1.9801798511e+00
 7.2088479365e-01	 1.5553496890e+00	-1.8963243464e+00
 1.0696064474e+00	 1.3579064051e+00	-2.2651297941e+00
 1.0373071203e+00	 1.3827370153e+00	-2.3170821422e+00
 1.0044869097e+00	 1.4067600246e+00	-2.3401947466e+00
 9.7117597662e-01	 1.4299597868e+00	-2.3379713636e+00
 9.3740506375e-01	 1.4523221453e+00	-2.3139328473e+00
 9.0320540459e-01	 1.4738344565e+00	-2.2715918060e+00
 8.6860863170e-01	 1.4944856072e+00	-2.2144281293e+00
 8.3364668457e-01	 1.5142660248e+00	-2.1458655727e+00
 7.9835171784e-01	 1.5331676817e+00	-2.0692495692e+00
 7.6275601029e-01	 1.5511840927e+00	-1.9878264159e+00
 7.2689187503e-01	 1.5683103066e+00	-1.9047239621e+00
 1.0784457451e+00	 1.3691282326e+00	-2.2762352392e+00
 1.0458794943e+00	 1.3941640446e+00	-2.3207423113e+00
 1.0127880553e+00	 1.4183855816e+00	-2.3393186561e+00
 9.7920183852e-01	 1.4417770681e+00	-2.3349829777e+00
 9.4515184060e-01	 1.4643242306e+00	-2.3107577982e+00
 9.1066955323e-01	 1.4860143210e+00	-2.2696481309e+00
 8.7578687034e-01	 1.5068361342e+00	-2.2146210250e+00
 8.4053599538e-01	 1.5267800185e+00	-2.1485861313e+00
 8.0494934874e-01	 1.5458378799e+00	-2.0743774194e+00
 7.6905947593e-01	 1.5640031796e+00	-1.9947361607e+00
 7.3289895710e-01	 1.5812709257e+00	-1.9122952712e+00
 1.0872850449e+00	 1.3803500627e+00	-2.2869689531e+00
 1.0544518703e+00	 1.4055910765e+00	-2.3243270498e+00
 1.0210892029e+00	 1.4300111413e+00	-2.3385229309e+00
 9.8722770228e-01	 1.4535943522e+00	-2.3321111514e+00
 9.5289861927e-01	 1.4763263187e+00	-2.3076390482e+00
 9.1813370360e-01	 1.4981941884e+00	-2.2676292397e+00
 8.8296511065e-01	 1.5191866640e+00	-2.2145629845e+00
 8.4742530780e-01	 1.5392940150e+00	-2.1508645129e+00
 8.1154698118e-01	 1.5585080810e+00	-2.0788864267e+00
 7.7536294304e-01	 1.5768222696e+00	-2.0008962496e+00
 7.3890604058e-01	 1.5942315478e+00	-1.9190641891e+00
 1.0961243478e+00	 1.3915718967e+00	-2.2972685923e+00
 1.0630242493e+00	 1.4170181125e+00	-2.3277456386e+00
 1.0293903534e+00	 1.4416367050e+00	-2.3376983956e+00
 9.9525356886e-01	 1.4654116405e+00	-2.3292375937e+00
 9.6064540064e-01	 1.4883284111e+00	-2.3044579182e+00
 9.2559785659e-01	 1.5103740600e+00	-2.2654241468e+00
 8.9014335347e-01	 1.5315371982e+00	-2.2141581227e+00
 8.5431462263e-01	 1.5518080159e+00	-2.1526266407e+00
 8.1814461592e-01	 1.5711782865e+00	-2.0827303098e+00
 7.8166641235e-01	 1.5896413640e+00	-2.0062934440e+00
 7.4491312615e-01	 1.6071921745e+00	-1.9250550145e+00
 1.1049636549e+00	 1.4027937360e+00	-2.3070727652e+00
 1.0715966323e+00	 1.4284451538e+00	-2.3309092346e+00
 1.0376915077e+00	 1.4532622743e+00	-2.3367383598e+00
 1.0032794392e+00	 1.4772289342e+00	-2.3262468120e+00
 9.6839218564e-01	 1.5003305090e+00	-2.3010985635e+00
 9.3306201306e-01	 1.5225539372e+00	-2.2629244811e+00
 8.9732159964e-01	 1.5438877381e+00	-2.2133127148e+00
 8.6120394068e-01	 1.5643220227e+00	-2.1537999312e+00
 8.2474225374e-01	 1.5838484980e+00	-2.0858634232e+00
 7.8796988461e-01	 1.6024604644e+00	-2.0109141184e+00
 7.5092021453e-01	 1.6201528072e+00	-1.9302904940e+00
 1.1138029671e+00	 1.4140155818e+00	-2.3163209951e+00
 1.0801690203e+00	 1.4398722017e+00	-2.3337307966e+00
 1.0459926669e+00	 1.4648878502e+00	-2.3355385205e+00
 1.0113053142e+00	 1.4890462349e+00	-2.3230260011e+00
 9.7613897514e-01	 1.5123326140e+00	-2.2974478623e+00
 9.4052617388e-01	 1.5347338216e+00	-2.2600243831e+00
 9.0449985000e-01	 1.5562382852e+00	-2.2119351105e+00
 8.6809326275e-01	 1.5768360368e+00	-2.1543132347e+00
 8.3133989541e-01	 1.5965187168e+00	-2.0882407327e+00
 7.9427336054e-01	 1.6152795723e+00	-2.0147442758e+00
 7.5692730642e-01	 1.6331134475e+00	-1.9347918839e+00
 1.1226422854e+00	 1.4252374355e+00	-2.3249536833e+00
 1.0887414143e+00	 1.4512992576e+00	-2.3361250140e+00
 1.0542938319e+00	 1.4765134344e+00	-2.3339968670e+00
 1.0193311948e+00	 1.5008635438e+00	-2.3194649375e+00
 9.8388577008e-01	 1.5243347273e+00	-2.2933953072e+00
 9.4799033993e-01	 1.5469137145e+00	-2.2566204052e+00
 9.1167810538e-01	 1.5685888410e+00	-2.2099356524e+00
 8.7498258963e-01	 1.5893500596e+00	-2.1540967786e+00
 8.3793754170e-01	 1.6091889446e+00	-2.0898177908e+00
 8.0057684088e-01	 1.6280986892e+00	-2.0177695625e+00
 7.6293440251e-01	 1.6460740968e+00	-1.9385790086e+00
 1.1314816110e+00	 1.4364592983e+00	-2.3329120757e+00
 1.0973138153e+00	 1.4627263229e+00	-2.3380082393e+00
 1.0625950037e+00	 1.4881390280e+00	-2.3320135919e+00
 1.0273570820e+00	 1.5126808624e+00	-2.3154558782e+00
 9.9163257133e-01	 1.5363368505e+00	-2.2888329042e+00
 9.5545451207e-01	 1.5590936174e+00	-2.2526114177e+00
 9.1885636663e-01	 1.5809394069e+00	-2.2072265977e+00
 8.8187192215e-01	 1.6018640926e+00	-2.1530821142e+00
 8.4453519338e-01	 1.6218591826e+00	-2.0905507141e+00
 8.0688032637e-01	 1.6409178165e+00	-2.0199752819e+00
 7.6894150350e-01	 1.6590347568e+00	-1.9416703166e+00
 1.1403209449e+00	 1.4476811716e+00	-2.3401382290e+00
 1.1058862243e+00	 1.4741533988e+00	-2.3392984235e+00
 1.0708961832e+00	 1.4997646324e+00	-2.3294910056e+00
 1.0353829766e+00	 1.5244981920e+00	-2.3108934648e+00
 9.9937937982e-01	 1.5483389849e+00	-2.2836550743e+00
 9.6291869118e-01	 1.5712735316e+00	-2.2478985193e+00
 9.2603463457e-01	 1.5932899843e+00	-2.2037220448e+00
 8.8876126109e-01	 1.6143781374e+00	-2.1512020644e+00
 8.5113285122e-01	 1.6345294325e+00	-2.0903961610e+00
 8.1318381775e-01	 1.6537369558e+00	-2.0213464074e+00
 7.7494861010e-01	 1.6719954288e+00	-1.9440829335e+00
 1.1491602880e+00	 1.4589030567e+00	-2.3465749803e+00
 1.1144586423e+00	 1.4855804868e+00	-2.3399150549e+00
 1.0791973714e+00	 1.5113902491e+00	-2.3263334547e+00
 1.0434088797e+00	 1.5363155340e+00	-2.3056746314e+00
 1.0071261964e+00	 1.5603411318e+00	-2.2777585613e+00
 9.7038287813e-01	 1.5834534587e+00	-2.2423849506e+00
 9.3321291005e-01	 1.6056405746e+00	-2.1993378613e+00
 8.9565060726e-01	 1.6268921952e+00	-2.1483906758e+00
 8.5773051598e-01	 1.6471996957e+00	-2.0893113112e+00
 8.1948731574e-01	 1.6665561086e+00	-2.0218675957e+00
 7.8095572301e-01	 1.6849561144e+00	-1.9458327134e+00
 7.2088479365e-01	 1.5553496890e+00	-1.8963243464e+00
 6.8508533728e-01	 1.5714470327e+00	-1.8175669204e+00
 6.4908353537e-01	 1.5866563497e+00	-1.7457629251e+00
 6.1291100557e-01	 1.6009771935e+00	-1.6788668990e+00
 5.7659906553e-01	 1.6144105468e+00	-1.6148261963e+00
 5.4017865683e-01	 1.6269587858e+00	-1.5516006213e+00
 5.0368027245e-01	 1.6386256401e+00	-1.4871811638e+00
 4.6713388836e-01	 1.6494161483e+00	-1.4196076816e+00
 4.3056889908e-01	 1.6593366097e+00	-1.3469853922e+00
 3.9401405774e-01	 1.6683945330e+00	-1.2675000619e+00
 3.5749742061e-01	 1.6765985816e+00	-1.1794317981e+00
 7.2689187503e-01	 1.5683103066e+00	-1.9047239621e+00
 6.9079410435e-01	 1.5845417883e+00	-1.8252500536e+00
 6.5449230200e-01	 1.5998778435e+00	-1.7515186380e+00
 6.1801834909e-01	 1.6143180218e+00	-1.6817826559e+00
 5.8140382426e-01	 1.6278633143e+00	-1.6143065267e+00
 5.4467992690e-01	 1.6405161168e+00	-1.5473829272e+00
 5.0787740410e-01	 1.6522801903e+00	-1.4793486550e+00
 4.7102648160e-01	 1.6631606150e+00	-1.4085994461e+00
 4.3415679888e-01	 1.6731637429e+00	-1.3336036352e+00
 3.9729734867e-01	 1.6822971451e+00	-1.2529145702e+00
 3.6047642102e-01	 1.6905695575e+00	-1.1651817074e+00
 7.3289895710e-01	 1.5812709257e+00	-1.9122952712e+00
 6.9650287208e-01	 1.5976365454e+00	-1.8321466061e+00
 6.5990106926e-01	 1.6130993388e+00	-1.7566876736e+00
 6.2312569322e-01	 1.6276588517e+00	-1.6844486169e+00
 5.8620858355e-01	 1.6413160833e+00	-1.6139865034e+00
 5.4918119749e-01	 1.6540734495e+00	-1.5438995232e+00
 5.1207453624e-01	 1.6659347420e+00	-1.4728402666e+00
 4.7491907530e-01	 1.6769050833e+00	-1.3995279739e+00
 4.3774469911e-01	 1.6869908777e+00	-1.3227596682e+00
 4.0058063999e-01	 1.6961997590e+00	-1.2414201009e+00
 3.6345542177e-01	 1.7045405351e+00	-1.1544904565e+00
 7.3890604058e-01	 1.5942315478e+00	-1.9190641891e+00
 7.0221164115e-01	 1.6107313056e+00	-1.8383154461e+00
 6.6530983778e-01	 1.6263208372e+00	-1.7613465041e+00
 6.2823303853e-01	 1.6409996847e+00	-1.6869440914e+00
 5.9101334397e-01	 1.6547688555e+00	-1.6139341397e+00
 5.5368246914e-01	 1.6676307853e+00	-1.5411936728e+00
 5.1627166935e-01	 1.6795892969e+00	-1.4676617819e+00
 4.7881166991e-01	 1.6906495548e+00	-1.3923495997e+00
 4.4133260017e-01	 1.7008180157e+00	-1.3143492039e+00
 4.0386393207e-01	 1.7101023760e+00	-1.2328413954e+00
 3.6643442322e-01	 1.7185115159e+00	-1.1471023171e+00
 7.4491312615e-01	 1.6071921745e+00	-1.9250550145e+00
 7.0792041221e-01	 1.6238260704e+00	-1.8438127996e+00
 6.7071860819e-01	 1.6395423402e+00	-1.7655684305e+00
 6.3334038563e-01	 1.6543405224e+00	-1.6893451659e+00
 5.9581810606e-01	 1.6682216324e+00	-1.6142146306e+00
 5.5818374236e-01	 1.6811881259e+00	-1.5393066610e+00
 5.2046880394e-01	 1.6932438566e+00	-1.4638182567e+00
 4.8270426588e-01	 1.7043940311e+00	-1.3870215675e+00
 4.4492050249e-01	 1.7146451585e+00	-1.3082708613e+00
 4.0714722530e-01	 1.7240049979e+00	-1.2270084337e+00
 3.6941342572e-01	 1.7324825016e+00	-1.1427694366e+00
 7.5092021453e-01	 1.6201528072e+00	-1.9302904940e+00
 7.1362918593e-01	 1.6369208413e+00	-1.8486923564e+00
 6.7612738113e-01	 1.6527638494e+00	-1.7694237095e+00
 6.3844773512e-01	 1.6676813663e+00	-1.6917248328e+00
 6.0062287039e-01	 1.6816744156e+00	-1.6148904659e+00
 5.6268501769e-01	 1.6947454728e+00	-1.5382778733e+00
 5.2466594048e-01	 1.7068984227e+00	-1.4613140478e+00
 4.8659686367e-01	 1.7181385138e+00	-1.3835019939e+00
 4.4850840648e-01	 1.7284723078e+00	-1.3044260502e+00
 4.1043052006e-01	 1.7379076264e+00	-1.2237562239e+00
 3.7239242960e-01	 1.7464534939e+00	-1.1412515234e+00
 7.5692730642e-01	 1.6331134475e+00	-1.9347918839e+00
 7.1933796299e-01	 1.6500156198e+00	-1.8530053703e+00
 6.8153615722e-01	 1.6659853663e+00	-1.7729796741e+00
 6.4355508758e-01	 1.6810222180e+00	-1.6941531132e+00
 6.0542763753e-01	 1.6951272067e+00	-1.6160215372e+00
 5.6718629563e-01	 1.7083028276e+00	-1.5381448711e+00
 5.2886307947e-01	 1.7205529967e+00	-1.4601528409e+00
 4.9048946372e-01	 1.7318830045e+00	-1.3817498335e+00
 4.5209631257e-01	 1.7422994652e+00	-1.3027188600e+00
 4.1371381674e-01	 1.7518102629e+00	-1.2229246034e+00
 3.7537143522e-01	 1.7604244943e+00	-1.1423155461e+00
 7.6293440251e-01	 1.6460740968e+00	-1.9385790086e+00
 7.2504674404e-01	 1.6631104075e+00	-1.8568007552e+00
 6.8694493710e-01	 1.6792068925e+00	-1.7763008487e+00
 6.4866244362e-01	 1.6943630790e+00	-1.6966971736e+00
 6.1023240803e-01	 1.7085800071e+00	-1.6176652402e+00
 5.7168757673e-01	 1.7218601919e+00	-1.5389434635e+00
 5.3306022140e-01	 1.7342075803e+00	-1.4603376771e+00
 4.9438206651e-01	 1.7456275048e+00	-1.3817248463e+00
 4.5568422117e-01	 1.7561266322e+00	-1.3030559542e+00
 4.1699711571e-01	 1.7657129091e+00	-1.2243580485e+00
 3.7835044293e-01	 1.7743955044e+00	-1.1457354486e+00
 7.6894150350e-01	 1.6590347568e+00	-1.9416703166e+00
 7.3075552975e-01	 1.6762052059e+00	-1.8601251765e+00
 6.9235372139e-01	 1.6924284294e+00	-1.7794490590e+00
 6.5376980383e-01	 1.7077039509e+00	-1.6994214374e+00
 6.1503718246e-01	 1.7220328186e+00	-1.6198765724e+00
 5.7618886151e-01	 1.7354175672e+00	-1.5407077756e+00
 5.3725736676e-01	 1.7478621750e+00	-1.4618709776e+00
 4.9827467247e-01	 1.7593720164e+00	-1.3833875655e+00
 4.5927213270e-01	 1.7699538106e+00	-1.3053464699e+00
 4.2028041737e-01	 1.7796155667e+00	-1.2279054929e+00
 3.8132945307e-01	 1.7883665260e+00	-1.1512918767e+00
 7.7494861010e-01	 1.6719954288e+00	-1.9440829335e+00
 7.3646432079e-01	 1.6893000165e+00	-1.8630231379e+00
 6.9776251074e-01	 1.7056499787e+00	-1.7824835360e+00
 6.5887716880e-01	 1.7210448352e+00	-1.7023876917e+00
 6.1984196137e-01	 1.7354856426e+00	-1.6227082256e+00
 5.8069015048e-01	 1.7489749552e+00	-1.5434703139e+00
 5.4145451604e-01	 1.7615167825e+00	-1.4647545683e+00
 5.0216728206e-01	 1.7731165408e+00	-1.3866992679e+00
 4.6286004757e-01	 1.7837810018e+00	-1.3095019217e+00
 4.2356372209e-01	 1.7935182373e+00	-1.2334201552e+00
 3.8430846599e-01	 1.8023375606e+00	-1.1587719191e+00
 7.8095572301e-01	 1.6849561144e+00	-1.9458327134e+00
 7.4217311783e-01	 1.7023948409e+00	-1.8655370650e+00
 7.0317130576e-01	 1.7188715419e+00	-1.7854610165e+00
 6.6398453914e-01	 1.7343857336e+00	-1.7056551878e+00
 6.2464674532e-01	 1.7489384807e+00	-1.6262106749e+00
 5.8519144419e-01	 1.7625323575e+00	-1.5472620283e+00
 5.4565166972e-01	 1.7751714043e+00	-1.4689897021e+00
 5.0605989574e-01	 1.7868610796e+00	-1.3916219452e+00
 4.6644796621e-01	 1.7976082076e+00	-1.3154361106e+00
 4.2684703026e-01	 1.8074209225e+00	-1.2407593740e+00
 3.8728748204e-01	 1.8163086099e+00	-1.1679688589e+00
 3.5749742061e-01	 1.6765985816e+00	-1.1794317981e+00
 3.2104375374e-01	 1.6839590033e+00	-1.0887583326e+00
 2.8468216602e-01	 1.6904859978e+00	-1.0040539244e+00
 2.4843837716e-01	 1.6961913475e+00	-9.2738759383e-01
 2.1233723252e-01	 1.7010877519e+00	-8.6060882086e-01
 1.7640267120e-01	 1.7051887640e+00	-8.0534869695e-01
 1.4065769887e-01	 1.7085087271e+00	-7.6302235331e-01
 1.0512436514e-01	 1.7110627108e+00	-7.3483256429e-01
 6.9823745408e-02	 1.7128664478e+00	-7.2177442290e-01
 3.4775927094e-02	 1.7139362703e+00	-7.2464098317e-01
 0.0000000000e+00	 1.7142890476e+00	-7.4402976386e-01
 3.6047642102e-01	 1.6905695575e+00	-1.1651817074e+00
 3.2371898835e-01	 1.6979913131e+00	-1.0761002463e+00
 2.8705440212e-01	 1.7045726966e+00	-9.9348198583e-01
 2.5050859637e-01	 1.7103255886e+00	-9.1901108855e-01
 2.1410662347e-01	 1.7152627943e+00	-8.5411051877e-01
 1.7787262203e-01	 1.7193979799e+00	-7.9994835928e-01
 1.4182978940e-01	 1.7227456080e+00	-7.5744539165e-01
 1.0600035895e-01	 1.7253208739e+00	-7.2728379652e-01
 7.0405581679e-02	 1.7271396413e+00	-7.0991683084e-01
 3.5065712404e-02	 1.7282183785e+00	-7.0557934103e-01
 0.0000000000e+00	 1.7285740955e+00	-7.1429897412e-01
 3.6345542177e-01	 1.7045405351e+00	-1.1544904565e+00
 3.2639422327e-01	 1.7120236246e+00	-1.0672302792e+00
 2.8942663850e-01	 1.7186593970e+00	-9.8660652580e-01
 2.5257881582e-01	 1.7244598313e+00	-9.1399105158e-01
 2.1587601463e-01	 1.7294378384e+00	-8.5045868346e-01
 1.7934257302e-01	 1.7336071974e+00	-7.9679786917e-01
 1.4300188007e-01	 1.7369824905e+00	-7.5352258683e-01
 1.0687635285e-01	 1.7395790386e+00	-7.2088533471e-01
 7.0987418017e-02	 1.7414128364e+00	-6.9889102404e-01
 3.5355497748e-02	 1.7425004884e+00	-6.8731160308e-01
 0.0000000000e+00	 1.7428591451e+00	-6.8570124692e-01
 3.6643442322e-01	 1.7185115159e+00	-1.1471023171e+00
 3.2906945882e-01	 1.7260559393e+00	-1.0618275016e+00
 2.9179887544e-01	 1.7327461007e+00	-9.8307958318e-01
 2.5464903575e-01	 1.7385940773e+00	-9.1198863626e-01
 2.1764540620e-01	 1.7436128858e+00	-8.4935761683e-01
 1.8081252437e-01	 1.7478164183e+00	-7.9567652395e-01
 1.4417397102e-01	 1.7512193764e+00	-7.5113782786e-01
 1.0775234697e-01	 1.7538372067e+00	-7.1565295341e-01
 7.1569254491e-02	 1.7556860349e+00	-6.8886961375e-01
 3.5645283159e-02	 1.7567826016e+00	-6.7018979651e-01
 0.0000000000e+00	 1.7571441980e+00	-6.5878821410e-01
 3.6941342572e-01	 1.7324825016e+00	-1.1427694366e+00
 3.3174469531e-01	 1.7400882589e+00	-1.0595810045e+00
 2.9417111321e-01	 1.7468328094e+00	-9.8256413054e-01
 2.5671925640e-01	 1.7527283282e+00	-9.1267567609e-01
 2.1941479840e-01	 1.7577879382e+00	-8.5052094868e-01
 1.8228247622e-01	 1.7620256441e+00	-7.9637056833e-01
 1.4534606237e-01	 1.7654562673e+00	-7.5017861468e-01
 1.0862834139e-01	 1.7680953797e+00	-7.1160181989e-01
 7.2151091168e-02	 1.7699592384e+00	-6.8001957934e-01
 3.5935068672e-02	 1.7710647198e+00	-6.5455456208e-01
 0.0000000000e+00	 1.7714292559e+00	-6.3409371357e-01
 3.7239242960e-01	 1.7464534939e+00	-1.1412515234e+00
 3.3441993304e-01	 1.7541205851e+00	-1.0601894985e+00
 2.9654335208e-01	 1.7609195246e+00	-9.8473363682e-01
 2.5878947803e-01	 1.7668625858e+00	-9.1573425750e-01
 2.2118419141e-01	 1.7719629972e+00	-8.5367126361e-01
 1.8375242876e-01	 1.7762348765e+00	-7.9867291646e-01
 1.4651815427e-01	 1.7796931648e+00	-7.5053591373e-01
 1.0950433622e-01	 1.7823535594e+00	-7.0874651839e-01
 7.2732928116e-02	 1.7842324485e+00	-6.7250249360e-01
 3.6224854319e-02	 1.7853468447e+00	-6.4073560954e-01
 0.0000000000e+00	 1.7857143204e+00	-6.1213450083e-01
 3.7537143522e-01	 1.7604244943e+00	-1.1423155461e+00
 3.3709517233e-01	 1.7681529195e+00	-1.0633609322e+00
 2.9891559233e-01	 1.7750062480e+00	-9.8927165073e-01
 2.6085970086e-01	 1.7809968516e+00	-9.2085631299e-01
 2.2295358546e-01	 1.7861380644e+00	-8.5853974568e-01
 1.8522238216e-01	 1.7904441173e+00	-8.0238288735e-01
 1.4769024685e-01	 1.7939300706e+00	-7.5210402038e-01
 1.1038033155e-01	 1.7966117474e+00	-7.0710107332e-01
 7.3314765404e-02	 1.7985056669e+00	-6.6647473723e-01
 3.6514640136e-02	 1.7996289779e+00	-6.2905215133e-01
 0.0000000000e+00	 1.7999993933e+00	-5.9341092685e-01
 3.7835044293e-01	 1.7743955044e+00	-1.1457354486e+00
 3.3977041350e-01	 1.7821852637e+00	-1.0688121287e+00
 3.0128783425e-01	 1.7890929813e+00	-9.9587140396e-01
 2.6292992514e-01	 1.7951311272e+00	-9.2774323352e-01
 2.2472298075e-01	 1.8003131416e+00	-8.6486583988e-01
 1.8669233659e-01	 1.8046533680e+00	-8.0730595268e-01
 1.4886234025e-01	 1.8081669863e+00	-7.5478042793e-01
 1.1125632751e-01	 1.8108699454e+00	-7.0667897127e-01
 7.3896603099e-02	 1.8127788954e+00	-6.6208770323e-01
 3.6804426156e-02	 1.8139111211e+00	-6.1981331582e-01
 0.0000000000e+00	 1.8142844762e+00	-5.7840758375e-01
 3.8132945307e-01	 1.7883665260e+00	-1.1512918767e+00
 3.4244565685e-01	 1.7962176193e+00	-1.0762684384e+00
 3.0366007810e-01	 1.8031797261e+00	-1.0042354329e+00
 2.6500015111e-01	 1.8092654145e+00	-9.3610549905e-01
 2.2649237748e-01	 1.8144882303e+00	-8.7239692942e-01
 1.8816229222e-01	 1.8188626303e+00	-8.1325349652e-01
 1.5003443461e-01	 1.8224039137e+00	-7.5846570268e-01
 1.1213232417e-01	 1.8251281550e+00	-7.0749318203e-01
 7.4478441269e-02	 1.8270521355e+00	-6.5948799175e-01
 3.7094212412e-02	 1.8281932760e+00	-6.1331854112e-01
 0.0000000000e+00	 1.8285695708e+00	-5.6759392025e-01
 3.8430846599e-01	 1.8023375606e+00	-1.1587719191e+00
 3.4512090270e-01	 1.8102499881e+00	-1.0854634092e+00
 3.0603232417e-01	 1.8172664841e+00	-1.0140752181e+00
 2.6707037901e-01	 1.8233997149e+00	-9.4566232625e-01
 2.2826177587e-01	 1.8286633323e+00	-8.8088802814e-01
 1.8963224922e-01	 1.8330719058e+00	-8.2004258618e-01
 1.5120653007e-01	 1.8366408544e+00	-7.6306336485e-01
 1.1300832166e-01	 1.8393863780e+00	-7.0955617862e-01
 7.5060279982e-02	 1.8413253889e+00	-6.5881759579e-01
 3.7383998939e-02	 1.8424754442e+00	-6.0985795064e-01
 0.0000000000e+00	 1.8428546786e+00	-5.6142482855e-01
 3.8728748204e-01	 1.8163086099e+00	-1.1679688589e+00
 3.4779615135e-01	 1.8242823715e+00	-1.0961384704e+00
 3.0840457273e-01	 1.8313532568e+00	-1.0251108400e+00
 2.6914060908e-01	 1.8375340302e+00	-9.5614133250e-01
 2.3003117611e-01	 1.8428384492e+00	-8.9010148699e-01
 1.9110220776e-01	 1.8472811963e+00	-8.2749575366e-01
 1.5237862675e-01	 1.8508778101e+00	-7.6847977499e-01
 1.1388432006e-01	 1.8536446159e+00	-7.1287995641e-01
 7.5642119307e-02	 1.8555986573e+00	-6.6021407841e-01
 3.7673785770e-02	 1.8567576274e+00	-6.0971271129e-01
 0.0000000000e+00	 1.8571398015e+00	-5.6034120402e-01
 1.8571398015e+00	 0.0000000000e+00	 2.6056947727e+00
 1.8567576274e+00	 3.7673785770e-02	 2.6672839604e+00
 1.8555986573e+00	 7.5642119307e-02	 2.7051368274e+00
 1.8536446159e+00	 1.1388432006e-01	 2.7203810402e+00
 1.8508778101e+00	 1.5237862675e-01	 2.7142045144e+00
 1.8472811963e+00	 1.9110220776e-01	 2.6878548030e+00
 1.8428384492e+00	 2.3003117611e-01	 2.6426384356e+00
 1.8375340302e+00	 2.6914060908e-01	 2.5799202068e+00
 1.8313532568e+00	 3.0840457273e-01	 2.5011224120e+00
 1.8242823715e+00	 3.4779615135e-01	 2.4077240232e+00
 1.8163086099e+00	 3.8728748204e-01	 2.3012597957e+00
 1.8714259389e+00	 0.0000000000e+00	 2.5588377913e+00
 1.8710408249e+00	 3.7963593180e-02	 2.6283815256e+00
 1.8698729393e+00	 7.6223999950e-02	 2.6722882256e+00
 1.8679038664e+00	 1.1476038068e-01	 2.6919330459e+00
 1.8651157767e+00	 1.5355080667e-01	 2.6887632434e+00
 1.8614914959e+00	 1.9257227070e-01	 2.6642962432e+00
 1.8570145727e+00	 2.3180070201e-01	 2.6201174982e+00
 1.8516693492e+00	 2.7121098618e-01	 2.5578781462e+00
 1.8454410299e+00	 3.1077698976e-01	 2.4792924648e+00
 1.8383157515e+00	 3.5047158999e-01	 2.3861351240e+00
 1.8302806514e+00	 3.9026670964e-01	 2.2802382352e+00
 1.8857120812e+00	 0.0000000000e+00	 2.5086849337e+00
 1.8853240273e+00	 3.8253400692e-02	 2.5879479413e+00
 1.8841472263e+00	 7.6805880798e-02	 2.6391173441e+00
 1.8821631218e+00	 1.1563644160e-01	 2.6638927703e+00
 1.8793537484e+00	 1.5472298701e-01	 2.6640592648e+00
 1.8757018004e+00	 1.9404233414e-01	 2.6414834974e+00
 1.8711907011e+00	 2.3357022852e-01	 2.5981095689e+00
 1.8658046731e+00	 2.7328136399e-01	 2.5359544234e+00
 1.8595288079e+00	 3.1314940761e-01	 2.4571028757e+00
 1.8523491364e+00	 3.5314702957e-01	 2.3637022623e+00
 1.8442526977e+00	 3.9324593829e-01	 2.2579567260e+00
 1.8999982169e+00	 0.0000000000e+00	 2.4548994101e+00
 1.8996072231e+00	 3.8543208069e-02	 2.5457342425e+00
 1.8984215067e+00	 7.7387761375e-02	 2.6054583653e+00
 1.8964223706e+00	 1.1651250211e-01	 2.6361710487e+00
 1.8935917134e+00	 1.5589516679e-01	 2.6400717338e+00
 1.8899120983e+00	 1.9551239691e-01	 2.6194538540e+00
 1.8853668230e+00	 2.3533975421e-01	 2.5766980203e+00
 1.8799399905e+00	 2.7535174085e-01	 2.5142645840e+00
 1.8736165794e+00	 3.1552182436e-01	 2.4346855961e+00
 1.8663825147e+00	 3.5582246790e-01	 2.3405561867e+00
 1.8582247375e+00	 3.9622516554e-01	 2.2345253892e+00
 1.9142843343e+00	 0.0000000000e+00	 2.3971544521e+00
 1.9138904006e+00	 3.8833015074e-02	 2.5014989250e+00
 1.9126957687e+00	 7.7969641205e-02	 2.5711505098e+00
 1.9106816011e+00	 1.1738856150e-01	 2.6086815247e+00
 1.9078296602e+00	 1.5706734507e-01	 2.6167806314e+00
 1.9041223779e+00	 1.9698245778e-01	 2.5982437484e+00
 1.8995429267e+00	 2.3710927764e-01	 2.5559640532e+00
 1.8940752897e+00	 2.7742211504e-01	 2.4929210973e+00
 1.8877043328e+00	 3.1789423806e-01	 2.4121690675e+00
 1.8804158751e+00	 3.5849790279e-01	 2.3168242293e+00
 1.8721967594e+00	 3.9920438897e-01	 2.2100516028e+00
 1.9285704216e+00	 0.0000000000e+00	 2.3351329412e+00
 1.9281735481e+00	 3.9122821472e-02	 2.4550076692e+00
 1.9269700008e+00	 7.8551519814e-02	 2.5360378498e+00
 1.9249408017e+00	 1.1826461905e-01	 2.5813405460e+00
 1.9220675770e+00	 1.5823952090e-01	 2.5941667347e+00
 1.9183326278e+00	 1.9845251557e-01	 2.5778887956e+00
 1.9137190005e+00	 2.3887879734e-01	 2.5359867766e+00
 1.9082105592e+00	 2.7949248489e-01	 2.4720334707e+00
 1.9017920566e+00	 3.2026664678e-01	 2.3896783520e+00
 1.8944492059e+00	 3.6117333207e-01	 2.2926304316e+00
 1.8861687519e+00	 4.0218360615e-01	 2.1846401024e+00
 1.9428564673e+00	 0.0000000000e+00	 2.2685270534e+00
 1.9424566539e+00	 3.9412627024e-02	 2.4060330752e+00
 1.9412441912e+00	 7.9133396727e-02	 2.4999691307e+00
 1.9391999606e+00	 1.1914067405e-01	 2.5540670656e+00
 1.9363054523e+00	 1.5941169330e-01	 2.5722115871e+00
 1.9325428361e+00	 1.9992256908e-01	 2.5584238198e+00
 1.9278950331e+00	 2.4064831189e-01	 2.5168432857e+00
 1.9223457875e+00	 2.8156284870e-01	 2.4517083581e+00
 1.9158797393e+00	 3.2263904859e-01	 2.3673352565e+00
 1.9084824959e+00	 3.6384875355e-01	 2.2680956658e+00
 1.9001407037e+00	 4.0516281464e-01	 2.1583930787e+00
 1.9571424596e+00	 0.0000000000e+00	 2.1970379194e+00
 1.9567397063e+00	 3.9702431495e-02	 2.3543544101e+00
 1.9555183284e+00	 7.9715271469e-02	 2.4627976008e+00
 1.9534590664e+00	 1.2001672577e-01	 2.5267825466e+00
 1.9505432745e+00	 1.6058386133e-01	 2.5508974709e+00
 1.9467529915e+00	 2.0139261710e-01	 2.5398828840e+00
 1.9420710127e+00	 2.4241781983e-01	 2.4986087347e+00
 1.9364809631e+00	 2.8363320479e-01	 2.4320496647e+00
 1.9299673694e+00	 3.2501144154e-01	 2.3452584514e+00
 1.9225157334e+00	 3.6652416503e-01	 2.2433377504e+00
 1.9141126033e+00	 4.0814201201e-01	 2.1314102701e+00
 1.9714283870e+00	 0.0000000000e+00	 2.1203752995e+00
 1.9710226938e+00	 3.9992234648e-02	 2.2997573666e+00
 1.9697924006e+00	 8.0297143564e-02	 2.4243808476e+00
 1.9677181072e+00	 1.2089277352e-01	 2.4994108712e+00
 1.9647810319e+00	 1.6175602403e-01	 2.5302073809e+00
 1.9609630821e+00	 2.0286265843e-01	 2.5222993174e+00
 1.9562469278e+00	 2.4418731972e-01	 2.4813564077e+00
 1.9506160743e+00	 2.8570355145e-01	 2.4131586465e+00
 1.9440549354e+00	 3.2738382370e-01	 2.3235635843e+00
 1.9365489071e+00	 3.6919956435e-01	 2.2184715605e+00
 1.9280844394e+00	 4.1112119582e-01	 2.1037890511e+00
 1.9857142377e+00	 0.0000000000e+00	 2.0382572724e+00
 1.9853056047e+00	 4.0282036246e-02	 2.2420338308e+00
 1.9840663961e+00	 8.0879012538e-02	 2.3845806420e+00
 1.9819770716e+00	 1.2176881656e-01	 2.4718782542e+00
 1.9790187128e+00	 1.6292818044e-01	 2.5101249985e+00
 1.9751730965e+00	 2.0433269187e-01	 2.5057057426e+00
 1.9704227669e+00	 2.4595681012e-01	 2.4651577860e+00
 1.9647511096e+00	 2.8777388701e-01	 2.3951340054e+00
 1.9581424259e+00	 3.2975619312e-01	 2.3023633889e+00
 1.9505820055e+00	 3.7187494931e-01	 2.1936091339e+00
 1.9420562004e+00	 4.1410036365e-01	 2.0756245176e+00
 2.0000000000e+00	 0.0000000000e+00	 1.9504099376e+00
 1.9995884272e+00	 4.0571836054e-02	 2.1809816614e+00
 1.9983403035e+00	 8.1460877915e-02	 2.3432627889e+00
 1.9962359477e+00	 1.2264485419e-01	 2.4441131595e+00
 1.9932563058e+00	 1.6410032960e-01	 2.4906346677e+00
 1.9893830231e+00	 2.0580271623e-01	 2.4901341001e+00
 1.9845985183e+00	 2.4772628958e-01	 2.4500826130e+00
 1.9788860576e+00	 2.8984420977e-01	 2.3780719812e+00
 1.9722298292e+00	 3.3212854789e-01	 2.2817677888e+00
 1.9646150171e+00	 3.7455031774e-01	 2.1688597720e+00
 1.9560278751e+00	 4.1707951306e-01	 2.0470095679e+00
 1.8163086099e+00	 3.8728748204e-01	 2.3012597957e+00
 1.8074209225e+00	 4.2684703026e-01	 2.1829717514e+00
 1.7976082076e+00	 4.6644796621e-01	 2.0535047175e+00
 1.7868610796e+00	 5.0605989574e-01	 1.9135070540e+00
 1.7751714043e+00	 5.4565166972e-01	 1.7635515720e+00
 1.7625323575e+00	 5.8519144419e-01	 1.6041341897e+00
 1.7489384807e+00	 6.2464674532e-01	 1.4356733474e+00
 1.7343857336e+00	 6.6398453914e-01	 1.2585101846e+00
 1.7188715419e+00	 7.0317130576e-01	 1.0729094735e+00
 1.7023948409e+00	 7.4217311783e-01	 8.7906129154e-01
 1.6849561144e+00	 7.8095572301e-01	 6.7708340080e-01
 1.8302806514e+00	 3.9026670964e-01	 2.2802382352e+00
 1.8213245950e+00	 4.3013057159e-01	 2.1628676765e+00
 1.8114363953e+00	 4.7003613965e-01	 2.0344320148e+00
 1.8006065945e+00	 5.0995278585e-01	 1.8954842539e+00
 1.7888269958e+00	 5.4984912146e-01	 1.7464993296e+00
 1.7760907225e+00	 5.8969305755e-01	 1.5878735118e+00
 1.7623922742e+00	 6.2945187048e-01	 1.4199246169e+00
 1.7477275794e+00	 6.6909227218e-01	 1.2428930294e+00
 1.7320940440e+00	 7.0858048488e-01	 1.0569435209e+00
 1.7154905951e+00	 7.4788232027e-01	 8.6216783796e-01
 1.6979177205e+00	 7.8696326251e-01	 6.5858802404e-01
 1.8442526977e+00	 3.9324593829e-01	 2.2579567260e+00
 1.8352282723e+00	 4.3341411407e-01	 2.1412356910e+00
 1.8252645878e+00	 4.7362431435e-01	 2.0137264050e+00
 1.8143521142e+00	 5.1384567733e-01	 1.8758616195e+00
 1.8024825921e+00	 5.5404657467e-01	 1.7279931498e+00
 1.7896490923e+00	 5.9419467248e-01	 1.5703922089e+00
 1.7758460723e+00	 6.3425699733e-01	 1.4032506133e+00
 1.7610694298e+00	 6.7420000700e-01	 1.2266828539e+00
 1.7453165507e+00	 7.1398966590e-01	 1.0407290077e+00
 1.7285863540e+00	 7.5359152471e-01	 8.4535845893e-01
 1.7108793310e+00	 7.9297080411e-01	 6.4047437831e-01
 1.8582247375e+00	 3.9622516554e-01	 2.2345253892e+00
 1.8491319431e+00	 4.3669765502e-01	 2.1181552713e+00
 1.8390927739e+00	 4.7721248737e-01	 1.9914376369e+00
 1.8280976275e+00	 5.1773856699e-01	 1.8546605978e+00
 1.8161381820e+00	 5.5824402592e-01	 1.7080281143e+00
 1.8032074557e+00	 5.9869628532e-01	 1.5516614462e+00
 1.7892998642e+00	 6.3906212193e-01	 1.3856015457e+00
 1.7744112740e+00	 6.7930773944e-01	 1.2098123771e+00
 1.7585390512e+00	 7.1939884440e-01	 1.0241851317e+00
 1.7416821068e+00	 7.5930072649e-01	 8.2854329162e-01
 1.7238409356e+00	 7.9897834291e-01	 6.2264848362e-01
 1.8721967594e+00	 3.9920438897e-01	 2.2100516028e+00
 1.8630355961e+00	 4.3998119175e-01	 2.0937041230e+00
 1.8529209422e+00	 4.8080065578e-01	 1.9676146348e+00
 1.8418431231e+00	 5.2163145165e-01	 1.8319027148e+00
 1.8297937544e+00	 5.6244147179e-01	 1.6866002298e+00
 1.8167658018e+00	 6.0319789237e-01	 1.5316540862e+00
 1.8027536389e+00	 6.4386724037e-01	 1.3669300022e+00
 1.7877531011e+00	 6.8441546533e-01	 1.1922172752e+00
 1.7717615348e+00	 7.2480801595e-01	 1.0072345045e+00
 1.7547778427e+00	 7.6500992094e-01	 8.1163620937e-01
 1.7368025235e+00	 8.0498587400e-01	 6.0502026800e-01
 1.8861687519e+00	 4.0218360615e-01	 2.1846401024e+00
 1.8769392200e+00	 4.4326472159e-01	 2.0679582468e+00
 1.8667490815e+00	 4.8438881666e-01	 1.9423055291e+00
 1.8555885899e+00	 5.2552432814e-01	 1.8076095730e+00
 1.8434492981e+00	 5.6663890884e-01	 1.6637063934e+00
 1.8303241193e+00	 6.0769948998e-01	 1.5103446251e+00
 1.8162073853e+00	 6.4867234871e-01	 1.3471908621e+00
 1.8010949001e+00	 6.8952318049e-01	 1.1738360714e+00
 1.7849839906e+00	 7.3021717615e-01	 9.8980302586e-01
 1.7678735512e+00	 7.7071910340e-01	 7.9455468339e-01
 1.7497640841e+00	 8.1099339248e-01	 5.8750342294e-01
 1.9001407037e+00	 4.0516281464e-01	 2.1583930787e+00
 1.8908428032e+00	 4.4654824186e-01	 2.0409920008e+00
 1.8805771804e+00	 4.8797696708e-01	 1.9155576852e+00
 1.8693340166e+00	 5.2941719328e-01	 1.7818028480e+00
 1.8571048020e+00	 5.7083633365e-01	 1.6393443601e+00
 1.8438823974e+00	 6.1220107446e-01	 1.4877091326e+00
 1.8296610924e+00	 6.5347744305e-01	 1.3263412114e+00
 1.8144366603e+00	 6.9463088076e-01	 1.1546100317e+00
 1.7982064079e+00	 7.3562632056e-01	 9.7181976209e-01
 1.7809692214e+00	 7.7642826921e-01	 7.7721965050e-01
 1.7627256070e+00	 8.1700089343e-01	 5.7001526505e-01
 1.9141126033e+00	 4.0814201201e-01	 2.1314102701e+00
 1.9047463346e+00	 4.4983174987e-01	 2.0128781601e+00
 1.8944052278e+00	 4.9156510410e-01	 1.8874177310e+00
 1.8830793920e+00	 5.3331004388e-01	 1.7545042858e+00
 1.8707602549e+00	 5.7503374279e-01	 1.6135127108e+00
 1.8574406248e+00	 6.1670264213e-01	 1.4637251944e+00
 1.8431147493e+00	 6.5828251944e-01	 1.3043402623e+00
 1.8277783707e+00	 6.9973856195e-01	 1.1344830645e+00
 1.8114287758e+00	 7.4103544479e-01	 9.5321683092e-01
 1.7940648428e+00	 7.8213741371e-01	 7.5955538668e-01
 1.7756870815e+00	 8.2300837196e-01	 5.5247660381e-01
 1.9280844394e+00	 4.1112119582e-01	 2.1037890511e+00
 1.9186498027e+00	 4.5311524294e-01	 1.9836879742e+00
 1.9082332122e+00	 4.9515322480e-01	 1.8579315835e+00
 1.8968247048e+00	 5.3720287678e-01	 1.7257356996e+00
 1.8844156457e+00	 5.7923113283e-01	 1.5862108222e+00
 1.8709987905e+00	 6.2120418932e-01	 1.4383718573e+00
 1.8565683450e+00	 6.6308757398e-01	 1.2811492756e+00
 1.8411200203e+00	 7.0484621991e-01	 1.1134016246e+00
 1.8246510835e+00	 7.4644454441e-01	 9.3392929062e-01
 1.8071604046e+00	 7.8784653223e-01	 7.4148938601e-01
 1.7886484970e+00	 8.2901582315e-01	 5.3481161505e-01
 1.9420562004e+00	 4.1410036365e-01	 2.0756245176e+00
 1.9325531962e+00	 4.5639871839e-01	 1.9534912213e+00
 1.9220611224e+00	 4.9874132625e-01	 1.8271444741e+00
 1.9105699439e+00	 5.4109568878e-01	 1.6955189675e+00
 1.8980709632e+00	 5.8342850035e-01	 1.5574388382e+00
 1.8845568835e+00	 6.2570571236e-01	 1.4116295758e+00
 1.8700218686e+00	 6.6789260272e-01	 1.2567314873e+00
 1.8544615984e+00	 7.0995385046e-01	 1.0913146216e+00
 1.8378733203e+00	 7.5185361499e-01	 9.1389503419e-01
 1.8202558961e+00	 7.9355562011e-01	 7.2295224488e-01
 1.8016098430e+00	 8.3502324211e-01	 5.1694771984e-01
 1.9560278751e+00	 4.1707951306e-01	 2.0470095679e+00
 1.9464565037e+00	 4.5968217354e-01	 1.9223562611e+00
 1.9358889471e+00	 5.0232940551e-01	 1.7951009729e+00
 1.9243150980e+00	 5.4498847672e-01	 1.6638760298e+00
 1.9117261962e+00	 5.8762584192e-01	 1.5271976417e+00
 1.8981148926e+00	 6.3020720756e-01	 1.3834801620e+00
 1.8834753089e+00	 6.7269760176e-01	 1.2310520373e+00
 1.8678030939e+00	 7.1506144942e-01	 1.0681733319e+00
 1.8510954753e+00	 7.5726265213e-01	 8.9305468799e-01
 1.8333513066e+00	 7.9926467270e-01	 7.0387755114e-01
 1.8145711088e+00	 8.4103062392e-01	 4.9881546858e-01
 1.6849561144e+00	 7.8095572301e-01	 6.7708340080e-01
 1.6665561086e+00	 8.1948731574e-01	 4.6318508914e-01
 1.6471996957e+00	 8.5773051598e-01	 2.3655321214e-01
 1.6268921952e+00	 8.9565060726e-01	 1.8801150282e-03
 1.6056405746e+00	 9.3321291005e-01	-2.3588659442e-01
 1.5834534587e+00	 9.7038287813e-01	-4.7156727072e-01
 1.5603411318e+00	 1.0071261964e+00	-6.9977620538e-01
 1.5363155340e+00	 1.0434088797e+00	-9.1495023315e-01
 1.5113902491e+00	 1.0791973714e+00	-1.1113798151e+00
 1.4855804868e+00	 1.1144586423e+00	-1.2832424072e+00
 1.4589030567e+00	 1.1491602880e+00	-1.4246378885e+00
 1.6979177205e+00	 7.8696326251e-01	 6.5858802404e-01
 1.6793761717e+00	 8.2579126137e-01	 4.4285647199e-01
 1.6598708587e+00	 8.6432864927e-01	 2.1475537660e-01
 1.6394071418e+00	 9.0254044268e-01	-2.0883945194e-02
 1.6179920421e+00	 9.4039169529e-01	-2.5897021983e-01
 1.5956342506e+00	 9.7784759514e-01	-4.9417668023e-01
 1.5723441311e+00	 1.0148735632e+00	-7.2096835603e-01
 1.5481337152e+00	 1.0514353528e+00	-9.3363206292e-01
 1.5230166914e+00	 1.0874991492e+00	-1.1263089250e+00
 1.4970083862e+00	 1.1230316690e+00	-1.2930292270e+00
 1.4701257387e+00	 1.1580002588e+00	-1.4277493563e+00
 1.7108793310e+00	 7.9297080411e-01	 6.4047437831e-01
 1.6921962393e+00	 8.3209520921e-01	 4.2314983461e-01
 1.6725420261e+00	 8.7092678487e-01	 1.9375424541e-01
 1.6519220927e+00	 9.0943028052e-01	-4.2742699535e-02
 1.6303435138e+00	 9.4757048305e-01	-2.8110634614e-01
 1.6078150469e+00	 9.8531231476e-01	-5.1586278523e-01
 1.5843471346e+00	 1.0226209327e+00	-7.4132746905e-01
 1.5599519006e+00	 1.0594618286e+00	-9.5163659691e-01
 1.5346431377e+00	 1.0958009298e+00	-1.1407810926e+00
 1.5084362896e+00	 1.1316046988e+00	-1.3026429582e+00
 1.4813484247e+00	 1.1668402328e+00	-1.4310337504e+00
 1.7238409356e+00	 7.9897834291e-01	 6.2264848362e-01
 1.7050163009e+00	 8.3839915411e-01	 4.0397004814e-01
 1.6852131876e+00	 8.7752491739e-01	 1.7345420690e-01
 1.6644370378e+00	 9.1632011513e-01	-6.3791596646e-02
 1.6426949798e+00	 9.5474926745e-01	-3.0238963532e-01
 1.6199958374e+00	 9.9277703091e-01	-5.3671886156e-01
 1.5963501325e+00	 1.0303682985e+00	-7.6094486078e-01
 1.5717700804e+00	 1.0674883007e+00	-9.6905264639e-01
 1.5462695786e+00	 1.1041027066e+00	-1.1548821080e+00
 1.5198641877e+00	 1.1401777245e+00	-1.3121658846e+00
 1.4925711054e+00	 1.1756802026e+00	-1.4345693958e+00
 1.7368025235e+00	 8.0498587400e-01	 6.0502026800e-01
 1.7178363460e+00	 8.4470309092e-01	 3.8522597218e-01
 1.6978843328e+00	 8.8412304145e-01	 1.5376369535e-01
 1.6769519668e+00	 9.2320994091e-01	-8.4122004215e-02
 1.6550464299e+00	 9.6192804265e-01	-3.2291065539e-01
 1.6321766123e+00	 1.0002417375e+00	-5.5683409954e-01
 1.6083531149e+00	 1.0381156544e+00	-7.7990779119e-01
 1.5835882451e+00	 1.0755147625e+00	-9.8596501546e-01
 1.5578960046e+00	 1.1124044727e+00	-1.1686938226e+00
 1.5312920711e+00	 1.1487507393e+00	-1.3216764382e+00
 1.5037937717e+00	 1.1845201611e+00	-1.4384308699e+00
 1.7497640841e+00	 8.1099339248e-01	 5.8750342294e-01
 1.7306563643e+00	 8.5100701449e-01	 3.6683030724e-01
 1.7105554514e+00	 8.9072115165e-01	 1.3459504132e-01
 1.6894668695e+00	 9.3009975221e-01	-1.0382135992e-01
 1.6673978541e+00	 9.6910680277e-01	-3.4275603182e-01
 1.6443573617e+00	 1.0077064284e+00	-5.7629375504e-01
 1.6203560722e+00	 1.0458629941e+00	-7.9829961389e-01
 1.5954063849e+00	 1.0835412075e+00	-1.0024546492e+00
 1.5695224062e+00	 1.1207062214e+00	-1.1822942946e+00
 1.5427199306e+00	 1.1573237361e+00	-1.3312493416e+00
 1.5150164144e+00	 1.1933601010e+00	-1.4426891412e+00
 1.7627256070e+00	 8.1700089343e-01	 5.7001526505e-01
 1.7434763451e+00	 8.5731091967e-01	 3.4869945364e-01
 1.7232265331e+00	 8.9731924260e-01	 1.1586432858e-01
 1.7019817358e+00	 9.3698954343e-01	-1.2297331577e-01
 1.6797492423e+00	 9.7628554195e-01	-3.6200859233e-01
 1.6565380755e+00	 1.0151710975e+00	-5.9517929393e-01
 1.6323589945e+00	 1.0536103111e+00	-8.1619991959e-01
 1.6072244903e+00	 1.0915676290e+00	-1.0185987756e+00
 1.5811487738e+00	 1.1290079459e+00	-1.1957579287e+00
 1.5541477567e+00	 1.1658967078e+00	-1.3409557442e+00
 1.5262390244e+00	 1.2022000151e+00	-1.4474117019e+00
 1.7756870815e+00	 8.2300837196e-01	 5.5247660381e-01
 1.7562962781e+00	 8.6361480132e-01	 3.3075337656e-01
 1.7358975675e+00	 9.0391730893e-01	 9.7491257204e-02
 1.7144965553e+00	 9.4387930892e-01	-1.4165787609e-01
 1.6921005844e+00	 9.8346425433e-01	-3.8074750532e-01
 1.6687187438e+00	 1.0226357387e+00	-6.1356853034e-01
 1.6443618720e+00	 1.0613575992e+00	-8.3368467331e-01
 1.6190425516e+00	 1.0995940206e+00	-1.0344710409e+00
 1.5927750981e+00	 1.1373096393e+00	-1.2091556092e+00
 1.5655755401e+00	 1.1744696476e+00	-1.3508633528e+00
 1.5374615925e+00	 1.2110398962e+00	-1.4526626946e+00
 1.7886484970e+00	 8.2901582315e-01	 5.3481161505e-01
 1.7691161528e+00	 8.6991865429e-01	 3.1291547692e-01
 1.7485685442e+00	 9.1051534523e-01	 7.9399012670e-02
 1.7270113179e+00	 9.5076904306e-01	-1.5995152963e-01
 1.7044518703e+00	 9.9064293405e-01	-3.9904841239e-01
 1.6808993568e+00	 1.0301003460e+00	-6.3153575879e-01
 1.6563646948e+00	 1.0691048521e+00	-8.5082634563e-01
 1.6308605591e+00	 1.1076203757e+00	-1.0501416391e+00
 1.6044013695e+00	 1.1456112950e+00	-1.2225548272e+00
 1.5770032715e+00	 1.1830425483e+00	-1.3610365560e+00
 1.5486841095e+00	 1.2198797371e+00	-1.4585030339e+00
 1.8016098430e+00	 8.3502324211e-01	 5.1694771984e-01
 1.7819359587e+00	 8.7622247343e-01	 2.9511246786e-01
 1.7612394529e+00	 9.1711334613e-01	 6.1514140518e-02
 1.7395260133e+00	 9.5765874023e-01	-1.7792737593e-01
 1.7168030898e+00	 9.9782157524e-01	-4.1698355504e-01
 1.6930799043e+00	 1.0375649132e+00	-6.4915188071e-01
 1.6683674532e+00	 1.0768520634e+00	-8.6769403831e-01
 1.6426785031e+00	 1.1156466877e+00	-1.0656774367e+00
 1.6160275784e+00	 1.1539129062e+00	-1.2360198030e+00
 1.5884309417e+00	 1.1916154031e+00	-1.3715365437e+00
 1.5599065664e+00	 1.2287195306e+00	-1.4649905225e+00
 1.8145711088e+00	 8.4103062392e-01	 4.9881546858e-01
 1.7947556852e+00	 8.8252625359e-01	 2.7727425643e-01
 1.7739102832e+00	 9.2371130622e-01	 4.3766426390e-02
 1.7520406314e+00	 9.6454839480e-01	-1.9565524628e-01
 1.7291542331e+00	 1.0050001720e+00	-4.3462189614e-01
 1.7052603765e+00	 1.0450294343e+00	-6.6648452561e-01
 1.6803701375e+00	 1.0845992268e+00	-8.8435360456e-01
 1.6544963742e+00	 1.1236729500e+00	-1.0811420910e+00
 1.6276537155e+00	 1.1622144660e+00	-1.2496116028e+00
 1.5998585411e+00	 1.2001882048e+00	-1.3824214213e+00
 1.5711289538e+00	 1.2375592694e+00	-1.4721799620e+00
 1.4589030567e+00	 1.1491602880e+00	-1.4246378885e+00
 1.4313763324e+00	 1.1832706289e+00	-1.5295584693e+00
 1.4030201994e+00	 1.2167588134e+00	-1.5964618744e+00
 1.3738560214e+00	 1.2495949002e+00	-1.6262280473e+00
 1.3439065921e+00	 1.2817499431e+00	-1.8294797765e+00
 1.3131960758e+00	 1.3131960758e+00	-2.0169144019e+00
 1.2817499431e+00	 1.3439065921e+00	-2.1884534023e+00
 1.2495949002e+00	 1.3738560214e+00	-2.3448621216e+00
 1.2167588134e+00	 1.4030201994e+00	-2.3498455824e+00
 1.1832706289e+00	 1.4313763324e+00	-2.3494774948e+00
 1.1491602880e+00	 1.4589030567e+00	-2.3465749803e+00
 1.4701257387e+00	 1.1580002588e+00	-1.4277493563e+00
 1.4423872638e+00	 1.1923729951e+00	-1.5246133938e+00
 1.4138129998e+00	 1.2261187891e+00	-1.5825386852e+00
 1.3844244750e+00	 1.2592074691e+00	-1.6588872019e+00
 1.3542446582e+00	 1.2916098662e+00	-1.8532589642e+00
 1.3232978998e+00	 1.3232978998e+00	-2.0296220781e+00
 1.2916098662e+00	 1.3542446582e+00	-2.1907763588e+00
 1.2592074691e+00	 1.3844244750e+00	-2.3395997911e+00
 1.2261187891e+00	 1.4138129998e+00	-2.3741401862e+00
 1.1923729951e+00	 1.4423872638e+00	-2.3638369015e+00
 1.1580002588e+00	 1.4701257387e+00	-2.3530057479e+00
 1.4813484247e+00	 1.1668402328e+00	-1.4310337504e+00
 1.4533981990e+00	 1.2014753646e+00	-1.5202318391e+00
 1.4246058040e+00	 1.2354787682e+00	-1.5695930027e+00
 1.3949929323e+00	 1.2688200414e+00	-1.6919171948e+00
 1.3645827280e+00	 1.3014697928e+00	-1.8752340074e+00
 1.3333997274e+00	 1.3333997274e+00	-2.0408864566e+00
 1.3014697928e+00	 1.3645827280e+00	-2.1919927022e+00
 1.2688200414e+00	 1.3949929323e+00	-2.3317365459e+00
 1.2354787682e+00	 1.4246058040e+00	-2.3988521966e+00
 1.2014753646e+00	 1.4533981990e+00	-2.3787879071e+00
 1.1668402328e+00	 1.4813484247e+00	-2.3601215464e+00
 1.4925711054e+00	 1.1756802026e+00	-1.4345693958e+00
 1.4644091290e+00	 1.2105777298e+00	-1.5164853050e+00
 1.4353986032e+00	 1.2448387428e+00	-1.5576842889e+00
 1.4055613847e+00	 1.2784326092e+00	-1.7228813298e+00
 1.3749207930e+00	 1.3113297148e+00	-1.8954933139e+00
 1.3435015503e+00	 1.3435015503e+00	-2.0507687772e+00
 1.3113297148e+00	 1.3749207930e+00	-2.1921318425e+00
 1.2784326092e+00	 1.4055613847e+00	-2.3230583021e+00
 1.2448387428e+00	 1.4353986032e+00	-2.4238816669e+00
 1.2105777298e+00	 1.4644091290e+00	-2.3941871110e+00
 1.1756802026e+00	 1.4925711054e+00	-2.3677320763e+00
 1.5037937717e+00	 1.1845201611e+00	-1.4384308699e+00
 1.4754200450e+00	 1.2196800834e+00	-1.5134417373e+00
 1.4461913885e+00	 1.2541987055e+00	-1.5689719432e+00
 1.4161298235e+00	 1.2880451647e+00	-1.7518876199e+00
 1.3852588447e+00	 1.3211896242e+00	-1.9141232699e+00
 1.3536033602e+00	 1.3536033602e+00	-2.0593290608e+00
 1.3211896242e+00	 1.3852588447e+00	-2.1912229114e+00
 1.2880451647e+00	 1.4161298235e+00	-2.3135590130e+00
 1.2541987055e+00	 1.4461913885e+00	-2.4300958785e+00
 1.2196800834e+00	 1.4754200450e+00	-2.4098944041e+00
 1.1845201611e+00	 1.5037937717e+00	-2.3756517424e+00
 1.5150164144e+00	 1.1933601010e+00	-1.4426891412e+00
 1.4864309378e+00	 1.2287824178e+00	-1.5111656598e+00
 1.4569841512e+00	 1.2635586485e+00	-1.6061795618e+00
 1.4266982401e+00	 1.2976577000e+00	-1.7790414969e+00
 1.3955968747e+00	 1.3310495128e+00	-1.9312083150e+00
 1.3637051488e+00	 1.3637051488e+00	-2.0666261551e+00
 1.3310495128e+00	 1.3955968747e+00	-2.1892947729e+00
 1.2976577000e+00	 1.4266982401e+00	-2.3032333951e+00
 1.2635586485e+00	 1.4569841512e+00	-2.4124462325e+00
 1.2287824178e+00	 1.4864309378e+00	-2.4257728471e+00
 1.1933601010e+00	 1.5150164144e+00	-2.3836994812e+00
 1.5262390244e+00	 1.2022000151e+00	-1.4474117019e+00
 1.4974417985e+00	 1.2378847257e+00	-1.5097182998e+00
 1.4677768824e+00	 1.2729185642e+00	-1.6413306601e+00
 1.4372666258e+00	 1.3072702072e+00	-1.8044459060e+00
 1.4059348745e+00	 1.3409093727e+00	-1.9468310134e+00
 1.3738069081e+00	 1.3738069081e+00	-2.0727177772e+00
 1.3409093727e+00	 1.4059348745e+00	-2.1863760332e+00
 1.3072702072e+00	 1.4372666258e+00	-2.2920769008e+00
 1.2729185642e+00	 1.4677768824e+00	-2.3940558277e+00
 1.2378847257e+00	 1.4974417985e+00	-2.4416885548e+00
 1.2022000151e+00	 1.5262390244e+00	-2.3916985937e+00
 1.5374615925e+00	 1.2110398962e+00	-1.4526626946e+00
 1.5084526181e+00	 1.2469869996e+00	-1.5091577085e+00
 1.4785695733e+00	 1.2822784449e+00	-1.6745410657e+00
 1.4478349722e+00	 1.3168826786e+00	-1.8282013969e+00
 1.4162728357e+00	 1.3507691958e+00	-1.9610721227e+00
 1.3839086296e+00	 1.3839086296e+00	-2.0776605553e+00
 1.3507691958e+00	 1.4162728357e+00	-2.1824950499e+00
 1.3168826786e+00	 1.4478349722e+00	-2.2800856908e+00
 1.2822784449e+00	 1.4785695733e+00	-2.3748849344e+00
 1.2469869996e+00	 1.5084526181e+00	-2.4575105848e+00
 1.2110398962e+00	 1.5374615925e+00	-2.3994765874e+00
 1.5486841095e+00	 1.2198797371e+00	-1.4585030339e+00
 1.5194633876e+00	 1.2560892321e+00	-1.5358348995e+00
 1.4893622151e+00	 1.2916382831e+00	-1.7059238583e+00
 1.4584032704e+00	 1.3264951062e+00	-1.8504062099e+00
 1.4266107499e+00	 1.3606289740e+00	-1.9740106589e+00
 1.3940103051e+00	 1.3940103051e+00	-2.0815100677e+00
 1.3606289740e+00	 1.4266107499e+00	-2.1776799411e+00
 1.3264951062e+00	 1.4584032704e+00	-2.2672566093e+00
 1.2916382831e+00	 1.4893622151e+00	-2.3548955340e+00
 1.2560892321e+00	 1.5194633876e+00	-2.4451301683e+00
 1.2198797371e+00	 1.5486841095e+00	-2.4068650242e+00
 1.5599065664e+00	 1.2287195306e+00	-1.4649905225e+00
 1.5304740980e+00	 1.2651914157e+00	-1.5740216524e+00
 1.5001547989e+00	 1.3009980710e+00	-1.7355894692e+00
 1.4689715119e+00	 1.3361074823e+00	-1.8711563595e+00
 1.4369486087e+00	 1.3704886993e+00	-1.9857239593e+00
 1.4041119265e+00	 1.4041119265e+00	-2.0843208809e+00
 1.3704886993e+00	 1.4369486087e+00	-2.1719585943e+00
 1.3361074823e+00	 1.4689715119e+00	-2.2535871589e+00
 1.3009980710e+00	 1.5001547989e+00	-2.3340512582e+00
 1.2651914157e+00	 1.5304740980e+00	-2.4180469894e+00
 1.2287195306e+00	 1.5599065664e+00	-2.4136993751e+00
 1.5711289538e+00	 1.2375592694e+00	-1.4721799620e+00
 1.5414847404e+00	 1.2742935431e+00	-1.6103215908e+00
 1.5109473161e+00	 1.3103578011e+00	-1.7636457750e+00
 1.4795396881e+00	 1.3457197989e+00	-1.8905457133e+00
 1.4472864035e+00	 1.3803483636e+00	-1.9962877420e+00
 1.4142134854e+00	 1.4142134854e+00	-2.0861465856e+00
 1.3803483636e+00	 1.4472864035e+00	-2.1653586745e+00
 1.3457197989e+00	 1.4795396881e+00	-2.2390754776e+00
 1.3103578011e+00	 1.5109473161e+00	-2.3123173293e+00
 1.2742935431e+00	 1.5414847404e+00	-2.3899282236e+00
 1.2375592694e+00	 1.5711289538e+00	-2.4198188809e+00
 1.1491602880e+00	 1.4589030567e+00	-2.3465749803e+00
 1.1144586423e+00	 1.4855804868e+00	-2.3399150549e+00
 1.0791973714e+00	 1.5113902491e+00	-2.3263334547e+00
 1.0434088797e+00	 1.5363155340e+00	-2.3056746314e+00
 1.0071261964e+00	 1.5603411318e+00	-2.2777585613e+00
 9.7038287813e-01	 1.5834534587e+00	-2.2423849506e+00
 9.3321291005e-01	 1.6056405746e+00	-2.1993378613e+00
 8.9565060726e-01	 1.6268921952e+00	-2.1483906758e+00
 8.5773051598e-01	 1.6471996957e+00	-2.0893113112e+00
 8.1948731574e-01	 1.6665561086e+00	-2.0218675957e+00
 7.8095572301e-01	 1.6849561144e+00	-1.9458327134e+00
 1.1580002588e+00	 1.4701257387e+00	-2.3530057479e+00
 1.1230316690e+00	 1.4970083862e+00	-2.3406104059e+00
 1.0874991492e+00	 1.5230166914e+00	-2.3232899253e+00
 1.0514353528e+00	 1.5481337152e+00	-2.3005606469e+00
 1.0148735632e+00	 1.5723441311e+00	-2.2719213461e+00
 9.7784759514e-01	 1.5956342506e+00	-2.2368599160e+00
 9.4039169529e-01	 1.6179920421e+00	-2.1948603483e+00
 9.0254044268e-01	 1.6394071418e+00	-2.1454099095e+00
 8.6432864927e-01	 1.6598708587e+00	-2.0880064053e+00
 8.2579126137e-01	 1.6793761717e+00	-2.0221654283e+00
 7.8696326251e-01	 1.6979177205e+00	-1.9474274840e+00
 1.1668402328e+00	 1.4813484247e+00	-2.3601215464e+00
 1.1316046988e+00	 1.5084362896e+00	-2.3420321020e+00
 1.0958009298e+00	 1.5346431377e+00	-2.3209966267e+00
 1.0594618286e+00	 1.5599519006e+00	-2.2961963709e+00
 1.0226209327e+00	 1.5843471346e+00	-2.2668062253e+00
 9.8531231476e-01	 1.6078150469e+00	-2.2320038514e+00
 9.4757048305e-01	 1.6303435138e+00	-2.1909789532e+00
 9.0943028052e-01	 1.6519220927e+00	-2.1429425670e+00
 8.7092678487e-01	 1.6725420261e+00	-2.0871362457e+00
 8.3209520921e-01	 1.6921962393e+00	-2.0228410197e+00
 7.9297080411e-01	 1.7108793310e+00	-1.9493860161e+00
 1.1756802026e+00	 1.4925711054e+00	-2.3677320763e+00
 1.1401777245e+00	 1.5198641877e+00	-2.3439484361e+00
 1.1041027066e+00	 1.5462695786e+00	-2.3191947288e+00
 1.0674883007e+00	 1.5717700804e+00	-2.2923101744e+00
 1.0303682985e+00	 1.5963501325e+00	-2.2621430720e+00
 9.9277703091e-01	 1.6199958374e+00	-2.2275623490e+00
 9.5474926745e-01	 1.6426949798e+00	-2.1874690598e+00
 9.1632011513e-01	 1.6644370378e+00	-2.1408076929e+00
 8.7752491739e-01	 1.6852131876e+00	-2.0865771481e+00
 8.3839915411e-01	 1.7050163009e+00	-2.0238412522e+00
 7.9897834291e-01	 1.7238409356e+00	-1.9517386890e+00
 1.1845201611e+00	 1.5037937717e+00	-2.3756517424e+00
 1.1487507393e+00	 1.5312920711e+00	-2.3461336581e+00
 1.1124044727e+00	 1.5578960046e+00	-2.3176321866e+00
 1.0755147625e+00	 1.5835882451e+00	-2.2886376159e+00
 1.0381156544e+00	 1.6083531149e+00	-2.2576689246e+00
 1.0002417375e+00	 1.6321766123e+00	-2.2232877215e+00
 9.6192804265e-01	 1.6550464299e+00	-2.1841119092e+00
 9.2320994091e-01	 1.6769519668e+00	-2.1388289139e+00
 8.8412304145e-01	 1.6978843328e+00	-2.0862083295e+00
 8.4470309092e-01	 1.7178363460e+00	-2.0251138339e+00
 8.0498587400e-01	 1.7368025235e+00	-1.9545142462e+00
 1.1933601010e+00	 1.5150164144e+00	-2.3836994812e+00
 1.1573237361e+00	 1.5427199306e+00	-2.3483677544e+00
 1.1207062214e+00	 1.5695224062e+00	-2.3160634890e+00
 1.0835412075e+00	 1.5954063849e+00	-2.2849211759e+00
 1.0458629941e+00	 1.6203560722e+00	-2.2531277222e+00
 1.0077064284e+00	 1.6443573617e+00	-2.2189387538e+00
 9.6910680277e-01	 1.6673978541e+00	-2.1806943835e+00
 9.3009975221e-01	 1.6894668695e+00	-2.1368342693e+00
 8.9072115165e-01	 1.7105554514e+00	-2.0859118016e+00
 8.5100701449e-01	 1.7306563643e+00	-2.0266072679e+00
 8.1099339248e-01	 1.7497640841e+00	-1.9577398573e+00
 1.2022000151e+00	 1.5262390244e+00	-2.3916985937e+00
 1.1658967078e+00	 1.5541477567e+00	-2.3504362381e+00
 1.1290079459e+00	 1.5811487738e+00	-2.3142494198e+00
 1.0915676290e+00	 1.6072244903e+00	-2.2809100030e+00
 1.0536103111e+00	 1.6323589945e+00	-2.2482700511e+00
 1.0151710975e+00	 1.6565380755e+00	-2.2142804659e+00
 9.7628554195e-01	 1.6797492423e+00	-2.1770087992e+00
 9.3698954343e-01	 1.7019817358e+00	-2.1346560492e+00
 8.9731924260e-01	 1.7232265331e+00	-2.0855722682e+00
 8.5731091967e-01	 1.7434763451e+00	-2.0282708240e+00
 8.1700089343e-01	 1.7627256070e+00	-1.9614411757e+00
 1.2110398962e+00	 1.5374615925e+00	-2.3994765874e+00
 1.1744696476e+00	 1.5655755401e+00	-2.3521299475e+00
 1.1373096393e+00	 1.5927750981e+00	-2.3119568279e+00
 1.0995940206e+00	 1.6190425516e+00	-2.2763596710e+00
 1.0613575992e+00	 1.6443618720e+00	-2.2428529033e+00
 1.0226357387e+00	 1.6687187438e+00	-2.2090838856e+00
 9.8346425433e-01	 1.6921005844e+00	-2.1728527092e+00
 9.4387930892e-01	 1.7144965553e+00	-2.1321306404e+00
 9.0391730893e-01	 1.7358975675e+00	-2.0850770276e+00
 8.6361480132e-01	 1.7562962781e+00	-2.0300545111e+00
 8.2300837196e-01	 1.7756870815e+00	-1.9656423949e+00
 1.2198797371e+00	 1.5486841095e+00	-2.4068650242e+00
 1.1830425483e+00	 1.5770032715e+00	-2.3532448537e+00
 1.1456112950e+00	 1.6044013695e+00	-2.3089584085e+00
 1.1076203757e+00	 1.6308605591e+00	-2.2710319467e+00
 1.0691048521e+00	 1.6563646948e+00	-2.2366394446e+00
 1.0301003460e+00	 1.6808993568e+00	-2.2031258312e+00
 9.9064293405e-01	 1.7044518703e+00	-2.1680287136e+00
 9.5076904306e-01	 1.7270113179e+00	-2.1290983779e+00
 9.1051534523e-01	 1.7485685442e+00	-2.0843158789e+00
 8.6991865429e-01	 1.7691161528e+00	-2.0319090507e+00
 8.2901582315e-01	 1.7886484970e+00	-1.9703663011e+00
 1.2287195306e+00	 1.5599065664e+00	-2.4136993751e+00
 1.1916154031e+00	 1.5884309417e+00	-2.3535818770e+00
 1.1539129062e+00	 1.6160275784e+00	-2.3050324933e+00
 1.1156466877e+00	 1.6426785031e+00	-2.2646945680e+00
 1.0768520634e+00	 1.6683674532e+00	-2.2293987929e+00
 1.0375649132e+00	 1.6930799043e+00	-2.1961887044e+00
 9.9782157524e-01	 1.7168030898e+00	-2.1623442786e+00
 9.5765874023e-01	 1.7395260133e+00	-2.1254034037e+00
 9.1711334613e-01	 1.7612394529e+00	-2.0831810330e+00
 8.7622247343e-01	 1.7819359587e+00	-2.0337858519e+00
 8.3502324211e-01	 1.8016098430e+00	-1.9756343250e+00
 1.2375592694e+00	 1.5711289538e+00	-2.4198188809e+00
 1.2001882048e+00	 1.5998585411e+00	-2.3529467098e+00
 1.1622144660e+00	 1.6276537155e+00	-2.2999628496e+00
 1.1236729500e+00	 1.6544963742e+00	-2.2571210303e+00
 1.0845992268e+00	 1.6803701375e+00	-2.2209058066e+00
 1.0450294343e+00	 1.7052603765e+00	-2.1880602906e+00
 1.0050001720e+00	 1.7291542331e+00	-2.1556115634e+00
 9.6454839480e-01	 1.7520406314e+00	-2.1208935312e+00
 9.2371130622e-01	 1.7739102832e+00	-2.0815670262e+00
 8.8252625359e-01	 1.7947556852e+00	-2.0356369872e+00
 8.4103062392e-01	 1.8145711088e+00	-1.9814665903e+00
 7.8095572301e-01	 1.6849561144e+00	-1.9458327134e+00
 7.4217311783e-01	 1.7023948409e+00	-1.8655370650e+00
 7.0317130576e-01	 1.7188715419e+00	-1.7854610165e+00
 6.6398453914e-01	 1.7343857336e+00	-1.7056551878e+00
 6.2464674532e-01	 1.7489384807e+00	-1.6262106749e+00
 5.8519144419e-01	 1.7625323575e+00	-1.5472620283e+00
 5.4565166972e-01	 1.7751714043e+00	-1.4689897021e+00
 5.0605989574e-01	 1.7868610796e+00	-1.3916219452e+00
 4.6644796621e-01	 1.7976082076e+00	-1.3154361106e+00
 4.2684703026e-01	 1.8074209225e+00	-1.2407593740e+00
 3.8728748204e-01	 1.8163086099e+00	-1.1679688589e+00
 7.8696326251e-01	 1.6979177205e+00	-1.9474274840e+00
 7.4788232027e-01	 1.7154905951e+00	-1.8680132822e+00
 7.0858048488e-01	 1.7320940440e+00	-1.7885309402e+00
 6.6909227218e-01	 1.7477275794e+00	-1.7091598489e+00
 6.2945187048e-01	 1.7623922742e+00	-1.6301061222e+00
 5.8969305755e-01	 1.7760907225e+00	-1.5516052588e+00
 5.4984912146e-01	 1.7888269958e+00	-1.4739243972e+00
 5.0995278585e-01	 1.8006065945e+00	-1.3973641291e+00
 4.7003613965e-01	 1.8114363953e+00	-1.3222598440e+00
 4.3013057159e-01	 1.8213245950e+00	-1.2489825895e+00
 3.9026670964e-01	 1.8302806514e+00	-1.1779394374e+00
 7.9297080411e-01	 1.7108793310e+00	-1.9493860161e+00
 7.5359152471e-01	 1.7285863540e+00	-1.8708443728e+00
 7.1398966590e-01	 1.7453165507e+00	-1.7919152478e+00
 6.7420000700e-01	 1.7610694298e+00	-1.7129267973e+00
 6.3425699733e-01	 1.7758460723e+00	-1.6342127004e+00
 5.9419467248e-01	 1.7896490923e+00	-1.5561146689e+00
 5.5404657467e-01	 1.8024825921e+00	-1.4789847230e+00
 5.1384567733e-01	 1.8143521142e+00	-1.4031871899e+00
 4.7362431435e-01	 1.8252645878e+00	-1.3291003888e+00
 4.3341411407e-01	 1.8352282723e+00	-1.2571179757e+00
 3.9324593829e-01	 1.8442526977e+00	-1.1876499269e+00
 7.9897834291e-01	 1.7238409356e+00	-1.9517386890e+00
 7.5930072649e-01	 1.7416821068e+00	-1.8741381051e+00
 7.1939884440e-01	 1.7585390512e+00	-1.7957740311e+00
 6.7930773944e-01	 1.7744112740e+00	-1.7171431597e+00
 6.3906212193e-01	 1.7892998642e+00	-1.6387191673e+00
 5.9869628532e-01	 1.8032074557e+00	-1.5609552341e+00
 5.5824402592e-01	 1.8161381820e+00	-1.4842865520e+00
 5.1773856699e-01	 1.8280976275e+00	-1.4091327680e+00
 4.7721248737e-01	 1.8390927739e+00	-1.3359003106e+00
 4.3669765502e-01	 1.8491319431e+00	-1.2649845580e+00
 3.9622516554e-01	 1.8582247375e+00	-1.1967718106e+00
 8.0498587400e-01	 1.7368025235e+00	-1.9545142462e+00
 7.6500992094e-01	 1.7547778427e+00	-1.8779983349e+00
 7.2480801595e-01	 1.7717615348e+00	-1.8002619415e+00
 6.8441546533e-01	 1.7877531011e+00	-1.7219898503e+00
 6.4386724037e-01	 1.8027536389e+00	-1.6438080561e+00
 6.0319789237e-01	 1.8167658018e+00	-1.5662864525e+00
 5.6244147179e-01	 1.8297937544e+00	-1.4899417832e+00
 5.2163145165e-01	 1.8418431231e+00	-1.4152407847e+00
 4.8080065578e-01	 1.8529209422e+00	-1.3426034523e+00
 4.3998119175e-01	 1.8630355961e+00	-1.2724063658e+00
 3.9920438897e-01	 1.8721967594e+00	-1.2049860189e+00
 8.1099339248e-01	 1.7497640841e+00	-1.9577398573e+00
 7.7071910340e-01	 1.7678735512e+00	-1.8825251509e+00
 7.3021717615e-01	 1.7849839906e+00	-1.8055283918e+00
 6.8952318049e-01	 1.8010949001e+00	-1.7276418019e+00
 6.4867234871e-01	 1.8162073853e+00	-1.6496559061e+00
 6.0769948998e-01	 1.8303241193e+00	-1.5722625479e+00
 5.6663890884e-01	 1.8434492981e+00	-1.4960584892e+00
 5.2552432814e-01	 1.8555885899e+00	-1.4215495058e+00
 4.8438881666e-01	 1.8667490815e+00	-1.3491548864e+00
 4.4326472159e-01	 1.8769392200e+00	-1.2792122471e+00
 4.0218360615e-01	 1.8861687519e+00	-1.2119825791e+00
 8.1700089343e-01	 1.7627256070e+00	-1.9614411757e+00
 7.7642826921e-01	 1.7809692214e+00	-1.8878150133e+00
 7.3562632056e-01	 1.7982064079e+00	-1.8117177496e+00
 6.9463088076e-01	 1.8144366603e+00	-1.7342681856e+00
 6.5347744305e-01	 1.8296610924e+00	-1.6564334837e+00
 6.1220107446e-01	 1.8438823974e+00	-1.5790326637e+00
 5.7083633365e-01	 1.8571048020e+00	-1.5027410569e+00
 5.2941719328e-01	 1.8693340166e+00	-1.4280956025e+00
 4.8797696708e-01	 1.8805771804e+00	-1.3555008705e+00
 4.4654824186e-01	 1.8908428032e+00	-1.2852356912e+00
 4.0516281464e-01	 1.9001407037e+00	-1.2174602808e+00
 8.2300837196e-01	 1.7756870815e+00	-1.9656423949e+00
 7.8213741371e-01	 1.7940648428e+00	-1.8939608871e+00
 7.4103544479e-01	 1.8114287758e+00	-1.8189695212e+00
 6.9973856195e-01	 1.8277783707e+00	-1.7420326217e+00
 6.5828251944e-01	 1.8431147493e+00	-1.6643059929e+00
 6.1670264213e-01	 1.8574406248e+00	-1.5867410490e+00
 5.7503374279e-01	 1.8707602549e+00	-1.5100903225e+00
 5.3331004388e-01	 1.8830793920e+00	-1.4349142098e+00
 4.9156510410e-01	 1.8944052278e+00	-1.3615888032e+00
 4.4983174987e-01	 1.9047463346e+00	-1.2903146594e+00
 4.0814201201e-01	 1.9141126033e+00	-1.2211263566e+00
 8.2901582315e-01	 1.7886484970e+00	-1.9703663011e+00
 7.8784653223e-01	 1.8071604046e+00	-1.9010523686e+00
 7.4644454441e-01	 1.8246510835e+00	-1.8274185284e+00
 7.0484621991e-01	 1.8411200203e+00	-1.7510933808e+00
 6.6308757398e-01	 1.8565683450e+00	-1.6734332775e+00
 6.2120418932e-01	 1.8709987905e+00	-1.5955272353e+00
 5.7923113283e-01	 1.8844156457e+00	-1.5182037000e+00
 5.3720287678e-01	 1.8968247048e+00	-1.4420389822e+00
 4.9515322480e-01	 1.9082332122e+00	-1.3673671835e+00
 4.5311524294e-01	 1.9186498027e+00	-1.2942914228e+00
 4.1112119582e-01	 1.9280844394e+00	-1.2226961751e+00
 8.3502324211e-01	 1.8016098430e+00	-1.9756343250e+00
 7.9355562011e-01	 1.8202558961e+00	-1.9091758073e+00
 7.5185361499e-01	 1.8378733203e+00	-1.8371950773e+00
 7.0995385046e-01	 1.8544615984e+00	-1.7616035770e+00
 6.6789260272e-01	 1.8700218686e+00	-1.6839700138e+00
 6.2570571236e-01	 1.8845568835e+00	-1.6055262075e+00
 5.8342850035e-01	 1.8980709632e+00	-1.5271753047e+00
 5.4109568878e-01	 1.9105699439e+00	-1.4495021471e+00
 4.9874132625e-01	 1.9220611224e+00	-1.3727855710e+00
 4.5639871839e-01	 1.9325531962e+00	-1.2970124074e+00
 4.1410036365e-01	 1.9420562004e+00	-1.2218929489e+00
 8.4103062392e-01	 1.8145711088e+00	-1.9814665903e+00
 7.9926467270e-01	 1.8333513066e+00	-1.9184144224e+00
 7.5726265213e-01	 1.8510954753e+00	-1.8484251202e+00
 7.1506144942e-01	 1.8678030939e+00	-1.7737113522e+00
 6.7269760176e-01	 1.8834753089e+00	-1.6960658960e+00
 6.3020720756e-01	 1.8981148926e+00	-1.6168685657e+00
 5.8762584192e-01	 1.9117261962e+00	-1.5370960711e+00
 5.4498847672e-01	 1.9243150980e+00	-1.4573345559e+00
 5.0232940551e-01	 1.9358889471e+00	-1.3777945480e+00
 4.5968217354e-01	 1.9464565037e+00	-1.2983280454e+00
 4.1707951306e-01	 1.9560278751e+00	-1.2184474538e+00
 3.8728748204e-01	 1.8163086099e+00	-1.1679688589e+00
 3.4779615135e-01	 1.8242823715e+00	-1.0961384704e+00
 3.0840457273e-01	 1.8313532568e+00	-1.0251108400e+00
 2.6914060908e-01	 1.8375340302e+00	-9.5614133250e-01
 2.3003117611e-01	 1.8428384492e+00	-8.9010148699e-01
 1.9110220776e-01	 1.8472811963e+00	-8.2749575366e-01
 1.5237862675e-01	 1.8508778101e+00	-7.6847977499e-01
 1.1388432006e-01	 1.8536446159e+00	-7.1287995641e-01
 7.5642119307e-02	 1.8555986573e+00	-6.6021407841e-01
 3.7673785770e-02	 1.8567576274e+00	-6.0971271129e-01
 0.0000000000e+00	 1.8571398015e+00	-5.6034120402e-01
 3.9026670964e-01	 1.8302806514e+00	-1.1779394374e+00
 3.5047158999e-01	 1.8383157515e+00	-1.1074135804e+00
 3.1077698976e-01	 1.8454410299e+00	-1.0365836746e+00
 2.7121098618e-01	 1.8516693492e+00	-9.6693094472e-01
 2.3180070201e-01	 1.8570145727e+00	-8.9957144640e-01
 1.9257227070e-01	 1.8614914959e+00	-8.3527005092e-01
 1.5355080667e-01	 1.8651157767e+00	-7.7445601092e-01
 1.1476038068e-01	 1.8679038664e+00	-7.1723987230e-01
 7.6223999950e-02	 1.8698729393e+00	-6.6343150349e-01
 3.7963593180e-02	 1.8710408249e+00	-6.1255901952e-01
 0.0000000000e+00	 1.8714259389e+00	-5.6388838739e-01
 3.9324593829e-01	 1.8442526977e+00	-1.1876499269e+00
 3.5314702957e-01	 1.8523491364e+00	-1.1182655680e+00
 3.1314940761e-01	 1.8595288079e+00	-1.0475644778e+00
 2.7328136399e-01	 1.8658046731e+00	-9.7724736284e-01
 2.3357022852e-01	 1.8711907011e+00	-9.0868469621e-01
 1.9404233414e-01	 1.8757018004e+00	-8.4292702750e-01
 1.5472298701e-01	 1.8793537484e+00	-7.8071684713e-01
 1.1563644160e-01	 1.8821631218e+00	-7.2250180346e-01
 7.6805880798e-02	 1.8841472263e+00	-6.6844907437e-01
 3.8253400692e-02	 1.8853240273e+00	-6.1846069906e-01
 0.0000000000e+00	 1.8857120812e+00	-5.7218968187e-01
 3.9622516554e-01	 1.8582247375e+00	-1.1967718106e+00
 3.5582246790e-01	 1.8663825147e+00	-1.1282395270e+00
 3.1552182436e-01	 1.8736165794e+00	-1.0575377526e+00
 2.7535174085e-01	 1.8799399905e+00	-9.8657984482e-01
 2.3533975421e-01	 1.8853668230e+00	-9.1699991082e-01
 1.9551239691e-01	 1.8899120983e+00	-8.5015853196e-01
 1.5589516679e-01	 1.8935917134e+00	-7.8714995341e-01
 1.1651250211e-01	 1.8964223706e+00	-7.2881058358e-01
 7.7387761375e-02	 1.8984215067e+00	-6.7572864676e-01
 3.8543208069e-02	 1.8996072231e+00	-6.2825483469e-01
 0.0000000000e+00	 1.8999982169e+00	-5.8651380502e-01
 3.9920438897e-01	 1.8721967594e+00	-1.2049860189e+00
 3.5849790279e-01	 1.8804158751e+00	-1.1368938096e+00
 3.1789423806e-01	 1.8877043328e+00	-1.0660031066e+00
 2.7742211504e-01	 1.8940752897e+00	-9.9443264768e-01
 2.3710927764e-01	 1.8995429267e+00	-9.2408872728e-01
 1.9698245778e-01	 1.9041223779e+00	-8.5666543506e-01
 1.5706734507e-01	 1.9078296602e+00	-7.9364621060e-01
 1.1738856150e-01	 1.9106816011e+00	-7.3630661462e-01
 7.7969641205e-02	 1.9126957687e+00	-6.8571821485e-01
 3.8833015074e-02	 1.9138904006e+00	-6.4275348262e-01
 0.0000000000e+00	 1.9142843343e+00	-6.0809159573e-01
 4.0218360615e-01	 1.8861687519e+00	-1.2119825791e+00
 3.6117333207e-01	 1.8944492059e+00	-1.1437995347e+00
 3.2026664678e-01	 1.9017920566e+00	-1.0724746918e+00
 2.7949248489e-01	 1.9082105592e+00	-1.0003244718e+00
 2.3887879734e-01	 1.9137190005e+00	-9.2953526502e-01
 1.9845251557e-01	 1.9183326278e+00	-8.6215729548e-01
 1.5823952090e-01	 1.9220675770e+00	-8.0009959147e-01
 1.1826461905e-01	 1.9249408017e+00	-7.4512603087e-01
 7.8551519814e-02	 1.9269700008e+00	-6.9885242477e-01
 3.9122821472e-02	 1.9281735481e+00	-6.6274459773e-01
 0.0000000000e+00	 1.9285704216e+00	-6.3811741763e-01
 4.0516281464e-01	 1.9001407037e+00	-1.2174602808e+00
 3.6384875355e-01	 1.9084824959e+00	-1.1485401189e+00
 3.2263904859e-01	 1.9158797393e+00	-1.0764806702e+00
 2.8156284870e-01	 1.9223457875e+00	-1.0037879296e+00
 2.4064831189e-01	 1.9278950331e+00	-9.3293566666e-01
 1.9992256908e-01	 1.9325428361e+00	-8.6635204008e-01
 1.5941169330e-01	 1.9363054523e+00	-8.0640704688e-01
 1.1914067405e-01	 1.9391999606e+00	-7.5540085571e-01
 7.9133396727e-02	 1.9412441912e+00	-7.1555306545e-01
 3.9412627024e-02	 1.9424566539e+00	-6.8899291996e-01
 0.0000000000e+00	 1.9428564673e+00	-6.7775050073e-01
 4.0814201201e-01	 1.9141126033e+00	-1.2211263566e+00
 3.6652416503e-01	 1.9225157334e+00	-1.1507108268e+00
 3.2501144154e-01	 1.9299673694e+00	-1.0775627020e+00
 2.8363320479e-01	 1.9364809631e+00	-1.0043690377e+00
 2.4241781983e-01	 1.9420710127e+00	-9.3389765893e-01
 2.0139261710e-01	 1.9467529915e+00	-8.6897565832e-01
 1.6058386133e-01	 1.9505432745e+00	-8.1246839692e-01
 1.2001672577e-01	 1.9534590664e+00	-7.6725915168e-01
 7.9715271469e-02	 1.9555183284e+00	-7.3622953791e-01
 3.9702431495e-02	 1.9567397063e+00	-7.2224082198e-01
 0.0000000000e+00	 1.9571424596e+00	-7.2811622445e-01
 4.1112119582e-01	 1.9280844394e+00	-1.2226961751e+00
 3.6919956435e-01	 1.9365489071e+00	-1.1499183423e+00
 3.2738382370e-01	 1.9440549354e+00	-1.0752754564e+00
 2.8570355145e-01	 1.9506160743e+00	-1.0016267305e+00
 2.4418731972e-01	 1.9562469278e+00	-9.3204013261e-01
 2.0286265843e-01	 1.9609630821e+00	-8.6976190980e-01
 1.6175602403e-01	 1.9647810319e+00	-8.1818622675e-01
 1.2089277352e-01	 1.9677181072e+00	-7.8082516387e-01
 8.0297143564e-02	 1.9697924006e+00	-7.6127930438e-01
 3.9992234648e-02	 1.9710226938e+00	-7.6320912009e-01
 0.0000000000e+00	 1.9714283870e+00	-7.9030734497e-01
 4.1410036365e-01	 1.9420562004e+00	-1.2218929489e+00
 3.7187494931e-01	 1.9505820055e+00	-1.1457803566e+00
 3.2975619312e-01	 1.9581424259e+00	-1.0691861429e+00
 2.8777388701e-01	 1.9647511096e+00	-9.9513239579e-01
 2.4595681012e-01	 1.9704227669e+00	-9.2699274059e-01
 2.0433269187e-01	 1.9751730965e+00	-8.6845204446e-01
 1.6292818044e-01	 1.9790187128e+00	-8.2346578695e-01
 1.2176881656e-01	 1.9819770716e+00	-7.9621945725e-01
 8.0879012538e-02	 1.9840663961e+00	-7.9108831790e-01
 4.0282036246e-02	 1.9853056047e+00	-8.1259785015e-01
 0.0000000000e+00	 1.9857142377e+00	-8.6538516971e-01
 4.1707951306e-01	 1.9560278751e+00	-1.2184474538e+00
 3.7455031774e-01	 1.9646150171e+00	-1.1379251758e+00
 3.3212854789e-01	 1.9722298292e+00	-1.0588740634e+00
 2.8984420977e-01	 1.9788860576e+00	-9.8446942887e-01
 2.4772628958e-01	 1.9845985183e+00	-9.1839551313e-01
 2.0580271623e-01	 1.9893830231e+00	-8.6479453477e-01
 1.6410032960e-01	 1.9932563058e+00	-8.2821489811e-01
 1.2264485419e-01	 1.9962359477e+00	-8.1355904811e-01
 8.1460877915e-02	 1.9983403035e+00	-8.2603143365e-01
 4.0571836054e-02	 1.9995884272e+00	-8.7108701043e-01
 0.0000000000e+00	 2.0000000000e+00	-9.5438068164e-01
