patch_n	x	y	stress_yy
0	 0.000000000000000e+00	 0.000000000000000e+00	-4.880005230769229e+00
0	 0.000000000000000e+00	 1.250000000000000e-01	-1.989086034615383e+00
0	 0.000000000000000e+00	 2.500000000000000e-01	 9.972114923076930e-01
0	 0.000000000000000e+00	 3.750000000000001e-01	 4.078887350000002e+00
0	 0.000000000000000e+00	 5.000000000000000e-01	 7.255941538461538e+00
0	 0.000000000000000e+00	 6.250000000000000e-01	 1.052837405769231e+01
0	 0.000000000000000e+00	 7.500000000000000e-01	 1.389618490769231e+01
0	 0.000000000000000e+00	 8.750000000000000e-01	 1.735937408846153e+01
0	 0.000000000000000e+00	 1.000000000000000e+00	 2.091794160000000e+01
0	 0.000000000000000e+00	 1.125000000000000e+00	 2.457188744230768e+01
0	 0.000000000000000e+00	 1.250000000000000e+00	 2.832121161538461e+01
0	 1.250000000000000e-01	 0.000000000000000e+00	-4.793377016923076e+00
0	 1.250000000000000e-01	 1.250000000000000e-01	-1.885340976500000e+00
0	 1.249999999999999e-01	 2.499999999999999e-01	 1.103978115076923e+00
0	 1.250000000000000e-01	 3.750000000000001e-01	 4.174580257807694e+00
0	 1.250000000000000e-01	 4.999999999999998e-01	 7.326465451692307e+00
0	 1.250000000000000e-01	 6.250000000000001e-01	 1.055963369673077e+01
0	 1.250000000000000e-01	 7.500000000000000e-01	 1.387408499292308e+01
0	 1.250000000000000e-01	 8.750000000000000e-01	 1.726981934026923e+01
0	 1.250000000000000e-01	 1.000000000000000e+00	 2.074683673876923e+01
0	 1.250000000000000e-01	 1.125000000000000e+00	 2.430513718842307e+01
0	 1.250000000000000e-01	 1.250000000000000e+00	 2.794472068923077e+01
0	 2.500000000000000e-01	 0.000000000000000e+00	-4.582741390769229e+00
0	 2.500000000000000e-01	 1.250000000000000e-01	-1.685546916384614e+00
0	 2.499999999999999e-01	 2.499999999999999e-01	 1.278835329538461e+00
0	 2.500000000000000e-01	 3.750000000000000e-01	 4.310405347000000e+00
0	 2.500000000000001e-01	 5.000000000000001e-01	 7.409163136000003e+00
0	 2.500000000000001e-01	 6.250000000000001e-01	 1.057510869653846e+01
0	 2.499999999999999e-01	 7.500000000000000e-01	 1.380824202861539e+01
0	 2.500000000000000e-01	 8.750000000000000e-01	 1.710856313223077e+01
0	 2.500000000000000e-01	 9.999999999999998e-01	 2.047607200738461e+01
0	 2.500000000000001e-01	 1.125000000000000e+00	 2.391076865407692e+01
0	 2.500000000000000e-01	 1.250000000000000e+00	 2.741265307230768e+01
0	 3.750000000000001e-01	 0.000000000000000e+00	-4.248098352307691e+00
0	 3.750000000000001e-01	 1.250000000000000e-01	-1.389703854269230e+00
0	 3.750000000000002e-01	 2.500000000000001e-01	 1.521783135692308e+00
0	 3.750000000000000e-01	 3.750000000000000e-01	 4.486362617576924e+00
0	 3.750000000000000e-01	 5.000000000000000e-01	 7.504034591384617e+00
0	 3.750000000000001e-01	 6.250000000000000e-01	 1.057479905711538e+01
0	 3.750000000000001e-01	 7.499999999999999e-01	 1.369865601476923e+01
0	 3.750000000000001e-01	 8.750000000000001e-01	 1.687560546434615e+01
0	 3.750000000000000e-01	 9.999999999999998e-01	 2.010564740584615e+01
0	 3.750000000000001e-01	 1.125000000000000e+00	 2.338878183926922e+01
0	 3.750000000000001e-01	 1.250000000000000e+00	 2.672500876461539e+01
0	 5.000000000000000e-01	 0.000000000000000e+00	-3.789447901538461e+00
0	 4.999999999999999e-01	 1.250000000000000e-01	-9.978117901538459e-01
0	 5.000000000000000e-01	 2.500000000000001e-01	 1.832821533538461e+00
0	 5.000000000000000e-01	 3.750000000000000e-01	 4.702452069538463e+00
0	 5.000000000000000e-01	 5.000000000000000e-01	 7.611079817846151e+00
0	 5.000000000000001e-01	 6.250000000000000e-01	 1.055870477846154e+01
0	 5.000000000000001e-01	 7.500000000000001e-01	 1.354532695138462e+01
0	 5.000000000000000e-01	 8.750000000000000e-01	 1.657094633661538e+01
0	 5.000000000000000e-01	 1.000000000000000e+00	 1.963556293415384e+01
0	 4.999999999999999e-01	 1.125000000000000e+00	 2.273917674399999e+01
0	 5.000000000000000e-01	 1.250000000000000e+00	 2.588178776615385e+01
0	 6.250000000000000e-01	 0.000000000000000e+00	-3.206790038461539e+00
0	 6.250000000000001e-01	 1.250000000000000e-01	-5.098707240384623e-01
0	 6.250000000000001e-01	 2.500000000000001e-01	 2.211950523076923e+00
0	 6.250000000000001e-01	 3.750000000000001e-01	 4.958673702884617e+00
0	 6.250000000000000e-01	 5.000000000000000e-01	 7.730298815384614e+00
0	 6.250000000000000e-01	 6.250000000000000e-01	 1.052682586057692e+01
0	 6.250000000000000e-01	 7.500000000000000e-01	 1.334825483846153e+01
0	 6.250000000000000e-01	 8.750000000000000e-01	 1.619458574903846e+01
0	 6.250000000000000e-01	 9.999999999999999e-01	 1.906581859230769e+01
0	 6.249999999999999e-01	 1.125000000000000e+00	 2.196195336826922e+01
0	 6.250000000000000e-01	 1.250000000000000e+00	 2.488299007692308e+01
0	 7.500000000000000e-01	 0.000000000000000e+00	-2.500124763076923e+00
0	 7.500000000000000e-01	 1.250000000000000e-01	 7.411934407692389e-02
0	 7.500000000000000e-01	 2.499999999999999e-01	 2.659170104307691e+00
0	 7.499999999999999e-01	 3.750000000000000e-01	 5.255027517615383e+00
0	 7.500000000000002e-01	 5.000000000000001e-01	 7.861691583999996e+00
0	 7.500000000000000e-01	 6.250000000000000e-01	 1.047916230346154e+01
0	 7.499999999999999e-01	 7.499999999999999e-01	 1.310743967600000e+01
0	 7.500000000000000e-01	 8.750000000000000e-01	 1.574652370161538e+01
0	 7.499999999999999e-01	 9.999999999999997e-01	 1.839641438030769e+01
0	 7.500000000000000e-01	 1.125000000000000e+00	 2.105711171207692e+01
0	 7.500000000000000e-01	 1.250000000000000e+00	 2.372861569692308e+01
0	 8.750000000000000e-01	 0.000000000000000e+00	-1.669452075384616e+00
0	 8.749999999999998e-01	 1.250000000000000e-01	 7.541584141923074e-01
0	 8.750000000000000e-01	 2.500000000000001e-01	 3.174480277230770e+00
0	 8.750000000000000e-01	 3.750000000000001e-01	 5.591513513730768e+00
0	 8.750000000000000e-01	 5.000000000000000e-01	 8.005258123692304e+00
0	 8.749999999999998e-01	 6.250000000000000e-01	 1.041571410711538e+01
0	 8.750000000000000e-01	 7.499999999999999e-01	 1.282288146400000e+01
0	 8.749999999999999e-01	 8.749999999999999e-01	 1.522676019434615e+01
0	 8.750000000000000e-01	 9.999999999999998e-01	 1.762735029815384e+01
0	 8.750000000000000e-01	 1.125000000000000e+00	 2.002465177542307e+01
0	 8.749999999999999e-01	 1.250000000000000e+00	 2.241866462615384e+01
0	 1.000000000000000e+00	 0.000000000000000e+00	-7.147719753846165e-01
0	 9.999999999999998e-01	 1.250000000000000e-01	 1.530246486307691e+00
0	 9.999999999999998e-01	 2.500000000000000e-01	 3.757881041846152e+00
0	 9.999999999999998e-01	 3.750000000000000e-01	 5.968131691230769e+00
0	 1.000000000000000e+00	 5.000000000000000e-01	 8.160998434461536e+00
0	 9.999999999999999e-01	 6.250000000000000e-01	 1.033648127153846e+01
0	 9.999999999999998e-01	 7.500000000000000e-01	 1.249458020246153e+01
0	 9.999999999999998e-01	 8.750000000000000e-01	 1.463529522723077e+01
0	 9.999999999999998e-01	 9.999999999999998e-01	 1.675862634584615e+01
0	 9.999999999999998e-01	 1.125000000000000e+00	 1.886457355830768e+01
0	 9.999999999999999e-01	 1.250000000000000e+00	 2.095313686461538e+01
0	 1.125000000000000e+00	 0.000000000000000e+00	 3.639155369230744e-01
0	 1.125000000000000e+00	 1.250000000000000e-01	 2.402383560423078e+00
0	 1.125000000000000e+00	 2.500000000000000e-01	 4.409372398153845e+00
0	 1.125000000000000e+00	 3.750000000000001e-01	 6.384882050115383e+00
0	 1.125000000000000e+00	 5.000000000000001e-01	 8.328912516307691e+00
0	 1.125000000000000e+00	 6.249999999999999e-01	 1.024146379673077e+01
0	 1.125000000000000e+00	 7.500000000000001e-01	 1.212253589138461e+01
0	 1.125000000000000e+00	 8.750000000000000e-01	 1.397212880026923e+01
0	 1.125000000000000e+00	 9.999999999999998e-01	 1.579024252338461e+01
0	 1.125000000000000e+00	 1.125000000000000e+00	 1.757687706073077e+01
0	 1.125000000000000e+00	 1.250000000000000e+00	 1.933203241230769e+01
0	 1.250000000000000e+00	 0.000000000000000e+00	 1.566610461538461e+00
0	 1.250000000000000e+00	 1.250000000000000e-01	 3.370569636538458e+00
0	 1.250000000000000e+00	 2.500000000000000e-01	 5.128954346153847e+00
0	 1.250000000000000e+00	 3.750000000000001e-01	 6.841764590384615e+00
0	 1.250000000000000e+00	 5.000000000000000e-01	 8.509000369230767e+00
0	 1.250000000000000e+00	 6.250000000000000e-01	 1.013066168269231e+01
0	 1.250000000000000e+00	 7.500000000000000e-01	 1.170674853076923e+01
0	 1.250000000000000e+00	 8.749999999999999e-01	 1.323726091346154e+01
0	 1.250000000000000e+00	 1.000000000000000e+00	 1.472219883076923e+01
0	 1.250000000000000e+00	 1.125000000000000e+00	 1.616156228269231e+01
0	 1.250000000000000e+00	 1.250000000000000e+00	 1.755535126923077e+01
0	 0.000000000000000e+00	 1.250000000000000e+00	 2.832121161538461e+01
0	 0.000000000000000e+00	 1.375000000000000e+00	 2.639657599076923e+01
0	 0.000000000000000e+00	 1.500000000000000e+00	 2.443761074769230e+01
0	 0.000000000000000e+00	 1.625000000000000e+00	 2.244431588615384e+01
0	 0.000000000000000e+00	 1.750000000000000e+00	 2.041669140615384e+01
0	 0.000000000000000e+00	 1.875000000000000e+00	 1.835473730769229e+01
0	 0.000000000000000e+00	 2.000000000000000e+00	 1.625845359076922e+01
0	 0.000000000000000e+00	 2.125000000000001e+00	 1.412784025538460e+01
0	 0.000000000000000e+00	 2.250000000000001e+00	 1.196289730153844e+01
0	 0.000000000000000e+00	 2.375000000000001e+00	 9.763624729230745e+00
0	 0.000000000000000e+00	 2.500000000000000e+00	 7.530022538461532e+00
0	 1.250000000000000e-01	 1.250000000000000e+00	 2.794472068923077e+01
0	 1.250000000000000e-01	 1.375000000000000e+00	 2.599984719984615e+01
0	 1.250000000000000e-01	 1.500000000000000e+00	 2.402524219338460e+01
0	 1.250000000000000e-01	 1.625000000000000e+00	 2.202090566984614e+01
0	 1.250000000000000e-01	 1.750000000000000e+00	 1.998683762923075e+01
0	 1.250000000000000e-01	 1.875000000000000e+00	 1.792303807153845e+01
0	 1.250000000000000e-01	 2.000000000000001e+00	 1.582950699676922e+01
0	 1.250000000000000e-01	 2.125000000000001e+00	 1.370624440492306e+01
0	 1.250000000000000e-01	 2.250000000000001e+00	 1.155325029599998e+01
0	 1.250000000000000e-01	 2.375000000000001e+00	 9.370524669999977e+00
0	 1.250000000000000e-01	 2.500000000000000e+00	 7.158067526923068e+00
0	 2.500000000000000e-01	 1.250000000000000e+00	 2.741265307230768e+01
0	 2.500000000000000e-01	 1.375000000000000e+00	 2.547229919646153e+01
0	 2.500000000000000e-01	 1.500000000000000e+00	 2.350681190492307e+01
0	 2.500000000000001e-01	 1.625000000000001e+00	 2.151619119769230e+01
0	 2.500000000000000e-01	 1.750000000000000e+00	 1.950043707476922e+01
0	 2.500000000000000e-01	 1.875000000000000e+00	 1.745954953615383e+01
0	 2.500000000000001e-01	 2.000000000000000e+00	 1.539352858184614e+01
0	 2.500000000000000e-01	 2.125000000000000e+00	 1.330237421184614e+01
0	 2.500000000000000e-01	 2.250000000000001e+00	 1.118608642615382e+01
0	 2.500000000000001e-01	 2.375000000000001e+00	 9.044665224769210e+00
0	 2.500000000000000e-01	 2.500000000000000e+00	 6.878110607692300e+00
0	 3.750000000000001e-01	 1.250000000000000e+00	 2.672500876461539e+01
0	 3.750000000000001e-01	 1.375000000000000e+00	 2.481393198061539e+01
0	 3.750000000000001e-01	 1.500000000000000e+00	 2.288231988230768e+01
0	 3.750000000000001e-01	 1.625000000000000e+00	 2.093017246969230e+01
0	 3.750000000000001e-01	 1.750000000000000e+00	 1.895748974276922e+01
0	 3.750000000000001e-01	 1.875000000000000e+00	 1.696427170153845e+01
0	 3.750000000000001e-01	 2.000000000000001e+00	 1.495051834599999e+01
0	 3.750000000000001e-01	 2.125000000000001e+00	 1.291622967615383e+01
0	 3.750000000000002e-01	 2.250000000000001e+00	 1.086140569199998e+01
0	 3.750000000000001e-01	 2.375000000000001e+00	 8.786046393538442e+00
0	 3.750000000000001e-01	 2.500000000000000e+00	 6.690151780769228e+00
0	 5.000000000000000e-01	 1.250000000000000e+00	 2.588178776615385e+01
0	 5.000000000000001e-01	 1.375000000000000e+00	 2.402474555230769e+01
0	 5.000000000000001e-01	 1.500000000000000e+00	 2.215176612553845e+01
0	 5.000000000000001e-01	 1.625000000000000e+00	 2.026284948584614e+01
0	 5.000000000000001e-01	 1.750000000000000e+00	 1.835799563323076e+01
0	 4.999999999999999e-01	 1.875000000000000e+00	 1.643720456769230e+01
0	 4.999999999999999e-01	 2.000000000000000e+00	 1.450047628923075e+01
0	 5.000000000000002e-01	 2.125000000000001e+00	 1.254781079784614e+01
0	 5.000000000000001e-01	 2.250000000000000e+00	 1.057920809353844e+01
0	 5.000000000000000e-01	 2.375000000000001e+00	 8.594668176307673e+00
0	 5.000000000000000e-01	 2.500000000000000e+00	 6.594191046153840e+00
0	 6.250000000000000e-01	 1.250000000000000e+00	 2.488299007692308e+01
0	 6.250000000000000e-01	 1.375000000000000e+00	 2.310473991153846e+01
0	 6.250000000000000e-01	 1.500000000000000e+00	 2.131515063461537e+01
0	 6.250000000000001e-01	 1.625000000000000e+00	 1.951422224615384e+01
0	 6.250000000000000e-01	 1.750000000000000e+00	 1.770195474615384e+01
0	 6.250000000000000e-01	 1.875000000000000e+00	 1.587834813461537e+01
0	 6.250000000000000e-01	 2.000000000000000e+00	 1.404340241153845e+01
0	 6.249999999999999e-01	 2.125000000000000e+00	 1.219711757692306e+01
0	 6.250000000000001e-01	 2.250000000000001e+00	 1.033949363076921e+01
0	 6.250000000000000e-01	 2.375000000000001e+00	 8.470530573076907e+00
0	 6.250000000000000e-01	 2.500000000000000e+00	 6.590228403846149e+00
0	 7.500000000000000e-01	 1.250000000000000e+00	 2.372861569692308e+01
0	 7.500000000000000e-01	 1.375000000000000e+00	 2.205391505830768e+01
0	 7.500000000000000e-01	 1.500000000000000e+00	 2.037247340953846e+01
0	 7.500000000000000e-01	 1.625000000000000e+00	 1.868429075061538e+01
0	 7.499999999999999e-01	 1.750000000000000e+00	 1.698936708153845e+01
0	 7.500000000000000e-01	 1.875000000000000e+00	 1.528770240230768e+01
0	 7.500000000000000e-01	 2.000000000000000e+00	 1.357929671292306e+01
0	 7.500000000000000e-01	 2.125000000000001e+00	 1.186415001338460e+01
0	 7.500000000000001e-01	 2.250000000000001e+00	 1.014226230369229e+01
0	 7.500000000000000e-01	 2.375000000000001e+00	 8.413633583846138e+00
0	 7.500000000000000e-01	 2.500000000000000e+00	 6.678263853846149e+00
0	 8.749999999999999e-01	 1.250000000000000e+00	 2.241866462615384e+01
0	 8.749999999999997e-01	 1.375000000000000e+00	 2.087227099261538e+01
0	 8.750000000000000e-01	 1.500000000000001e+00	 1.932373445030769e+01
0	 8.749999999999999e-01	 1.625000000000000e+00	 1.777305499923076e+01
0	 8.750000000000000e-01	 1.750000000000000e+00	 1.622023263938461e+01
0	 8.750000000000001e-01	 1.875000000000001e+00	 1.466526737076922e+01
0	 8.750000000000000e-01	 2.000000000000001e+00	 1.310815919338461e+01
0	 8.749999999999999e-01	 2.125000000000001e+00	 1.154890810723075e+01
0	 8.750000000000000e-01	 2.250000000000001e+00	 9.987514112307679e+00
0	 8.749999999999998e-01	 2.375000000000000e+00	 8.423977208615364e+00
0	 8.749999999999999e-01	 2.500000000000000e+00	 6.858297396153842e+00
0	 9.999999999999999e-01	 1.250000000000000e+00	 2.095313686461538e+01
0	 1.000000000000000e+00	 1.375000000000000e+00	 1.955980771446154e+01
0	 9.999999999999998e-01	 1.500000000000000e+00	 1.816893375692307e+01
0	 9.999999999999999e-01	 1.625000000000000e+00	 1.678051499199999e+01
0	 1.000000000000000e+00	 1.750000000000001e+00	 1.539455141969230e+01
0	 9.999999999999998e-01	 1.875000000000000e+00	 1.401104303999999e+01
0	 1.000000000000000e+00	 2.000000000000001e+00	 1.262998985292307e+01
0	 9.999999999999999e-01	 2.125000000000001e+00	 1.125139185846153e+01
0	 1.000000000000000e+00	 2.250000000000001e+00	 9.875249056615370e+00
0	 1.000000000000000e+00	 2.375000000000001e+00	 8.501561447384601e+00
0	 9.999999999999999e-01	 2.500000000000000e+00	 7.130329030769229e+00
0	 1.125000000000000e+00	 1.250000000000000e+00	 1.933203241230769e+01
0	 1.125000000000000e+00	 1.375000000000000e+00	 1.811652522384615e+01
0	 1.125000000000000e+00	 1.500000000000000e+00	 1.690807132938461e+01
0	 1.125000000000000e+00	 1.625000000000000e+00	 1.570667072892307e+01
0	 1.125000000000000e+00	 1.750000000000000e+00	 1.451232342246154e+01
0	 1.125000000000000e+00	 1.875000000000001e+00	 1.332502941000000e+01
0	 1.125000000000000e+00	 2.000000000000001e+00	 1.214478869153846e+01
0	 1.125000000000000e+00	 2.125000000000001e+00	 1.097160126707691e+01
0	 1.125000000000000e+00	 2.250000000000001e+00	 9.805467136615370e+00
0	 1.125000000000000e+00	 2.375000000000001e+00	 8.646386300153827e+00
0	 1.125000000000000e+00	 2.500000000000000e+00	 7.494358757692306e+00
0	 1.250000000000000e+00	 1.250000000000000e+00	 1.755535126923077e+01
0	 1.250000000000000e+00	 1.375000000000000e+00	 1.654242352076924e+01
0	 1.250000000000000e+00	 1.500000000000000e+00	 1.554114716769230e+01
0	 1.250000000000000e+00	 1.625000000000000e+00	 1.455152220999999e+01
0	 1.250000000000000e+00	 1.750000000000000e+00	 1.357354864769230e+01
0	 1.250000000000000e+00	 1.875000000000000e+00	 1.260722648076922e+01
0	 1.250000000000000e+00	 2.000000000000000e+00	 1.165255570923076e+01
0	 1.250000000000000e+00	 2.125000000000001e+00	 1.070953633307692e+01
0	 1.250000000000000e+00	 2.250000000000001e+00	 9.778168352307679e+00
0	 1.250000000000000e+00	 2.375000000000001e+00	 8.858451766923066e+00
0	 1.250000000000000e+00	 2.500000000000000e+00	 7.950386576923073e+00
0	 0.000000000000000e+00	 2.500000000000000e+00	 7.530022538461532e+00
0	 0.000000000000000e+00	 2.625000000000000e+00	 7.651001216153840e+00
0	 0.000000000000000e+00	 2.750000000000000e+00	 7.788567249230764e+00
0	 0.000000000000000e+00	 2.875000000000001e+00	 7.942720637692308e+00
0	 0.000000000000000e+00	 3.000000000000000e+00	 8.113461381538459e+00
0	 0.000000000000000e+00	 3.125000000000000e+00	 8.300789480769231e+00
0	 0.000000000000000e+00	 3.250000000000000e+00	 8.504704935384618e+00
0	 0.000000000000000e+00	 3.375000000000001e+00	 8.725207745384621e+00
0	 0.000000000000000e+00	 3.500000000000001e+00	 8.962297910769230e+00
0	 0.000000000000000e+00	 3.625000000000001e+00	 9.215975431538466e+00
0	 0.000000000000000e+00	 3.750000000000000e+00	 9.486240307692311e+00
0	 1.250000000000000e-01	 2.500000000000000e+00	 7.158067526923068e+00
0	 1.250000000000000e-01	 2.625000000000001e+00	 7.340535916192303e+00
0	 1.250000000000000e-01	 2.750000000000000e+00	 7.536400119384607e+00
0	 1.250000000000000e-01	 2.875000000000000e+00	 7.745660136500000e+00
0	 1.250000000000000e-01	 3.000000000000000e+00	 7.968315967538455e+00
0	 1.250000000000000e-01	 3.125000000000000e+00	 8.204367612499995e+00
0	 1.250000000000000e-01	 3.250000000000001e+00	 8.453815071384614e+00
0	 1.250000000000000e-01	 3.375000000000000e+00	 8.716658344192307e+00
0	 1.250000000000000e-01	 3.500000000000001e+00	 8.992897430923083e+00
0	 1.250000000000000e-01	 3.625000000000001e+00	 9.282532331576924e+00
0	 1.250000000000000e-01	 3.750000000000000e+00	 9.585563046153849e+00
0	 2.500000000000000e-01	 2.500000000000000e+00	 6.878110607692300e+00
0	 2.500000000000000e-01	 2.625000000000000e+00	 7.111708880846148e+00
0	 2.500000000000000e-01	 2.750000000000000e+00	 7.355511426461538e+00
0	 2.500000000000001e-01	 2.875000000000001e+00	 7.609518244538460e+00
0	 2.500000000000000e-01	 3.000000000000000e+00	 7.873729335076924e+00
0	 2.500000000000000e-01	 3.125000000000000e+00	 8.148144698076925e+00
0	 2.500000000000001e-01	 3.250000000000001e+00	 8.432764333538465e+00
0	 2.500000000000000e-01	 3.375000000000001e+00	 8.727588241461534e+00
0	 2.500000000000000e-01	 3.500000000000000e+00	 9.032616421846154e+00
0	 2.500000000000001e-01	 3.625000000000001e+00	 9.347848874692309e+00
0	 2.500000000000000e-01	 3.750000000000000e+00	 9.673285600000002e+00
0	 3.750000000000001e-01	 2.500000000000000e+00	 6.690151780769228e+00
0	 3.750000000000001e-01	 2.625000000000000e+00	 6.964520110115381e+00
0	 3.750000000000001e-01	 2.750000000000000e+00	 7.245901170461536e+00
0	 3.750000000000001e-01	 2.875000000000000e+00	 7.534294961807690e+00
0	 3.750000000000001e-01	 3.000000000000001e+00	 7.829701484153842e+00
0	 3.750000000000001e-01	 3.125000000000001e+00	 8.132120737500001e+00
0	 3.750000000000001e-01	 3.250000000000000e+00	 8.441552721846152e+00
0	 3.750000000000001e-01	 3.375000000000000e+00	 8.757997437192307e+00
0	 3.750000000000002e-01	 3.500000000000001e+00	 9.081454883538466e+00
0	 3.750000000000001e-01	 3.625000000000001e+00	 9.411925060884615e+00
0	 3.750000000000001e-01	 3.750000000000000e+00	 9.749407969230770e+00
0	 5.000000000000000e-01	 2.500000000000000e+00	 6.594191046153840e+00
0	 5.000000000000001e-01	 2.625000000000000e+00	 6.898969603999996e+00
0	 5.000000000000001e-01	 2.750000000000000e+00	 7.207569351384613e+00
0	 5.000000000000001e-01	 2.875000000000000e+00	 7.519990288307691e+00
0	 5.000000000000001e-01	 3.000000000000000e+00	 7.836232414769233e+00
0	 4.999999999999999e-01	 3.125000000000000e+00	 8.156295730769232e+00
0	 4.999999999999999e-01	 3.250000000000000e+00	 8.480180236307691e+00
0	 5.000000000000002e-01	 3.375000000000001e+00	 8.807885931384618e+00
0	 5.000000000000001e-01	 3.500000000000001e+00	 9.139412816000007e+00
0	 5.000000000000000e-01	 3.625000000000001e+00	 9.474760890153849e+00
0	 5.000000000000000e-01	 3.750000000000000e+00	 9.813930153846156e+00
0	 6.250000000000000e-01	 2.500000000000000e+00	 6.590228403846149e+00
0	 6.250000000000000e-01	 2.625000000000000e+00	 6.915057362499996e+00
0	 6.250000000000000e-01	 2.750000000000000e+00	 7.240515969230770e+00
0	 6.250000000000001e-01	 2.875000000000000e+00	 7.566604224038460e+00
0	 6.250000000000000e-01	 3.000000000000000e+00	 7.893322126923077e+00
0	 6.250000000000000e-01	 3.125000000000000e+00	 8.220669677884615e+00
0	 6.250000000000000e-01	 3.250000000000000e+00	 8.548646876923078e+00
0	 6.249999999999999e-01	 3.375000000000000e+00	 8.877253724038463e+00
0	 6.250000000000001e-01	 3.500000000000002e+00	 9.206490219230771e+00
0	 6.250000000000000e-01	 3.625000000000001e+00	 9.536356362500005e+00
0	 6.250000000000000e-01	 3.750000000000000e+00	 9.866852153846153e+00
0	 7.500000000000000e-01	 2.500000000000000e+00	 6.678263853846149e+00
0	 7.500000000000000e-01	 2.625000000000001e+00	 7.012783385615382e+00
0	 7.500000000000000e-01	 2.750000000000000e+00	 7.344741023999998e+00
0	 7.500000000000000e-01	 2.875000000000000e+00	 7.674136768999998e+00
0	 7.499999999999999e-01	 3.000000000000001e+00	 8.000970620615384e+00
0	 7.500000000000000e-01	 3.125000000000000e+00	 8.325242578846153e+00
0	 7.500000000000000e-01	 3.250000000000000e+00	 8.646952643692313e+00
0	 7.500000000000000e-01	 3.375000000000001e+00	 8.966100815153847e+00
0	 7.500000000000001e-01	 3.500000000000002e+00	 9.282687093230775e+00
0	 7.500000000000000e-01	 3.625000000000002e+00	 9.596711477923082e+00
0	 7.500000000000000e-01	 3.750000000000000e+00	 9.908173969230766e+00
0	 8.749999999999999e-01	 2.500000000000000e+00	 6.858297396153842e+00
0	 8.749999999999997e-01	 2.625000000000000e+00	 7.192147673346153e+00
0	 8.750000000000000e-01	 2.750000000000001e+00	 7.520244515692305e+00
0	 8.749999999999999e-01	 2.875000000000000e+00	 7.842587923192305e+00
0	 8.750000000000000e-01	 3.000000000000000e+00	 8.159177895846152e+00
0	 8.750000000000001e-01	 3.125000000000001e+00	 8.470014433653844e+00
0	 8.750000000000000e-01	 3.250000000000001e+00	 8.775097536615384e+00
0	 8.749999999999999e-01	 3.375000000000001e+00	 9.074427204730771e+00
0	 8.750000000000000e-01	 3.500000000000001e+00	 9.368003438000002e+00
0	 8.749999999999998e-01	 3.625000000000000e+00	 9.655826236423083e+00
0	 8.749999999999999e-01	 3.750000000000000e+00	 9.937895599999997e+00
0	 9.999999999999999e-01	 2.500000000000000e+00	 7.130329030769229e+00
0	 1.000000000000000e+00	 2.625000000000000e+00	 7.453150225692307e+00
0	 9.999999999999998e-01	 2.750000000000000e+00	 7.767026444307689e+00
0	 9.999999999999999e-01	 2.875000000000000e+00	 8.071957686615384e+00
0	 1.000000000000000e+00	 3.000000000000001e+00	 8.367943952615388e+00
0	 9.999999999999998e-01	 3.125000000000000e+00	 8.654985242307689e+00
0	 1.000000000000000e+00	 3.250000000000001e+00	 8.933081555692308e+00
0	 9.999999999999999e-01	 3.375000000000000e+00	 9.202232892769231e+00
0	 1.000000000000000e+00	 3.500000000000001e+00	 9.462439253538461e+00
0	 1.000000000000000e+00	 3.625000000000002e+00	 9.713700637999999e+00
0	 9.999999999999999e-01	 3.750000000000000e+00	 9.956017046153850e+00
0	 1.125000000000000e+00	 2.500000000000000e+00	 7.494358757692306e+00
0	 1.125000000000000e+00	 2.625000000000001e+00	 7.795791042653844e+00
0	 1.125000000000000e+00	 2.750000000000000e+00	 8.085086809846150e+00
0	 1.125000000000000e+00	 2.875000000000000e+00	 8.362246059269228e+00
0	 1.125000000000000e+00	 3.000000000000000e+00	 8.627268790923074e+00
0	 1.125000000000000e+00	 3.125000000000000e+00	 8.880155004807689e+00
0	 1.125000000000000e+00	 3.250000000000001e+00	 9.120904700923077e+00
0	 1.125000000000000e+00	 3.375000000000000e+00	 9.349517879269236e+00
0	 1.125000000000000e+00	 3.500000000000000e+00	 9.565994539846153e+00
0	 1.125000000000000e+00	 3.625000000000001e+00	 9.770334682653846e+00
0	 1.125000000000000e+00	 3.750000000000000e+00	 9.962538307692306e+00
0	 1.250000000000000e+00	 2.500000000000000e+00	 7.950386576923073e+00
0	 1.250000000000000e+00	 2.625000000000000e+00	 8.220070124230766e+00
0	 1.250000000000000e+00	 2.750000000000000e+00	 8.474425612307686e+00
0	 1.250000000000000e+00	 2.875000000000001e+00	 8.713453041153842e+00
0	 1.250000000000000e+00	 3.000000000000000e+00	 8.937152410769228e+00
0	 1.250000000000000e+00	 3.125000000000000e+00	 9.145523721153843e+00
0	 1.250000000000000e+00	 3.250000000000000e+00	 9.338566972307692e+00
0	 1.250000000000000e+00	 3.375000000000001e+00	 9.516282164230772e+00
0	 1.250000000000000e+00	 3.500000000000001e+00	 9.678669296923076e+00
0	 1.250000000000000e+00	 3.625000000000001e+00	 9.825728370384617e+00
0	 1.250000000000000e+00	 3.750000000000000e+00	 9.957459384615387e+00
0	 0.000000000000000e+00	 3.750000000000000e+00	 9.486240307692311e+00
0	 0.000000000000000e+00	 3.875000000000000e+00	 9.505057329230770e+00
0	 0.000000000000000e+00	 4.000000000000000e+00	 9.520739286153855e+00
0	 0.000000000000000e+00	 4.125000000000001e+00	 9.533286178461539e+00
0	 0.000000000000000e+00	 4.250000000000001e+00	 9.542698006153850e+00
0	 0.000000000000000e+00	 4.375000000000000e+00	 9.548974769230771e+00
0	 0.000000000000000e+00	 4.500000000000001e+00	 9.552116467692310e+00
0	 0.000000000000000e+00	 4.625000000000001e+00	 9.552123101538463e+00
0	 0.000000000000000e+00	 4.750000000000001e+00	 9.548994670769240e+00
0	 0.000000000000000e+00	 4.875000000000001e+00	 9.542731175384619e+00
0	 0.000000000000000e+00	 5.000000000000000e+00	 9.533332615384616e+00
0	 1.250000000000000e-01	 3.750000000000000e+00	 9.585563046153849e+00
0	 1.250000000000000e-01	 3.875000000000000e+00	 9.588062060076927e+00
0	 1.250000000000000e-01	 4.000000000000001e+00	 9.588256112615390e+00
0	 1.250000000000000e-01	 4.125000000000001e+00	 9.586145203769226e+00
0	 1.250000000000000e-01	 4.250000000000001e+00	 9.581729333538465e+00
0	 1.250000000000000e-01	 4.375000000000001e+00	 9.575008501923074e+00
0	 1.250000000000000e-01	 4.500000000000000e+00	 9.565982708923077e+00
0	 1.250000000000000e-01	 4.625000000000001e+00	 9.554651954538464e+00
0	 1.250000000000000e-01	 4.750000000000000e+00	 9.541016238769235e+00
0	 1.250000000000000e-01	 4.875000000000001e+00	 9.525075561615379e+00
0	 1.250000000000000e-01	 5.000000000000000e+00	 9.506829923076927e+00
0	 2.500000000000000e-01	 3.750000000000000e+00	 9.673285600000002e+00
0	 2.500000000000000e-01	 3.875000000000000e+00	 9.661465817076918e+00
0	 2.500000000000000e-01	 4.000000000000000e+00	 9.648171176000002e+00
0	 2.500000000000001e-01	 4.125000000000002e+00	 9.633401676769232e+00
0	 2.500000000000000e-01	 4.250000000000002e+00	 9.617157319384614e+00
0	 2.500000000000000e-01	 4.375000000000000e+00	 9.599438103846154e+00
0	 2.500000000000001e-01	 4.500000000000001e+00	 9.580244030153839e+00
0	 2.500000000000000e-01	 4.625000000000001e+00	 9.559575098307697e+00
0	 2.500000000000000e-01	 4.750000000000001e+00	 9.537431308307692e+00
0	 2.500000000000001e-01	 4.875000000000001e+00	 9.513812660153848e+00
0	 2.500000000000000e-01	 5.000000000000000e+00	 9.488719153846150e+00
0	 3.750000000000001e-01	 3.750000000000000e+00	 9.749407969230770e+00
0	 3.750000000000001e-01	 3.875000000000000e+00	 9.725268600230770e+00
0	 3.750000000000001e-01	 4.000000000000000e+00	 9.700484476307690e+00
0	 3.750000000000001e-01	 4.125000000000000e+00	 9.675055597461542e+00
0	 3.750000000000001e-01	 4.250000000000000e+00	 9.648981963692307e+00
0	 3.750000000000001e-01	 4.375000000000000e+00	 9.622263574999998e+00
0	 3.750000000000001e-01	 4.500000000000001e+00	 9.594900431384616e+00
0	 3.750000000000001e-01	 4.625000000000001e+00	 9.566892532846154e+00
0	 3.750000000000002e-01	 4.750000000000002e+00	 9.538239879384614e+00
0	 3.750000000000001e-01	 4.875000000000001e+00	 9.508942470999994e+00
0	 3.750000000000001e-01	 5.000000000000001e+00	 9.479000307692313e+00
0	 5.000000000000000e-01	 3.750000000000000e+00	 9.813930153846156e+00
0	 5.000000000000001e-01	 3.875000000000000e+00	 9.779470409538462e+00
0	 5.000000000000001e-01	 4.000000000000001e+00	 9.745196013538465e+00
0	 5.000000000000001e-01	 4.125000000000000e+00	 9.711106965846152e+00
0	 5.000000000000001e-01	 4.250000000000002e+00	 9.677203266461539e+00
0	 4.999999999999999e-01	 4.375000000000001e+00	 9.643484915384610e+00
0	 4.999999999999999e-01	 4.500000000000000e+00	 9.609951912615381e+00
0	 5.000000000000002e-01	 4.625000000000002e+00	 9.576604258153846e+00
0	 5.000000000000001e-01	 4.750000000000001e+00	 9.543441951999998e+00
0	 5.000000000000000e-01	 4.875000000000002e+00	 9.510464994153851e+00
0	 5.000000000000000e-01	 4.999999999999999e+00	 9.477673384615379e+00
0	 6.250000000000000e-01	 3.750000000000000e+00	 9.866852153846153e+00
0	 6.250000000000000e-01	 3.875000000000000e+00	 9.824071244999997e+00
0	 6.250000000000000e-01	 4.000000000000000e+00	 9.782305787692307e+00
0	 6.250000000000001e-01	 4.125000000000001e+00	 9.741555781923074e+00
0	 6.250000000000000e-01	 4.250000000000001e+00	 9.701821227692310e+00
0	 6.250000000000000e-01	 4.375000000000000e+00	 9.663102124999996e+00
0	 6.250000000000000e-01	 4.500000000000001e+00	 9.625398473846150e+00
0	 6.249999999999999e-01	 4.625000000000000e+00	 9.588710274230769e+00
0	 6.250000000000001e-01	 4.750000000000002e+00	 9.553037526153846e+00
0	 6.250000000000000e-01	 4.875000000000001e+00	 9.518380229615376e+00
0	 6.250000000000000e-01	 5.000000000000000e+00	 9.484738384615383e+00
0	 7.500000000000000e-01	 3.750000000000000e+00	 9.908173969230766e+00
0	 7.500000000000000e-01	 3.875000000000000e+00	 9.859071106615383e+00
0	 7.500000000000000e-01	 4.000000000000000e+00	 9.811813798769233e+00
0	 7.500000000000000e-01	 4.125000000000001e+00	 9.766402045692308e+00
0	 7.499999999999999e-01	 4.250000000000001e+00	 9.722835847384616e+00
0	 7.500000000000000e-01	 4.375000000000001e+00	 9.681115203846154e+00
0	 7.500000000000000e-01	 4.500000000000001e+00	 9.641240115076924e+00
0	 7.500000000000000e-01	 4.625000000000002e+00	 9.603210581076921e+00
0	 7.500000000000001e-01	 4.750000000000002e+00	 9.567026601846152e+00
0	 7.500000000000000e-01	 4.875000000000002e+00	 9.532688177384616e+00
0	 7.500000000000000e-01	 5.000000000000000e+00	 9.500195307692309e+00
0	 8.749999999999999e-01	 3.750000000000000e+00	 9.937895599999997e+00
0	 8.749999999999997e-01	 3.875000000000000e+00	 9.884469994384609e+00
0	 8.750000000000000e-01	 4.000000000000001e+00	 9.833720046769230e+00
0	 8.749999999999999e-01	 4.125000000000001e+00	 9.785645757153842e+00
0	 8.750000000000000e-01	 4.250000000000001e+00	 9.740247125538463e+00
0	 8.750000000000001e-01	 4.375000000000002e+00	 9.697524151923073e+00
0	 8.750000000000000e-01	 4.500000000000002e+00	 9.657476836307689e+00
0	 8.749999999999999e-01	 4.625000000000001e+00	 9.620105178692302e+00
0	 8.750000000000000e-01	 4.750000000000001e+00	 9.585409179076924e+00
0	 8.749999999999998e-01	 4.875000000000000e+00	 9.553388837461533e+00
0	 8.749999999999999e-01	 5.000000000000000e+00	 9.524044153846161e+00
0	 9.999999999999999e-01	 3.750000000000000e+00	 9.956017046153850e+00
0	 1.000000000000000e+00	 3.875000000000000e+00	 9.900267908307693e+00
0	 9.999999999999998e-01	 4.000000000000000e+00	 9.848024531692303e+00
0	 9.999999999999999e-01	 4.125000000000001e+00	 9.799286916307690e+00
0	 1.000000000000000e+00	 4.250000000000001e+00	 9.754055062153846e+00
0	 9.999999999999998e-01	 4.375000000000000e+00	 9.712328969230764e+00
0	 1.000000000000000e+00	 4.500000000000001e+00	 9.674108637538462e+00
0	 9.999999999999999e-01	 4.625000000000002e+00	 9.639394067076925e+00
0	 1.000000000000000e+00	 4.750000000000001e+00	 9.608185257846154e+00
0	 1.000000000000000e+00	 4.875000000000001e+00	 9.580482209846153e+00
0	 9.999999999999999e-01	 5.000000000000000e+00	 9.556284923076927e+00
0	 1.125000000000000e+00	 3.750000000000000e+00	 9.962538307692306e+00
0	 1.125000000000000e+00	 3.875000000000000e+00	 9.906464848384616e+00
0	 1.125000000000000e+00	 4.000000000000000e+00	 9.854727253538465e+00
0	 1.125000000000000e+00	 4.125000000000001e+00	 9.807325523153846e+00
0	 1.125000000000000e+00	 4.250000000000001e+00	 9.764259657230770e+00
0	 1.125000000000000e+00	 4.375000000000000e+00	 9.725529655769227e+00
0	 1.125000000000000e+00	 4.500000000000002e+00	 9.691135518769228e+00
0	 1.125000000000000e+00	 4.625000000000001e+00	 9.661077246230764e+00
0	 1.125000000000000e+00	 4.750000000000000e+00	 9.635354838153839e+00
0	 1.125000000000000e+00	 4.875000000000002e+00	 9.613968294538457e+00
0	 1.125000000000000e+00	 5.000000000000000e+00	 9.596917615384612e+00
0	 1.250000000000000e+00	 3.750000000000000e+00	 9.957459384615387e+00
0	 1.250000000000000e+00	 3.875000000000000e+00	 9.903060814615387e+00
0	 1.250000000000000e+00	 4.000000000000001e+00	 9.853828212307697e+00
0	 1.250000000000000e+00	 4.125000000000001e+00	 9.809761577692303e+00
0	 1.250000000000000e+00	 4.250000000000001e+00	 9.770860910769233e+00
0	 1.250000000000000e+00	 4.375000000000001e+00	 9.737126211538460e+00
0	 1.250000000000000e+00	 4.500000000000000e+00	 9.708557479999996e+00
0	 1.250000000000000e+00	 4.625000000000001e+00	 9.685154716153843e+00
0	 1.250000000000000e+00	 4.750000000000002e+00	 9.666917920000001e+00
0	 1.250000000000000e+00	 4.875000000000002e+00	 9.653847091538458e+00
0	 1.250000000000000e+00	 5.000000000000000e+00	 9.645942230769229e+00
0	 0.000000000000000e+00	 5.000000000000000e+00	 9.533332615384616e+00
0	 0.000000000000000e+00	 5.125000000000000e+00	 9.555426606153855e+00
0	 0.000000000000000e+00	 5.249999999999999e+00	 9.579329070769241e+00
0	 0.000000000000000e+00	 5.374999999999998e+00	 9.605040009230770e+00
0	 0.000000000000000e+00	 5.499999999999999e+00	 9.632559421538462e+00
0	 0.000000000000000e+00	 5.624999999999997e+00	 9.661887307692313e+00
0	 0.000000000000000e+00	 5.749999999999997e+00	 9.693023667692303e+00
0	 0.000000000000000e+00	 5.874999999999997e+00	 9.725968501538460e+00
0	 0.000000000000000e+00	 5.999999999999996e+00	 9.760721809230766e+00
0	 0.000000000000000e+00	 6.124999999999996e+00	 9.797283590769240e+00
0	 0.000000000000000e+00	 6.250000000000000e+00	 9.835653846153846e+00
0	 1.250000000000000e-01	 5.000000000000000e+00	 9.506829923076927e+00
0	 1.250000000000000e-01	 5.125000000000000e+00	 9.533104422615388e+00
0	 1.250000000000000e-01	 5.249999999999997e+00	 9.560800501230766e+00
0	 1.250000000000000e-01	 5.374999999999998e+00	 9.589918158923076e+00
0	 1.250000000000000e-01	 5.499999999999997e+00	 9.620457395692307e+00
0	 1.249999999999999e-01	 5.624999999999997e+00	 9.652418211538466e+00
0	 1.250000000000000e-01	 5.749999999999998e+00	 9.685800606461539e+00
0	 1.250000000000000e-01	 5.874999999999996e+00	 9.720604580461531e+00
0	 1.250000000000000e-01	 5.999999999999997e+00	 9.756830133538461e+00
0	 1.250000000000000e-01	 6.124999999999995e+00	 9.794477265692310e+00
0	 1.250000000000000e-01	 6.250000000000000e+00	 9.833545976923075e+00
0	 2.500000000000000e-01	 5.000000000000000e+00	 9.488719153846150e+00
0	 2.499999999999999e-01	 5.124999999999998e+00	 9.518466569846158e+00
0	 2.499999999999999e-01	 5.249999999999999e+00	 9.549248670153844e+00
0	 2.500000000000000e-01	 5.375000000000000e+00	 9.581065454769224e+00
0	 2.499999999999999e-01	 5.499999999999996e+00	 9.613916923692306e+00
0	 2.500000000000001e-01	 5.624999999999997e+00	 9.647803076923072e+00
0	 2.499999999999999e-01	 5.749999999999996e+00	 9.682723914461532e+00
0	 2.500000000000001e-01	 5.874999999999998e+00	 9.718679436307692e+00
0	 2.500000000000001e-01	 5.999999999999998e+00	 9.755669642461541e+00
0	 2.500000000000000e-01	 6.124999999999995e+00	 9.793694532923071e+00
0	 2.500000000000000e-01	 6.249999999999999e+00	 9.832754107692306e+00
0	 3.750000000000001e-01	 5.000000000000001e+00	 9.479000307692313e+00
0	 3.750000000000001e-01	 5.124999999999999e+00	 9.511513047846154e+00
0	 3.750000000000001e-01	 5.249999999999999e+00	 9.544673577538463e+00
0	 3.750000000000001e-01	 5.375000000000000e+00	 9.578481896769228e+00
0	 3.750000000000000e-01	 5.499999999999998e+00	 9.612938005538457e+00
0	 3.750000000000001e-01	 5.624999999999997e+00	 9.648041903846156e+00
0	 3.750000000000001e-01	 5.749999999999997e+00	 9.683793591692305e+00
0	 3.750000000000001e-01	 5.874999999999997e+00	 9.720193069076920e+00
0	 3.750000000000002e-01	 5.999999999999996e+00	 9.757240335999995e+00
0	 3.750000000000000e-01	 6.124999999999996e+00	 9.794935392461536e+00
0	 3.750000000000001e-01	 6.250000000000001e+00	 9.833278238461533e+00
0	 5.000000000000000e-01	 4.999999999999999e+00	 9.477673384615379e+00
0	 5.000000000000001e-01	 5.125000000000000e+00	 9.512243856615383e+00
0	 5.000000000000002e-01	 5.250000000000000e+00	 9.547075223384612e+00
0	 5.000000000000000e-01	 5.374999999999998e+00	 9.582167484923076e+00
0	 5.000000000000000e-01	 5.499999999999998e+00	 9.617520641230765e+00
0	 4.999999999999999e-01	 5.624999999999997e+00	 9.653134692307688e+00
0	 5.000000000000000e-01	 5.749999999999996e+00	 9.689009638153840e+00
0	 5.000000000000000e-01	 5.874999999999997e+00	 9.725145478769221e+00
0	 5.000000000000000e-01	 5.999999999999996e+00	 9.761542214153842e+00
0	 4.999999999999999e-01	 6.124999999999995e+00	 9.798199844307687e+00
0	 5.000000000000000e-01	 6.250000000000000e+00	 9.835118369230768e+00
0	 6.250000000000000e-01	 5.000000000000000e+00	 9.484738384615383e+00
0	 6.250000000000000e-01	 5.124999999999999e+00	 9.520658996153841e+00
0	 6.250000000000001e-01	 5.250000000000000e+00	 9.556453607692308e+00
0	 6.250000000000000e-01	 5.374999999999998e+00	 9.592122219230761e+00
0	 6.250000000000001e-01	 5.500000000000000e+00	 9.627664830769231e+00
0	 6.250000000000000e-01	 5.624999999999998e+00	 9.663081442307693e+00
0	 6.250000000000000e-01	 5.749999999999997e+00	 9.698372053846148e+00
0	 6.250000000000000e-01	 5.874999999999996e+00	 9.733536665384610e+00
0	 6.250000000000000e-01	 5.999999999999997e+00	 9.768575276923071e+00
0	 6.250000000000000e-01	 6.124999999999996e+00	 9.803487888461532e+00
0	 6.250000000000000e-01	 6.250000000000000e+00	 9.838274499999997e+00
0	 7.500000000000000e-01	 5.000000000000000e+00	 9.500195307692309e+00
0	 7.499999999999999e-01	 5.125000000000000e+00	 9.536758466461531e+00
0	 7.500000000000001e-01	 5.250000000000000e+00	 9.572808730461528e+00
0	 7.499999999999999e-01	 5.374999999999998e+00	 9.608346099692309e+00
0	 7.500000000000000e-01	 5.500000000000000e+00	 9.643370574153842e+00
0	 7.500000000000001e-01	 5.624999999999999e+00	 9.677882153846152e+00
0	 7.499999999999999e-01	 5.749999999999997e+00	 9.711880838769225e+00
0	 7.499999999999999e-01	 5.874999999999997e+00	 9.745366628923069e+00
0	 7.500000000000001e-01	 5.999999999999996e+00	 9.778339524307686e+00
0	 7.500000000000001e-01	 6.124999999999996e+00	 9.810799524923066e+00
0	 7.500000000000000e-01	 6.250000000000001e+00	 9.842746630769224e+00
0	 8.749999999999999e-01	 5.000000000000000e+00	 9.524044153846161e+00
0	 8.749999999999999e-01	 5.124999999999999e+00	 9.560542267538459e+00
0	 8.750000000000000e-01	 5.249999999999999e+00	 9.596140591692301e+00
0	 8.750000000000001e-01	 5.374999999999999e+00	 9.630839126307690e+00
0	 8.750000000000000e-01	 5.499999999999998e+00	 9.664637871384612e+00
0	 8.750000000000000e-01	 5.624999999999998e+00	 9.697536826923072e+00
0	 8.750000000000000e-01	 5.749999999999999e+00	 9.729535992923076e+00
0	 8.750000000000000e-01	 5.874999999999997e+00	 9.760635369384612e+00
0	 8.749999999999999e-01	 5.999999999999996e+00	 9.790834956307691e+00
0	 8.750000000000000e-01	 6.124999999999996e+00	 9.820134753692310e+00
0	 8.749999999999999e-01	 6.250000000000000e+00	 9.848534761538449e+00
0	 9.999999999999999e-01	 5.000000000000000e+00	 9.556284923076927e+00
0	 9.999999999999998e-01	 5.125000000000000e+00	 9.592010399384613e+00
0	 9.999999999999999e-01	 5.249999999999999e+00	 9.626449191384610e+00
0	 9.999999999999997e-01	 5.374999999999997e+00	 9.659601299076913e+00
0	 1.000000000000000e+00	 5.499999999999997e+00	 9.691466722461529e+00
0	 9.999999999999998e-01	 5.624999999999997e+00	 9.722045461538453e+00
0	 9.999999999999998e-01	 5.749999999999997e+00	 9.751337516307688e+00
0	 9.999999999999999e-01	 5.874999999999996e+00	 9.779342886769223e+00
0	 1.000000000000000e+00	 5.999999999999996e+00	 9.806061572923070e+00
0	 9.999999999999998e-01	 6.124999999999994e+00	 9.831493574769226e+00
0	 9.999999999999999e-01	 6.250000000000000e+00	 9.855638892307690e+00
0	 1.125000000000000e+00	 5.000000000000000e+00	 9.596917615384612e+00
0	 1.125000000000000e+00	 5.125000000000000e+00	 9.631162861999995e+00
0	 1.125000000000000e+00	 5.249999999999999e+00	 9.663734529538452e+00
0	 1.125000000000000e+00	 5.375000000000000e+00	 9.694632617999996e+00
0	 1.125000000000000e+00	 5.499999999999999e+00	 9.723857127384612e+00
0	 1.125000000000000e+00	 5.624999999999997e+00	 9.751408057692300e+00
0	 1.125000000000000e+00	 5.749999999999998e+00	 9.777285408923076e+00
0	 1.125000000000000e+00	 5.874999999999997e+00	 9.801489181076924e+00
0	 1.125000000000000e+00	 5.999999999999997e+00	 9.824019374153840e+00
0	 1.125000000000000e+00	 6.124999999999996e+00	 9.844875988153845e+00
0	 1.125000000000000e+00	 6.250000000000000e+00	 9.864059023076916e+00
0	 1.250000000000000e+00	 5.000000000000000e+00	 9.645942230769229e+00
0	 1.250000000000000e+00	 5.124999999999999e+00	 9.677999655384621e+00
0	 1.250000000000000e+00	 5.250000000000000e+00	 9.707996606153845e+00
0	 1.250000000000000e+00	 5.374999999999998e+00	 9.735933083076915e+00
0	 1.250000000000000e+00	 5.499999999999999e+00	 9.761809086153843e+00
0	 1.250000000000000e+00	 5.624999999999997e+00	 9.785624615384616e+00
0	 1.250000000000000e+00	 5.749999999999997e+00	 9.807379670769224e+00
0	 1.250000000000000e+00	 5.874999999999996e+00	 9.827074252307689e+00
0	 1.250000000000000e+00	 5.999999999999996e+00	 9.844708359999995e+00
0	 1.250000000000000e+00	 6.124999999999996e+00	 9.860281993846154e+00
0	 1.250000000000000e+00	 6.250000000000000e+00	 9.873795153846148e+00
0	 0.000000000000000e+00	 6.250000000000000e+00	 9.835653846153846e+00
0	 0.000000000000000e+00	 6.374999999999999e+00	 9.842130403076922e+00
0	 0.000000000000000e+00	 6.499999999999999e+00	 9.848578473846144e+00
0	 0.000000000000000e+00	 6.624999999999998e+00	 9.854998058461542e+00
0	 0.000000000000000e+00	 6.749999999999998e+00	 9.861389156923074e+00
0	 0.000000000000000e+00	 6.874999999999998e+00	 9.867751769230763e+00
0	 0.000000000000000e+00	 6.999999999999997e+00	 9.874085895384621e+00
0	 0.000000000000000e+00	 7.124999999999997e+00	 9.880391535384618e+00
0	 0.000000000000000e+00	 7.249999999999996e+00	 9.886668689230770e+00
0	 0.000000000000000e+00	 7.374999999999996e+00	 9.892917356923068e+00
0	 0.000000000000000e+00	 7.500000000000000e+00	 9.899137538461538e+00
0	 1.250000000000000e-01	 6.250000000000000e+00	 9.833545976923075e+00
0	 1.250000000000000e-01	 6.374999999999998e+00	 9.839883498615382e+00
0	 1.250000000000000e-01	 6.499999999999998e+00	 9.846285503692302e+00
0	 1.250000000000000e-01	 6.624999999999999e+00	 9.852751992153845e+00
0	 1.250000000000000e-01	 6.749999999999997e+00	 9.859282963999993e+00
0	 1.249999999999999e-01	 6.874999999999996e+00	 9.865878419230764e+00
0	 1.250000000000000e-01	 6.999999999999997e+00	 9.872538357846160e+00
0	 1.250000000000000e-01	 7.124999999999997e+00	 9.879262779846147e+00
0	 1.250000000000000e-01	 7.249999999999996e+00	 9.886051685230768e+00
0	 1.250000000000000e-01	 7.374999999999996e+00	 9.892905074000007e+00
0	 1.250000000000000e-01	 7.500000000000002e+00	 9.899822946153851e+00
0	 2.500000000000000e-01	 6.249999999999999e+00	 9.832754107692306e+00
0	 2.499999999999999e-01	 6.375000000000000e+00	 9.838873483384615e+00
0	 2.499999999999999e-01	 6.499999999999999e+00	 9.845150311999998e+00
0	 2.500000000000000e-01	 6.624999999999999e+00	 9.851584593538462e+00
0	 2.499999999999999e-01	 6.749999999999997e+00	 9.858176327999994e+00
0	 2.500000000000001e-01	 6.874999999999999e+00	 9.864925515384616e+00
0	 2.499999999999999e-01	 6.999999999999996e+00	 9.871832155692308e+00
0	 2.500000000000001e-01	 7.124999999999996e+00	 9.878896248923075e+00
0	 2.500000000000001e-01	 7.249999999999998e+00	 9.886117795076917e+00
0	 2.500000000000000e-01	 7.374999999999996e+00	 9.893496794153840e+00
0	 2.500000000000000e-01	 7.499999999999999e+00	 9.901033246153840e+00
0	 3.750000000000001e-01	 6.250000000000001e+00	 9.833278238461533e+00
0	 3.750000000000001e-01	 6.375000000000001e+00	 9.839100357384616e+00
0	 3.750000000000001e-01	 6.499999999999999e+00	 9.845172898769233e+00
0	 3.750000000000001e-01	 6.624999999999999e+00	 9.851495862615380e+00
0	 3.750000000000000e-01	 6.749999999999997e+00	 9.858069248923071e+00
0	 3.750000000000001e-01	 6.874999999999998e+00	 9.864893057692310e+00
0	 3.750000000000001e-01	 6.999999999999997e+00	 9.871967288923075e+00
0	 3.750000000000001e-01	 7.124999999999997e+00	 9.879291942615382e+00
0	 3.750000000000002e-01	 7.249999999999998e+00	 9.886867018769236e+00
0	 3.750000000000000e-01	 7.374999999999996e+00	 9.894692517384616e+00
0	 3.750000000000001e-01	 7.500000000000000e+00	 9.902768438461543e+00
0	 5.000000000000000e-01	 6.250000000000000e+00	 9.835118369230768e+00
0	 5.000000000000001e-01	 6.375000000000001e+00	 9.840564120615383e+00
0	 5.000000000000002e-01	 6.499999999999999e+00	 9.846353264000005e+00
0	 5.000000000000000e-01	 6.624999999999999e+00	 9.852485799384613e+00
0	 5.000000000000000e-01	 6.749999999999997e+00	 9.858961726769227e+00
0	 4.999999999999999e-01	 6.874999999999997e+00	 9.865781046153844e+00
0	 5.000000000000000e-01	 6.999999999999996e+00	 9.872943757538462e+00
0	 5.000000000000000e-01	 7.124999999999995e+00	 9.880449860923072e+00
0	 5.000000000000000e-01	 7.249999999999997e+00	 9.888299356307691e+00
0	 4.999999999999999e-01	 7.374999999999996e+00	 9.896492243692306e+00
0	 5.000000000000000e-01	 7.500000000000001e+00	 9.905028523076924e+00
0	 6.250000000000000e-01	 6.250000000000000e+00	 9.838274499999997e+00
0	 6.250000000000000e-01	 6.374999999999998e+00	 9.843264773076916e+00
0	 6.250000000000001e-01	 6.500000000000000e+00	 9.848691407692304e+00
0	 6.250000000000000e-01	 6.624999999999997e+00	 9.854554403846148e+00
0	 6.250000000000001e-01	 6.750000000000000e+00	 9.860853761538459e+00
0	 6.250000000000000e-01	 6.874999999999998e+00	 9.867589480769229e+00
0	 6.250000000000000e-01	 6.999999999999997e+00	 9.874761561538458e+00
0	 6.250000000000000e-01	 7.124999999999996e+00	 9.882370003846155e+00
0	 6.250000000000000e-01	 7.249999999999996e+00	 9.890414807692306e+00
0	 6.250000000000000e-01	 7.374999999999996e+00	 9.898895973076927e+00
0	 6.250000000000000e-01	 7.500000000000000e+00	 9.907813499999998e+00
0	 7.500000000000000e-01	 6.250000000000001e+00	 9.842746630769224e+00
0	 7.499999999999999e-01	 6.374999999999999e+00	 9.847202314769227e+00
0	 7.500000000000001e-01	 6.500000000000001e+00	 9.852187329846146e+00
0	 7.499999999999999e-01	 6.624999999999998e+00	 9.857701675999996e+00
0	 7.500000000000000e-01	 6.749999999999999e+00	 9.863745353230765e+00
0	 7.500000000000001e-01	 6.874999999999999e+00	 9.870318361538457e+00
0	 7.499999999999999e-01	 6.999999999999997e+00	 9.877420700923086e+00
0	 7.499999999999999e-01	 7.124999999999997e+00	 9.885052371384621e+00
0	 7.500000000000001e-01	 7.249999999999996e+00	 9.893213372923080e+00
0	 7.500000000000001e-01	 7.374999999999996e+00	 9.901903705538466e+00
0	 7.500000000000000e-01	 7.500000000000001e+00	 9.911123369230777e+00
0	 8.749999999999999e-01	 6.250000000000000e+00	 9.848534761538449e+00
0	 8.749999999999999e-01	 6.374999999999998e+00	 9.852376745692304e+00
0	 8.750000000000000e-01	 6.499999999999998e+00	 9.856841030461535e+00
0	 8.750000000000001e-01	 6.624999999999999e+00	 9.861927615846152e+00
0	 8.750000000000000e-01	 6.750000000000000e+00	 9.867636501846150e+00
0	 8.750000000000000e-01	 6.874999999999998e+00	 9.873967688461533e+00
0	 8.750000000000000e-01	 6.999999999999999e+00	 9.880921175692309e+00
0	 8.750000000000000e-01	 7.124999999999997e+00	 9.888496963538463e+00
0	 8.749999999999999e-01	 7.249999999999997e+00	 9.896695052000000e+00
0	 8.750000000000000e-01	 7.374999999999996e+00	 9.905515441076924e+00
0	 8.749999999999999e-01	 7.500000000000000e+00	 9.914958130769239e+00
0	 9.999999999999999e-01	 6.250000000000000e+00	 9.855638892307690e+00
0	 9.999999999999998e-01	 6.374999999999998e+00	 9.858788065846145e+00
0	 9.999999999999999e-01	 6.499999999999999e+00	 9.862652509538451e+00
0	 9.999999999999997e-01	 6.624999999999997e+00	 9.867232223384608e+00
0	 1.000000000000000e+00	 6.749999999999997e+00	 9.872527207384607e+00
0	 9.999999999999998e-01	 6.874999999999996e+00	 9.878537461538464e+00
0	 9.999999999999998e-01	 6.999999999999996e+00	 9.885262985846152e+00
0	 9.999999999999999e-01	 7.124999999999997e+00	 9.892703780307697e+00
0	 1.000000000000000e+00	 7.249999999999997e+00	 9.900859844923067e+00
0	 9.999999999999998e-01	 7.374999999999996e+00	 9.909731179692310e+00
0	 9.999999999999999e-01	 7.500000000000001e+00	 9.919317784615394e+00
0	 1.125000000000000e+00	 6.250000000000000e+00	 9.864059023076916e+00
0	 1.125000000000000e+00	 6.375000000000000e+00	 9.866436275230756e+00
0	 1.125000000000000e+00	 6.500000000000000e+00	 9.869621767076916e+00
0	 1.125000000000000e+00	 6.624999999999999e+00	 9.873615498615377e+00
0	 1.125000000000000e+00	 6.749999999999999e+00	 9.878417469846154e+00
0	 1.125000000000000e+00	 6.874999999999996e+00	 9.884027680769222e+00
0	 1.125000000000000e+00	 6.999999999999997e+00	 9.890446131384618e+00
0	 1.125000000000000e+00	 7.124999999999998e+00	 9.897672821692300e+00
0	 1.125000000000000e+00	 7.249999999999996e+00	 9.905707751692306e+00
0	 1.125000000000000e+00	 7.374999999999996e+00	 9.914550921384617e+00
0	 1.125000000000000e+00	 7.500000000000000e+00	 9.924202330769230e+00
0	 1.250000000000000e+00	 6.250000000000000e+00	 9.873795153846148e+00
0	 1.250000000000000e+00	 6.375000000000000e+00	 9.875321373846134e+00
0	 1.250000000000000e+00	 6.500000000000000e+00	 9.877748803076916e+00
0	 1.250000000000000e+00	 6.624999999999998e+00	 9.881077441538464e+00
0	 1.250000000000000e+00	 6.749999999999998e+00	 9.885307289230763e+00
0	 1.250000000000000e+00	 6.874999999999998e+00	 9.890438346153836e+00
0	 1.250000000000000e+00	 6.999999999999997e+00	 9.896470612307697e+00
0	 1.250000000000000e+00	 7.124999999999996e+00	 9.903404087692305e+00
0	 1.250000000000000e+00	 7.249999999999997e+00	 9.911238772307692e+00
0	 1.250000000000000e+00	 7.374999999999996e+00	 9.919974666153841e+00
0	 1.250000000000000e+00	 7.500000000000000e+00	 9.929611769230769e+00
0	 0.000000000000000e+00	 7.500000000000000e+00	 9.899137538461538e+00
0	 0.000000000000000e+00	 7.625000000000000e+00	 9.905995112307705e+00
0	 0.000000000000000e+00	 7.749999999999998e+00	 9.913305187692306e+00
0	 0.000000000000000e+00	 7.874999999999999e+00	 9.921067764615380e+00
0	 0.000000000000000e+00	 7.999999999999999e+00	 9.929282843076926e+00
0	 0.000000000000000e+00	 8.124999999999998e+00	 9.937950423076916e+00
0	 0.000000000000000e+00	 8.249999999999998e+00	 9.947070504615377e+00
0	 0.000000000000000e+00	 8.374999999999998e+00	 9.956643087692296e+00
0	 0.000000000000000e+00	 8.499999999999996e+00	 9.966668172307681e+00
0	 0.000000000000000e+00	 8.624999999999996e+00	 9.977145758461536e+00
0	 0.000000000000000e+00	 8.750000000000000e+00	 9.988075846153835e+00
0	 1.250000000000000e-01	 7.500000000000002e+00	 9.899822946153851e+00
0	 1.250000000000000e-01	 7.624999999999999e+00	 9.906551067384614e+00
0	 1.250000000000000e-01	 7.749999999999998e+00	 9.913687157230768e+00
0	 1.250000000000000e-01	 7.874999999999997e+00	 9.921231215692307e+00
0	 1.250000000000000e-01	 7.999999999999997e+00	 9.929183242769223e+00
0	 1.249999999999999e-01	 8.124999999999996e+00	 9.937543238461531e+00
0	 1.250000000000000e-01	 8.249999999999998e+00	 9.946311202769236e+00
0	 1.250000000000000e-01	 8.374999999999996e+00	 9.955487135692296e+00
0	 1.250000000000000e-01	 8.499999999999998e+00	 9.965071037230771e+00
0	 1.250000000000000e-01	 8.624999999999996e+00	 9.975062907384599e+00
0	 1.250000000000000e-01	 8.750000000000000e+00	 9.985462746153830e+00
0	 2.500000000000000e-01	 7.499999999999999e+00	 9.901033246153840e+00
0	 2.499999999999999e-01	 7.624999999999999e+00	 9.907632604000000e+00
0	 2.499999999999999e-01	 7.749999999999999e+00	 9.914595397538461e+00
0	 2.500000000000000e-01	 7.874999999999998e+00	 9.921921626769230e+00
0	 2.499999999999999e-01	 7.999999999999998e+00	 9.929611291692300e+00
0	 2.500000000000001e-01	 8.124999999999998e+00	 9.937664392307681e+00
0	 2.499999999999999e-01	 8.249999999999995e+00	 9.946080928615382e+00
0	 2.500000000000001e-01	 8.374999999999995e+00	 9.954860900615383e+00
0	 2.500000000000001e-01	 8.499999999999998e+00	 9.964004308307684e+00
0	 2.500000000000000e-01	 8.624999999999998e+00	 9.973511151692300e+00
0	 2.500000000000000e-01	 8.750000000000002e+00	 9.983381430769228e+00
0	 3.750000000000001e-01	 7.500000000000000e+00	 9.902768438461543e+00
0	 3.750000000000001e-01	 7.624999999999999e+00	 9.909239722153854e+00
0	 3.750000000000001e-01	 7.750000000000000e+00	 9.916029908615384e+00
0	 3.750000000000001e-01	 7.874999999999997e+00	 9.923138997846154e+00
0	 3.750000000000000e-01	 7.999999999999996e+00	 9.930566989846151e+00
0	 3.750000000000001e-01	 8.124999999999998e+00	 9.938313884615379e+00
0	 3.750000000000001e-01	 8.249999999999998e+00	 9.946379682153850e+00
0	 3.750000000000001e-01	 8.374999999999998e+00	 9.954764382461537e+00
0	 3.750000000000002e-01	 8.499999999999998e+00	 9.963467985538456e+00
0	 3.750000000000000e-01	 8.624999999999996e+00	 9.972490491384608e+00
0	 3.750000000000001e-01	 8.750000000000002e+00	 9.981831899999994e+00
0	 5.000000000000000e-01	 7.500000000000001e+00	 9.905028523076924e+00
0	 5.000000000000001e-01	 7.625000000000002e+00	 9.911372421846163e+00
0	 5.000000000000002e-01	 7.750000000000000e+00	 9.917990690461540e+00
0	 5.000000000000000e-01	 7.874999999999999e+00	 9.924883328923077e+00
0	 5.000000000000000e-01	 7.999999999999998e+00	 9.932050337230761e+00
0	 4.999999999999999e-01	 8.124999999999998e+00	 9.939491715384611e+00
0	 5.000000000000000e-01	 8.249999999999996e+00	 9.947207463384609e+00
0	 5.000000000000000e-01	 8.374999999999995e+00	 9.955197581230763e+00
0	 5.000000000000000e-01	 8.499999999999996e+00	 9.963462068923077e+00
0	 4.999999999999999e-01	 8.624999999999995e+00	 9.972000926461526e+00
0	 5.000000000000000e-01	 8.750000000000000e+00	 9.980814153846143e+00
0	 6.250000000000000e-01	 7.500000000000000e+00	 9.907813499999998e+00
0	 6.250000000000000e-01	 7.624999999999998e+00	 9.914030703076929e+00
0	 6.250000000000001e-01	 7.750000000000000e+00	 9.920477743076928e+00
0	 6.250000000000000e-01	 7.874999999999998e+00	 9.927154619999996e+00
0	 6.250000000000001e-01	 7.999999999999998e+00	 9.934061333846156e+00
0	 6.250000000000000e-01	 8.124999999999998e+00	 9.941197884615381e+00
0	 6.250000000000000e-01	 8.249999999999998e+00	 9.948564272307689e+00
0	 6.250000000000000e-01	 8.374999999999996e+00	 9.956160496923067e+00
0	 6.250000000000000e-01	 8.499999999999996e+00	 9.963986558461524e+00
0	 6.250000000000000e-01	 8.624999999999996e+00	 9.972042456923072e+00
0	 6.250000000000000e-01	 8.750000000000000e+00	 9.980328192307686e+00
0	 7.500000000000000e-01	 7.500000000000001e+00	 9.911123369230777e+00
0	 7.499999999999999e-01	 7.624999999999999e+00	 9.917214565846148e+00
0	 7.500000000000001e-01	 7.750000000000000e+00	 9.923491066461542e+00
0	 7.499999999999999e-01	 7.874999999999997e+00	 9.929952871076924e+00
0	 7.500000000000000e-01	 8.000000000000000e+00	 9.936599979692303e+00
0	 7.500000000000001e-01	 8.125000000000000e+00	 9.943432392307685e+00
0	 7.499999999999999e-01	 8.249999999999996e+00	 9.950450108923075e+00
0	 7.499999999999999e-01	 8.374999999999998e+00	 9.957653129538466e+00
0	 7.500000000000001e-01	 8.499999999999998e+00	 9.965041454153839e+00
0	 7.500000000000001e-01	 8.624999999999996e+00	 9.972615082769224e+00
0	 7.500000000000000e-01	 8.750000000000002e+00	 9.980374015384605e+00
0	 8.749999999999999e-01	 7.500000000000000e+00	 9.914958130769239e+00
0	 8.749999999999999e-01	 7.625000000000000e+00	 9.920924010153845e+00
0	 8.750000000000000e-01	 7.749999999999999e+00	 9.927030660615381e+00
0	 8.750000000000001e-01	 7.874999999999998e+00	 9.933278082153851e+00
0	 8.750000000000000e-01	 8.000000000000000e+00	 9.939666274769234e+00
0	 8.750000000000000e-01	 8.124999999999998e+00	 9.946195238461540e+00
0	 8.750000000000000e-01	 8.249999999999998e+00	 9.952864973230760e+00
0	 8.750000000000000e-01	 8.374999999999996e+00	 9.959675479076925e+00
0	 8.749999999999999e-01	 8.499999999999996e+00	 9.966626755999997e+00
0	 8.750000000000000e-01	 8.624999999999996e+00	 9.973718803999994e+00
0	 8.749999999999999e-01	 8.750000000000000e+00	 9.980951623076923e+00
0	 9.999999999999999e-01	 7.500000000000001e+00	 9.919317784615394e+00
0	 9.999999999999998e-01	 7.624999999999998e+00	 9.925159036000004e+00
0	 9.999999999999999e-01	 7.750000000000000e+00	 9.931096525538464e+00
0	 9.999999999999997e-01	 7.874999999999996e+00	 9.937130253230773e+00
0	 1.000000000000000e+00	 7.999999999999998e+00	 9.943260219076921e+00
0	 9.999999999999998e-01	 8.124999999999996e+00	 9.949486423076916e+00
0	 9.999999999999998e-01	 8.249999999999996e+00	 9.955808865230773e+00
0	 9.999999999999999e-01	 8.374999999999996e+00	 9.962227545538465e+00
0	 1.000000000000000e+00	 8.499999999999996e+00	 9.968742463999991e+00
0	 9.999999999999998e-01	 8.624999999999995e+00	 9.975353620615383e+00
0	 9.999999999999999e-01	 8.750000000000000e+00	 9.982061015384623e+00
0	 1.125000000000000e+00	 7.500000000000000e+00	 9.924202330769230e+00
0	 1.125000000000000e+00	 7.625000000000000e+00	 9.929919643384611e+00
0	 1.125000000000000e+00	 7.749999999999998e+00	 9.935688661230778e+00
0	 1.125000000000000e+00	 7.874999999999999e+00	 9.941509384307693e+00
0	 1.125000000000000e+00	 7.999999999999998e+00	 9.947381812615387e+00
0	 1.125000000000000e+00	 8.124999999999996e+00	 9.953305946153840e+00
0	 1.125000000000000e+00	 8.249999999999996e+00	 9.959281784923077e+00
0	 1.125000000000000e+00	 8.374999999999996e+00	 9.965309328923079e+00
0	 1.125000000000000e+00	 8.499999999999996e+00	 9.971388578153849e+00
0	 1.125000000000000e+00	 8.624999999999996e+00	 9.977519532615386e+00
0	 1.125000000000000e+00	 8.750000000000000e+00	 9.983702192307687e+00
0	 1.250000000000000e+00	 7.500000000000000e+00	 9.929611769230769e+00
0	 1.250000000000000e+00	 7.625000000000000e+00	 9.935205832307700e+00
0	 1.250000000000000e+00	 7.750000000000000e+00	 9.940807067692310e+00
0	 1.250000000000000e+00	 7.874999999999998e+00	 9.946415475384613e+00
0	 1.250000000000000e+00	 7.999999999999999e+00	 9.952031055384609e+00
0	 1.250000000000000e+00	 8.124999999999998e+00	 9.957653807692308e+00
0	 1.250000000000000e+00	 8.249999999999998e+00	 9.963283732307691e+00
0	 1.250000000000000e+00	 8.374999999999996e+00	 9.968920829230768e+00
0	 1.250000000000000e+00	 8.499999999999996e+00	 9.974565098461536e+00
0	 1.250000000000000e+00	 8.624999999999996e+00	 9.980216540000004e+00
0	 1.250000000000000e+00	 8.750000000000000e+00	 9.985875153846152e+00
0	 0.000000000000000e+00	 8.750000000000000e+00	 9.988075846153835e+00
0	 0.000000000000000e+00	 8.875000000000002e+00	 9.987409761538458e+00
0	 0.000000000000000e+00	 9.000000000000000e+00	 9.987316676923061e+00
0	 0.000000000000000e+00	 9.124999999999998e+00	 9.987796592307687e+00
0	 0.000000000000000e+00	 9.250000000000000e+00	 9.988849507692311e+00
0	 0.000000000000000e+00	 9.374999999999996e+00	 9.990475423076933e+00
0	 0.000000000000000e+00	 9.499999999999996e+00	 9.992674338461557e+00
0	 0.000000000000000e+00	 9.624999999999996e+00	 9.995446253846179e+00
0	 0.000000000000000e+00	 9.749999999999996e+00	 9.998791169230770e+00
0	 0.000000000000000e+00	 9.874999999999996e+00	 1.000270908461539e+01
0	 0.000000000000000e+00	 1.000000000000000e+01	 1.000720000000002e+01
0	 1.250000000000000e-01	 8.750000000000000e+00	 9.985462746153830e+00
0	 1.250000000000000e-01	 8.875000000000000e+00	 9.985084703769214e+00
0	 1.249999999999999e-01	 8.999999999999998e+00	 9.985279118153839e+00
0	 1.250000000000000e-01	 9.125000000000000e+00	 9.986045989307692e+00
0	 1.250000000000000e-01	 9.249999999999996e+00	 9.987385317230771e+00
0	 1.250000000000000e-01	 9.374999999999996e+00	 9.989297101923087e+00
0	 1.250000000000000e-01	 9.499999999999996e+00	 9.991781343384618e+00
0	 1.250000000000000e-01	 9.624999999999996e+00	 9.994838041615385e+00
0	 1.250000000000000e-01	 9.749999999999996e+00	 9.998467196615380e+00
0	 1.250000000000000e-01	 9.874999999999998e+00	 1.000266880838464e+01
0	 1.250000000000000e-01	 1.000000000000000e+01	 1.000744287692307e+01
0	 2.500000000000000e-01	 8.750000000000002e+00	 9.983381430769228e+00
0	 2.500000000000000e-01	 8.875000000000000e+00	 9.983242516769225e+00
0	 2.499999999999999e-01	 8.999999999999996e+00	 9.983675516307688e+00
0	 2.500000000000001e-01	 9.125000000000000e+00	 9.984680429384607e+00
0	 2.500000000000001e-01	 9.249999999999998e+00	 9.986257255999991e+00
0	 2.500000000000000e-01	 9.374999999999996e+00	 9.988405996153844e+00
0	 2.500000000000000e-01	 9.499999999999998e+00	 9.991126649846152e+00
0	 2.500000000000000e-01	 9.624999999999995e+00	 9.994419217076917e+00
0	 2.500000000000001e-01	 9.749999999999996e+00	 9.998283697846155e+00
0	 2.500000000000001e-01	 9.874999999999996e+00	 1.000272009215388e+01
0	 2.500000000000000e-01	 1.000000000000000e+01	 1.000772840000000e+01
0	 3.750000000000001e-01	 8.750000000000002e+00	 9.981831899999994e+00
0	 3.750000000000000e-01	 8.874999999999998e+00	 9.981883200538459e+00
0	 3.750000000000001e-01	 9.000000000000000e+00	 9.982505871384607e+00
0	 3.750000000000001e-01	 9.125000000000000e+00	 9.983699912538462e+00
0	 3.750000000000001e-01	 9.249999999999998e+00	 9.985465323999993e+00
0	 3.750000000000001e-01	 9.374999999999998e+00	 9.987802105769230e+00
0	 3.750000000000000e-01	 9.499999999999996e+00	 9.990710257846157e+00
0	 3.750000000000002e-01	 9.624999999999996e+00	 9.994189780230796e+00
0	 3.750000000000002e-01	 9.749999999999996e+00	 9.998240672923073e+00
0	 3.750000000000001e-01	 9.874999999999995e+00	 1.000286293592309e+01
0	 3.750000000000001e-01	 1.000000000000000e+01	 1.000805656923076e+01
0	 5.000000000000000e-01	 8.750000000000000e+00	 9.980814153846143e+00
0	 5.000000000000000e-01	 8.875000000000000e+00	 9.981006755076914e+00
0	 5.000000000000000e-01	 9.000000000000000e+00	 9.981770183384603e+00
0	 5.000000000000000e-01	 9.124999999999996e+00	 9.983104438769219e+00
0	 5.000000000000000e-01	 9.249999999999996e+00	 9.985009521230765e+00
0	 5.000000000000000e-01	 9.374999999999998e+00	 9.987485430769226e+00
0	 5.000000000000000e-01	 9.500000000000000e+00	 9.990532167384622e+00
0	 5.000000000000001e-01	 9.624999999999998e+00	 9.994149731076924e+00
0	 5.000000000000000e-01	 9.749999999999996e+00	 9.998338121846169e+00
0	 4.999999999999999e-01	 9.874999999999995e+00	 1.000309733969231e+01
0	 5.000000000000000e-01	 1.000000000000000e+01	 1.000842738461539e+01
0	 6.250000000000000e-01	 8.750000000000000e+00	 9.980328192307686e+00
0	 6.250000000000000e-01	 8.875000000000000e+00	 9.980613180384616e+00
0	 6.250000000000001e-01	 9.000000000000000e+00	 9.981468452307686e+00
0	 6.250000000000000e-01	 9.125000000000000e+00	 9.982894008076915e+00
0	 6.250000000000001e-01	 9.250000000000000e+00	 9.984889847692301e+00
0	 6.250000000000000e-01	 9.375000000000000e+00	 9.987455971153841e+00
0	 6.250000000000000e-01	 9.499999999999998e+00	 9.990592378461542e+00
0	 6.250000000000000e-01	 9.624999999999998e+00	 9.994299069615407e+00
0	 6.250000000000000e-01	 9.749999999999996e+00	 9.998576044615387e+00
0	 6.250000000000000e-01	 9.874999999999996e+00	 1.000342330346152e+01
0	 6.250000000000000e-01	 1.000000000000000e+01	 1.000884084615385e+01
0	 7.500000000000000e-01	 8.750000000000002e+00	 9.980374015384605e+00
0	 7.500000000000001e-01	 8.875000000000002e+00	 9.980702476461525e+00
0	 7.500000000000000e-01	 9.000000000000000e+00	 9.981600678153843e+00
0	 7.500000000000001e-01	 9.125000000000000e+00	 9.983068620461532e+00
0	 7.500000000000000e-01	 9.249999999999998e+00	 9.985106303384612e+00
0	 7.500000000000000e-01	 9.374999999999998e+00	 9.987713726923079e+00
0	 7.500000000000000e-01	 9.499999999999996e+00	 9.990890891076925e+00
0	 7.500000000000000e-01	 9.624999999999996e+00	 9.994637795846142e+00
0	 7.500000000000001e-01	 9.749999999999996e+00	 9.998954441230765e+00
0	 7.500000000000000e-01	 9.874999999999996e+00	 1.000384082723079e+01
0	 7.500000000000000e-01	 1.000000000000000e+01	 1.000929695384613e+01
0	 8.749999999999999e-01	 8.750000000000000e+00	 9.980951623076923e+00
0	 8.750000000000000e-01	 8.875000000000002e+00	 9.981274643307691e+00
0	 8.750000000000000e-01	 9.000000000000000e+00	 9.982166860923076e+00
0	 8.750000000000000e-01	 9.125000000000000e+00	 9.983628275923071e+00
0	 8.749999999999998e-01	 9.250000000000000e+00	 9.985658888307682e+00
0	 8.749999999999999e-01	 9.374999999999998e+00	 9.988258698076908e+00
0	 8.750000000000000e-01	 9.499999999999998e+00	 9.991427705230763e+00
0	 8.750000000000000e-01	 9.624999999999998e+00	 9.995165909769236e+00
0	 8.750000000000000e-01	 9.749999999999996e+00	 9.999473311692297e+00
0	 8.750000000000000e-01	 9.874999999999996e+00	 1.000434991100002e+01
0	 8.750000000000000e-01	 1.000000000000000e+01	 1.000979570769230e+01
0	 9.999999999999999e-01	 8.750000000000000e+00	 9.982061015384623e+00
0	 1.000000000000000e+00	 8.875000000000000e+00	 9.982329680923078e+00
0	 9.999999999999999e-01	 9.000000000000000e+00	 9.983167000615385e+00
0	 9.999999999999999e-01	 9.125000000000000e+00	 9.984572974461534e+00
0	 9.999999999999998e-01	 9.249999999999998e+00	 9.986547602461521e+00
0	 9.999999999999998e-01	 9.374999999999996e+00	 9.989090884615374e+00
0	 1.000000000000000e+00	 9.499999999999998e+00	 9.992202820923072e+00
0	 1.000000000000000e+00	 9.624999999999998e+00	 9.995883411384613e+00
0	 1.000000000000000e+00	 9.749999999999996e+00	 1.000013265599999e+01
0	 9.999999999999998e-01	 9.874999999999995e+00	 1.000495055476923e+01
0	 1.000000000000000e+00	 1.000000000000000e+01	 1.001033710769229e+01
0	 1.125000000000000e+00	 8.750000000000000e+00	 9.983702192307687e+00
0	 1.125000000000000e+00	 8.875000000000000e+00	 9.983867589307682e+00
0	 1.125000000000000e+00	 9.000000000000000e+00	 9.984601097230764e+00
0	 1.125000000000000e+00	 9.125000000000000e+00	 9.985902716076918e+00
0	 1.125000000000000e+00	 9.250000000000000e+00	 9.987772445846147e+00
0	 1.125000000000000e+00	 9.374999999999996e+00	 9.990210286538446e+00
0	 1.125000000000000e+00	 9.499999999999998e+00	 9.993216238153856e+00
0	 1.125000000000000e+00	 9.624999999999998e+00	 9.996790300692320e+00
0	 1.125000000000000e+00	 9.749999999999996e+00	 1.000093247415384e+01
0	 1.125000000000000e+00	 9.874999999999996e+00	 1.000564275853847e+01
0	 1.125000000000000e+00	 1.000000000000000e+01	 1.001092115384618e+01
0	 1.250000000000000e+00	 8.750000000000000e+00	 9.985875153846152e+00
0	 1.250000000000000e+00	 8.874999999999998e+00	 9.985888368461536e+00
0	 1.250000000000000e+00	 9.000000000000000e+00	 9.986469150769224e+00
0	 1.250000000000000e+00	 9.124999999999998e+00	 9.987617500769227e+00
0	 1.250000000000000e+00	 9.250000000000000e+00	 9.989333418461541e+00
0	 1.250000000000000e+00	 9.374999999999996e+00	 9.991616903846145e+00
0	 1.250000000000000e+00	 9.499999999999996e+00	 9.994467956923078e+00
0	 1.250000000000000e+00	 9.624999999999996e+00	 9.997886577692297e+00
0	 1.250000000000000e+00	 9.749999999999998e+00	 1.000187276615384e+01
0	 1.250000000000000e+00	 9.874999999999996e+00	 1.000642652230770e+01
0	 1.250000000000000e+00	 1.000000000000000e+01	 1.001154784615385e+01
0	 1.250000000000000e+00	 0.000000000000000e+00	 1.566610461538461e+00
0	 1.250000000000000e+00	 1.250000000000000e-01	 3.370569636538458e+00
0	 1.250000000000000e+00	 2.500000000000000e-01	 5.128954346153847e+00
0	 1.250000000000000e+00	 3.750000000000001e-01	 6.841764590384615e+00
0	 1.250000000000000e+00	 5.000000000000000e-01	 8.509000369230767e+00
0	 1.250000000000000e+00	 6.250000000000000e-01	 1.013066168269231e+01
0	 1.250000000000000e+00	 7.500000000000000e-01	 1.170674853076923e+01
0	 1.250000000000000e+00	 8.749999999999999e-01	 1.323726091346154e+01
0	 1.250000000000000e+00	 1.000000000000000e+00	 1.472219883076923e+01
0	 1.250000000000000e+00	 1.125000000000000e+00	 1.616156228269231e+01
0	 1.250000000000000e+00	 1.250000000000000e+00	 1.755535126923077e+01
0	 1.375000000000000e+00	 0.000000000000000e+00	 3.723472206153844e+00
0	 1.375000000000000e+00	 1.250000000000000e-01	 5.136226799269228e+00
0	 1.375000000000000e+00	 2.499999999999999e-01	 6.508236605076925e+00
0	 1.375000000000000e+00	 3.750000000000001e-01	 7.839501623576925e+00
0	 1.375000000000000e+00	 5.000000000000001e-01	 9.130021854769232e+00
0	 1.375000000000000e+00	 6.250000000000001e-01	 1.037979729865385e+01
0	 1.375000000000000e+00	 7.499999999999998e-01	 1.158882795523077e+01
0	 1.375000000000000e+00	 8.750000000000000e-01	 1.275711382450000e+01
0	 1.375000000000000e+00	 1.000000000000000e+00	 1.388465490646154e+01
0	 1.375000000000000e+00	 1.125000000000000e+00	 1.497145120111539e+01
0	 1.375000000000000e+00	 1.250000000000000e+00	 1.601750270846154e+01
0	 1.500000000000000e+00	 0.000000000000000e+00	 5.633892424615385e+00
0	 1.500000000000000e+00	 1.250000000000000e-01	 6.698513461692311e+00
0	 1.500000000000000e+00	 2.500000000000000e-01	 7.727219389538461e+00
0	 1.500000000000000e+00	 3.750000000000001e-01	 8.720010208153850e+00
0	 1.500000000000000e+00	 5.000000000000001e-01	 9.676885917538460e+00
0	 1.500000000000000e+00	 6.250000000000000e-01	 1.059784651769230e+01
0	 1.500000000000000e+00	 7.499999999999999e-01	 1.148289200861538e+01
0	 1.500000000000000e+00	 8.750000000000000e-01	 1.233202239030769e+01
0	 1.500000000000000e+00	 9.999999999999998e-01	 1.314523766276923e+01
0	 1.500000000000000e+00	 1.125000000000000e+00	 1.392253782600000e+01
0	 1.500000000000000e+00	 1.250000000000000e+00	 1.466392288000000e+01
0	 1.625000000000000e+00	 0.000000000000000e+00	 7.297871116923076e+00
0	 1.625000000000000e+00	 1.250000000000000e-01	 8.057429623807698e+00
0	 1.625000000000001e+00	 2.500000000000001e-01	 8.785902699538461e+00
0	 1.625000000000000e+00	 3.750000000000001e-01	 9.483290344115384e+00
0	 1.625000000000000e+00	 5.000000000000002e-01	 1.014959255753847e+01
0	 1.625000000000000e+00	 6.250000000000000e-01	 1.078480933980769e+01
0	 1.625000000000000e+00	 7.500000000000000e-01	 1.138894069092308e+01
0	 1.625000000000000e+00	 8.749999999999999e-01	 1.196198661088462e+01
0	 1.625000000000000e+00	 9.999999999999999e-01	 1.250394709969230e+01
0	 1.625000000000001e+00	 1.125000000000000e+00	 1.301482215734615e+01
0	 1.625000000000000e+00	 1.250000000000000e+00	 1.349461178384615e+01
0	 1.750000000000000e+00	 0.000000000000000e+00	 8.715408283076925e+00
0	 1.750000000000000e+00	 1.250000000000000e-01	 9.212975285615386e+00
0	 1.750000000000000e+00	 2.500000000000000e-01	 9.684286535076929e+00
0	 1.750000000000000e+00	 3.750000000000001e-01	 1.012934203146154e+01
0	 1.750000000000000e+00	 5.000000000000000e-01	 1.054814177476923e+01
0	 1.750000000000000e+00	 6.250000000000000e-01	 1.094068576500000e+01
0	 1.750000000000001e+00	 7.500000000000002e-01	 1.130697400215384e+01
0	 1.750000000000000e+00	 8.750000000000000e-01	 1.164700648623077e+01
0	 1.750000000000000e+00	 9.999999999999998e-01	 1.196078321723076e+01
0	 1.750000000000000e+00	 1.125000000000000e+00	 1.224830419515384e+01
0	 1.750000000000000e+00	 1.250000000000000e+00	 1.250956942000000e+01
0	 1.875000000000000e+00	 0.000000000000000e+00	 9.886503923076926e+00
0	 1.875000000000000e+00	 1.250000000000000e-01	 1.016515044711538e+01
0	 1.875000000000000e+00	 2.500000000000000e-01	 1.042237089615385e+01
0	 1.875000000000000e+00	 3.750000000000000e-01	 1.065816527019230e+01
0	 1.875000000000000e+00	 4.999999999999999e-01	 1.087253356923077e+01
0	 1.875000000000001e+00	 6.250000000000001e-01	 1.106547579326923e+01
0	 1.875000000000001e+00	 7.499999999999999e-01	 1.123699194230769e+01
0	 1.875000000000001e+00	 8.750000000000000e-01	 1.138708201634615e+01
0	 1.875000000000000e+00	 9.999999999999998e-01	 1.151574601538462e+01
0	 1.875000000000001e+00	 1.125000000000000e+00	 1.162298393942308e+01
0	 1.875000000000001e+00	 1.250000000000000e+00	 1.170879578846154e+01
0	 2.000000000000000e+00	 0.000000000000000e+00	 1.081115803692308e+01
0	 2.000000000000000e+00	 1.250000000000000e-01	 1.091395510830769e+01
0	 2.000000000000001e+00	 2.500000000000001e-01	 1.100015578276923e+01
0	 2.000000000000001e+00	 3.750000000000001e-01	 1.106976006030770e+01
0	 2.000000000000001e+00	 5.000000000000001e-01	 1.112276794092308e+01
0	 2.000000000000000e+00	 6.249999999999999e-01	 1.115917942461538e+01
0	 2.000000000000000e+00	 7.500000000000000e-01	 1.117899451138462e+01
0	 2.000000000000001e+00	 8.750000000000001e-01	 1.118221320123077e+01
0	 2.000000000000001e+00	 1.000000000000000e+00	 1.116883549415384e+01
0	 2.000000000000001e+00	 1.125000000000000e+00	 1.113886139015385e+01
0	 2.000000000000000e+00	 1.250000000000000e+00	 1.109229088923077e+01
0	 2.125000000000001e+00	 0.000000000000000e+00	 1.148937062461538e+01
0	 2.125000000000001e+00	 1.250000000000000e-01	 1.145938926919231e+01
0	 2.125000000000001e+00	 2.500000000000001e-01	 1.141764119492307e+01
0	 2.125000000000001e+00	 3.750000000000001e-01	 1.136412640180769e+01
0	 2.125000000000001e+00	 5.000000000000001e-01	 1.129884488984615e+01
0	 2.125000000000000e+00	 6.250000000000000e-01	 1.122179665903846e+01
0	 2.125000000000001e+00	 7.500000000000000e-01	 1.113298170938462e+01
0	 2.125000000000001e+00	 8.749999999999999e-01	 1.103240004088461e+01
0	 2.125000000000001e+00	 9.999999999999999e-01	 1.092005165353846e+01
0	 2.125000000000001e+00	 1.125000000000000e+00	 1.079593654734616e+01
0	 2.125000000000001e+00	 1.250000000000000e+00	 1.066005472230769e+01
0	 2.250000000000001e+00	 0.000000000000000e+00	 1.192114168615385e+01
0	 2.250000000000001e+00	 1.250000000000000e-01	 1.180145292976923e+01
0	 2.250000000000001e+00	 2.500000000000000e-01	 1.167482713261539e+01
0	 2.250000000000000e+00	 3.750000000000001e-01	 1.154126429469231e+01
0	 2.250000000000001e+00	 5.000000000000000e-01	 1.140076441600000e+01
0	 2.250000000000001e+00	 6.250000000000000e-01	 1.125332749653846e+01
0	 2.250000000000000e+00	 7.500000000000000e-01	 1.109895353630769e+01
0	 2.250000000000001e+00	 8.750000000000001e-01	 1.093764253530769e+01
0	 2.250000000000001e+00	 1.000000000000000e+00	 1.076939449353846e+01
0	 2.250000000000001e+00	 1.125000000000000e+00	 1.059420941100000e+01
0	 2.250000000000001e+00	 1.250000000000000e+00	 1.041208728769231e+01
0	 2.375000000000001e+00	 0.000000000000000e+00	 1.210647122153846e+01
0	 2.375000000000001e+00	 1.250000000000000e-01	 1.194014609003846e+01
0	 2.375000000000000e+00	 2.499999999999999e-01	 1.177171359584615e+01
0	 2.375000000000001e+00	 3.750000000000001e-01	 1.160117373896153e+01
0	 2.375000000000001e+00	 5.000000000000000e-01	 1.142852651938462e+01
0	 2.375000000000001e+00	 6.250000000000001e-01	 1.125377193711538e+01
0	 2.375000000000001e+00	 7.500000000000000e-01	 1.107690999215384e+01
0	 2.375000000000001e+00	 8.750000000000000e-01	 1.089794068450000e+01
0	 2.375000000000001e+00	 1.000000000000000e+00	 1.071686401415385e+01
0	 2.375000000000001e+00	 1.125000000000000e+00	 1.053367998111539e+01
0	 2.375000000000001e+00	 1.250000000000000e+00	 1.034838858538461e+01
0	 2.500000000000000e+00	 0.000000000000000e+00	 1.204535923076923e+01
0	 2.500000000000000e+00	 1.250000000000000e-01	 1.187546875000000e+01
0	 2.500000000000000e+00	 2.500000000000000e-01	 1.170830058461538e+01
0	 2.500000000000000e+00	 3.750000000000001e-01	 1.154385473461538e+01
0	 2.500000000000000e+00	 5.000000000000000e-01	 1.138213120000000e+01
0	 2.500000000000000e+00	 6.250000000000000e-01	 1.122312998076923e+01
0	 2.500000000000000e+00	 7.500000000000000e-01	 1.106685107692307e+01
0	 2.500000000000000e+00	 8.749999999999999e-01	 1.091329448846153e+01
0	 2.500000000000000e+00	 1.000000000000000e+00	 1.076246021538461e+01
0	 2.500000000000000e+00	 1.125000000000000e+00	 1.061434825769231e+01
0	 2.500000000000000e+00	 1.250000000000000e+00	 1.046895861538461e+01
0	 1.250000000000000e+00	 1.250000000000000e+00	 1.755535126923077e+01
0	 1.250000000000000e+00	 1.375000000000000e+00	 1.654242352076924e+01
0	 1.250000000000000e+00	 1.500000000000000e+00	 1.554114716769230e+01
0	 1.250000000000000e+00	 1.625000000000000e+00	 1.455152220999999e+01
0	 1.250000000000000e+00	 1.750000000000000e+00	 1.357354864769230e+01
0	 1.250000000000000e+00	 1.875000000000000e+00	 1.260722648076922e+01
0	 1.250000000000000e+00	 2.000000000000000e+00	 1.165255570923076e+01
0	 1.250000000000000e+00	 2.125000000000001e+00	 1.070953633307692e+01
0	 1.250000000000000e+00	 2.250000000000001e+00	 9.778168352307679e+00
0	 1.250000000000000e+00	 2.375000000000001e+00	 8.858451766923066e+00
0	 1.250000000000000e+00	 2.500000000000000e+00	 7.950386576923073e+00
0	 1.375000000000000e+00	 1.250000000000000e+00	 1.601750270846154e+01
0	 1.375000000000000e+00	 1.375000000000000e+00	 1.521973309661539e+01
0	 1.375000000000000e+00	 1.500000000000000e+00	 1.443268331276922e+01
0	 1.375000000000000e+00	 1.625000000000001e+00	 1.365635335692308e+01
0	 1.375000000000000e+00	 1.750000000000000e+00	 1.289074322907692e+01
0	 1.375000000000000e+00	 1.875000000000001e+00	 1.213585292923076e+01
0	 1.375000000000000e+00	 2.000000000000001e+00	 1.139168245738461e+01
0	 1.375000000000000e+00	 2.125000000000000e+00	 1.065823181353845e+01
0	 1.375000000000000e+00	 2.250000000000001e+00	 9.935500997692305e+00
0	 1.375000000000000e+00	 2.375000000000001e+00	 9.223490009846142e+00
0	 1.375000000000000e+00	 2.500000000000000e+00	 8.522198849999993e+00
0	 1.500000000000000e+00	 1.250000000000000e+00	 1.466392288000000e+01
0	 1.500000000000000e+00	 1.375000000000000e+00	 1.405617087461538e+01
0	 1.500000000000001e+00	 1.500000000000001e+00	 1.345820712984615e+01
0	 1.500000000000000e+00	 1.625000000000000e+00	 1.287003164569230e+01
0	 1.500000000000000e+00	 1.750000000000001e+00	 1.229164442215384e+01
0	 1.500000000000000e+00	 1.875000000000000e+00	 1.172304545923077e+01
0	 1.500000000000000e+00	 2.000000000000000e+00	 1.116423475692307e+01
0	 1.500000000000000e+00	 2.125000000000001e+00	 1.061521231523076e+01
0	 1.500000000000000e+00	 2.250000000000001e+00	 1.007597813415384e+01
0	 1.500000000000000e+00	 2.375000000000001e+00	 9.546532213692299e+00
0	 1.500000000000000e+00	 2.500000000000000e+00	 9.026874553846152e+00
0	 1.625000000000000e+00	 1.250000000000000e+00	 1.349461178384615e+01
0	 1.625000000000001e+00	 1.375000000000000e+00	 1.305173685476922e+01
0	 1.625000000000001e+00	 1.500000000000001e+00	 1.261771861892307e+01
0	 1.625000000000000e+00	 1.625000000000000e+00	 1.219255707630769e+01
0	 1.625000000000000e+00	 1.750000000000000e+00	 1.177625222692307e+01
0	 1.625000000000001e+00	 1.875000000000001e+00	 1.136880407076923e+01
0	 1.625000000000000e+00	 2.000000000000001e+00	 1.097021260784615e+01
0	 1.625000000000001e+00	 2.125000000000001e+00	 1.058047783815384e+01
0	 1.625000000000000e+00	 2.250000000000001e+00	 1.019959976169230e+01
0	 1.625000000000000e+00	 2.375000000000000e+00	 9.827578378461531e+00
0	 1.625000000000000e+00	 2.500000000000000e+00	 9.464413688461532e+00
0	 1.750000000000000e+00	 1.250000000000000e+00	 1.250956942000000e+01
0	 1.750000000000000e+00	 1.375000000000000e+00	 1.220643103707692e+01
0	 1.750000000000000e+00	 1.500000000000000e+00	 1.191121778000000e+01
0	 1.750000000000000e+00	 1.625000000000000e+00	 1.162392964876922e+01
0	 1.750000000000000e+00	 1.750000000000000e+00	 1.134456664338461e+01
0	 1.750000000000000e+00	 1.875000000000000e+00	 1.107312876384615e+01
0	 1.750000000000001e+00	 2.000000000000001e+00	 1.080961601015384e+01
0	 1.750000000000001e+00	 2.125000000000001e+00	 1.055402838230769e+01
0	 1.750000000000000e+00	 2.250000000000000e+00	 1.030636588030769e+01
0	 1.750000000000000e+00	 2.375000000000001e+00	 1.006662850415384e+01
0	 1.750000000000000e+00	 2.500000000000000e+00	 9.834816253846153e+00
0	 1.875000000000001e+00	 1.250000000000000e+00	 1.170879578846154e+01
0	 1.875000000000001e+00	 1.375000000000000e+00	 1.152025342153846e+01
0	 1.875000000000000e+00	 1.500000000000000e+00	 1.133870461307692e+01
0	 1.875000000000000e+00	 1.625000000000000e+00	 1.116414936307692e+01
0	 1.875000000000001e+00	 1.750000000000001e+00	 1.099658767153845e+01
0	 1.875000000000000e+00	 1.875000000000000e+00	 1.083601953846154e+01
0	 1.875000000000001e+00	 2.000000000000001e+00	 1.068244496384615e+01
0	 1.875000000000001e+00	 2.125000000000001e+00	 1.053586394769230e+01
0	 1.875000000000001e+00	 2.250000000000001e+00	 1.039627648999999e+01
0	 1.875000000000000e+00	 2.375000000000001e+00	 1.026368259076923e+01
0	 1.875000000000001e+00	 2.500000000000000e+00	 1.013808225000000e+01
0	 2.000000000000000e+00	 1.250000000000000e+00	 1.109229088923077e+01
0	 2.000000000000001e+00	 1.375000000000000e+00	 1.099320400815384e+01
0	 2.000000000000000e+00	 1.500000000000000e+00	 1.090017911815385e+01
0	 2.000000000000001e+00	 1.625000000000000e+00	 1.081321621923077e+01
0	 2.000000000000001e+00	 1.750000000000001e+00	 1.073231531138461e+01
0	 2.000000000000001e+00	 1.875000000000001e+00	 1.065747639461538e+01
0	 2.000000000000001e+00	 2.000000000000001e+00	 1.058869946892307e+01
0	 2.000000000000001e+00	 2.125000000000001e+00	 1.052598453430769e+01
0	 2.000000000000001e+00	 2.250000000000002e+00	 1.046933159076923e+01
0	 2.000000000000000e+00	 2.375000000000001e+00	 1.041874063830769e+01
0	 2.000000000000000e+00	 2.500000000000000e+00	 1.037421167692307e+01
0	 2.125000000000001e+00	 1.250000000000000e+00	 1.066005472230769e+01
0	 2.125000000000001e+00	 1.375000000000000e+00	 1.062528279692307e+01
0	 2.125000000000001e+00	 1.500000000000000e+00	 1.059564129523077e+01
0	 2.125000000000000e+00	 1.625000000000000e+00	 1.057113021723077e+01
0	 2.125000000000001e+00	 1.750000000000000e+00	 1.055174956292307e+01
0	 2.125000000000001e+00	 1.875000000000001e+00	 1.053749933230769e+01
0	 2.125000000000000e+00	 2.000000000000000e+00	 1.052837952538461e+01
0	 2.125000000000001e+00	 2.125000000000001e+00	 1.052439014215384e+01
0	 2.125000000000000e+00	 2.250000000000001e+00	 1.052553118261538e+01
0	 2.125000000000001e+00	 2.375000000000001e+00	 1.053180264676923e+01
0	 2.125000000000001e+00	 2.500000000000000e+00	 1.054320453461538e+01
0	 2.250000000000001e+00	 1.250000000000000e+00	 1.041208728769231e+01
0	 2.250000000000001e+00	 1.375000000000000e+00	 1.041648978784615e+01
0	 2.250000000000000e+00	 1.500000000000000e+00	 1.042509114430769e+01
0	 2.250000000000001e+00	 1.625000000000000e+00	 1.043789135707692e+01
0	 2.250000000000000e+00	 1.750000000000000e+00	 1.045489042615384e+01
0	 2.250000000000001e+00	 1.875000000000001e+00	 1.047608835153846e+01
0	 2.250000000000001e+00	 2.000000000000001e+00	 1.050148513323077e+01
0	 2.250000000000001e+00	 2.125000000000001e+00	 1.053108077123077e+01
0	 2.250000000000001e+00	 2.250000000000001e+00	 1.056487526553846e+01
0	 2.250000000000001e+00	 2.375000000000001e+00	 1.060286861615384e+01
0	 2.250000000000001e+00	 2.500000000000000e+00	 1.064506082307692e+01
0	 2.375000000000001e+00	 1.250000000000000e+00	 1.034838858538461e+01
0	 2.375000000000001e+00	 1.375000000000000e+00	 1.036682498092308e+01
0	 2.375000000000001e+00	 1.500000000000000e+00	 1.038852866538462e+01
0	 2.375000000000000e+00	 1.625000000000000e+00	 1.041349963876923e+01
0	 2.375000000000001e+00	 1.750000000000000e+00	 1.044173790107692e+01
0	 2.375000000000000e+00	 1.875000000000000e+00	 1.047324345230769e+01
0	 2.375000000000001e+00	 2.000000000000000e+00	 1.050801629246154e+01
0	 2.375000000000001e+00	 2.125000000000001e+00	 1.054605642153846e+01
0	 2.375000000000001e+00	 2.250000000000001e+00	 1.058736383953846e+01
0	 2.375000000000001e+00	 2.375000000000001e+00	 1.063193854646154e+01
0	 2.375000000000001e+00	 2.500000000000000e+00	 1.067978054230769e+01
0	 2.500000000000000e+00	 1.250000000000000e+00	 1.046895861538461e+01
0	 2.500000000000000e+00	 1.375000000000000e+00	 1.047628837615385e+01
0	 2.500000000000000e+00	 1.500000000000000e+00	 1.048595385846154e+01
0	 2.500000000000000e+00	 1.625000000000000e+00	 1.049795506230769e+01
0	 2.500000000000000e+00	 1.750000000000000e+00	 1.051229198769231e+01
0	 2.500000000000000e+00	 1.875000000000000e+00	 1.052896463461538e+01
0	 2.500000000000000e+00	 2.000000000000000e+00	 1.054797300307692e+01
0	 2.500000000000000e+00	 2.125000000000001e+00	 1.056931709307692e+01
0	 2.500000000000000e+00	 2.250000000000001e+00	 1.059299690461538e+01
0	 2.500000000000000e+00	 2.375000000000001e+00	 1.061901243769231e+01
0	 2.500000000000000e+00	 2.500000000000000e+00	 1.064736369230769e+01
0	 1.250000000000000e+00	 2.500000000000000e+00	 7.950386576923073e+00
0	 1.250000000000000e+00	 2.625000000000000e+00	 8.220070124230766e+00
0	 1.250000000000000e+00	 2.750000000000000e+00	 8.474425612307686e+00
0	 1.250000000000000e+00	 2.875000000000001e+00	 8.713453041153842e+00
0	 1.250000000000000e+00	 3.000000000000000e+00	 8.937152410769228e+00
0	 1.250000000000000e+00	 3.125000000000000e+00	 9.145523721153843e+00
0	 1.250000000000000e+00	 3.250000000000000e+00	 9.338566972307692e+00
0	 1.250000000000000e+00	 3.375000000000001e+00	 9.516282164230772e+00
0	 1.250000000000000e+00	 3.500000000000001e+00	 9.678669296923076e+00
0	 1.250000000000000e+00	 3.625000000000001e+00	 9.825728370384617e+00
0	 1.250000000000000e+00	 3.750000000000000e+00	 9.957459384615387e+00
0	 1.375000000000000e+00	 2.500000000000000e+00	 8.522198849999993e+00
0	 1.375000000000000e+00	 2.625000000000000e+00	 8.721604867807692e+00
0	 1.375000000000000e+00	 2.750000000000000e+00	 8.907775841230768e+00
0	 1.375000000000000e+00	 2.875000000000000e+00	 9.080711770269231e+00
0	 1.375000000000000e+00	 3.000000000000001e+00	 9.240412654923073e+00
0	 1.375000000000000e+00	 3.125000000000000e+00	 9.386878495192306e+00
0	 1.375000000000000e+00	 3.250000000000001e+00	 9.520109291076919e+00
0	 1.375000000000000e+00	 3.375000000000000e+00	 9.640105042576932e+00
0	 1.375000000000000e+00	 3.500000000000001e+00	 9.746865749692306e+00
0	 1.375000000000000e+00	 3.625000000000001e+00	 9.840391412423076e+00
0	 1.375000000000000e+00	 3.750000000000000e+00	 9.920682030769235e+00
0	 1.500000000000000e+00	 2.500000000000000e+00	 9.026874553846152e+00
0	 1.500000000000000e+00	 2.625000000000001e+00	 9.163543991384611e+00
0	 1.500000000000001e+00	 2.750000000000001e+00	 9.289071399384609e+00
0	 1.500000000000000e+00	 2.875000000000000e+00	 9.403456777846156e+00
0	 1.500000000000000e+00	 3.000000000000000e+00	 9.506700126769228e+00
0	 1.500000000000000e+00	 3.125000000000001e+00	 9.598801446153843e+00
0	 1.500000000000000e+00	 3.250000000000001e+00	 9.679760735999999e+00
0	 1.500000000000000e+00	 3.375000000000001e+00	 9.749577996307689e+00
0	 1.500000000000000e+00	 3.500000000000001e+00	 9.808253227076921e+00
0	 1.500000000000000e+00	 3.625000000000001e+00	 9.855786428307695e+00
0	 1.500000000000000e+00	 3.750000000000000e+00	 9.892177599999998e+00
0	 1.625000000000000e+00	 2.500000000000000e+00	 9.464413688461532e+00
0	 1.625000000000001e+00	 2.625000000000000e+00	 9.545887494961534e+00
0	 1.625000000000001e+00	 2.750000000000000e+00	 9.618312286769223e+00
0	 1.625000000000000e+00	 2.875000000000000e+00	 9.681688063884613e+00
0	 1.625000000000000e+00	 3.000000000000000e+00	 9.736014826307688e+00
0	 1.625000000000001e+00	 3.125000000000001e+00	 9.781292574038464e+00
0	 1.625000000000000e+00	 3.250000000000000e+00	 9.817521307076925e+00
0	 1.625000000000001e+00	 3.375000000000001e+00	 9.844701025423076e+00
0	 1.625000000000000e+00	 3.500000000000000e+00	 9.862831729076925e+00
0	 1.625000000000000e+00	 3.625000000000000e+00	 9.871913418038462e+00
0	 1.625000000000000e+00	 3.750000000000000e+00	 9.871946092307699e+00
0	 1.750000000000000e+00	 2.500000000000000e+00	 9.834816253846153e+00
0	 1.750000000000000e+00	 2.625000000000000e+00	 9.868635378538457e+00
0	 1.750000000000000e+00	 2.750000000000000e+00	 9.895498503384609e+00
0	 1.750000000000000e+00	 2.875000000000000e+00	 9.915405628384612e+00
0	 1.750000000000000e+00	 3.000000000000000e+00	 9.928356753538459e+00
0	 1.750000000000000e+00	 3.125000000000001e+00	 9.934351878846153e+00
0	 1.750000000000001e+00	 3.250000000000001e+00	 9.933391004307692e+00
0	 1.750000000000001e+00	 3.375000000000001e+00	 9.925474129923082e+00
0	 1.750000000000000e+00	 3.500000000000000e+00	 9.910601255692304e+00
0	 1.750000000000000e+00	 3.625000000000001e+00	 9.888772381615384e+00
0	 1.750000000000000e+00	 3.750000000000000e+00	 9.859987507692315e+00
0	 1.875000000000001e+00	 2.500000000000000e+00	 1.013808225000000e+01
0	 1.875000000000001e+00	 2.625000000000001e+00	 1.013178764211538e+01
0	 1.875000000000000e+00	 2.750000000000000e+00	 1.012063004923077e+01
0	 1.875000000000000e+00	 2.875000000000000e+00	 1.010460947134615e+01
0	 1.875000000000001e+00	 3.000000000000001e+00	 1.008372590846154e+01
0	 1.875000000000000e+00	 3.125000000000001e+00	 1.005797936057692e+01
0	 1.875000000000001e+00	 3.250000000000000e+00	 1.002736982769231e+01
0	 1.875000000000001e+00	 3.375000000000001e+00	 9.991897309807690e+00
0	 1.875000000000001e+00	 3.500000000000001e+00	 9.951561806923079e+00
0	 1.875000000000000e+00	 3.625000000000000e+00	 9.906363319038462e+00
0	 1.875000000000001e+00	 3.750000000000000e+00	 9.856301846153846e+00
0	 2.000000000000000e+00	 2.500000000000000e+00	 1.037421167692307e+01
0	 2.000000000000001e+00	 2.625000000000000e+00	 1.033534428569230e+01
0	 2.000000000000000e+00	 2.750000000000000e+00	 1.029370692430769e+01
0	 2.000000000000001e+00	 2.875000000000000e+00	 1.024929959276923e+01
0	 2.000000000000001e+00	 3.000000000000000e+00	 1.020212229107692e+01
0	 2.000000000000001e+00	 3.125000000000000e+00	 1.015217501923077e+01
0	 2.000000000000001e+00	 3.250000000000000e+00	 1.009945777723077e+01
0	 2.000000000000001e+00	 3.375000000000001e+00	 1.004397056507692e+01
0	 2.000000000000001e+00	 3.500000000000000e+00	 9.985713382769234e+00
0	 2.000000000000000e+00	 3.625000000000000e+00	 9.924686230307691e+00
0	 2.000000000000000e+00	 3.750000000000000e+00	 9.860889107692305e+00
0	 2.125000000000001e+00	 2.500000000000000e+00	 1.054320453461538e+01
0	 2.125000000000001e+00	 2.625000000000000e+00	 1.047930530926923e+01
0	 2.125000000000001e+00	 2.750000000000001e+00	 1.041472912861538e+01
0	 2.125000000000000e+00	 2.875000000000000e+00	 1.034947599265384e+01
0	 2.125000000000001e+00	 3.000000000000001e+00	 1.028354590138461e+01
0	 2.125000000000001e+00	 3.125000000000000e+00	 1.021693885480770e+01
0	 2.125000000000000e+00	 3.250000000000000e+00	 1.014965485292308e+01
0	 2.125000000000001e+00	 3.375000000000001e+00	 1.008169389573077e+01
0	 2.125000000000000e+00	 3.500000000000001e+00	 1.001305598323076e+01
0	 2.125000000000001e+00	 3.625000000000001e+00	 9.943741115423080e+00
0	 2.125000000000001e+00	 3.750000000000000e+00	 9.873749292307686e+00
0	 2.250000000000001e+00	 2.500000000000000e+00	 1.064506082307692e+01
0	 2.250000000000001e+00	 2.625000000000000e+00	 1.056367071284615e+01
0	 2.250000000000000e+00	 2.750000000000000e+00	 1.048369666215384e+01
0	 2.250000000000001e+00	 2.875000000000000e+00	 1.040513867100000e+01
0	 2.250000000000000e+00	 3.000000000000000e+00	 1.032799673938462e+01
0	 2.250000000000001e+00	 3.125000000000001e+00	 1.025227086730769e+01
0	 2.250000000000001e+00	 3.250000000000001e+00	 1.017796105476924e+01
0	 2.250000000000001e+00	 3.375000000000001e+00	 1.010506730176923e+01
0	 2.250000000000001e+00	 3.500000000000001e+00	 1.003358960830769e+01
0	 2.250000000000001e+00	 3.625000000000001e+00	 9.963527974384615e+00
0	 2.250000000000001e+00	 3.750000000000000e+00	 9.894882399999997e+00
0	 2.375000000000001e+00	 2.500000000000000e+00	 1.067978054230769e+01
0	 2.375000000000001e+00	 2.625000000000000e+00	 1.058844049642308e+01
0	 2.375000000000001e+00	 2.750000000000000e+00	 1.050060952492307e+01
0	 2.375000000000000e+00	 2.875000000000000e+00	 1.041628762780769e+01
0	 2.375000000000001e+00	 3.000000000000000e+00	 1.033547480507692e+01
0	 2.375000000000000e+00	 3.125000000000000e+00	 1.025817105673077e+01
0	 2.375000000000001e+00	 3.250000000000000e+00	 1.018437638276923e+01
0	 2.375000000000001e+00	 3.375000000000000e+00	 1.011409078319230e+01
0	 2.375000000000001e+00	 3.500000000000001e+00	 1.004731425800000e+01
0	 2.375000000000001e+00	 3.625000000000001e+00	 9.984046807192307e+00
0	 2.375000000000001e+00	 3.750000000000000e+00	 9.924288430769234e+00
0	 2.500000000000000e+00	 2.500000000000000e+00	 1.064736369230769e+01
0	 2.500000000000000e+00	 2.625000000000000e+00	 1.055361466000000e+01
0	 2.500000000000000e+00	 2.750000000000000e+00	 1.046546771692307e+01
0	 2.500000000000000e+00	 2.875000000000001e+00	 1.038292286307693e+01
0	 2.500000000000000e+00	 3.000000000000000e+00	 1.030598009846154e+01
0	 2.500000000000000e+00	 3.125000000000000e+00	 1.023463942307692e+01
0	 2.500000000000000e+00	 3.250000000000000e+00	 1.016890083692308e+01
0	 2.500000000000000e+00	 3.375000000000001e+00	 1.010876434000000e+01
0	 2.500000000000000e+00	 3.500000000000001e+00	 1.005422993230769e+01
0	 2.500000000000000e+00	 3.625000000000001e+00	 1.000529761384615e+01
0	 2.500000000000000e+00	 3.750000000000000e+00	 9.961967384615384e+00
0	 1.250000000000000e+00	 3.750000000000000e+00	 9.957459384615387e+00
0	 1.250000000000000e+00	 3.875000000000000e+00	 9.903060814615387e+00
0	 1.250000000000000e+00	 4.000000000000001e+00	 9.853828212307697e+00
0	 1.250000000000000e+00	 4.125000000000001e+00	 9.809761577692303e+00
0	 1.250000000000000e+00	 4.250000000000001e+00	 9.770860910769233e+00
0	 1.250000000000000e+00	 4.375000000000001e+00	 9.737126211538460e+00
0	 1.250000000000000e+00	 4.500000000000000e+00	 9.708557479999996e+00
0	 1.250000000000000e+00	 4.625000000000001e+00	 9.685154716153843e+00
0	 1.250000000000000e+00	 4.750000000000002e+00	 9.666917920000001e+00
0	 1.250000000000000e+00	 4.875000000000002e+00	 9.653847091538458e+00
0	 1.250000000000000e+00	 5.000000000000000e+00	 9.645942230769229e+00
0	 1.375000000000000e+00	 3.750000000000000e+00	 9.920682030769235e+00
0	 1.375000000000000e+00	 3.875000000000000e+00	 9.880438872153846e+00
0	 1.375000000000000e+00	 4.000000000000000e+00	 9.844342643999997e+00
0	 1.375000000000000e+00	 4.125000000000001e+00	 9.812393346307690e+00
0	 1.375000000000000e+00	 4.250000000000001e+00	 9.784590979076926e+00
0	 1.375000000000000e+00	 4.375000000000002e+00	 9.760935542307692e+00
0	 1.375000000000000e+00	 4.500000000000001e+00	 9.741427035999996e+00
0	 1.375000000000000e+00	 4.625000000000002e+00	 9.726065460153848e+00
0	 1.375000000000000e+00	 4.750000000000002e+00	 9.714850814769243e+00
0	 1.375000000000000e+00	 4.875000000000001e+00	 9.707783099846157e+00
0	 1.375000000000000e+00	 4.999999999999999e+00	 9.704862315384615e+00
0	 1.500000000000000e+00	 3.750000000000000e+00	 9.892177599999998e+00
0	 1.500000000000000e+00	 3.875000000000001e+00	 9.864732962000000e+00
0	 1.500000000000001e+00	 4.000000000000001e+00	 9.840416217230771e+00
0	 1.500000000000000e+00	 4.125000000000000e+00	 9.819227365692303e+00
0	 1.500000000000000e+00	 4.250000000000001e+00	 9.801166407384613e+00
0	 1.500000000000000e+00	 4.375000000000001e+00	 9.786233342307689e+00
0	 1.500000000000000e+00	 4.500000000000000e+00	 9.774428170461535e+00
0	 1.500000000000000e+00	 4.625000000000002e+00	 9.765750891846153e+00
0	 1.500000000000000e+00	 4.750000000000002e+00	 9.760201506461536e+00
0	 1.500000000000000e+00	 4.875000000000001e+00	 9.757780014307686e+00
0	 1.500000000000000e+00	 5.000000000000000e+00	 9.758486415384615e+00
0	 1.625000000000000e+00	 3.750000000000000e+00	 9.871946092307699e+00
0	 1.625000000000001e+00	 3.875000000000000e+00	 9.855943084153845e+00
0	 1.625000000000001e+00	 4.000000000000001e+00	 9.842048931999997e+00
0	 1.625000000000000e+00	 4.124999999999999e+00	 9.830263635846155e+00
0	 1.625000000000000e+00	 4.250000000000000e+00	 9.820587195692308e+00
0	 1.625000000000001e+00	 4.375000000000002e+00	 9.813019611538461e+00
0	 1.625000000000000e+00	 4.500000000000001e+00	 9.807560883384612e+00
0	 1.625000000000001e+00	 4.625000000000001e+00	 9.804211011230766e+00
0	 1.625000000000000e+00	 4.750000000000001e+00	 9.802969995076925e+00
0	 1.625000000000000e+00	 4.875000000000002e+00	 9.803837834923083e+00
0	 1.625000000000000e+00	 5.000000000000000e+00	 9.806814530769223e+00
0	 1.750000000000000e+00	 3.750000000000000e+00	 9.859987507692315e+00
0	 1.750000000000000e+00	 3.875000000000000e+00	 9.854069238615381e+00
0	 1.750000000000000e+00	 4.000000000000000e+00	 9.849240788307689e+00
0	 1.750000000000000e+00	 4.125000000000000e+00	 9.845502156769228e+00
0	 1.750000000000000e+00	 4.250000000000001e+00	 9.842853343999998e+00
0	 1.750000000000000e+00	 4.375000000000000e+00	 9.841294350000002e+00
0	 1.750000000000001e+00	 4.500000000000001e+00	 9.840825174769229e+00
0	 1.750000000000001e+00	 4.625000000000001e+00	 9.841445818307690e+00
0	 1.750000000000000e+00	 4.749999999999999e+00	 9.843156280615379e+00
0	 1.750000000000000e+00	 4.875000000000001e+00	 9.845956561692303e+00
0	 1.750000000000000e+00	 5.000000000000001e+00	 9.849846661538459e+00
0	 1.875000000000001e+00	 3.750000000000000e+00	 9.856301846153846e+00
0	 1.875000000000001e+00	 3.875000000000000e+00	 9.859111425384615e+00
0	 1.875000000000000e+00	 4.000000000000000e+00	 9.861991786153846e+00
0	 1.875000000000000e+00	 4.125000000000000e+00	 9.864942928461536e+00
0	 1.875000000000001e+00	 4.250000000000002e+00	 9.867964852307692e+00
0	 1.875000000000000e+00	 4.375000000000000e+00	 9.871057557692307e+00
0	 1.875000000000001e+00	 4.500000000000001e+00	 9.874221044615387e+00
0	 1.875000000000001e+00	 4.625000000000002e+00	 9.877455313076922e+00
0	 1.875000000000001e+00	 4.750000000000001e+00	 9.880760363076917e+00
0	 1.875000000000000e+00	 4.875000000000002e+00	 9.884136194615381e+00
0	 1.875000000000001e+00	 5.000000000000001e+00	 9.887582807692304e+00
0	 2.000000000000000e+00	 3.750000000000000e+00	 9.860889107692305e+00
0	 2.000000000000001e+00	 3.875000000000000e+00	 9.871069644461542e+00
0	 2.000000000000000e+00	 4.000000000000000e+00	 9.880301925538463e+00
0	 2.000000000000001e+00	 4.125000000000001e+00	 9.888585950923083e+00
0	 2.000000000000001e+00	 4.250000000000001e+00	 9.895921720615386e+00
0	 2.000000000000001e+00	 4.375000000000001e+00	 9.902309234615384e+00
0	 2.000000000000001e+00	 4.500000000000001e+00	 9.907748492923080e+00
0	 2.000000000000001e+00	 4.625000000000002e+00	 9.912239495538458e+00
0	 2.000000000000001e+00	 4.750000000000003e+00	 9.915782242461535e+00
0	 2.000000000000000e+00	 4.875000000000001e+00	 9.918376733692305e+00
0	 2.000000000000000e+00	 4.999999999999999e+00	 9.920022969230764e+00
0	 2.125000000000001e+00	 3.750000000000000e+00	 9.873749292307686e+00
0	 2.125000000000001e+00	 3.875000000000000e+00	 9.889943895846152e+00
0	 2.125000000000001e+00	 4.000000000000001e+00	 9.904171206461539e+00
0	 2.125000000000000e+00	 4.125000000000000e+00	 9.916431224153847e+00
0	 2.125000000000001e+00	 4.250000000000000e+00	 9.926723948923080e+00
0	 2.125000000000001e+00	 4.375000000000001e+00	 9.935049380769232e+00
0	 2.125000000000000e+00	 4.499999999999999e+00	 9.941407519692309e+00
0	 2.125000000000001e+00	 4.625000000000001e+00	 9.945798365692305e+00
0	 2.125000000000000e+00	 4.750000000000001e+00	 9.948221918769232e+00
0	 2.125000000000001e+00	 4.875000000000001e+00	 9.948678178923075e+00
0	 2.125000000000001e+00	 5.000000000000000e+00	 9.947167146153838e+00
0	 2.250000000000001e+00	 3.750000000000000e+00	 9.894882399999997e+00
0	 2.250000000000001e+00	 3.875000000000000e+00	 9.915734179538459e+00
0	 2.250000000000000e+00	 4.000000000000000e+00	 9.933599628923076e+00
0	 2.250000000000001e+00	 4.125000000000000e+00	 9.948478748153848e+00
0	 2.250000000000000e+00	 4.249999999999999e+00	 9.960371537230767e+00
0	 2.250000000000001e+00	 4.375000000000000e+00	 9.969277996153846e+00
0	 2.250000000000001e+00	 4.500000000000003e+00	 9.975198124923077e+00
0	 2.250000000000001e+00	 4.625000000000002e+00	 9.978131923538459e+00
0	 2.250000000000001e+00	 4.750000000000002e+00	 9.978079391999998e+00
0	 2.250000000000001e+00	 4.875000000000002e+00	 9.975040530307691e+00
0	 2.250000000000001e+00	 5.000000000000000e+00	 9.969015338461531e+00
0	 2.375000000000001e+00	 3.750000000000000e+00	 9.924288430769234e+00
0	 2.375000000000001e+00	 3.875000000000000e+00	 9.948440495538460e+00
0	 2.375000000000001e+00	 4.000000000000000e+00	 9.968587192923078e+00
0	 2.375000000000000e+00	 4.125000000000000e+00	 9.984728522923078e+00
0	 2.375000000000001e+00	 4.250000000000000e+00	 9.996864485538461e+00
0	 2.375000000000000e+00	 4.375000000000000e+00	 1.000499508076923e+01
0	 2.375000000000001e+00	 4.500000000000001e+00	 1.000912030861538e+01
0	 2.375000000000001e+00	 4.625000000000000e+00	 1.000924016907693e+01
0	 2.375000000000001e+00	 4.750000000000002e+00	 1.000535466215385e+01
0	 2.375000000000001e+00	 4.875000000000001e+00	 9.997463787846154e+00
0	 2.375000000000001e+00	 5.000000000000000e+00	 9.985567546153842e+00
0	 2.500000000000000e+00	 3.750000000000000e+00	 9.961967384615384e+00
0	 2.500000000000000e+00	 3.875000000000000e+00	 9.988062843846160e+00
0	 2.500000000000000e+00	 4.000000000000001e+00	 1.000913389846154e+01
0	 2.500000000000000e+00	 4.125000000000001e+00	 1.002518054846154e+01
0	 2.500000000000000e+00	 4.250000000000001e+00	 1.003620279384615e+01
0	 2.500000000000000e+00	 4.375000000000001e+00	 1.004220063461538e+01
0	 2.500000000000000e+00	 4.500000000000000e+00	 1.004317407076923e+01
0	 2.500000000000000e+00	 4.625000000000001e+00	 1.003912310230768e+01
0	 2.500000000000000e+00	 4.750000000000002e+00	 1.003004772923077e+01
0	 2.500000000000000e+00	 4.875000000000002e+00	 1.001594795153846e+01
0	 2.500000000000000e+00	 5.000000000000000e+00	 9.996823769230765e+00
0	 1.250000000000000e+00	 5.000000000000000e+00	 9.645942230769229e+00
0	 1.250000000000000e+00	 5.124999999999999e+00	 9.677999655384621e+00
0	 1.250000000000000e+00	 5.250000000000000e+00	 9.707996606153845e+00
0	 1.250000000000000e+00	 5.374999999999998e+00	 9.735933083076915e+00
0	 1.250000000000000e+00	 5.499999999999999e+00	 9.761809086153843e+00
0	 1.250000000000000e+00	 5.624999999999997e+00	 9.785624615384616e+00
0	 1.250000000000000e+00	 5.749999999999997e+00	 9.807379670769224e+00
0	 1.250000000000000e+00	 5.874999999999996e+00	 9.827074252307689e+00
0	 1.250000000000000e+00	 5.999999999999996e+00	 9.844708359999995e+00
0	 1.250000000000000e+00	 6.124999999999996e+00	 9.860281993846154e+00
0	 1.250000000000000e+00	 6.250000000000000e+00	 9.873795153846148e+00
0	 1.375000000000000e+00	 4.999999999999999e+00	 9.704862315384615e+00
0	 1.375000000000000e+00	 5.125000000000000e+00	 9.729670846307689e+00
0	 1.375000000000000e+00	 5.249999999999997e+00	 9.752784697538461e+00
0	 1.375000000000000e+00	 5.374999999999997e+00	 9.774203869076922e+00
0	 1.375000000000000e+00	 5.499999999999997e+00	 9.793928360923077e+00
0	 1.375000000000000e+00	 5.624999999999997e+00	 9.811958173076917e+00
0	 1.375000000000000e+00	 5.749999999999997e+00	 9.828293305538462e+00
0	 1.375000000000000e+00	 5.874999999999996e+00	 9.842933758307689e+00
0	 1.375000000000000e+00	 5.999999999999997e+00	 9.855879531384618e+00
0	 1.375000000000000e+00	 6.124999999999997e+00	 9.867130624769230e+00
0	 1.375000000000000e+00	 6.250000000000000e+00	 9.876687038461533e+00
0	 1.500000000000000e+00	 5.000000000000000e+00	 9.758486415384615e+00
0	 1.500000000000000e+00	 5.124999999999999e+00	 9.776693757230767e+00
0	 1.500000000000000e+00	 5.249999999999999e+00	 9.793572213538463e+00
0	 1.500000000000000e+00	 5.374999999999999e+00	 9.809121784307685e+00
0	 1.500000000000000e+00	 5.499999999999999e+00	 9.823342469538460e+00
0	 1.500000000000000e+00	 5.624999999999997e+00	 9.836234269230767e+00
0	 1.500000000000000e+00	 5.749999999999997e+00	 9.847797183384607e+00
0	 1.500000000000000e+00	 5.874999999999997e+00	 9.858031211999991e+00
0	 1.500000000000000e+00	 5.999999999999996e+00	 9.866936355076920e+00
0	 1.500000000000000e+00	 6.124999999999996e+00	 9.874512612615383e+00
0	 1.500000000000000e+00	 6.250000000000001e+00	 9.880759984615370e+00
0	 1.625000000000000e+00	 5.000000000000000e+00	 9.806814530769223e+00
0	 1.625000000000000e+00	 5.124999999999999e+00	 9.819068388153848e+00
0	 1.625000000000000e+00	 5.249999999999999e+00	 9.830359154153845e+00
0	 1.625000000000000e+00	 5.374999999999998e+00	 9.840686828769224e+00
0	 1.625000000000000e+00	 5.499999999999997e+00	 9.850051411999992e+00
0	 1.625000000000000e+00	 5.624999999999997e+00	 9.858452903846155e+00
0	 1.625000000000000e+00	 5.749999999999998e+00	 9.865891304307681e+00
0	 1.625000000000000e+00	 5.874999999999996e+00	 9.872366613384614e+00
0	 1.625000000000000e+00	 5.999999999999996e+00	 9.877878831076920e+00
0	 1.625000000000000e+00	 6.124999999999995e+00	 9.882427957384619e+00
0	 1.625000000000000e+00	 6.250000000000000e+00	 9.886013992307685e+00
0	 1.750000000000000e+00	 5.000000000000001e+00	 9.849846661538459e+00
0	 1.750000000000001e+00	 5.125000000000000e+00	 9.856794739076923e+00
0	 1.750000000000000e+00	 5.250000000000000e+00	 9.863145519384609e+00
0	 1.750000000000000e+00	 5.374999999999998e+00	 9.868899002461539e+00
0	 1.750000000000001e+00	 5.499999999999998e+00	 9.874055188307688e+00
0	 1.750000000000000e+00	 5.624999999999996e+00	 9.878614076923075e+00
0	 1.750000000000000e+00	 5.749999999999998e+00	 9.882575668307688e+00
0	 1.750000000000000e+00	 5.874999999999997e+00	 9.885939962461531e+00
0	 1.750000000000000e+00	 5.999999999999997e+00	 9.888706959384608e+00
0	 1.750000000000000e+00	 6.124999999999996e+00	 9.890876659076923e+00
0	 1.750000000000000e+00	 6.250000000000000e+00	 9.892449061538453e+00
0	 1.875000000000001e+00	 5.000000000000001e+00	 9.887582807692304e+00
0	 1.875000000000001e+00	 5.124999999999998e+00	 9.889872810000000e+00
0	 1.875000000000001e+00	 5.249999999999999e+00	 9.891931309230761e+00
0	 1.875000000000001e+00	 5.375000000000000e+00	 9.893758305384619e+00
0	 1.875000000000000e+00	 5.499999999999998e+00	 9.895353798461528e+00
0	 1.875000000000001e+00	 5.624999999999999e+00	 9.896717788461530e+00
0	 1.875000000000001e+00	 5.749999999999996e+00	 9.897850275384615e+00
0	 1.875000000000001e+00	 5.874999999999998e+00	 9.898751259230769e+00
0	 1.875000000000001e+00	 5.999999999999998e+00	 9.899420740000000e+00
0	 1.875000000000001e+00	 6.124999999999997e+00	 9.899858717692295e+00
0	 1.875000000000001e+00	 6.250000000000000e+00	 9.900065192307679e+00
0	 2.000000000000000e+00	 4.999999999999999e+00	 9.920022969230764e+00
0	 2.000000000000001e+00	 5.124999999999999e+00	 9.918302600923075e+00
0	 2.000000000000000e+00	 5.249999999999999e+00	 9.916716523692301e+00
0	 2.000000000000000e+00	 5.374999999999997e+00	 9.915264737538457e+00
0	 2.000000000000001e+00	 5.499999999999998e+00	 9.913947242461537e+00
0	 2.000000000000001e+00	 5.624999999999997e+00	 9.912764038461535e+00
0	 2.000000000000000e+00	 5.749999999999997e+00	 9.911715125538453e+00
0	 2.000000000000001e+00	 5.874999999999996e+00	 9.910800503692304e+00
0	 2.000000000000001e+00	 5.999999999999997e+00	 9.910020172923073e+00
0	 2.000000000000000e+00	 6.124999999999996e+00	 9.909374133230761e+00
0	 2.000000000000000e+00	 6.250000000000000e+00	 9.908862384615382e+00
0	 2.125000000000001e+00	 5.000000000000000e+00	 9.947167146153838e+00
0	 2.125000000000001e+00	 5.124999999999999e+00	 9.942084111846151e+00
0	 2.125000000000000e+00	 5.249999999999999e+00	 9.937501162769225e+00
0	 2.125000000000001e+00	 5.374999999999998e+00	 9.933418298923073e+00
0	 2.125000000000001e+00	 5.499999999999998e+00	 9.929835520307684e+00
0	 2.125000000000001e+00	 5.624999999999999e+00	 9.926752826923071e+00
0	 2.125000000000001e+00	 5.749999999999996e+00	 9.924170218769229e+00
0	 2.125000000000001e+00	 5.874999999999997e+00	 9.922087695846152e+00
0	 2.125000000000001e+00	 5.999999999999996e+00	 9.920505258153847e+00
0	 2.125000000000001e+00	 6.124999999999996e+00	 9.919422905692301e+00
0	 2.125000000000001e+00	 6.249999999999999e+00	 9.918840638461530e+00
0	 2.250000000000001e+00	 5.000000000000000e+00	 9.969015338461531e+00
0	 2.250000000000001e+00	 5.125000000000000e+00	 9.961217342769224e+00
0	 2.250000000000001e+00	 5.249999999999999e+00	 9.954285226461531e+00
0	 2.250000000000001e+00	 5.374999999999999e+00	 9.948218989538455e+00
0	 2.250000000000001e+00	 5.499999999999999e+00	 9.943018631999994e+00
0	 2.250000000000001e+00	 5.624999999999998e+00	 9.938684153846149e+00
0	 2.250000000000001e+00	 5.749999999999998e+00	 9.935215555076917e+00
0	 2.250000000000001e+00	 5.874999999999997e+00	 9.932612835692304e+00
0	 2.250000000000001e+00	 5.999999999999996e+00	 9.930875995692304e+00
0	 2.250000000000001e+00	 6.124999999999996e+00	 9.930005035076912e+00
0	 2.250000000000001e+00	 6.250000000000000e+00	 9.929999953846151e+00
0	 2.375000000000001e+00	 5.000000000000000e+00	 9.985567546153842e+00
0	 2.375000000000001e+00	 5.125000000000000e+00	 9.975702293692306e+00
0	 2.375000000000001e+00	 5.249999999999999e+00	 9.967068714769226e+00
0	 2.375000000000001e+00	 5.374999999999998e+00	 9.959666809384611e+00
0	 2.375000000000001e+00	 5.499999999999998e+00	 9.953496577538457e+00
0	 2.375000000000000e+00	 5.624999999999997e+00	 9.948558019230759e+00
0	 2.375000000000001e+00	 5.749999999999996e+00	 9.944851134461533e+00
0	 2.375000000000001e+00	 5.874999999999996e+00	 9.942375923230760e+00
0	 2.375000000000001e+00	 5.999999999999996e+00	 9.941132385538461e+00
0	 2.375000000000001e+00	 6.124999999999996e+00	 9.941120521384606e+00
0	 2.375000000000001e+00	 6.250000000000000e+00	 9.942340330769223e+00
0	 2.500000000000000e+00	 5.000000000000000e+00	 9.996823769230765e+00
0	 2.500000000000000e+00	 5.124999999999999e+00	 9.985538964615394e+00
0	 2.500000000000000e+00	 5.250000000000000e+00	 9.975851627692304e+00
0	 2.500000000000000e+00	 5.374999999999998e+00	 9.967761758461529e+00
0	 2.500000000000000e+00	 5.499999999999999e+00	 9.961269356923070e+00
0	 2.500000000000000e+00	 5.624999999999997e+00	 9.956374423076918e+00
0	 2.500000000000000e+00	 5.749999999999997e+00	 9.953076956923072e+00
0	 2.500000000000000e+00	 5.874999999999996e+00	 9.951376958461536e+00
0	 2.500000000000000e+00	 5.999999999999996e+00	 9.951274427692297e+00
0	 2.500000000000000e+00	 6.124999999999996e+00	 9.952769364615385e+00
0	 2.500000000000000e+00	 6.250000000000000e+00	 9.955861769230761e+00
0	 1.250000000000000e+00	 6.250000000000000e+00	 9.873795153846148e+00
0	 1.250000000000000e+00	 6.375000000000000e+00	 9.875321373846134e+00
0	 1.250000000000000e+00	 6.500000000000000e+00	 9.877748803076916e+00
0	 1.250000000000000e+00	 6.624999999999998e+00	 9.881077441538464e+00
0	 1.250000000000000e+00	 6.749999999999998e+00	 9.885307289230763e+00
0	 1.250000000000000e+00	 6.874999999999998e+00	 9.890438346153836e+00
0	 1.250000000000000e+00	 6.999999999999997e+00	 9.896470612307697e+00
0	 1.250000000000000e+00	 7.124999999999996e+00	 9.903404087692305e+00
0	 1.250000000000000e+00	 7.249999999999997e+00	 9.911238772307692e+00
0	 1.250000000000000e+00	 7.374999999999996e+00	 9.919974666153841e+00
0	 1.250000000000000e+00	 7.500000000000000e+00	 9.929611769230769e+00
0	 1.375000000000000e+00	 6.250000000000000e+00	 9.876687038461533e+00
0	 1.375000000000000e+00	 6.374999999999997e+00	 9.879243591999991e+00
0	 1.375000000000000e+00	 6.500000000000000e+00	 9.882524323384603e+00
0	 1.375000000000000e+00	 6.624999999999996e+00	 9.886529232615379e+00
0	 1.375000000000000e+00	 6.749999999999996e+00	 9.891258319692305e+00
0	 1.375000000000000e+00	 6.874999999999996e+00	 9.896711584615383e+00
0	 1.375000000000000e+00	 6.999999999999998e+00	 9.902889027384614e+00
0	 1.375000000000000e+00	 7.124999999999997e+00	 9.909790647999992e+00
0	 1.375000000000000e+00	 7.249999999999996e+00	 9.917416446461544e+00
0	 1.375000000000000e+00	 7.374999999999996e+00	 9.925766422769229e+00
0	 1.375000000000000e+00	 7.500000000000001e+00	 9.934840576923069e+00
0	 1.500000000000000e+00	 6.250000000000001e+00	 9.880759984615370e+00
0	 1.500000000000000e+00	 6.374999999999999e+00	 9.884219880923073e+00
0	 1.500000000000000e+00	 6.500000000000000e+00	 9.888226923692303e+00
0	 1.500000000000000e+00	 6.624999999999999e+00	 9.892781112923076e+00
0	 1.500000000000000e+00	 6.749999999999998e+00	 9.897882448615377e+00
0	 1.500000000000000e+00	 6.874999999999999e+00	 9.903530930769231e+00
0	 1.500000000000000e+00	 6.999999999999997e+00	 9.909726559384609e+00
0	 1.500000000000000e+00	 7.124999999999998e+00	 9.916469334461537e+00
0	 1.500000000000000e+00	 7.249999999999996e+00	 9.923759255999993e+00
0	 1.500000000000000e+00	 7.374999999999996e+00	 9.931596323999987e+00
0	 1.500000000000000e+00	 7.500000000000000e+00	 9.939980538461549e+00
0	 1.625000000000000e+00	 6.250000000000000e+00	 9.886013992307685e+00
0	 1.625000000000000e+00	 6.375000000000001e+00	 9.890250240615380e+00
0	 1.625000000000000e+00	 6.500000000000000e+00	 9.894856603999992e+00
0	 1.625000000000000e+00	 6.624999999999997e+00	 9.899833082461537e+00
0	 1.625000000000000e+00	 6.749999999999996e+00	 9.905179675999992e+00
0	 1.625000000000000e+00	 6.874999999999998e+00	 9.910896384615377e+00
0	 1.625000000000000e+00	 6.999999999999997e+00	 9.916983208307697e+00
0	 1.625000000000000e+00	 7.124999999999997e+00	 9.923440147076930e+00
0	 1.625000000000000e+00	 7.249999999999996e+00	 9.930267200923080e+00
0	 1.625000000000000e+00	 7.374999999999996e+00	 9.937464369846150e+00
0	 1.625000000000000e+00	 7.500000000000001e+00	 9.945031653846158e+00
0	 1.750000000000000e+00	 6.250000000000000e+00	 9.892449061538453e+00
0	 1.750000000000001e+00	 6.375000000000001e+00	 9.897334671076914e+00
0	 1.750000000000000e+00	 6.500000000000000e+00	 9.902413364307685e+00
0	 1.750000000000000e+00	 6.624999999999999e+00	 9.907685141230768e+00
0	 1.750000000000001e+00	 6.749999999999998e+00	 9.913150001846152e+00
0	 1.750000000000000e+00	 6.874999999999996e+00	 9.918807946153839e+00
0	 1.750000000000000e+00	 6.999999999999997e+00	 9.924658974153839e+00
0	 1.750000000000000e+00	 7.124999999999996e+00	 9.930703085846144e+00
0	 1.750000000000000e+00	 7.249999999999997e+00	 9.936940281230774e+00
0	 1.750000000000000e+00	 7.374999999999996e+00	 9.943370560307690e+00
0	 1.750000000000000e+00	 7.500000000000000e+00	 9.949993923076921e+00
0	 1.875000000000001e+00	 6.250000000000000e+00	 9.900065192307679e+00
0	 1.875000000000001e+00	 6.374999999999999e+00	 9.905473172307694e+00
0	 1.875000000000001e+00	 6.500000000000000e+00	 9.910897204615384e+00
0	 1.875000000000001e+00	 6.625000000000000e+00	 9.916337289230762e+00
0	 1.875000000000000e+00	 6.749999999999997e+00	 9.921793426153847e+00
0	 1.875000000000001e+00	 6.874999999999998e+00	 9.927265615384608e+00
0	 1.875000000000001e+00	 6.999999999999997e+00	 9.932753856923071e+00
0	 1.875000000000001e+00	 7.124999999999997e+00	 9.938258150769228e+00
0	 1.875000000000001e+00	 7.249999999999996e+00	 9.943778496923084e+00
0	 1.875000000000001e+00	 7.374999999999997e+00	 9.949314895384624e+00
0	 1.875000000000001e+00	 7.500000000000000e+00	 9.954867346153852e+00
0	 2.000000000000000e+00	 6.250000000000000e+00	 9.908862384615382e+00
0	 2.000000000000001e+00	 6.375000000000000e+00	 9.914665744307690e+00
0	 2.000000000000000e+00	 6.499999999999999e+00	 9.920308124923075e+00
0	 2.000000000000000e+00	 6.624999999999998e+00	 9.925789526461536e+00
0	 2.000000000000001e+00	 6.749999999999998e+00	 9.931109948923076e+00
0	 2.000000000000001e+00	 6.874999999999997e+00	 9.936269392307695e+00
0	 2.000000000000000e+00	 6.999999999999996e+00	 9.941267856615376e+00
0	 2.000000000000001e+00	 7.124999999999997e+00	 9.946105341846149e+00
0	 2.000000000000001e+00	 7.249999999999996e+00	 9.950781847999991e+00
0	 2.000000000000000e+00	 7.374999999999996e+00	 9.955297375076915e+00
0	 2.000000000000000e+00	 7.500000000000000e+00	 9.959651923076928e+00
0	 2.125000000000001e+00	 6.249999999999999e+00	 9.918840638461530e+00
0	 2.125000000000001e+00	 6.375000000000001e+00	 9.924912387076919e+00
0	 2.125000000000000e+00	 6.499999999999999e+00	 9.930646125230759e+00
0	 2.125000000000001e+00	 6.624999999999997e+00	 9.936041852923067e+00
0	 2.125000000000001e+00	 6.749999999999998e+00	 9.941099570153844e+00
0	 2.125000000000001e+00	 6.874999999999998e+00	 9.945819276923075e+00
0	 2.125000000000001e+00	 6.999999999999998e+00	 9.950200973230764e+00
0	 2.125000000000001e+00	 7.124999999999997e+00	 9.954244659076918e+00
0	 2.125000000000001e+00	 7.249999999999996e+00	 9.957950334461533e+00
0	 2.125000000000001e+00	 7.374999999999997e+00	 9.961317999384613e+00
0	 2.125000000000001e+00	 7.499999999999999e+00	 9.964347653846152e+00
0	 2.250000000000001e+00	 6.250000000000000e+00	 9.929999953846151e+00
0	 2.250000000000001e+00	 6.375000000000000e+00	 9.936213100615378e+00
0	 2.250000000000001e+00	 6.499999999999999e+00	 9.941911205538453e+00
0	 2.250000000000001e+00	 6.624999999999998e+00	 9.947094268615375e+00
0	 2.250000000000001e+00	 6.749999999999999e+00	 9.951762289846149e+00
0	 2.250000000000001e+00	 6.874999999999998e+00	 9.955915269230763e+00
0	 2.250000000000001e+00	 6.999999999999997e+00	 9.959553206769231e+00
0	 2.250000000000001e+00	 7.124999999999996e+00	 9.962676102461527e+00
0	 2.250000000000001e+00	 7.249999999999996e+00	 9.965283956307683e+00
0	 2.250000000000001e+00	 7.374999999999996e+00	 9.967376768307691e+00
0	 2.250000000000001e+00	 7.500000000000000e+00	 9.968954538461546e+00
0	 2.375000000000001e+00	 6.250000000000000e+00	 9.942340330769223e+00
0	 2.375000000000001e+00	 6.374999999999998e+00	 9.948567884923069e+00
0	 2.375000000000001e+00	 6.499999999999999e+00	 9.954103365846141e+00
0	 2.375000000000001e+00	 6.625000000000000e+00	 9.958946773538454e+00
0	 2.375000000000001e+00	 6.749999999999999e+00	 9.963098107999993e+00
0	 2.375000000000000e+00	 6.874999999999996e+00	 9.966557369230770e+00
0	 2.375000000000001e+00	 6.999999999999998e+00	 9.969324557230770e+00
0	 2.375000000000001e+00	 7.124999999999996e+00	 9.971399671999997e+00
0	 2.375000000000001e+00	 7.249999999999997e+00	 9.972782713538459e+00
0	 2.375000000000001e+00	 7.374999999999996e+00	 9.973473681846150e+00
0	 2.375000000000001e+00	 7.500000000000000e+00	 9.973472576923083e+00
0	 2.500000000000000e+00	 6.250000000000000e+00	 9.955861769230761e+00
0	 2.500000000000000e+00	 6.375000000000000e+00	 9.961976739999983e+00
0	 2.500000000000000e+00	 6.500000000000000e+00	 9.967222606153834e+00
0	 2.500000000000000e+00	 6.624999999999998e+00	 9.971599367692306e+00
0	 2.500000000000000e+00	 6.749999999999998e+00	 9.975107024615379e+00
0	 2.500000000000000e+00	 6.874999999999998e+00	 9.977745576923072e+00
0	 2.500000000000000e+00	 6.999999999999997e+00	 9.979515024615385e+00
0	 2.500000000000000e+00	 7.124999999999996e+00	 9.980415367692306e+00
0	 2.500000000000000e+00	 7.249999999999997e+00	 9.980446606153849e+00
0	 2.500000000000000e+00	 7.374999999999996e+00	 9.979608739999993e+00
0	 2.500000000000000e+00	 7.500000000000000e+00	 9.977901769230773e+00
0	 1.250000000000000e+00	 7.500000000000000e+00	 9.929611769230769e+00
0	 1.250000000000000e+00	 7.625000000000000e+00	 9.935205832307700e+00
0	 1.250000000000000e+00	 7.750000000000000e+00	 9.940807067692310e+00
0	 1.250000000000000e+00	 7.874999999999998e+00	 9.946415475384613e+00
0	 1.250000000000000e+00	 7.999999999999999e+00	 9.952031055384609e+00
0	 1.250000000000000e+00	 8.124999999999998e+00	 9.957653807692308e+00
0	 1.250000000000000e+00	 8.249999999999998e+00	 9.963283732307691e+00
0	 1.250000000000000e+00	 8.374999999999996e+00	 9.968920829230768e+00
0	 1.250000000000000e+00	 8.499999999999996e+00	 9.974565098461536e+00
0	 1.250000000000000e+00	 8.624999999999996e+00	 9.980216540000004e+00
0	 1.250000000000000e+00	 8.750000000000000e+00	 9.985875153846152e+00
0	 1.375000000000000e+00	 7.500000000000001e+00	 9.934840576923069e+00
0	 1.375000000000000e+00	 7.624999999999997e+00	 9.939783688692307e+00
0	 1.375000000000000e+00	 7.749999999999998e+00	 9.944769460923082e+00
0	 1.375000000000000e+00	 7.874999999999996e+00	 9.949797893615386e+00
0	 1.375000000000000e+00	 7.999999999999997e+00	 9.954868986769231e+00
0	 1.375000000000000e+00	 8.124999999999996e+00	 9.959982740384607e+00
0	 1.375000000000000e+00	 8.249999999999998e+00	 9.965139154461541e+00
0	 1.375000000000000e+00	 8.374999999999996e+00	 9.970338228999994e+00
0	 1.375000000000000e+00	 8.499999999999996e+00	 9.975579963999992e+00
0	 1.375000000000000e+00	 8.624999999999995e+00	 9.980864359461531e+00
0	 1.375000000000000e+00	 8.750000000000000e+00	 9.986191415384619e+00
0	 1.500000000000000e+00	 7.500000000000000e+00	 9.939980538461549e+00
0	 1.500000000000000e+00	 7.624999999999998e+00	 9.944297769692309e+00
0	 1.500000000000000e+00	 7.750000000000000e+00	 9.948693149538460e+00
0	 1.500000000000000e+00	 7.874999999999999e+00	 9.953166677999995e+00
0	 1.500000000000000e+00	 7.999999999999998e+00	 9.957718355076922e+00
0	 1.500000000000000e+00	 8.124999999999998e+00	 9.962348180769229e+00
0	 1.500000000000000e+00	 8.249999999999998e+00	 9.967056155076914e+00
0	 1.500000000000000e+00	 8.374999999999995e+00	 9.971842278000004e+00
0	 1.500000000000000e+00	 8.499999999999996e+00	 9.976706549538457e+00
0	 1.500000000000000e+00	 8.624999999999996e+00	 9.981648969692309e+00
0	 1.500000000000000e+00	 8.750000000000000e+00	 9.986669538461520e+00
0	 1.625000000000000e+00	 7.500000000000001e+00	 9.945031653846158e+00
0	 1.625000000000000e+00	 7.625000000000000e+00	 9.948748075307691e+00
0	 1.625000000000000e+00	 7.749999999999999e+00	 9.952578133538458e+00
0	 1.625000000000000e+00	 7.874999999999998e+00	 9.956521828538460e+00
0	 1.625000000000000e+00	 7.999999999999996e+00	 9.960579160307697e+00
0	 1.625000000000000e+00	 8.124999999999998e+00	 9.964750128846154e+00
0	 1.625000000000000e+00	 8.249999999999998e+00	 9.969034734153844e+00
0	 1.625000000000000e+00	 8.374999999999996e+00	 9.973432976230763e+00
0	 1.625000000000000e+00	 8.499999999999996e+00	 9.977944855076929e+00
0	 1.625000000000000e+00	 8.624999999999995e+00	 9.982570370692303e+00
0	 1.625000000000000e+00	 8.750000000000000e+00	 9.987309523076915e+00
0	 1.750000000000000e+00	 7.500000000000000e+00	 9.949993923076921e+00
0	 1.750000000000001e+00	 7.625000000000000e+00	 9.953134605538466e+00
0	 1.750000000000000e+00	 7.749999999999999e+00	 9.956424412923077e+00
0	 1.750000000000000e+00	 7.874999999999998e+00	 9.959863345230762e+00
0	 1.750000000000001e+00	 8.000000000000000e+00	 9.963451402461542e+00
0	 1.750000000000000e+00	 8.124999999999996e+00	 9.967188584615386e+00
0	 1.750000000000000e+00	 8.249999999999998e+00	 9.971074891692300e+00
0	 1.750000000000000e+00	 8.374999999999996e+00	 9.975110323692300e+00
0	 1.750000000000000e+00	 8.499999999999996e+00	 9.979294880615383e+00
0	 1.750000000000000e+00	 8.624999999999996e+00	 9.983628562461547e+00
0	 1.750000000000000e+00	 8.750000000000000e+00	 9.988111369230786e+00
0	 1.875000000000001e+00	 7.500000000000000e+00	 9.954867346153852e+00
0	 1.875000000000001e+00	 7.625000000000000e+00	 9.957457360384600e+00
0	 1.875000000000001e+00	 7.749999999999999e+00	 9.960231987692296e+00
0	 1.875000000000001e+00	 7.874999999999998e+00	 9.963191228076921e+00
0	 1.875000000000000e+00	 7.999999999999996e+00	 9.966335081538457e+00
0	 1.875000000000001e+00	 8.125000000000000e+00	 9.969663548076921e+00
0	 1.875000000000001e+00	 8.249999999999996e+00	 9.973176627692306e+00
0	 1.875000000000001e+00	 8.374999999999996e+00	 9.976874320384624e+00
0	 1.875000000000001e+00	 8.499999999999996e+00	 9.980756626153839e+00
0	 1.875000000000001e+00	 8.624999999999998e+00	 9.984823545000005e+00
0	 1.875000000000001e+00	 8.750000000000002e+00	 9.989075076923072e+00
0	 2.000000000000000e+00	 7.500000000000000e+00	 9.959651923076928e+00
0	 2.000000000000001e+00	 7.624999999999999e+00	 9.961716339846149e+00
0	 2.000000000000000e+00	 7.749999999999999e+00	 9.964000857846150e+00
0	 2.000000000000000e+00	 7.874999999999997e+00	 9.966505477076931e+00
0	 2.000000000000001e+00	 7.999999999999999e+00	 9.969230197538469e+00
0	 2.000000000000001e+00	 8.124999999999996e+00	 9.972175019230765e+00
0	 2.000000000000000e+00	 8.249999999999998e+00	 9.975339942153845e+00
0	 2.000000000000001e+00	 8.374999999999996e+00	 9.978724966307686e+00
0	 2.000000000000001e+00	 8.499999999999996e+00	 9.982330091692305e+00
0	 2.000000000000000e+00	 8.624999999999996e+00	 9.986155318307693e+00
0	 2.000000000000000e+00	 8.750000000000000e+00	 9.990200646153841e+00
0	 2.125000000000001e+00	 7.499999999999999e+00	 9.964347653846152e+00
0	 2.125000000000001e+00	 7.625000000000001e+00	 9.965911543923088e+00
0	 2.125000000000000e+00	 7.749999999999999e+00	 9.967731023384616e+00
0	 2.125000000000001e+00	 7.874999999999997e+00	 9.969806092230765e+00
0	 2.125000000000001e+00	 7.999999999999997e+00	 9.972136750461543e+00
0	 2.125000000000001e+00	 8.125000000000000e+00	 9.974722998076924e+00
0	 2.125000000000001e+00	 8.249999999999996e+00	 9.977564835076921e+00
0	 2.125000000000001e+00	 8.374999999999998e+00	 9.980662261461543e+00
0	 2.125000000000001e+00	 8.499999999999996e+00	 9.984015277230771e+00
0	 2.125000000000001e+00	 8.624999999999998e+00	 9.987623882384614e+00
0	 2.125000000000001e+00	 8.750000000000000e+00	 9.991488076923083e+00
0	 2.250000000000001e+00	 7.500000000000000e+00	 9.968954538461546e+00
0	 2.250000000000001e+00	 7.624999999999999e+00	 9.970042972615396e+00
0	 2.250000000000001e+00	 7.750000000000000e+00	 9.971422484307686e+00
0	 2.250000000000001e+00	 7.874999999999998e+00	 9.973093073538452e+00
0	 2.250000000000001e+00	 7.999999999999999e+00	 9.975054740307687e+00
0	 2.250000000000001e+00	 8.124999999999996e+00	 9.977307484615388e+00
0	 2.250000000000001e+00	 8.249999999999998e+00	 9.979851306461535e+00
0	 2.250000000000001e+00	 8.374999999999996e+00	 9.982686205846154e+00
0	 2.250000000000001e+00	 8.499999999999996e+00	 9.985812182769225e+00
0	 2.250000000000001e+00	 8.624999999999995e+00	 9.989229237230768e+00
0	 2.250000000000001e+00	 8.750000000000000e+00	 9.992937369230757e+00
0	 2.375000000000001e+00	 7.500000000000000e+00	 9.973472576923083e+00
0	 2.375000000000001e+00	 7.624999999999997e+00	 9.974110625923075e+00
0	 2.375000000000001e+00	 7.749999999999998e+00	 9.975075240615379e+00
0	 2.375000000000001e+00	 7.875000000000000e+00	 9.976366420999998e+00
0	 2.375000000000001e+00	 7.999999999999998e+00	 9.977984167076920e+00
0	 2.375000000000000e+00	 8.124999999999996e+00	 9.979928478846146e+00
0	 2.375000000000001e+00	 8.249999999999998e+00	 9.982199356307692e+00
0	 2.375000000000001e+00	 8.374999999999995e+00	 9.984796799461535e+00
0	 2.375000000000001e+00	 8.499999999999996e+00	 9.987720808307682e+00
0	 2.375000000000001e+00	 8.624999999999996e+00	 9.990971382846148e+00
0	 2.375000000000001e+00	 8.750000000000000e+00	 9.994548523076926e+00
0	 2.500000000000000e+00	 7.500000000000000e+00	 9.977901769230773e+00
0	 2.500000000000000e+00	 7.625000000000000e+00	 9.978114503846166e+00
0	 2.500000000000000e+00	 7.750000000000000e+00	 9.978689292307694e+00
0	 2.500000000000000e+00	 7.874999999999998e+00	 9.979626134615387e+00
0	 2.500000000000000e+00	 7.999999999999999e+00	 9.980925030769232e+00
0	 2.500000000000000e+00	 8.124999999999998e+00	 9.982585980769235e+00
0	 2.500000000000000e+00	 8.249999999999998e+00	 9.984608984615383e+00
0	 2.500000000000000e+00	 8.374999999999996e+00	 9.986994042307691e+00
0	 2.500000000000000e+00	 8.499999999999996e+00	 9.989741153846150e+00
0	 2.500000000000000e+00	 8.624999999999996e+00	 9.992850319230778e+00
0	 2.500000000000000e+00	 8.750000000000000e+00	 9.996321538461538e+00
0	 1.250000000000000e+00	 8.750000000000000e+00	 9.985875153846152e+00
0	 1.250000000000000e+00	 8.874999999999998e+00	 9.985888368461536e+00
0	 1.250000000000000e+00	 9.000000000000000e+00	 9.986469150769224e+00
0	 1.250000000000000e+00	 9.124999999999998e+00	 9.987617500769227e+00
0	 1.250000000000000e+00	 9.250000000000000e+00	 9.989333418461541e+00
0	 1.250000000000000e+00	 9.374999999999996e+00	 9.991616903846145e+00
0	 1.250000000000000e+00	 9.499999999999996e+00	 9.994467956923078e+00
0	 1.250000000000000e+00	 9.624999999999996e+00	 9.997886577692297e+00
0	 1.250000000000000e+00	 9.749999999999998e+00	 1.000187276615384e+01
0	 1.250000000000000e+00	 9.874999999999996e+00	 1.000642652230770e+01
0	 1.250000000000000e+00	 1.000000000000000e+01	 1.001154784615385e+01
0	 1.375000000000000e+00	 8.750000000000000e+00	 9.986191415384619e+00
0	 1.375000000000000e+00	 8.875000000000000e+00	 9.986222707461542e+00
0	 1.375000000000000e+00	 8.999999999999998e+00	 9.986766772923083e+00
0	 1.375000000000000e+00	 9.125000000000000e+00	 9.987823611769228e+00
0	 1.375000000000000e+00	 9.249999999999998e+00	 9.989393223999993e+00
0	 1.375000000000000e+00	 9.374999999999998e+00	 9.991475609615392e+00
0	 1.375000000000000e+00	 9.499999999999998e+00	 9.994070768615385e+00
0	 1.375000000000000e+00	 9.624999999999998e+00	 9.997178700999998e+00
0	 1.375000000000000e+00	 9.749999999999998e+00	 1.000079940676922e+01
0	 1.375000000000000e+00	 9.874999999999995e+00	 1.000493288592308e+01
0	 1.375000000000000e+00	 1.000000000000000e+01	 1.000957913846155e+01
0	 1.500000000000000e+00	 8.750000000000000e+00	 9.986669538461520e+00
0	 1.500000000000000e+00	 8.874999999999998e+00	 9.986723355692309e+00
0	 1.500000000000000e+00	 8.999999999999998e+00	 9.987235151999993e+00
0	 1.500000000000000e+00	 9.125000000000000e+00	 9.988204927384613e+00
0	 1.500000000000000e+00	 9.249999999999998e+00	 9.989632681846155e+00
0	 1.500000000000001e+00	 9.374999999999998e+00	 9.991518415384620e+00
0	 1.500000000000000e+00	 9.499999999999996e+00	 9.993862127999993e+00
0	 1.500000000000000e+00	 9.624999999999995e+00	 9.996663819692298e+00
0	 1.500000000000000e+00	 9.749999999999995e+00	 9.999923490461530e+00
0	 1.500000000000000e+00	 9.874999999999995e+00	 1.000364114030769e+01
0	 1.500000000000000e+00	 1.000000000000000e+01	 1.000781676923078e+01
0	 1.625000000000000e+00	 8.750000000000000e+00	 9.987309523076915e+00
0	 1.625000000000000e+00	 8.875000000000000e+00	 9.987390313153849e+00
0	 1.625000000000000e+00	 9.000000000000000e+00	 9.987874288000008e+00
0	 1.625000000000001e+00	 9.125000000000000e+00	 9.988761447615381e+00
0	 1.625000000000000e+00	 9.249999999999996e+00	 9.990051792000006e+00
0	 1.625000000000000e+00	 9.374999999999996e+00	 9.991745321153850e+00
0	 1.625000000000000e+00	 9.499999999999998e+00	 9.993842035076927e+00
0	 1.625000000000000e+00	 9.624999999999996e+00	 9.996341933769223e+00
0	 1.625000000000001e+00	 9.749999999999998e+00	 9.999245017230789e+00
0	 1.625000000000000e+00	 9.874999999999996e+00	 1.000255128546155e+01
0	 1.625000000000000e+00	 1.000000000000000e+01	 1.000626073846155e+01
0	 1.750000000000000e+00	 8.750000000000000e+00	 9.988111369230786e+00
0	 1.750000000000000e+00	 8.875000000000000e+00	 9.988223579846153e+00
0	 1.750000000000000e+00	 8.999999999999998e+00	 9.988684180923070e+00
0	 1.750000000000001e+00	 9.124999999999998e+00	 9.989493172461533e+00
0	 1.750000000000001e+00	 9.250000000000000e+00	 9.990650554461537e+00
0	 1.750000000000000e+00	 9.374999999999998e+00	 9.992156326923077e+00
0	 1.750000000000000e+00	 9.499999999999998e+00	 9.994010489846149e+00
0	 1.750000000000001e+00	 9.625000000000000e+00	 9.996213043230782e+00
0	 1.750000000000000e+00	 9.749999999999996e+00	 9.998763987076924e+00
0	 1.750000000000000e+00	 9.874999999999993e+00	 1.000166332138462e+01
0	 1.750000000000000e+00	 1.000000000000000e+01	 1.000491104615385e+01
0	 1.875000000000001e+00	 8.750000000000002e+00	 9.989075076923072e+00
0	 1.875000000000000e+00	 8.875000000000000e+00	 9.989223155769231e+00
0	 1.875000000000001e+00	 8.999999999999998e+00	 9.989664830769234e+00
0	 1.875000000000000e+00	 9.125000000000000e+00	 9.990400101923075e+00
0	 1.875000000000000e+00	 9.249999999999998e+00	 9.991428969230771e+00
0	 1.875000000000000e+00	 9.374999999999998e+00	 9.992751432692303e+00
0	 1.875000000000001e+00	 9.499999999999998e+00	 9.994367492307681e+00
0	 1.875000000000000e+00	 9.624999999999996e+00	 9.996277148076913e+00
0	 1.875000000000001e+00	 9.749999999999996e+00	 9.998480400000002e+00
0	 1.875000000000001e+00	 9.874999999999996e+00	 1.000097724807693e+01
0	 1.875000000000000e+00	 1.000000000000000e+01	 1.000376769230768e+01
0	 2.000000000000000e+00	 8.750000000000000e+00	 9.990200646153841e+00
0	 2.000000000000000e+00	 8.875000000000000e+00	 9.990389040923066e+00
0	 2.000000000000001e+00	 8.999999999999998e+00	 9.990816237538461e+00
0	 2.000000000000001e+00	 9.124999999999998e+00	 9.991482236000010e+00
0	 2.000000000000000e+00	 9.249999999999996e+00	 9.992387036307688e+00
0	 2.000000000000000e+00	 9.374999999999996e+00	 9.993530638461539e+00
0	 2.000000000000000e+00	 9.499999999999996e+00	 9.994913042461528e+00
0	 2.000000000000001e+00	 9.624999999999998e+00	 9.996534248307686e+00
0	 2.000000000000001e+00	 9.749999999999996e+00	 9.998394255999990e+00
0	 2.000000000000001e+00	 9.874999999999996e+00	 1.000049306553847e+01
0	 2.000000000000000e+00	 1.000000000000000e+01	 1.000283067692306e+01
0	 2.125000000000001e+00	 8.750000000000000e+00	 9.991488076923083e+00
0	 2.125000000000001e+00	 8.875000000000002e+00	 9.991721235307693e+00
0	 2.125000000000001e+00	 9.000000000000000e+00	 9.992138401230765e+00
0	 2.125000000000001e+00	 9.124999999999998e+00	 9.992739574692298e+00
0	 2.125000000000001e+00	 9.249999999999998e+00	 9.993524755692308e+00
0	 2.125000000000001e+00	 9.374999999999998e+00	 9.994493944230767e+00
0	 2.125000000000001e+00	 9.499999999999996e+00	 9.995647140307700e+00
0	 2.125000000000001e+00	 9.624999999999998e+00	 9.996984343923078e+00
0	 2.125000000000001e+00	 9.749999999999996e+00	 9.998505555076932e+00
0	 2.125000000000001e+00	 9.874999999999996e+00	 1.000021077376922e+01
0	 2.125000000000001e+00	 1.000000000000000e+01	 1.000209999999997e+01
0	 2.250000000000001e+00	 8.750000000000000e+00	 9.992937369230757e+00
0	 2.250000000000000e+00	 8.874999999999998e+00	 9.993219738923077e+00
0	 2.250000000000000e+00	 8.999999999999998e+00	 9.993631321846149e+00
0	 2.250000000000001e+00	 9.125000000000000e+00	 9.994172118000002e+00
0	 2.250000000000001e+00	 9.249999999999998e+00	 9.994842127384620e+00
0	 2.250000000000001e+00	 9.374999999999996e+00	 9.995641350000000e+00
0	 2.250000000000001e+00	 9.499999999999998e+00	 9.996569785846164e+00
0	 2.250000000000001e+00	 9.624999999999996e+00	 9.997627434923082e+00
0	 2.250000000000001e+00	 9.749999999999996e+00	 9.998814297230780e+00
0	 2.250000000000001e+00	 9.874999999999995e+00	 1.000013037276923e+01
0	 2.250000000000001e+00	 1.000000000000000e+01	 1.000157566153848e+01
0	 2.375000000000001e+00	 8.750000000000000e+00	 9.994548523076926e+00
0	 2.375000000000001e+00	 8.875000000000000e+00	 9.994884551769227e+00
0	 2.375000000000001e+00	 9.000000000000000e+00	 9.995294999384610e+00
0	 2.375000000000001e+00	 9.125000000000000e+00	 9.995779865923080e+00
0	 2.375000000000000e+00	 9.249999999999996e+00	 9.996339151384618e+00
0	 2.375000000000001e+00	 9.374999999999996e+00	 9.996972855769222e+00
0	 2.375000000000001e+00	 9.499999999999996e+00	 9.997680979076929e+00
0	 2.375000000000001e+00	 9.624999999999996e+00	 9.998463521307702e+00
0	 2.375000000000001e+00	 9.749999999999996e+00	 9.999320482461536e+00
0	 2.375000000000000e+00	 9.874999999999995e+00	 1.000025186253846e+01
0	 2.375000000000001e+00	 1.000000000000000e+01	 1.000125766153845e+01
0	 2.500000000000000e+00	 8.750000000000000e+00	 9.996321538461538e+00
0	 2.500000000000000e+00	 8.874999999999998e+00	 9.996715673846150e+00
0	 2.500000000000000e+00	 9.000000000000000e+00	 9.997129433846149e+00
0	 2.500000000000000e+00	 9.124999999999998e+00	 9.997562818461537e+00
0	 2.500000000000000e+00	 9.250000000000000e+00	 9.998015827692313e+00
0	 2.500000000000000e+00	 9.374999999999996e+00	 9.998488461538448e+00
0	 2.500000000000000e+00	 9.499999999999996e+00	 9.998980719999997e+00
0	 2.500000000000000e+00	 9.624999999999996e+00	 9.999492603076920e+00
0	 2.500000000000000e+00	 9.749999999999998e+00	 1.000002411076922e+01
0	 2.500000000000000e+00	 9.874999999999996e+00	 1.000057524307691e+01
0	 2.500000000000000e+00	 1.000000000000000e+01	 1.000114599999999e+01
0	 2.500000000000000e+00	 0.000000000000000e+00	 1.204535923076923e+01
0	 2.500000000000000e+00	 1.250000000000000e-01	 1.187546875000000e+01
0	 2.500000000000000e+00	 2.500000000000000e-01	 1.170830058461538e+01
0	 2.500000000000000e+00	 3.750000000000001e-01	 1.154385473461538e+01
0	 2.500000000000000e+00	 5.000000000000000e-01	 1.138213120000000e+01
0	 2.500000000000000e+00	 6.250000000000000e-01	 1.122312998076923e+01
0	 2.500000000000000e+00	 7.500000000000000e-01	 1.106685107692307e+01
0	 2.500000000000000e+00	 8.749999999999999e-01	 1.091329448846153e+01
0	 2.500000000000000e+00	 1.000000000000000e+00	 1.076246021538461e+01
0	 2.500000000000000e+00	 1.125000000000000e+00	 1.061434825769231e+01
0	 2.500000000000000e+00	 1.250000000000000e+00	 1.046895861538461e+01
0	 2.625000000000000e+00	 0.000000000000000e+00	 1.153823826307692e+01
0	 2.625000000000001e+00	 1.250000000000000e-01	 1.143494584015384e+01
0	 2.625000000000000e+00	 2.499999999999999e-01	 1.133395435953846e+01
0	 2.625000000000000e+00	 3.750000000000001e-01	 1.123526382123077e+01
0	 2.625000000000000e+00	 5.000000000000001e-01	 1.113887422523077e+01
0	 2.625000000000000e+00	 6.250000000000001e-01	 1.104478557153847e+01
0	 2.625000000000000e+00	 7.499999999999998e-01	 1.095299786015385e+01
0	 2.625000000000000e+00	 8.750000000000000e-01	 1.086351109107692e+01
0	 2.625000000000001e+00	 1.000000000000000e+00	 1.077632526430769e+01
0	 2.625000000000000e+00	 1.125000000000000e+00	 1.069144037984615e+01
0	 2.625000000000000e+00	 1.250000000000000e+00	 1.060885643769231e+01
0	 2.750000000000000e+00	 0.000000000000000e+00	 1.109885603692307e+01
0	 2.750000000000000e+00	 1.250000000000000e-01	 1.105270369292308e+01
0	 2.750000000000000e+00	 2.500000000000000e-01	 1.100843091815385e+01
0	 2.750000000000000e+00	 3.750000000000001e-01	 1.096603771261538e+01
0	 2.750000000000000e+00	 5.000000000000001e-01	 1.092552407630769e+01
0	 2.750000000000000e+00	 6.250000000000000e-01	 1.088689000923077e+01
0	 2.750000000000000e+00	 7.499999999999999e-01	 1.085013551138461e+01
0	 2.750000000000000e+00	 8.750000000000000e-01	 1.081526058276923e+01
0	 2.750000000000000e+00	 9.999999999999998e-01	 1.078226522338461e+01
0	 2.750000000000000e+00	 1.125000000000000e+00	 1.075114943323077e+01
0	 2.750000000000000e+00	 1.250000000000000e+00	 1.072191321230769e+01
0	 2.875000000000001e+00	 0.000000000000000e+00	 1.072721255230769e+01
0	 2.875000000000000e+00	 1.250000000000000e-01	 1.072874230830769e+01
0	 2.875000000000001e+00	 2.500000000000001e-01	 1.073173026046153e+01
0	 2.875000000000000e+00	 3.750000000000001e-01	 1.073617640876923e+01
0	 2.875000000000001e+00	 5.000000000000002e-01	 1.074208075323077e+01
0	 2.875000000000000e+00	 6.250000000000000e-01	 1.074944329384615e+01
0	 2.875000000000000e+00	 7.500000000000000e-01	 1.075826403061539e+01
0	 2.875000000000000e+00	 8.749999999999999e-01	 1.076854296353846e+01
0	 2.875000000000000e+00	 9.999999999999999e-01	 1.078028009261538e+01
0	 2.875000000000000e+00	 1.125000000000000e+00	 1.079347541784615e+01
0	 2.875000000000000e+00	 1.250000000000000e+00	 1.080812893923076e+01
0	 3.000000000000000e+00	 0.000000000000000e+00	 1.042330780923077e+01
0	 3.000000000000000e+00	 1.250000000000000e-01	 1.046306168630768e+01
0	 3.000000000000001e+00	 2.500000000000000e-01	 1.050385238646153e+01
0	 3.000000000000001e+00	 3.750000000000001e-01	 1.054567990969231e+01
0	 3.000000000000000e+00	 5.000000000000000e-01	 1.058854425600000e+01
0	 3.000000000000001e+00	 6.250000000000000e-01	 1.063244542538461e+01
0	 3.000000000000001e+00	 7.500000000000002e-01	 1.067738341784615e+01
0	 3.000000000000000e+00	 8.750000000000000e-01	 1.072335823338461e+01
0	 3.000000000000000e+00	 9.999999999999998e-01	 1.077036987200000e+01
0	 3.000000000000000e+00	 1.125000000000000e+00	 1.081841833369231e+01
0	 3.000000000000001e+00	 1.250000000000000e+00	 1.086750361846154e+01
0	 3.125000000000000e+00	 0.000000000000000e+00	 1.018714180769231e+01
0	 3.125000000000000e+00	 1.250000000000000e-01	 1.025566182692307e+01
0	 3.125000000000000e+00	 2.500000000000000e-01	 1.032479729615384e+01
0	 3.125000000000000e+00	 3.750000000000000e-01	 1.039454821538461e+01
0	 3.125000000000000e+00	 4.999999999999999e-01	 1.046491458461538e+01
0	 3.125000000000001e+00	 6.250000000000001e-01	 1.053589640384615e+01
0	 3.125000000000000e+00	 7.499999999999999e-01	 1.060749367307692e+01
0	 3.125000000000001e+00	 8.750000000000000e-01	 1.067970639230769e+01
0	 3.125000000000000e+00	 9.999999999999998e-01	 1.075253456153846e+01
0	 3.125000000000001e+00	 1.125000000000000e+00	 1.082597818076923e+01
0	 3.125000000000000e+00	 1.250000000000000e+00	 1.090003725000000e+01
0	 3.250000000000000e+00	 0.000000000000000e+00	 1.001871454769230e+01
0	 3.250000000000000e+00	 1.250000000000000e-01	 1.010654273015384e+01
0	 3.250000000000000e+00	 2.500000000000001e-01	 1.019456498953845e+01
0	 3.250000000000001e+00	 3.750000000000001e-01	 1.028278132584615e+01
0	 3.250000000000001e+00	 5.000000000000001e-01	 1.037119173907692e+01
0	 3.250000000000001e+00	 6.249999999999999e-01	 1.045979622923077e+01
0	 3.250000000000000e+00	 7.500000000000000e-01	 1.054859479630769e+01
0	 3.250000000000000e+00	 8.750000000000001e-01	 1.063758744030769e+01
0	 3.250000000000001e+00	 1.000000000000000e+00	 1.072677416123077e+01
0	 3.250000000000001e+00	 1.125000000000000e+00	 1.081615495907692e+01
0	 3.250000000000001e+00	 1.250000000000000e+00	 1.090572983384615e+01
0	 3.375000000000001e+00	 0.000000000000000e+00	 9.918026029230766e+00
0	 3.375000000000001e+00	 1.250000000000000e-01	 1.001570439600000e+01
0	 3.375000000000001e+00	 2.500000000000001e-01	 1.011315546661539e+01
0	 3.375000000000001e+00	 3.750000000000001e-01	 1.021037924107692e+01
0	 3.375000000000001e+00	 5.000000000000001e-01	 1.030737571938461e+01
0	 3.375000000000001e+00	 6.250000000000000e-01	 1.040414490153846e+01
0	 3.375000000000001e+00	 7.500000000000000e-01	 1.050068678753846e+01
0	 3.375000000000000e+00	 8.749999999999999e-01	 1.059700137738461e+01
0	 3.375000000000001e+00	 9.999999999999999e-01	 1.069308867107692e+01
0	 3.375000000000001e+00	 1.125000000000000e+00	 1.078894866861538e+01
0	 3.375000000000001e+00	 1.250000000000000e+00	 1.088458137000000e+01
0	 3.500000000000001e+00	 0.000000000000000e+00	 9.885076252307694e+00
0	 3.500000000000000e+00	 1.250000000000000e-01	 9.983146824461537e+00
0	 3.500000000000000e+00	 2.500000000000000e-01	 1.008056872738461e+01
0	 3.500000000000001e+00	 3.750000000000001e-01	 1.017734196107692e+01
0	 3.500000000000001e+00	 5.000000000000000e-01	 1.027346652553846e+01
0	 3.500000000000001e+00	 6.250000000000000e-01	 1.036894242076923e+01
0	 3.500000000000001e+00	 7.500000000000000e-01	 1.046376964676923e+01
0	 3.500000000000001e+00	 8.750000000000001e-01	 1.055794820353846e+01
0	 3.500000000000001e+00	 1.000000000000000e+00	 1.065147809107692e+01
0	 3.500000000000002e+00	 1.125000000000000e+00	 1.074435930938461e+01
0	 3.500000000000000e+00	 1.250000000000000e+00	 1.083659185846154e+01
0	 3.625000000000001e+00	 0.000000000000000e+00	 9.919865216923077e+00
0	 3.625000000000001e+00	 1.250000000000000e-01	 1.000887001553846e+01
0	 3.625000000000000e+00	 2.499999999999999e-01	 1.009680477184615e+01
0	 3.625000000000001e+00	 3.750000000000001e-01	 1.018366948584615e+01
0	 3.625000000000001e+00	 5.000000000000000e-01	 1.026946415753846e+01
0	 3.625000000000001e+00	 6.250000000000001e-01	 1.035418878692307e+01
0	 3.625000000000001e+00	 7.500000000000000e-01	 1.043784337400000e+01
0	 3.625000000000001e+00	 8.750000000000000e-01	 1.052042791876923e+01
0	 3.625000000000002e+00	 1.000000000000000e+00	 1.060194242123077e+01
0	 3.625000000000001e+00	 1.125000000000000e+00	 1.068238688138461e+01
0	 3.625000000000001e+00	 1.250000000000000e+00	 1.076176129923076e+01
0	 3.750000000000000e+00	 0.000000000000000e+00	 1.002239292307693e+01
0	 3.750000000000000e+00	 1.250000000000000e-01	 1.009287396923077e+01
0	 3.750000000000000e+00	 2.500000000000000e-01	 1.016186359999999e+01
0	 3.750000000000000e+00	 3.750000000000001e-01	 1.022936181538461e+01
0	 3.750000000000000e+00	 5.000000000000000e-01	 1.029536861538461e+01
0	 3.750000000000000e+00	 6.250000000000000e-01	 1.035988400000000e+01
0	 3.750000000000000e+00	 7.500000000000000e-01	 1.042290796923077e+01
0	 3.750000000000000e+00	 8.749999999999999e-01	 1.048444052307692e+01
0	 3.750000000000000e+00	 1.000000000000000e+00	 1.054448166153846e+01
0	 3.750000000000000e+00	 1.125000000000000e+00	 1.060303138461538e+01
0	 3.750000000000000e+00	 1.250000000000000e+00	 1.066008969230769e+01
0	 2.500000000000000e+00	 1.250000000000000e+00	 1.046895861538461e+01
0	 2.500000000000000e+00	 1.375000000000000e+00	 1.047628837615385e+01
0	 2.500000000000000e+00	 1.500000000000000e+00	 1.048595385846154e+01
0	 2.500000000000000e+00	 1.625000000000000e+00	 1.049795506230769e+01
0	 2.500000000000000e+00	 1.750000000000000e+00	 1.051229198769231e+01
0	 2.500000000000000e+00	 1.875000000000000e+00	 1.052896463461538e+01
0	 2.500000000000000e+00	 2.000000000000000e+00	 1.054797300307692e+01
0	 2.500000000000000e+00	 2.125000000000001e+00	 1.056931709307692e+01
0	 2.500000000000000e+00	 2.250000000000001e+00	 1.059299690461538e+01
0	 2.500000000000000e+00	 2.375000000000001e+00	 1.061901243769231e+01
0	 2.500000000000000e+00	 2.500000000000000e+00	 1.064736369230769e+01
0	 2.625000000000000e+00	 1.250000000000000e+00	 1.060885643769231e+01
0	 2.625000000000000e+00	 1.375000000000000e+00	 1.059803480246154e+01
0	 2.625000000000000e+00	 1.500000000000000e+00	 1.058971387353846e+01
0	 2.625000000000000e+00	 1.625000000000001e+00	 1.058389365092308e+01
0	 2.625000000000000e+00	 1.750000000000000e+00	 1.058057413461538e+01
0	 2.625000000000001e+00	 1.875000000000001e+00	 1.057975532461538e+01
0	 2.625000000000000e+00	 2.000000000000001e+00	 1.058143722092308e+01
0	 2.625000000000000e+00	 2.125000000000000e+00	 1.058561982353846e+01
0	 2.625000000000001e+00	 2.250000000000001e+00	 1.059230313246154e+01
0	 2.625000000000000e+00	 2.375000000000001e+00	 1.060148714769230e+01
0	 2.625000000000000e+00	 2.500000000000000e+00	 1.061317186923077e+01
0	 2.750000000000000e+00	 1.250000000000000e+00	 1.072191321230769e+01
0	 2.750000000000000e+00	 1.375000000000000e+00	 1.069595084123076e+01
0	 2.750000000000001e+00	 1.500000000000001e+00	 1.067265416123077e+01
0	 2.750000000000000e+00	 1.625000000000000e+00	 1.065202317230769e+01
0	 2.750000000000001e+00	 1.750000000000001e+00	 1.063405787446153e+01
0	 2.750000000000000e+00	 1.875000000000000e+00	 1.061875826769231e+01
0	 2.750000000000000e+00	 2.000000000000000e+00	 1.060612435200000e+01
0	 2.750000000000001e+00	 2.125000000000001e+00	 1.059615612738461e+01
0	 2.750000000000000e+00	 2.250000000000001e+00	 1.058885359384615e+01
0	 2.750000000000000e+00	 2.375000000000001e+00	 1.058421675138462e+01
0	 2.750000000000000e+00	 2.500000000000000e+00	 1.058224560000000e+01
0	 2.875000000000000e+00	 1.250000000000000e+00	 1.080812893923076e+01
0	 2.875000000000000e+00	 1.375000000000000e+00	 1.077003649246154e+01
0	 2.875000000000001e+00	 1.500000000000001e+00	 1.073477472153846e+01
0	 2.875000000000000e+00	 1.625000000000000e+00	 1.070234362646154e+01
0	 2.875000000000000e+00	 1.750000000000000e+00	 1.067274320723076e+01
0	 2.875000000000001e+00	 1.875000000000001e+00	 1.064597346384615e+01
0	 2.875000000000000e+00	 2.000000000000001e+00	 1.062203439630769e+01
0	 2.875000000000001e+00	 2.125000000000001e+00	 1.060092600461538e+01
0	 2.875000000000000e+00	 2.250000000000001e+00	 1.058264828876923e+01
0	 2.875000000000000e+00	 2.375000000000000e+00	 1.056720124876923e+01
0	 2.875000000000000e+00	 2.500000000000000e+00	 1.055458488461538e+01
0	 3.000000000000001e+00	 1.250000000000000e+00	 1.086750361846154e+01
0	 3.000000000000000e+00	 1.375000000000000e+00	 1.082029175615385e+01
0	 3.000000000000000e+00	 1.500000000000000e+00	 1.077607555446154e+01
0	 3.000000000000000e+00	 1.625000000000000e+00	 1.073485501338462e+01
0	 3.000000000000000e+00	 1.750000000000000e+00	 1.069663013292307e+01
0	 3.000000000000001e+00	 1.875000000000000e+00	 1.066140091307692e+01
0	 3.000000000000000e+00	 2.000000000000001e+00	 1.062916735384615e+01
0	 3.000000000000001e+00	 2.125000000000001e+00	 1.059992945523077e+01
0	 3.000000000000000e+00	 2.250000000000000e+00	 1.057368721723077e+01
0	 3.000000000000000e+00	 2.375000000000001e+00	 1.055044063984616e+01
0	 3.000000000000001e+00	 2.500000000000000e+00	 1.053018972307693e+01
0	 3.125000000000000e+00	 1.250000000000000e+00	 1.090003725000000e+01
0	 3.125000000000001e+00	 1.375000000000000e+00	 1.084671663230769e+01
0	 3.125000000000001e+00	 1.500000000000000e+00	 1.079655665999999e+01
0	 3.125000000000000e+00	 1.625000000000000e+00	 1.074955733307692e+01
0	 3.125000000000001e+00	 1.750000000000001e+00	 1.070571865153846e+01
0	 3.125000000000001e+00	 1.875000000000000e+00	 1.066504061538462e+01
0	 3.125000000000001e+00	 2.000000000000001e+00	 1.062752322461538e+01
0	 3.125000000000000e+00	 2.125000000000001e+00	 1.059316647923077e+01
0	 3.125000000000000e+00	 2.250000000000001e+00	 1.056197037923077e+01
0	 3.125000000000000e+00	 2.375000000000001e+00	 1.053393492461539e+01
0	 3.125000000000000e+00	 2.500000000000000e+00	 1.050906011538462e+01
0	 3.250000000000001e+00	 1.250000000000000e+00	 1.090572983384615e+01
0	 3.250000000000001e+00	 1.375000000000000e+00	 1.084931112092307e+01
0	 3.250000000000001e+00	 1.500000000000000e+00	 1.079621803815384e+01
0	 3.250000000000001e+00	 1.625000000000000e+00	 1.074645058553846e+01
0	 3.250000000000001e+00	 1.750000000000001e+00	 1.070000876307692e+01
0	 3.250000000000001e+00	 1.875000000000001e+00	 1.065689257076923e+01
0	 3.250000000000001e+00	 2.000000000000001e+00	 1.061710200861538e+01
0	 3.250000000000001e+00	 2.125000000000001e+00	 1.058063707661538e+01
0	 3.250000000000001e+00	 2.250000000000002e+00	 1.054749777476923e+01
0	 3.250000000000000e+00	 2.375000000000001e+00	 1.051768410307692e+01
0	 3.250000000000001e+00	 2.500000000000000e+00	 1.049119606153846e+01
0	 3.375000000000001e+00	 1.250000000000000e+00	 1.088458137000000e+01
0	 3.375000000000000e+00	 1.375000000000000e+00	 1.082807522200000e+01
0	 3.375000000000001e+00	 1.500000000000000e+00	 1.077505968892307e+01
0	 3.375000000000000e+00	 1.625000000000000e+00	 1.072553477076923e+01
0	 3.375000000000001e+00	 1.750000000000000e+00	 1.067950046753846e+01
0	 3.375000000000001e+00	 1.875000000000001e+00	 1.063695677923077e+01
0	 3.375000000000000e+00	 2.000000000000000e+00	 1.059790370584615e+01
0	 3.375000000000001e+00	 2.125000000000001e+00	 1.056234124738461e+01
0	 3.375000000000000e+00	 2.250000000000001e+00	 1.053026940384615e+01
0	 3.375000000000000e+00	 2.375000000000001e+00	 1.050168817523077e+01
0	 3.375000000000001e+00	 2.500000000000000e+00	 1.047659756153846e+01
0	 3.500000000000000e+00	 1.250000000000000e+00	 1.083659185846154e+01
0	 3.500000000000000e+00	 1.375000000000000e+00	 1.078300893553845e+01
0	 3.500000000000001e+00	 1.500000000000000e+00	 1.073308161230769e+01
0	 3.500000000000000e+00	 1.625000000000000e+00	 1.068680988876923e+01
0	 3.500000000000000e+00	 1.750000000000000e+00	 1.064419376492308e+01
0	 3.500000000000001e+00	 1.875000000000001e+00	 1.060523324076923e+01
0	 3.500000000000001e+00	 2.000000000000001e+00	 1.056992831630769e+01
0	 3.500000000000001e+00	 2.125000000000001e+00	 1.053827899153846e+01
0	 3.500000000000001e+00	 2.250000000000001e+00	 1.051028526646154e+01
0	 3.500000000000001e+00	 2.375000000000001e+00	 1.048594714107692e+01
0	 3.500000000000000e+00	 2.500000000000000e+00	 1.046526461538462e+01
0	 3.625000000000001e+00	 1.250000000000000e+00	 1.076176129923076e+01
0	 3.625000000000001e+00	 1.375000000000000e+00	 1.071411226153845e+01
0	 3.625000000000001e+00	 1.500000000000000e+00	 1.067028380830769e+01
0	 3.625000000000000e+00	 1.625000000000000e+00	 1.063027593953846e+01
0	 3.625000000000000e+00	 1.750000000000000e+00	 1.059408865523077e+01
0	 3.625000000000000e+00	 1.875000000000000e+00	 1.056172195538462e+01
0	 3.625000000000000e+00	 2.000000000000000e+00	 1.053317584000000e+01
0	 3.625000000000001e+00	 2.125000000000001e+00	 1.050845030907693e+01
0	 3.625000000000001e+00	 2.250000000000001e+00	 1.048754536261538e+01
0	 3.625000000000001e+00	 2.375000000000001e+00	 1.047046100061538e+01
0	 3.625000000000001e+00	 2.500000000000000e+00	 1.045719722307692e+01
0	 3.750000000000000e+00	 1.250000000000000e+00	 1.066008969230769e+01
0	 3.750000000000000e+00	 1.375000000000000e+00	 1.062138520000000e+01
0	 3.750000000000000e+00	 1.500000000000000e+00	 1.058666627692308e+01
0	 3.750000000000000e+00	 1.625000000000000e+00	 1.055593292307692e+01
0	 3.750000000000000e+00	 1.750000000000000e+00	 1.052918513846154e+01
0	 3.750000000000000e+00	 1.875000000000000e+00	 1.050642292307692e+01
0	 3.750000000000000e+00	 2.000000000000000e+00	 1.048764627692307e+01
0	 3.750000000000000e+00	 2.125000000000001e+00	 1.047285520000000e+01
0	 3.750000000000000e+00	 2.250000000000001e+00	 1.046204969230769e+01
0	 3.750000000000000e+00	 2.375000000000001e+00	 1.045522975384615e+01
0	 3.750000000000000e+00	 2.500000000000000e+00	 1.045239538461539e+01
0	 2.500000000000000e+00	 2.500000000000000e+00	 1.064736369230769e+01
0	 2.500000000000000e+00	 2.625000000000000e+00	 1.055361466000000e+01
0	 2.500000000000000e+00	 2.750000000000000e+00	 1.046546771692307e+01
0	 2.500000000000000e+00	 2.875000000000001e+00	 1.038292286307693e+01
0	 2.500000000000000e+00	 3.000000000000000e+00	 1.030598009846154e+01
0	 2.500000000000000e+00	 3.125000000000000e+00	 1.023463942307692e+01
0	 2.500000000000000e+00	 3.250000000000000e+00	 1.016890083692308e+01
0	 2.500000000000000e+00	 3.375000000000001e+00	 1.010876434000000e+01
0	 2.500000000000000e+00	 3.500000000000001e+00	 1.005422993230769e+01
0	 2.500000000000000e+00	 3.625000000000001e+00	 1.000529761384615e+01
0	 2.500000000000000e+00	 3.750000000000000e+00	 9.961967384615384e+00
0	 2.625000000000000e+00	 2.500000000000000e+00	 1.061317186923077e+01
0	 2.625000000000000e+00	 2.625000000000000e+00	 1.053323774323077e+01
0	 2.625000000000000e+00	 2.750000000000000e+00	 1.045831981753846e+01
0	 2.625000000000000e+00	 2.875000000000000e+00	 1.038841809215385e+01
0	 2.625000000000000e+00	 3.000000000000001e+00	 1.032353256707692e+01
0	 2.625000000000001e+00	 3.125000000000000e+00	 1.026366324230769e+01
0	 2.625000000000000e+00	 3.250000000000001e+00	 1.020881011784616e+01
0	 2.625000000000000e+00	 3.375000000000000e+00	 1.015897319369231e+01
0	 2.625000000000001e+00	 3.500000000000001e+00	 1.011415246984615e+01
0	 2.625000000000000e+00	 3.625000000000001e+00	 1.007434794630769e+01
0	 2.625000000000000e+00	 3.750000000000000e+00	 1.003955962307692e+01
0	 2.750000000000000e+00	 2.500000000000000e+00	 1.058224560000000e+01
0	 2.750000000000000e+00	 2.625000000000001e+00	 1.051483728184616e+01
0	 2.750000000000001e+00	 2.750000000000001e+00	 1.045185927507692e+01
0	 2.750000000000000e+00	 2.875000000000000e+00	 1.039331157969231e+01
0	 2.750000000000001e+00	 3.000000000000000e+00	 1.033919419569230e+01
0	 2.750000000000000e+00	 3.125000000000001e+00	 1.028950712307692e+01
0	 2.750000000000000e+00	 3.250000000000001e+00	 1.024425036184616e+01
0	 2.750000000000001e+00	 3.375000000000001e+00	 1.020342391200000e+01
0	 2.750000000000000e+00	 3.500000000000001e+00	 1.016702777353846e+01
0	 2.750000000000000e+00	 3.625000000000001e+00	 1.013506194646154e+01
0	 2.750000000000000e+00	 3.750000000000000e+00	 1.010752643076923e+01
0	 2.875000000000000e+00	 2.500000000000000e+00	 1.055458488461538e+01
0	 2.875000000000000e+00	 2.625000000000000e+00	 1.049841327584615e+01
0	 2.875000000000001e+00	 2.750000000000000e+00	 1.044608608953846e+01
0	 2.875000000000000e+00	 2.875000000000000e+00	 1.039760332569231e+01
0	 2.875000000000000e+00	 3.000000000000000e+00	 1.035296498430769e+01
0	 2.875000000000001e+00	 3.125000000000001e+00	 1.031217106538462e+01
0	 2.875000000000000e+00	 3.250000000000000e+00	 1.027522156892308e+01
0	 2.875000000000001e+00	 3.375000000000001e+00	 1.024211649492308e+01
0	 2.875000000000000e+00	 3.500000000000000e+00	 1.021285584338462e+01
0	 2.875000000000000e+00	 3.625000000000000e+00	 1.018743961430769e+01
0	 2.875000000000000e+00	 3.750000000000000e+00	 1.016586780769231e+01
0	 3.000000000000001e+00	 2.500000000000000e+00	 1.053018972307693e+01
0	 3.000000000000000e+00	 2.625000000000000e+00	 1.048396572523077e+01
0	 3.000000000000000e+00	 2.750000000000000e+00	 1.044100026092307e+01
0	 3.000000000000000e+00	 2.875000000000000e+00	 1.040129333015385e+01
0	 3.000000000000000e+00	 3.000000000000000e+00	 1.036484493292308e+01
0	 3.000000000000001e+00	 3.125000000000001e+00	 1.033165506923077e+01
0	 3.000000000000000e+00	 3.250000000000001e+00	 1.030172373907692e+01
0	 3.000000000000001e+00	 3.375000000000001e+00	 1.027505094246154e+01
0	 3.000000000000000e+00	 3.500000000000000e+00	 1.025163667938461e+01
0	 3.000000000000000e+00	 3.625000000000001e+00	 1.023148094984615e+01
0	 3.000000000000001e+00	 3.750000000000000e+00	 1.021458375384616e+01
0	 3.125000000000000e+00	 2.500000000000000e+00	 1.050906011538462e+01
0	 3.125000000000001e+00	 2.625000000000001e+00	 1.047149463000000e+01
0	 3.125000000000001e+00	 2.750000000000000e+00	 1.043660178923077e+01
0	 3.125000000000000e+00	 2.875000000000000e+00	 1.040438159307692e+01
0	 3.125000000000001e+00	 3.000000000000001e+00	 1.037483404153846e+01
0	 3.125000000000001e+00	 3.125000000000001e+00	 1.034795913461538e+01
0	 3.125000000000001e+00	 3.250000000000000e+00	 1.032375687230769e+01
0	 3.125000000000000e+00	 3.375000000000001e+00	 1.030222725461538e+01
0	 3.125000000000000e+00	 3.500000000000001e+00	 1.028337028153847e+01
0	 3.125000000000000e+00	 3.625000000000000e+00	 1.026718595307692e+01
0	 3.125000000000000e+00	 3.750000000000000e+00	 1.025367426923077e+01
0	 3.250000000000001e+00	 2.500000000000000e+00	 1.049119606153846e+01
0	 3.250000000000001e+00	 2.625000000000000e+00	 1.046099999015385e+01
0	 3.250000000000001e+00	 2.750000000000000e+00	 1.043289067446154e+01
0	 3.250000000000001e+00	 2.875000000000000e+00	 1.040686811446153e+01
0	 3.250000000000001e+00	 3.000000000000000e+00	 1.038293231015384e+01
0	 3.250000000000001e+00	 3.125000000000000e+00	 1.036108326153846e+01
0	 3.250000000000001e+00	 3.250000000000000e+00	 1.034132096861538e+01
0	 3.250000000000001e+00	 3.375000000000001e+00	 1.032364543138461e+01
0	 3.250000000000001e+00	 3.500000000000000e+00	 1.030805664984616e+01
0	 3.250000000000000e+00	 3.625000000000000e+00	 1.029455462400000e+01
0	 3.250000000000001e+00	 3.750000000000000e+00	 1.028313935384615e+01
0	 3.375000000000001e+00	 2.500000000000000e+00	 1.047659756153846e+01
0	 3.375000000000000e+00	 2.625000000000000e+00	 1.045248180569231e+01
0	 3.375000000000001e+00	 2.750000000000001e+00	 1.042986691661539e+01
0	 3.375000000000000e+00	 2.875000000000000e+00	 1.040875289430769e+01
0	 3.375000000000001e+00	 3.000000000000001e+00	 1.038913973876923e+01
0	 3.375000000000001e+00	 3.125000000000000e+00	 1.037102745000000e+01
0	 3.375000000000000e+00	 3.250000000000000e+00	 1.035441602800000e+01
0	 3.375000000000001e+00	 3.375000000000001e+00	 1.033930547276923e+01
0	 3.375000000000000e+00	 3.500000000000001e+00	 1.032569578430769e+01
0	 3.375000000000000e+00	 3.625000000000001e+00	 1.031358696261539e+01
0	 3.375000000000001e+00	 3.750000000000000e+00	 1.030297900769231e+01
0	 3.500000000000000e+00	 2.500000000000000e+00	 1.046526461538462e+01
0	 3.500000000000000e+00	 2.625000000000000e+00	 1.044594007661538e+01
0	 3.500000000000001e+00	 2.750000000000000e+00	 1.042753051569231e+01
0	 3.500000000000000e+00	 2.875000000000000e+00	 1.041003593261538e+01
0	 3.500000000000000e+00	 3.000000000000000e+00	 1.039345632738462e+01
0	 3.500000000000001e+00	 3.125000000000001e+00	 1.037779170000000e+01
0	 3.500000000000001e+00	 3.250000000000001e+00	 1.036304205046154e+01
0	 3.500000000000001e+00	 3.375000000000001e+00	 1.034920737876923e+01
0	 3.500000000000001e+00	 3.500000000000001e+00	 1.033628768492308e+01
0	 3.500000000000001e+00	 3.625000000000001e+00	 1.032428296892308e+01
0	 3.500000000000000e+00	 3.750000000000000e+00	 1.031319323076923e+01
0	 3.625000000000001e+00	 2.500000000000000e+00	 1.045719722307692e+01
0	 3.625000000000001e+00	 2.625000000000000e+00	 1.044137480292308e+01
0	 3.625000000000001e+00	 2.750000000000000e+00	 1.042588147169231e+01
0	 3.625000000000000e+00	 2.875000000000000e+00	 1.041071722938462e+01
0	 3.625000000000000e+00	 3.000000000000000e+00	 1.039588207600000e+01
0	 3.625000000000000e+00	 3.125000000000000e+00	 1.038137601153846e+01
0	 3.625000000000000e+00	 3.250000000000000e+00	 1.036719903600000e+01
0	 3.625000000000001e+00	 3.375000000000000e+00	 1.035335114938462e+01
0	 3.625000000000001e+00	 3.500000000000001e+00	 1.033983235169231e+01
0	 3.625000000000001e+00	 3.625000000000001e+00	 1.032664264292308e+01
0	 3.625000000000001e+00	 3.750000000000000e+00	 1.031378202307693e+01
0	 3.750000000000000e+00	 2.500000000000000e+00	 1.045239538461539e+01
0	 3.750000000000000e+00	 2.625000000000000e+00	 1.043878598461538e+01
0	 3.750000000000000e+00	 2.750000000000000e+00	 1.042491978461539e+01
0	 3.750000000000000e+00	 2.875000000000001e+00	 1.041079678461539e+01
0	 3.750000000000000e+00	 3.000000000000000e+00	 1.039641698461538e+01
0	 3.750000000000000e+00	 3.125000000000000e+00	 1.038178038461538e+01
0	 3.750000000000000e+00	 3.250000000000000e+00	 1.036688698461538e+01
0	 3.750000000000000e+00	 3.375000000000001e+00	 1.035173678461538e+01
0	 3.750000000000000e+00	 3.500000000000001e+00	 1.033632978461539e+01
0	 3.750000000000000e+00	 3.625000000000001e+00	 1.032066598461539e+01
0	 3.750000000000000e+00	 3.750000000000000e+00	 1.030474538461539e+01
0	 2.500000000000000e+00	 3.750000000000000e+00	 9.961967384615384e+00
0	 2.500000000000000e+00	 3.875000000000000e+00	 9.988062843846160e+00
0	 2.500000000000000e+00	 4.000000000000001e+00	 1.000913389846154e+01
0	 2.500000000000000e+00	 4.125000000000001e+00	 1.002518054846154e+01
0	 2.500000000000000e+00	 4.250000000000001e+00	 1.003620279384615e+01
0	 2.500000000000000e+00	 4.375000000000001e+00	 1.004220063461538e+01
0	 2.500000000000000e+00	 4.500000000000000e+00	 1.004317407076923e+01
0	 2.500000000000000e+00	 4.625000000000001e+00	 1.003912310230768e+01
0	 2.500000000000000e+00	 4.750000000000002e+00	 1.003004772923077e+01
0	 2.500000000000000e+00	 4.875000000000002e+00	 1.001594795153846e+01
0	 2.500000000000000e+00	 5.000000000000000e+00	 9.996823769230765e+00
0	 2.625000000000000e+00	 3.750000000000000e+00	 1.003955962307692e+01
0	 2.625000000000000e+00	 3.875000000000000e+00	 1.005588854484616e+01
0	 2.625000000000000e+00	 4.000000000000000e+00	 1.006780019323076e+01
0	 2.625000000000000e+00	 4.125000000000001e+00	 1.007529456823077e+01
0	 2.625000000000000e+00	 4.250000000000001e+00	 1.007837166984615e+01
0	 2.625000000000001e+00	 4.375000000000002e+00	 1.007703149807692e+01
0	 2.625000000000000e+00	 4.500000000000001e+00	 1.007127405292307e+01
0	 2.625000000000000e+00	 4.625000000000002e+00	 1.006109933438461e+01
0	 2.625000000000001e+00	 4.750000000000002e+00	 1.004650734246154e+01
0	 2.625000000000000e+00	 4.875000000000001e+00	 1.002749807715384e+01
0	 2.625000000000000e+00	 4.999999999999999e+00	 1.000407153846153e+01
0	 2.750000000000000e+00	 3.750000000000000e+00	 1.010752643076923e+01
0	 2.750000000000000e+00	 3.875000000000001e+00	 1.011510291046155e+01
0	 2.750000000000001e+00	 4.000000000000001e+00	 1.011886924800000e+01
0	 2.750000000000000e+00	 4.125000000000000e+00	 1.011882544338461e+01
0	 2.750000000000001e+00	 4.250000000000001e+00	 1.011497149661538e+01
0	 2.750000000000000e+00	 4.375000000000001e+00	 1.010730740769230e+01
0	 2.750000000000000e+00	 4.500000000000000e+00	 1.009583317661538e+01
0	 2.750000000000001e+00	 4.625000000000002e+00	 1.008054880338462e+01
0	 2.750000000000000e+00	 4.750000000000002e+00	 1.006145428799999e+01
0	 2.750000000000000e+00	 4.875000000000001e+00	 1.003854963046153e+01
0	 2.750000000000000e+00	 5.000000000000000e+00	 1.001183483076922e+01
0	 2.875000000000000e+00	 3.750000000000000e+00	 1.016586780769231e+01
0	 2.875000000000000e+00	 3.875000000000000e+00	 1.016570594069230e+01
0	 2.875000000000001e+00	 4.000000000000001e+00	 1.016234106276923e+01
0	 2.875000000000000e+00	 4.124999999999999e+00	 1.015577317392308e+01
0	 2.875000000000000e+00	 4.250000000000000e+00	 1.014600227415385e+01
0	 2.875000000000001e+00	 4.375000000000002e+00	 1.013302836346154e+01
0	 2.875000000000000e+00	 4.500000000000001e+00	 1.011685144184616e+01
0	 2.875000000000001e+00	 4.625000000000001e+00	 1.009747150930769e+01
0	 2.875000000000000e+00	 4.750000000000001e+00	 1.007488856584615e+01
0	 2.875000000000000e+00	 4.875000000000002e+00	 1.004910261146154e+01
0	 2.875000000000000e+00	 5.000000000000000e+00	 1.002011364615384e+01
0	 3.000000000000001e+00	 3.750000000000000e+00	 1.021458375384616e+01
0	 3.000000000000000e+00	 3.875000000000000e+00	 1.020769763553846e+01
0	 3.000000000000000e+00	 4.000000000000000e+00	 1.019821563753846e+01
0	 3.000000000000000e+00	 4.125000000000000e+00	 1.018613775984615e+01
0	 3.000000000000000e+00	 4.250000000000001e+00	 1.017146400246154e+01
0	 3.000000000000001e+00	 4.375000000000000e+00	 1.015419436538462e+01
0	 3.000000000000000e+00	 4.500000000000001e+00	 1.013432884861538e+01
0	 3.000000000000001e+00	 4.625000000000001e+00	 1.011186745215384e+01
0	 3.000000000000000e+00	 4.749999999999999e+00	 1.008681017599999e+01
0	 3.000000000000000e+00	 4.875000000000001e+00	 1.005915702015384e+01
0	 3.000000000000001e+00	 5.000000000000001e+00	 1.002890798461538e+01
0	 3.125000000000000e+00	 3.750000000000000e+00	 1.025367426923077e+01
0	 3.125000000000001e+00	 3.875000000000000e+00	 1.024107799500000e+01
0	 3.125000000000001e+00	 4.000000000000000e+00	 1.022649297230769e+01
0	 3.125000000000000e+00	 4.125000000000000e+00	 1.020991920115384e+01
0	 3.125000000000001e+00	 4.250000000000002e+00	 1.019135668153846e+01
0	 3.125000000000001e+00	 4.375000000000000e+00	 1.017080541346154e+01
0	 3.125000000000001e+00	 4.500000000000001e+00	 1.014826539692308e+01
0	 3.125000000000000e+00	 4.625000000000002e+00	 1.012373663192307e+01
0	 3.125000000000000e+00	 4.750000000000001e+00	 1.009721911846154e+01
0	 3.125000000000000e+00	 4.875000000000002e+00	 1.006871285653846e+01
0	 3.125000000000000e+00	 5.000000000000001e+00	 1.003821784615384e+01
0	 3.250000000000001e+00	 3.750000000000000e+00	 1.028313935384615e+01
0	 3.250000000000001e+00	 3.875000000000000e+00	 1.026584701907692e+01
0	 3.250000000000001e+00	 4.000000000000000e+00	 1.024717306707692e+01
0	 3.250000000000001e+00	 4.125000000000001e+00	 1.022711749784615e+01
0	 3.250000000000001e+00	 4.250000000000001e+00	 1.020568031138461e+01
0	 3.250000000000001e+00	 4.375000000000001e+00	 1.018286150769231e+01
0	 3.250000000000001e+00	 4.500000000000001e+00	 1.015866108676923e+01
0	 3.250000000000001e+00	 4.625000000000002e+00	 1.013307904861538e+01
0	 3.250000000000001e+00	 4.750000000000003e+00	 1.010611539323077e+01
0	 3.250000000000000e+00	 4.875000000000001e+00	 1.007777012061538e+01
0	 3.250000000000001e+00	 4.999999999999999e+00	 1.004804323076922e+01
0	 3.375000000000001e+00	 3.750000000000000e+00	 1.030297900769231e+01
0	 3.375000000000000e+00	 3.875000000000000e+00	 1.028200470776923e+01
0	 3.375000000000001e+00	 4.000000000000001e+00	 1.026025592184616e+01
0	 3.375000000000000e+00	 4.125000000000000e+00	 1.023773264992308e+01
0	 3.375000000000001e+00	 4.250000000000000e+00	 1.021443489200000e+01
0	 3.375000000000001e+00	 4.375000000000001e+00	 1.019036264807692e+01
0	 3.375000000000000e+00	 4.499999999999999e+00	 1.016551591815385e+01
0	 3.375000000000001e+00	 4.625000000000001e+00	 1.013989470223077e+01
0	 3.375000000000000e+00	 4.750000000000001e+00	 1.011349900030769e+01
0	 3.375000000000000e+00	 4.875000000000001e+00	 1.008632881238462e+01
0	 3.375000000000001e+00	 5.000000000000000e+00	 1.005838413846153e+01
0	 3.500000000000000e+00	 3.750000000000000e+00	 1.031319323076923e+01
0	 3.500000000000000e+00	 3.875000000000000e+00	 1.028955106107693e+01
0	 3.500000000000001e+00	 4.000000000000000e+00	 1.026574153661539e+01
0	 3.500000000000000e+00	 4.125000000000000e+00	 1.024176465738461e+01
0	 3.500000000000000e+00	 4.249999999999999e+00	 1.021762042338462e+01
0	 3.500000000000001e+00	 4.375000000000000e+00	 1.019330883461538e+01
0	 3.500000000000001e+00	 4.500000000000003e+00	 1.016882989107692e+01
0	 3.500000000000001e+00	 4.625000000000002e+00	 1.014418359276923e+01
0	 3.500000000000001e+00	 4.750000000000002e+00	 1.011936993969231e+01
0	 3.500000000000001e+00	 4.875000000000002e+00	 1.009438893184615e+01
0	 3.500000000000000e+00	 5.000000000000000e+00	 1.006924056923077e+01
0	 3.625000000000001e+00	 3.750000000000000e+00	 1.031378202307693e+01
0	 3.625000000000001e+00	 3.875000000000000e+00	 1.028848607900000e+01
0	 3.625000000000001e+00	 4.000000000000000e+00	 1.026362991138462e+01
0	 3.625000000000000e+00	 4.125000000000000e+00	 1.023921352023077e+01
0	 3.625000000000000e+00	 4.250000000000000e+00	 1.021523690553846e+01
0	 3.625000000000000e+00	 4.375000000000000e+00	 1.019170006730769e+01
0	 3.625000000000000e+00	 4.500000000000001e+00	 1.016860300553846e+01
0	 3.625000000000001e+00	 4.625000000000000e+00	 1.014594572023078e+01
0	 3.625000000000001e+00	 4.750000000000002e+00	 1.012372821138461e+01
0	 3.625000000000001e+00	 4.875000000000001e+00	 1.010195047900000e+01
0	 3.625000000000001e+00	 5.000000000000000e+00	 1.008061252307693e+01
0	 3.750000000000000e+00	 3.750000000000000e+00	 1.030474538461539e+01
0	 3.750000000000000e+00	 3.875000000000000e+00	 1.027880976153846e+01
0	 3.750000000000000e+00	 4.000000000000001e+00	 1.025392104615385e+01
0	 3.750000000000000e+00	 4.125000000000001e+00	 1.023007923846153e+01
0	 3.750000000000000e+00	 4.250000000000001e+00	 1.020728433846154e+01
0	 3.750000000000000e+00	 4.375000000000001e+00	 1.018553634615385e+01
0	 3.750000000000000e+00	 4.500000000000000e+00	 1.016483526153846e+01
0	 3.750000000000000e+00	 4.625000000000001e+00	 1.014518108461538e+01
0	 3.750000000000000e+00	 4.750000000000002e+00	 1.012657381538462e+01
0	 3.750000000000000e+00	 4.875000000000002e+00	 1.010901345384615e+01
0	 3.750000000000000e+00	 5.000000000000000e+00	 1.009250000000000e+01
0	 2.500000000000000e+00	 5.000000000000000e+00	 9.996823769230765e+00
0	 2.500000000000000e+00	 5.124999999999999e+00	 9.985538964615394e+00
0	 2.500000000000000e+00	 5.250000000000000e+00	 9.975851627692304e+00
0	 2.500000000000000e+00	 5.374999999999998e+00	 9.967761758461529e+00
0	 2.500000000000000e+00	 5.499999999999999e+00	 9.961269356923070e+00
0	 2.500000000000000e+00	 5.624999999999997e+00	 9.956374423076918e+00
0	 2.500000000000000e+00	 5.749999999999997e+00	 9.953076956923072e+00
0	 2.500000000000000e+00	 5.874999999999996e+00	 9.951376958461536e+00
0	 2.500000000000000e+00	 5.999999999999996e+00	 9.951274427692297e+00
0	 2.500000000000000e+00	 6.124999999999996e+00	 9.952769364615385e+00
0	 2.500000000000000e+00	 6.250000000000000e+00	 9.955861769230761e+00
0	 2.625000000000000e+00	 4.999999999999999e+00	 1.000407153846153e+01
0	 2.625000000000000e+00	 5.125000000000000e+00	 9.995165664307690e+00
0	 2.625000000000000e+00	 5.249999999999997e+00	 9.987607755692306e+00
0	 2.624999999999999e+00	 5.374999999999997e+00	 9.981397812615381e+00
0	 2.625000000000000e+00	 5.499999999999997e+00	 9.976535835076923e+00
0	 2.625000000000000e+00	 5.624999999999997e+00	 9.973021823076920e+00
0	 2.625000000000000e+00	 5.749999999999997e+00	 9.970855776615380e+00
0	 2.624999999999999e+00	 5.874999999999996e+00	 9.970037695692309e+00
0	 2.625000000000000e+00	 5.999999999999997e+00	 9.970567580307693e+00
0	 2.625000000000000e+00	 6.124999999999997e+00	 9.972445430461532e+00
0	 2.625000000000000e+00	 6.250000000000000e+00	 9.975671246153839e+00
0	 2.750000000000000e+00	 5.000000000000000e+00	 1.001183483076922e+01
0	 2.750000000000000e+00	 5.124999999999999e+00	 1.000505231169230e+01
0	 2.750000000000000e+00	 5.249999999999999e+00	 9.999368256000006e+00
0	 2.750000000000000e+00	 5.374999999999999e+00	 9.994782663692304e+00
0	 2.750000000000000e+00	 5.499999999999999e+00	 9.991295534769225e+00
0	 2.750000000000000e+00	 5.624999999999997e+00	 9.988906869230764e+00
0	 2.750000000000000e+00	 5.749999999999997e+00	 9.987616667076921e+00
0	 2.750000000000000e+00	 5.874999999999997e+00	 9.987424928307689e+00
0	 2.750000000000000e+00	 5.999999999999996e+00	 9.988331652923069e+00
0	 2.750000000000000e+00	 6.124999999999996e+00	 9.990336840923069e+00
0	 2.750000000000000e+00	 6.250000000000001e+00	 9.993440492307688e+00
0	 2.875000000000000e+00	 5.000000000000000e+00	 1.002011364615384e+01
0	 2.875000000000000e+00	 5.124999999999999e+00	 1.001519890676923e+01
0	 2.875000000000000e+00	 5.249999999999999e+00	 1.001113312861538e+01
0	 2.875000000000000e+00	 5.374999999999998e+00	 1.000791631169230e+01
0	 2.875000000000000e+00	 5.499999999999997e+00	 1.000554845599999e+01
0	 2.875000000000000e+00	 5.624999999999997e+00	 1.000402956153846e+01
0	 2.875000000000000e+00	 5.749999999999998e+00	 1.000335962830768e+01
0	 2.875000000000000e+00	 5.874999999999996e+00	 1.000353865630769e+01
0	 2.875000000000000e+00	 5.999999999999996e+00	 1.000456664553846e+01
0	 2.875000000000000e+00	 6.124999999999995e+00	 1.000644359600000e+01
0	 2.875000000000000e+00	 6.250000000000000e+00	 1.000916950769230e+01
0	 3.000000000000001e+00	 5.000000000000001e+00	 1.002890798461538e+01
0	 3.000000000000001e+00	 5.125000000000000e+00	 1.002560544953846e+01
0	 3.000000000000001e+00	 5.250000000000000e+00	 1.002290237353845e+01
0	 3.000000000000000e+00	 5.374999999999998e+00	 1.002079875661538e+01
0	 3.000000000000001e+00	 5.499999999999998e+00	 1.001929459876923e+01
0	 3.000000000000000e+00	 5.624999999999996e+00	 1.001838989999999e+01
0	 3.000000000000001e+00	 5.749999999999998e+00	 1.001808466030769e+01
0	 3.000000000000000e+00	 5.874999999999997e+00	 1.001837887969230e+01
0	 3.000000000000000e+00	 5.999999999999997e+00	 1.001927255815384e+01
0	 3.000000000000001e+00	 6.124999999999996e+00	 1.002076569569230e+01
0	 3.000000000000001e+00	 6.250000000000000e+00	 1.002285829230769e+01
0	 3.125000000000000e+00	 5.000000000000001e+00	 1.003821784615384e+01
0	 3.125000000000001e+00	 5.124999999999998e+00	 1.003627194000000e+01
0	 3.125000000000000e+00	 5.249999999999999e+00	 1.003467599076922e+01
0	 3.125000000000000e+00	 5.375000000000000e+00	 1.003342999846154e+01
0	 3.125000000000000e+00	 5.499999999999998e+00	 1.003253396307692e+01
0	 3.125000000000001e+00	 5.624999999999999e+00	 1.003198788461538e+01
0	 3.125000000000000e+00	 5.749999999999996e+00	 1.003179176307692e+01
0	 3.125000000000001e+00	 5.874999999999998e+00	 1.003194559846153e+01
0	 3.125000000000000e+00	 5.999999999999998e+00	 1.003244939076922e+01
0	 3.125000000000001e+00	 6.124999999999997e+00	 1.003330313999999e+01
0	 3.125000000000000e+00	 6.250000000000000e+00	 1.003450684615384e+01
0	 3.250000000000001e+00	 4.999999999999999e+00	 1.004804323076922e+01
0	 3.250000000000001e+00	 5.124999999999999e+00	 1.004719837815385e+01
0	 3.250000000000000e+00	 5.249999999999999e+00	 1.004645398030769e+01
0	 3.250000000000000e+00	 5.374999999999997e+00	 1.004581003723077e+01
0	 3.250000000000001e+00	 5.499999999999998e+00	 1.004526654892307e+01
0	 3.250000000000000e+00	 5.624999999999997e+00	 1.004482351538461e+01
0	 3.250000000000001e+00	 5.749999999999997e+00	 1.004448093661538e+01
0	 3.250000000000000e+00	 5.874999999999996e+00	 1.004423881261539e+01
0	 3.250000000000001e+00	 5.999999999999997e+00	 1.004409714338461e+01
0	 3.250000000000001e+00	 6.124999999999996e+00	 1.004405592892307e+01
0	 3.250000000000001e+00	 6.250000000000000e+00	 1.004411516923076e+01
0	 3.375000000000001e+00	 5.000000000000000e+00	 1.005838413846153e+01
0	 3.375000000000001e+00	 5.124999999999999e+00	 1.005838476400000e+01
0	 3.375000000000000e+00	 5.249999999999999e+00	 1.005823634215384e+01
0	 3.375000000000000e+00	 5.374999999999998e+00	 1.005793887292308e+01
0	 3.375000000000001e+00	 5.499999999999998e+00	 1.005749235630768e+01
0	 3.375000000000001e+00	 5.624999999999999e+00	 1.005689679230769e+01
0	 3.375000000000000e+00	 5.749999999999996e+00	 1.005615218092308e+01
0	 3.375000000000001e+00	 5.874999999999997e+00	 1.005525852215384e+01
0	 3.375000000000001e+00	 5.999999999999996e+00	 1.005421581600000e+01
0	 3.375000000000001e+00	 6.124999999999996e+00	 1.005302406246154e+01
0	 3.375000000000001e+00	 6.249999999999999e+00	 1.005168326153846e+01
0	 3.500000000000000e+00	 5.000000000000000e+00	 1.006924056923077e+01
0	 3.500000000000001e+00	 5.125000000000000e+00	 1.006983109753846e+01
0	 3.500000000000001e+00	 5.249999999999999e+00	 1.007002307630769e+01
0	 3.500000000000001e+00	 5.374999999999999e+00	 1.006981650553846e+01
0	 3.500000000000001e+00	 5.499999999999999e+00	 1.006921138523077e+01
0	 3.500000000000001e+00	 5.624999999999998e+00	 1.006820771538461e+01
0	 3.500000000000002e+00	 5.749999999999998e+00	 1.006680549600000e+01
0	 3.500000000000001e+00	 5.874999999999997e+00	 1.006500472707692e+01
0	 3.500000000000001e+00	 5.999999999999996e+00	 1.006280540861539e+01
0	 3.500000000000001e+00	 6.124999999999996e+00	 1.006020754061537e+01
0	 3.500000000000000e+00	 6.250000000000000e+00	 1.005721112307691e+01
0	 3.625000000000001e+00	 5.000000000000000e+00	 1.008061252307693e+01
0	 3.625000000000000e+00	 5.125000000000000e+00	 1.008153737876923e+01
0	 3.625000000000001e+00	 5.249999999999999e+00	 1.008181418276923e+01
0	 3.625000000000000e+00	 5.374999999999998e+00	 1.008144293507692e+01
0	 3.625000000000001e+00	 5.499999999999998e+00	 1.008042363569230e+01
0	 3.625000000000000e+00	 5.624999999999997e+00	 1.007875628461538e+01
0	 3.625000000000001e+00	 5.749999999999996e+00	 1.007644088184615e+01
0	 3.625000000000000e+00	 5.874999999999996e+00	 1.007347742738461e+01
0	 3.625000000000001e+00	 5.999999999999996e+00	 1.006986592123076e+01
0	 3.625000000000001e+00	 6.124999999999996e+00	 1.006560636338461e+01
0	 3.625000000000001e+00	 6.250000000000000e+00	 1.006069875384614e+01
0	 3.750000000000000e+00	 5.000000000000000e+00	 1.009250000000000e+01
0	 3.750000000000000e+00	 5.124999999999999e+00	 1.009350360769232e+01
0	 3.750000000000000e+00	 5.250000000000000e+00	 1.009360966153846e+01
0	 3.750000000000000e+00	 5.374999999999998e+00	 1.009281816153845e+01
0	 3.750000000000000e+00	 5.499999999999999e+00	 1.009112910769230e+01
0	 3.750000000000000e+00	 5.624999999999997e+00	 1.008854250000000e+01
0	 3.750000000000000e+00	 5.749999999999997e+00	 1.008505833846153e+01
0	 3.750000000000000e+00	 5.874999999999996e+00	 1.008067662307692e+01
0	 3.750000000000000e+00	 5.999999999999996e+00	 1.007539735384615e+01
0	 3.750000000000000e+00	 6.124999999999996e+00	 1.006922053076923e+01
0	 3.750000000000000e+00	 6.250000000000000e+00	 1.006214615384615e+01
0	 2.500000000000000e+00	 6.250000000000000e+00	 9.955861769230761e+00
0	 2.500000000000000e+00	 6.375000000000000e+00	 9.961976739999983e+00
0	 2.500000000000000e+00	 6.500000000000000e+00	 9.967222606153834e+00
0	 2.500000000000000e+00	 6.624999999999998e+00	 9.971599367692306e+00
0	 2.500000000000000e+00	 6.749999999999998e+00	 9.975107024615379e+00
0	 2.500000000000000e+00	 6.874999999999998e+00	 9.977745576923072e+00
0	 2.500000000000000e+00	 6.999999999999997e+00	 9.979515024615385e+00
0	 2.500000000000000e+00	 7.124999999999996e+00	 9.980415367692306e+00
0	 2.500000000000000e+00	 7.249999999999997e+00	 9.980446606153849e+00
0	 2.500000000000000e+00	 7.374999999999996e+00	 9.979608739999993e+00
0	 2.500000000000000e+00	 7.500000000000000e+00	 9.977901769230773e+00
0	 2.625000000000000e+00	 6.250000000000000e+00	 9.975671246153839e+00
0	 2.625000000000000e+00	 6.374999999999997e+00	 9.979618685230761e+00
0	 2.625000000000000e+00	 6.500000000000000e+00	 9.982807459384606e+00
0	 2.624999999999999e+00	 6.624999999999996e+00	 9.985237568615378e+00
0	 2.625000000000000e+00	 6.749999999999996e+00	 9.986909012923075e+00
0	 2.625000000000000e+00	 6.874999999999996e+00	 9.987821792307692e+00
0	 2.625000000000000e+00	 6.999999999999998e+00	 9.987975906769227e+00
0	 2.624999999999999e+00	 7.124999999999997e+00	 9.987371356307696e+00
0	 2.625000000000000e+00	 7.249999999999996e+00	 9.986008140923079e+00
0	 2.625000000000000e+00	 7.374999999999996e+00	 9.983886260615396e+00
0	 2.625000000000000e+00	 7.500000000000001e+00	 9.981005715384617e+00
0	 2.750000000000000e+00	 6.250000000000001e+00	 9.993440492307688e+00
0	 2.750000000000000e+00	 6.374999999999999e+00	 9.995435816615384e+00
0	 2.750000000000000e+00	 6.500000000000000e+00	 9.996782915692309e+00
0	 2.750000000000000e+00	 6.624999999999999e+00	 9.997481789538458e+00
0	 2.750000000000000e+00	 6.749999999999998e+00	 9.997532438153840e+00
0	 2.750000000000000e+00	 6.874999999999999e+00	 9.996934861538463e+00
0	 2.750000000000000e+00	 6.999999999999997e+00	 9.995689059692307e+00
0	 2.750000000000000e+00	 7.124999999999998e+00	 9.993795032615385e+00
0	 2.750000000000000e+00	 7.249999999999996e+00	 9.991252780307690e+00
0	 2.750000000000000e+00	 7.374999999999996e+00	 9.988062302769228e+00
0	 2.750000000000000e+00	 7.500000000000000e+00	 9.984223600000000e+00
0	 2.875000000000000e+00	 6.250000000000000e+00	 1.000916950769230e+01
0	 2.875000000000000e+00	 6.375000000000001e+00	 1.000942813415384e+01
0	 2.875000000000000e+00	 6.500000000000000e+00	 1.000914897507692e+01
0	 2.875000000000000e+00	 6.624999999999997e+00	 1.000833203046154e+01
0	 2.875000000000000e+00	 6.749999999999996e+00	 1.000697730030769e+01
0	 2.875000000000000e+00	 6.874999999999998e+00	 1.000508478461538e+01
0	 2.875000000000000e+00	 6.999999999999997e+00	 1.000265448338462e+01
0	 2.875000000000000e+00	 7.124999999999997e+00	 9.999686396615393e+00
0	 2.875000000000000e+00	 7.249999999999996e+00	 9.996180524307702e+00
0	 2.875000000000000e+00	 7.374999999999996e+00	 9.992136866461548e+00
0	 2.875000000000000e+00	 7.500000000000001e+00	 9.987555423076925e+00
0	 3.000000000000001e+00	 6.250000000000000e+00	 1.002285829230769e+01
0	 3.000000000000001e+00	 6.375000000000001e+00	 1.002159563784614e+01
0	 3.000000000000001e+00	 6.500000000000000e+00	 1.001990563753846e+01
0	 3.000000000000000e+00	 6.624999999999999e+00	 1.001778829138462e+01
0	 3.000000000000001e+00	 6.749999999999998e+00	 1.001524359938462e+01
0	 3.000000000000000e+00	 6.874999999999996e+00	 1.001227156153846e+01
0	 3.000000000000001e+00	 6.999999999999997e+00	 1.000887217784615e+01
0	 3.000000000000000e+00	 7.124999999999996e+00	 1.000504544830769e+01
0	 3.000000000000000e+00	 7.249999999999997e+00	 1.000079137292308e+01
0	 3.000000000000001e+00	 7.374999999999996e+00	 9.996109951692315e+00
0	 3.000000000000001e+00	 7.500000000000000e+00	 9.991001184615396e+00
0	 3.125000000000000e+00	 6.250000000000000e+00	 1.003450684615384e+01
0	 3.125000000000001e+00	 6.374999999999999e+00	 1.003193832769230e+01
0	 3.125000000000000e+00	 6.500000000000000e+00	 1.002905290307693e+01
0	 3.125000000000000e+00	 6.625000000000000e+00	 1.002585057230769e+01
0	 3.125000000000000e+00	 6.749999999999997e+00	 1.002233133538462e+01
0	 3.125000000000001e+00	 6.874999999999998e+00	 1.001849519230769e+01
0	 3.125000000000000e+00	 6.999999999999997e+00	 1.001434214307692e+01
0	 3.125000000000001e+00	 7.124999999999997e+00	 1.000987218769231e+01
0	 3.125000000000000e+00	 7.249999999999996e+00	 1.000508532615386e+01
0	 3.125000000000001e+00	 7.374999999999997e+00	 9.999981558461547e+00
0	 3.125000000000000e+00	 7.500000000000000e+00	 9.994560884615389e+00
0	 3.250000000000001e+00	 6.250000000000000e+00	 1.004411516923076e+01
0	 3.250000000000001e+00	 6.375000000000000e+00	 1.004045620369230e+01
0	 3.250000000000000e+00	 6.499999999999999e+00	 1.003659077169231e+01
0	 3.250000000000000e+00	 6.624999999999998e+00	 1.003251887323076e+01
0	 3.250000000000001e+00	 6.749999999999998e+00	 1.002824050830769e+01
0	 3.250000000000000e+00	 6.874999999999997e+00	 1.002375567692308e+01
0	 3.250000000000001e+00	 6.999999999999996e+00	 1.001906437907692e+01
0	 3.250000000000000e+00	 7.124999999999997e+00	 1.001416661476923e+01
0	 3.250000000000001e+00	 7.249999999999996e+00	 1.000906238400000e+01
0	 3.250000000000001e+00	 7.374999999999996e+00	 1.000375168676922e+01
0	 3.250000000000001e+00	 7.500000000000000e+00	 9.998234523076935e+00
0	 3.375000000000001e+00	 6.249999999999999e+00	 1.005168326153846e+01
0	 3.375000000000001e+00	 6.375000000000001e+00	 1.004714926584614e+01
0	 3.375000000000000e+00	 6.499999999999999e+00	 1.004251924338461e+01
0	 3.375000000000000e+00	 6.624999999999997e+00	 1.003779319415384e+01
0	 3.375000000000001e+00	 6.749999999999998e+00	 1.003297111815384e+01
0	 3.375000000000001e+00	 6.874999999999998e+00	 1.002805301538462e+01
0	 3.375000000000000e+00	 6.999999999999998e+00	 1.002303888584616e+01
0	 3.375000000000001e+00	 7.124999999999997e+00	 1.001792872953846e+01
0	 3.375000000000001e+00	 7.249999999999996e+00	 1.001272254646154e+01
0	 3.375000000000001e+00	 7.374999999999997e+00	 1.000742033661539e+01
0	 3.375000000000001e+00	 7.499999999999999e+00	 1.000202210000000e+01
0	 3.500000000000000e+00	 6.250000000000000e+00	 1.005721112307691e+01
0	 3.500000000000001e+00	 6.375000000000000e+00	 1.005201751415384e+01
0	 3.500000000000001e+00	 6.499999999999999e+00	 1.004683831815384e+01
0	 3.500000000000001e+00	 6.624999999999998e+00	 1.004167353507692e+01
0	 3.500000000000001e+00	 6.749999999999999e+00	 1.003652316492308e+01
0	 3.500000000000001e+00	 6.874999999999998e+00	 1.003138720769231e+01
0	 3.500000000000002e+00	 6.999999999999997e+00	 1.002626566338462e+01
0	 3.500000000000001e+00	 7.124999999999996e+00	 1.002115853200000e+01
0	 3.500000000000001e+00	 7.249999999999996e+00	 1.001606581353846e+01
0	 3.500000000000001e+00	 7.374999999999996e+00	 1.001098750800001e+01
0	 3.500000000000000e+00	 7.500000000000000e+00	 1.000592361538463e+01
0	 3.625000000000001e+00	 6.250000000000000e+00	 1.006069875384614e+01
0	 3.625000000000000e+00	 6.374999999999998e+00	 1.005506094861538e+01
0	 3.625000000000001e+00	 6.499999999999999e+00	 1.004954799599999e+01
0	 3.625000000000000e+00	 6.625000000000000e+00	 1.004415989599999e+01
0	 3.625000000000001e+00	 6.749999999999999e+00	 1.003889664861539e+01
0	 3.625000000000000e+00	 6.874999999999996e+00	 1.003375825384616e+01
0	 3.625000000000001e+00	 6.999999999999998e+00	 1.002874471169231e+01
0	 3.625000000000000e+00	 7.124999999999996e+00	 1.002385602215385e+01
0	 3.625000000000001e+00	 7.249999999999997e+00	 1.001909218523078e+01
0	 3.625000000000001e+00	 7.374999999999996e+00	 1.001445320092308e+01
0	 3.625000000000001e+00	 7.500000000000000e+00	 1.000993906923078e+01
0	 3.750000000000000e+00	 6.250000000000000e+00	 1.006214615384615e+01
0	 3.750000000000000e+00	 6.375000000000000e+00	 1.005627956923075e+01
0	 3.750000000000000e+00	 6.500000000000000e+00	 1.005064827692307e+01
0	 3.750000000000000e+00	 6.624999999999998e+00	 1.004525227692308e+01
0	 3.750000000000000e+00	 6.749999999999998e+00	 1.004009156923077e+01
0	 3.750000000000000e+00	 6.874999999999998e+00	 1.003516615384616e+01
0	 3.750000000000000e+00	 6.999999999999997e+00	 1.003047603076923e+01
0	 3.750000000000000e+00	 7.124999999999996e+00	 1.002602120000000e+01
0	 3.750000000000000e+00	 7.249999999999997e+00	 1.002180166153847e+01
0	 3.750000000000000e+00	 7.374999999999996e+00	 1.001781741538462e+01
0	 3.750000000000000e+00	 7.500000000000000e+00	 1.001406846153847e+01
0	 2.500000000000000e+00	 7.500000000000000e+00	 9.977901769230773e+00
0	 2.500000000000000e+00	 7.625000000000000e+00	 9.978114503846166e+00
0	 2.500000000000000e+00	 7.750000000000000e+00	 9.978689292307694e+00
0	 2.500000000000000e+00	 7.874999999999998e+00	 9.979626134615387e+00
0	 2.500000000000000e+00	 7.999999999999999e+00	 9.980925030769232e+00
0	 2.500000000000000e+00	 8.124999999999998e+00	 9.982585980769235e+00
0	 2.500000000000000e+00	 8.249999999999998e+00	 9.984608984615383e+00
0	 2.500000000000000e+00	 8.374999999999996e+00	 9.986994042307691e+00
0	 2.500000000000000e+00	 8.499999999999996e+00	 9.989741153846150e+00
0	 2.500000000000000e+00	 8.624999999999996e+00	 9.992850319230778e+00
0	 2.500000000000000e+00	 8.750000000000000e+00	 9.996321538461538e+00
0	 2.625000000000000e+00	 7.500000000000001e+00	 9.981005715384617e+00
0	 2.625000000000000e+00	 7.624999999999997e+00	 9.981372516538460e+00
0	 2.625000000000000e+00	 7.749999999999998e+00	 9.982039726153854e+00
0	 2.624999999999999e+00	 7.874999999999996e+00	 9.983007344230774e+00
0	 2.625000000000000e+00	 7.999999999999997e+00	 9.984275370769236e+00
0	 2.625000000000000e+00	 8.124999999999996e+00	 9.985843805769225e+00
0	 2.625000000000000e+00	 8.249999999999998e+00	 9.987712649230772e+00
0	 2.624999999999999e+00	 8.374999999999996e+00	 9.989881901153844e+00
0	 2.625000000000000e+00	 8.499999999999996e+00	 9.992351561538463e+00
0	 2.625000000000000e+00	 8.624999999999995e+00	 9.995121630384611e+00
0	 2.625000000000000e+00	 8.750000000000000e+00	 9.998192107692319e+00
0	 2.750000000000000e+00	 7.500000000000000e+00	 9.984223600000000e+00
0	 2.750000000000000e+00	 7.624999999999998e+00	 9.984711664615393e+00
0	 2.750000000000000e+00	 7.750000000000000e+00	 9.985438492307694e+00
0	 2.750000000000000e+00	 7.874999999999999e+00	 9.986404083076918e+00
0	 2.750000000000000e+00	 7.999999999999998e+00	 9.987608436923072e+00
0	 2.750000000000000e+00	 8.124999999999998e+00	 9.989051553846153e+00
0	 2.750000000000000e+00	 8.249999999999998e+00	 9.990733433846156e+00
0	 2.750000000000000e+00	 8.374999999999995e+00	 9.992654076923078e+00
0	 2.750000000000000e+00	 8.499999999999996e+00	 9.994813483076927e+00
0	 2.750000000000000e+00	 8.624999999999996e+00	 9.997211652307691e+00
0	 2.750000000000000e+00	 8.750000000000000e+00	 9.999848584615378e+00
0	 2.875000000000000e+00	 7.500000000000001e+00	 9.987555423076925e+00
0	 2.875000000000000e+00	 7.625000000000000e+00	 9.988131948076933e+00
0	 2.875000000000000e+00	 7.749999999999999e+00	 9.988885590769236e+00
0	 2.875000000000000e+00	 7.874999999999998e+00	 9.989816351153845e+00
0	 2.875000000000000e+00	 7.999999999999996e+00	 9.990924229230775e+00
0	 2.875000000000000e+00	 8.124999999999998e+00	 9.992209225000000e+00
0	 2.875000000000000e+00	 8.249999999999998e+00	 9.993671338461541e+00
0	 2.875000000000000e+00	 8.374999999999996e+00	 9.995310569615384e+00
0	 2.875000000000000e+00	 8.499999999999996e+00	 9.997126918461550e+00
0	 2.875000000000000e+00	 8.624999999999995e+00	 9.999120385000007e+00
0	 2.875000000000000e+00	 8.750000000000000e+00	 1.000129096923076e+01
0	 3.000000000000001e+00	 7.500000000000000e+00	 9.991001184615396e+00
0	 3.000000000000001e+00	 7.625000000000000e+00	 9.991633366923089e+00
0	 3.000000000000001e+00	 7.749999999999999e+00	 9.992381021538471e+00
0	 3.000000000000000e+00	 7.874999999999998e+00	 9.993244148461532e+00
0	 3.000000000000001e+00	 8.000000000000000e+00	 9.994222747692310e+00
0	 3.000000000000000e+00	 8.124999999999996e+00	 9.995316819230768e+00
0	 3.000000000000001e+00	 8.249999999999998e+00	 9.996526363076917e+00
0	 3.000000000000000e+00	 8.374999999999996e+00	 9.997851379230775e+00
0	 3.000000000000000e+00	 8.499999999999996e+00	 9.999291867692294e+00
0	 3.000000000000001e+00	 8.624999999999996e+00	 1.000084782846155e+01
0	 3.000000000000001e+00	 8.750000000000000e+00	 1.000251926153846e+01
0	 3.125000000000000e+00	 7.500000000000000e+00	 9.994560884615389e+00
0	 3.125000000000001e+00	 7.625000000000000e+00	 9.995215921153845e+00
0	 3.125000000000000e+00	 7.749999999999999e+00	 9.995924784615388e+00
0	 3.125000000000000e+00	 7.874999999999998e+00	 9.996687475000007e+00
0	 3.125000000000000e+00	 7.999999999999996e+00	 9.997503992307688e+00
0	 3.125000000000001e+00	 8.125000000000000e+00	 9.998374336538465e+00
0	 3.125000000000000e+00	 8.249999999999996e+00	 9.999298507692306e+00
0	 3.125000000000001e+00	 8.374999999999996e+00	 1.000027650576923e+01
0	 3.125000000000000e+00	 8.499999999999996e+00	 1.000130833076924e+01
0	 3.125000000000001e+00	 8.624999999999998e+00	 1.000239398269231e+01
0	 3.125000000000000e+00	 8.750000000000002e+00	 1.000353346153847e+01
0	 3.250000000000001e+00	 7.500000000000000e+00	 9.998234523076935e+00
0	 3.250000000000001e+00	 7.624999999999999e+00	 9.998879610769237e+00
0	 3.250000000000000e+00	 7.749999999999999e+00	 9.999516880000007e+00
0	 3.250000000000000e+00	 7.874999999999997e+00	 1.000014633076924e+01
0	 3.250000000000001e+00	 7.999999999999999e+00	 1.000076796307693e+01
0	 3.250000000000000e+00	 8.124999999999996e+00	 1.000138177692308e+01
0	 3.250000000000001e+00	 8.249999999999998e+00	 1.000198777230769e+01
0	 3.250000000000000e+00	 8.374999999999996e+00	 1.000258594923077e+01
0	 3.250000000000001e+00	 8.499999999999996e+00	 1.000317630769231e+01
0	 3.250000000000001e+00	 8.624999999999996e+00	 1.000375884769231e+01
0	 3.250000000000001e+00	 8.750000000000000e+00	 1.000433356923077e+01
0	 3.375000000000001e+00	 7.499999999999999e+00	 1.000202210000000e+01
0	 3.375000000000001e+00	 7.625000000000001e+00	 1.000262443576925e+01
0	 3.375000000000000e+00	 7.749999999999999e+00	 1.000315730769231e+01
0	 3.375000000000000e+00	 7.874999999999997e+00	 1.000362071576923e+01
0	 3.375000000000001e+00	 7.999999999999997e+00	 1.000401466000000e+01
0	 3.375000000000001e+00	 8.125000000000000e+00	 1.000433914038462e+01
0	 3.375000000000000e+00	 8.249999999999996e+00	 1.000459415692308e+01
0	 3.375000000000001e+00	 8.374999999999998e+00	 1.000477970961539e+01
0	 3.375000000000001e+00	 8.499999999999996e+00	 1.000489579846154e+01
0	 3.375000000000001e+00	 8.624999999999998e+00	 1.000494242346154e+01
0	 3.375000000000001e+00	 8.750000000000000e+00	 1.000491958461539e+01
0	 3.500000000000000e+00	 7.500000000000000e+00	 1.000592361538463e+01
0	 3.500000000000001e+00	 7.624999999999999e+00	 1.000645039615386e+01
0	 3.500000000000001e+00	 7.750000000000000e+00	 1.000684606769232e+01
0	 3.500000000000001e+00	 7.874999999999998e+00	 1.000711063000000e+01
0	 3.500000000000001e+00	 7.999999999999999e+00	 1.000724408307693e+01
0	 3.500000000000001e+00	 8.124999999999996e+00	 1.000724642692308e+01
0	 3.500000000000002e+00	 8.249999999999998e+00	 1.000711766153847e+01
0	 3.500000000000001e+00	 8.374999999999996e+00	 1.000685778692308e+01
0	 3.500000000000001e+00	 8.499999999999996e+00	 1.000646680307692e+01
0	 3.500000000000001e+00	 8.624999999999995e+00	 1.000594471000000e+01
0	 3.500000000000000e+00	 8.750000000000000e+00	 1.000529150769231e+01
0	 3.625000000000001e+00	 7.500000000000000e+00	 1.000993906923078e+01
0	 3.625000000000000e+00	 7.624999999999997e+00	 1.001035749192308e+01
0	 3.625000000000001e+00	 7.749999999999998e+00	 1.001058316000000e+01
0	 3.625000000000000e+00	 7.875000000000000e+00	 1.001061607346154e+01
0	 3.625000000000001e+00	 7.999999999999998e+00	 1.001045623230770e+01
0	 3.625000000000000e+00	 8.124999999999996e+00	 1.001010363653846e+01
0	 3.625000000000001e+00	 8.249999999999998e+00	 1.000955828615385e+01
0	 3.625000000000000e+00	 8.374999999999995e+00	 1.000882018115385e+01
0	 3.625000000000001e+00	 8.499999999999996e+00	 1.000788932153846e+01
0	 3.625000000000001e+00	 8.624999999999996e+00	 1.000676570730769e+01
0	 3.625000000000001e+00	 8.750000000000000e+00	 1.000544933846154e+01
0	 3.750000000000000e+00	 7.500000000000000e+00	 1.001406846153847e+01
0	 3.750000000000000e+00	 7.625000000000000e+00	 1.001434572307694e+01
0	 3.750000000000000e+00	 7.750000000000000e+00	 1.001436858461539e+01
0	 3.750000000000000e+00	 7.874999999999998e+00	 1.001413704615385e+01
0	 3.750000000000000e+00	 7.999999999999999e+00	 1.001365110769231e+01
0	 3.750000000000000e+00	 8.124999999999998e+00	 1.001291076923078e+01
0	 3.750000000000000e+00	 8.249999999999998e+00	 1.001191603076923e+01
0	 3.750000000000000e+00	 8.374999999999996e+00	 1.001066689230769e+01
0	 3.750000000000000e+00	 8.499999999999996e+00	 1.000916335384615e+01
0	 3.750000000000000e+00	 8.624999999999996e+00	 1.000740541538462e+01
0	 3.750000000000000e+00	 8.750000000000000e+00	 1.000539307692308e+01
0	 2.500000000000000e+00	 8.750000000000000e+00	 9.996321538461538e+00
0	 2.500000000000000e+00	 8.874999999999998e+00	 9.996715673846150e+00
0	 2.500000000000000e+00	 9.000000000000000e+00	 9.997129433846149e+00
0	 2.500000000000000e+00	 9.124999999999998e+00	 9.997562818461537e+00
0	 2.500000000000000e+00	 9.250000000000000e+00	 9.998015827692313e+00
0	 2.500000000000000e+00	 9.374999999999996e+00	 9.998488461538448e+00
0	 2.500000000000000e+00	 9.499999999999996e+00	 9.998980719999997e+00
0	 2.500000000000000e+00	 9.624999999999996e+00	 9.999492603076920e+00
0	 2.500000000000000e+00	 9.749999999999998e+00	 1.000002411076922e+01
0	 2.500000000000000e+00	 9.874999999999996e+00	 1.000057524307691e+01
0	 2.500000000000000e+00	 1.000000000000000e+01	 1.000114599999999e+01
0	 2.625000000000000e+00	 8.750000000000000e+00	 9.998192107692319e+00
0	 2.625000000000000e+00	 8.875000000000000e+00	 9.998347198769231e+00
0	 2.625000000000000e+00	 8.999999999999998e+00	 9.998518724307694e+00
0	 2.625000000000000e+00	 9.125000000000000e+00	 9.998706684307686e+00
0	 2.625000000000000e+00	 9.249999999999998e+00	 9.998911078769225e+00
0	 2.625000000000000e+00	 9.374999999999998e+00	 9.999131907692306e+00
0	 2.625000000000000e+00	 9.499999999999998e+00	 9.999369171076928e+00
0	 2.625000000000001e+00	 9.624999999999998e+00	 9.999622868923066e+00
0	 2.625000000000000e+00	 9.749999999999998e+00	 9.999893001230758e+00
0	 2.625000000000000e+00	 9.874999999999995e+00	 1.000017956799999e+01
0	 2.625000000000000e+00	 1.000000000000000e+01	 1.000048256923078e+01
0	 2.750000000000000e+00	 8.750000000000000e+00	 9.999848584615378e+00
0	 2.750000000000000e+00	 8.874999999999998e+00	 9.999793320615391e+00
0	 2.750000000000000e+00	 8.999999999999998e+00	 9.999751300923062e+00
0	 2.750000000000001e+00	 9.125000000000000e+00	 9.999722525538456e+00
0	 2.750000000000000e+00	 9.249999999999998e+00	 9.999706994461535e+00
0	 2.750000000000000e+00	 9.374999999999998e+00	 9.999704707692304e+00
0	 2.750000000000000e+00	 9.499999999999996e+00	 9.999715665230756e+00
0	 2.750000000000000e+00	 9.624999999999995e+00	 9.999739867076915e+00
0	 2.750000000000000e+00	 9.749999999999995e+00	 9.999777313230764e+00
0	 2.750000000000000e+00	 9.874999999999995e+00	 9.999828003692269e+00
0	 2.750000000000000e+00	 1.000000000000000e+01	 9.999891938461554e+00
0	 2.875000000000000e+00	 8.750000000000000e+00	 1.000129096923076e+01
0	 2.875000000000000e+00	 8.875000000000000e+00	 1.000105403938461e+01
0	 2.875000000000000e+00	 9.000000000000000e+00	 1.000082716369230e+01
0	 2.875000000000000e+00	 9.125000000000000e+00	 1.000061034215384e+01
0	 2.875000000000000e+00	 9.249999999999996e+00	 1.000040357476922e+01
0	 2.875000000000000e+00	 9.374999999999996e+00	 1.000020686153846e+01
0	 2.875000000000000e+00	 9.499999999999998e+00	 1.000002020246152e+01
0	 2.875000000000000e+00	 9.624999999999996e+00	 9.999843597538437e+00
0	 2.875000000000000e+00	 9.749999999999998e+00	 9.999677046769220e+00
0	 2.875000000000000e+00	 9.874999999999996e+00	 9.999520550153827e+00
0	 2.875000000000001e+00	 1.000000000000000e+01	 9.999374107692299e+00
0	 3.000000000000001e+00	 8.750000000000000e+00	 1.000251926153846e+01
0	 3.000000000000000e+00	 8.875000000000000e+00	 1.000212935507691e+01
0	 3.000000000000000e+00	 8.999999999999998e+00	 1.000174631261537e+01
0	 3.000000000000001e+00	 9.124999999999998e+00	 1.000137013415383e+01
0	 3.000000000000001e+00	 9.250000000000000e+00	 1.000100081969230e+01
0	 3.000000000000000e+00	 9.374999999999998e+00	 1.000063836923076e+01
0	 3.000000000000001e+00	 9.499999999999998e+00	 1.000028278276921e+01
0	 3.000000000000001e+00	 9.625000000000000e+00	 9.999934060307705e+00
0	 3.000000000000001e+00	 9.749999999999996e+00	 9.999592201846138e+00
0	 3.000000000000000e+00	 9.874999999999993e+00	 9.999257207384609e+00
0	 3.000000000000000e+00	 1.000000000000000e+01	 9.998929076923076e+00
0	 3.125000000000000e+00	 8.750000000000002e+00	 1.000353346153847e+01
0	 3.125000000000001e+00	 8.875000000000000e+00	 1.000301926769231e+01
0	 3.125000000000000e+00	 8.999999999999998e+00	 1.000250874769231e+01
0	 3.125000000000001e+00	 9.125000000000000e+00	 1.000200190153845e+01
0	 3.125000000000000e+00	 9.249999999999998e+00	 1.000149872923076e+01
0	 3.125000000000000e+00	 9.374999999999998e+00	 1.000099923076922e+01
0	 3.125000000000000e+00	 9.499999999999998e+00	 1.000050340615383e+01
0	 3.125000000000000e+00	 9.624999999999996e+00	 1.000001125538460e+01
0	 3.125000000000000e+00	 9.749999999999996e+00	 9.999522778461532e+00
0	 3.125000000000001e+00	 9.874999999999996e+00	 9.999037975384622e+00
0	 3.125000000000000e+00	 1.000000000000000e+01	 9.998556846153814e+00
0	 3.250000000000001e+00	 8.750000000000000e+00	 1.000433356923077e+01
0	 3.250000000000000e+00	 8.875000000000000e+00	 1.000372377723076e+01
0	 3.250000000000000e+00	 8.999999999999998e+00	 1.000311446892308e+01
0	 3.250000000000001e+00	 9.124999999999998e+00	 1.000250564430769e+01
0	 3.250000000000000e+00	 9.249999999999996e+00	 1.000189730338460e+01
0	 3.250000000000001e+00	 9.374999999999996e+00	 1.000128944615383e+01
0	 3.250000000000000e+00	 9.499999999999996e+00	 1.000068207261536e+01
0	 3.250000000000000e+00	 9.624999999999998e+00	 1.000007518276921e+01
0	 3.250000000000001e+00	 9.749999999999996e+00	 9.999468776615371e+00
0	 3.250000000000001e+00	 9.874999999999996e+00	 9.998862854153835e+00
0	 3.250000000000000e+00	 1.000000000000000e+01	 9.998257415384598e+00
0	 3.375000000000001e+00	 8.750000000000000e+00	 1.000491958461539e+01
0	 3.375000000000001e+00	 8.875000000000002e+00	 1.000424288369231e+01
0	 3.375000000000001e+00	 9.000000000000000e+00	 1.000356347630768e+01
0	 3.375000000000001e+00	 9.124999999999998e+00	 1.000288136246152e+01
0	 3.375000000000000e+00	 9.249999999999998e+00	 1.000219654215383e+01
0	 3.375000000000001e+00	 9.374999999999998e+00	 1.000150901538460e+01
0	 3.375000000000000e+00	 9.499999999999996e+00	 1.000081878215383e+01
0	 3.375000000000002e+00	 9.624999999999998e+00	 1.000012584246152e+01
0	 3.375000000000001e+00	 9.749999999999996e+00	 9.999430196307681e+00
0	 3.375000000000001e+00	 9.874999999999996e+00	 9.998731843692273e+00
0	 3.375000000000001e+00	 1.000000000000000e+01	 9.998030784615331e+00
0	 3.500000000000000e+00	 8.750000000000000e+00	 1.000529150769231e+01
0	 3.500000000000000e+00	 8.874999999999998e+00	 1.000457658707692e+01
0	 3.500000000000001e+00	 8.999999999999998e+00	 1.000385576984615e+01
0	 3.500000000000001e+00	 9.125000000000000e+00	 1.000312905599999e+01
0	 3.500000000000001e+00	 9.249999999999998e+00	 1.000239644553845e+01
0	 3.500000000000001e+00	 9.374999999999996e+00	 1.000165793846153e+01
0	 3.500000000000001e+00	 9.499999999999998e+00	 1.000091353476923e+01
0	 3.500000000000001e+00	 9.624999999999996e+00	 1.000016323446151e+01
0	 3.500000000000001e+00	 9.749999999999996e+00	 9.999407037538450e+00
0	 3.500000000000001e+00	 9.874999999999995e+00	 9.998644943999965e+00
0	 3.500000000000001e+00	 1.000000000000000e+01	 9.997876953846134e+00
0	 3.625000000000001e+00	 8.750000000000000e+00	 1.000544933846154e+01
0	 3.625000000000001e+00	 8.875000000000000e+00	 1.000472488738461e+01
0	 3.625000000000001e+00	 9.000000000000000e+00	 1.000399134953846e+01
0	 3.625000000000001e+00	 9.125000000000000e+00	 1.000324872492308e+01
0	 3.625000000000000e+00	 9.249999999999996e+00	 1.000249701353845e+01
0	 3.625000000000001e+00	 9.374999999999996e+00	 1.000173621538459e+01
0	 3.625000000000001e+00	 9.499999999999996e+00	 1.000096633046152e+01
0	 3.625000000000001e+00	 9.624999999999996e+00	 1.000018735876921e+01
0	 3.625000000000001e+00	 9.749999999999996e+00	 9.999399300307690e+00
0	 3.625000000000000e+00	 9.874999999999995e+00	 9.998602155076911e+00
0	 3.625000000000001e+00	 1.000000000000000e+01	 9.997795923076886e+00
0	 3.750000000000000e+00	 8.750000000000000e+00	 1.000539307692308e+01
0	 3.750000000000000e+00	 8.874999999999998e+00	 1.000468778461538e+01
0	 3.750000000000000e+00	 9.000000000000000e+00	 1.000397021538461e+01
0	 3.750000000000000e+00	 9.124999999999998e+00	 1.000324036923076e+01
0	 3.750000000000000e+00	 9.250000000000000e+00	 1.000249824615384e+01
0	 3.750000000000000e+00	 9.374999999999996e+00	 1.000174384615383e+01
0	 3.750000000000000e+00	 9.499999999999996e+00	 1.000097716923075e+01
0	 3.750000000000000e+00	 9.624999999999996e+00	 1.000019821538461e+01
0	 3.750000000000000e+00	 9.749999999999998e+00	 9.999406984615355e+00
0	 3.750000000000000e+00	 9.874999999999996e+00	 9.998603476923051e+00
0	 3.750000000000000e+00	 1.000000000000000e+01	 9.997787692307671e+00
0	 3.750000000000000e+00	 0.000000000000000e+00	 1.002239292307693e+01
0	 3.750000000000000e+00	 1.250000000000000e-01	 1.009287396923077e+01
0	 3.750000000000000e+00	 2.500000000000000e-01	 1.016186359999999e+01
0	 3.750000000000000e+00	 3.750000000000001e-01	 1.022936181538461e+01
0	 3.750000000000000e+00	 5.000000000000000e-01	 1.029536861538461e+01
0	 3.750000000000000e+00	 6.250000000000000e-01	 1.035988400000000e+01
0	 3.750000000000000e+00	 7.500000000000000e-01	 1.042290796923077e+01
0	 3.750000000000000e+00	 8.749999999999999e-01	 1.048444052307692e+01
0	 3.750000000000000e+00	 1.000000000000000e+00	 1.054448166153846e+01
0	 3.750000000000000e+00	 1.125000000000000e+00	 1.060303138461538e+01
0	 3.750000000000000e+00	 1.250000000000000e+00	 1.066008969230769e+01
0	 3.875000000000000e+00	 0.000000000000000e+00	 1.013647237384616e+01
0	 3.875000000000000e+00	 1.250000000000000e-01	 1.018487055623077e+01
0	 3.874999999999999e+00	 2.499999999999999e-01	 1.023170474169231e+01
0	 3.875000000000000e+00	 3.750000000000001e-01	 1.027697493023077e+01
0	 3.875000000000000e+00	 5.000000000000001e-01	 1.032068112184615e+01
0	 3.875000000000000e+00	 6.250000000000001e-01	 1.036282331653846e+01
0	 3.875000000000000e+00	 7.499999999999998e-01	 1.040340151430769e+01
0	 3.875000000000000e+00	 8.750000000000000e-01	 1.044241571515385e+01
0	 3.875000000000000e+00	 1.000000000000000e+00	 1.047986591907692e+01
0	 3.875000000000000e+00	 1.125000000000000e+00	 1.051575212607692e+01
0	 3.875000000000000e+00	 1.250000000000000e+00	 1.055007433615384e+01
0	 4.000000000000000e+00	 0.000000000000000e+00	 1.023046395692307e+01
0	 4.000000000000001e+00	 1.250000000000000e-01	 1.026017846800000e+01
0	 4.000000000000000e+00	 2.500000000000000e-01	 1.028825640061538e+01
0	 4.000000000000000e+00	 3.750000000000001e-01	 1.031469775476923e+01
0	 4.000000000000001e+00	 5.000000000000001e-01	 1.033950253046154e+01
0	 4.000000000000000e+00	 6.250000000000000e-01	 1.036267072769231e+01
0	 4.000000000000001e+00	 7.499999999999999e-01	 1.038420234646154e+01
0	 4.000000000000000e+00	 8.750000000000000e-01	 1.040409738676923e+01
0	 4.000000000000001e+00	 9.999999999999998e-01	 1.042235584861538e+01
0	 4.000000000000002e+00	 1.125000000000000e+00	 1.043897773200000e+01
0	 4.000000000000000e+00	 1.250000000000000e+00	 1.045396303692307e+01
0	 4.125000000000001e+00	 0.000000000000000e+00	 1.030436767230769e+01
0	 4.125000000000001e+00	 1.250000000000000e-01	 1.031879770453846e+01
0	 4.125000000000002e+00	 2.500000000000001e-01	 1.033151857676923e+01
0	 4.125000000000000e+00	 3.750000000000001e-01	 1.034253028900000e+01
0	 4.125000000000001e+00	 5.000000000000002e-01	 1.035183284123077e+01
0	 4.125000000000001e+00	 6.250000000000000e-01	 1.035942623346154e+01
0	 4.125000000000001e+00	 7.500000000000000e-01	 1.036531046569231e+01
0	 4.125000000000000e+00	 8.749999999999999e-01	 1.036948553792308e+01
0	 4.125000000000001e+00	 9.999999999999999e-01	 1.037195145015384e+01
0	 4.125000000000002e+00	 1.125000000000000e+00	 1.037270820238461e+01
0	 4.125000000000000e+00	 1.250000000000000e+00	 1.037175579461538e+01
0	 4.250000000000001e+00	 0.000000000000000e+00	 1.035818352000000e+01
0	 4.250000000000000e+00	 1.250000000000000e-01	 1.036072826584615e+01
0	 4.250000000000001e+00	 2.500000000000000e-01	 1.036149127015385e+01
0	 4.250000000000001e+00	 3.750000000000001e-01	 1.036047253292308e+01
0	 4.250000000000001e+00	 5.000000000000000e-01	 1.035767205415384e+01
0	 4.250000000000001e+00	 6.250000000000000e-01	 1.035308983384615e+01
0	 4.250000000000002e+00	 7.500000000000002e-01	 1.034672587200000e+01
0	 4.250000000000000e+00	 8.750000000000000e-01	 1.033858016861538e+01
0	 4.250000000000000e+00	 9.999999999999998e-01	 1.032865272369231e+01
0	 4.250000000000001e+00	 1.125000000000000e+00	 1.031694353723077e+01
0	 4.250000000000001e+00	 1.250000000000000e+00	 1.030345260923076e+01
0	 4.375000000000000e+00	 0.000000000000000e+00	 1.039191150000000e+01
0	 4.375000000000000e+00	 1.250000000000000e-01	 1.038597015192307e+01
0	 4.375000000000000e+00	 2.500000000000000e-01	 1.037817448076923e+01
0	 4.375000000000000e+00	 3.750000000000000e-01	 1.036852448653846e+01
0	 4.375000000000001e+00	 4.999999999999999e-01	 1.035702016923076e+01
0	 4.375000000000001e+00	 6.250000000000001e-01	 1.034366152884615e+01
0	 4.375000000000001e+00	 7.499999999999999e-01	 1.032844856538461e+01
0	 4.375000000000002e+00	 8.750000000000000e-01	 1.031138127884615e+01
0	 4.375000000000001e+00	 9.999999999999998e-01	 1.029245966923076e+01
0	 4.375000000000002e+00	 1.125000000000000e+00	 1.027168373653846e+01
0	 4.375000000000001e+00	 1.250000000000000e+00	 1.024905348076923e+01
0	 4.500000000000001e+00	 0.000000000000000e+00	 1.040555161230769e+01
0	 4.500000000000000e+00	 1.250000000000000e-01	 1.039452336276923e+01
0	 4.500000000000001e+00	 2.500000000000001e-01	 1.038156820861538e+01
0	 4.500000000000002e+00	 3.750000000000001e-01	 1.036668614984615e+01
0	 4.500000000000001e+00	 5.000000000000001e-01	 1.034987718646154e+01
0	 4.500000000000001e+00	 6.249999999999999e-01	 1.033114131846154e+01
0	 4.500000000000001e+00	 7.500000000000000e-01	 1.031047854584616e+01
0	 4.500000000000002e+00	 8.750000000000001e-01	 1.028788886861538e+01
0	 4.500000000000001e+00	 1.000000000000000e+00	 1.026337228676923e+01
0	 4.500000000000001e+00	 1.125000000000000e+00	 1.023692880030769e+01
0	 4.500000000000001e+00	 1.250000000000000e+00	 1.020855840923077e+01
0	 4.625000000000001e+00	 0.000000000000000e+00	 1.039910385692307e+01
0	 4.625000000000001e+00	 1.250000000000000e-01	 1.038638789838461e+01
0	 4.625000000000002e+00	 2.500000000000001e-01	 1.037167245369230e+01
0	 4.625000000000000e+00	 3.750000000000001e-01	 1.035495752284615e+01
0	 4.625000000000002e+00	 5.000000000000001e-01	 1.033624310584615e+01
0	 4.625000000000001e+00	 6.250000000000000e-01	 1.031552920269230e+01
0	 4.625000000000002e+00	 7.500000000000000e-01	 1.029281581338462e+01
0	 4.625000000000001e+00	 8.749999999999999e-01	 1.026810293792308e+01
0	 4.625000000000001e+00	 9.999999999999999e-01	 1.024139057630769e+01
0	 4.625000000000001e+00	 1.125000000000000e+00	 1.021267872853846e+01
0	 4.625000000000001e+00	 1.250000000000000e+00	 1.018196739461538e+01
0	 4.750000000000001e+00	 0.000000000000000e+00	 1.037256823384615e+01
0	 4.750000000000000e+00	 1.250000000000000e-01	 1.036156375876923e+01
0	 4.750000000000001e+00	 2.500000000000000e-01	 1.034848721599999e+01
0	 4.750000000000001e+00	 3.750000000000001e-01	 1.033333860553846e+01
0	 4.750000000000000e+00	 5.000000000000000e-01	 1.031611792738461e+01
0	 4.750000000000001e+00	 6.250000000000000e-01	 1.029682518153846e+01
0	 4.750000000000001e+00	 7.500000000000000e-01	 1.027546036800000e+01
0	 4.750000000000002e+00	 8.750000000000001e-01	 1.025202348676923e+01
0	 4.750000000000001e+00	 1.000000000000000e+00	 1.022651453784615e+01
0	 4.750000000000001e+00	 1.125000000000000e+00	 1.019893352123077e+01
0	 4.750000000000001e+00	 1.250000000000000e+00	 1.016928043692307e+01
0	 4.875000000000001e+00	 0.000000000000000e+00	 1.032594474307692e+01
0	 4.875000000000001e+00	 1.250000000000000e-01	 1.032005094392308e+01
0	 4.875000000000001e+00	 2.499999999999999e-01	 1.031201249553845e+01
0	 4.875000000000002e+00	 3.750000000000001e-01	 1.030182939792308e+01
0	 4.875000000000002e+00	 5.000000000000000e-01	 1.028950165107692e+01
0	 4.875000000000001e+00	 6.250000000000001e-01	 1.027502925500000e+01
0	 4.875000000000001e+00	 7.500000000000000e-01	 1.025841220969230e+01
0	 4.875000000000001e+00	 8.750000000000000e-01	 1.023965051515384e+01
0	 4.875000000000001e+00	 1.000000000000000e+00	 1.021874417138461e+01
0	 4.875000000000001e+00	 1.125000000000000e+00	 1.019569317838462e+01
0	 4.875000000000001e+00	 1.250000000000000e+00	 1.017049753615384e+01
0	 5.000000000000000e+00	 0.000000000000000e+00	 1.025923338461538e+01
0	 5.000000000000000e+00	 1.250000000000000e-01	 1.026184945384615e+01
0	 5.000000000000001e+00	 2.500000000000000e-01	 1.026224829230769e+01
0	 5.000000000000000e+00	 3.750000000000001e-01	 1.026042990000000e+01
0	 5.000000000000000e+00	 5.000000000000000e-01	 1.025639427692308e+01
0	 5.000000000000000e+00	 6.250000000000000e-01	 1.025014142307692e+01
0	 5.000000000000000e+00	 7.500000000000000e-01	 1.024167133846153e+01
0	 5.000000000000000e+00	 8.749999999999999e-01	 1.023098402307692e+01
0	 5.000000000000002e+00	 1.000000000000000e+00	 1.021807947692307e+01
0	 5.000000000000000e+00	 1.125000000000000e+00	 1.020295770000000e+01
0	 5.000000000000000e+00	 1.250000000000000e+00	 1.018561869230769e+01
0	 3.750000000000000e+00	 1.250000000000000e+00	 1.066008969230769e+01
0	 3.750000000000000e+00	 1.375000000000000e+00	 1.062138520000000e+01
0	 3.750000000000000e+00	 1.500000000000000e+00	 1.058666627692308e+01
0	 3.750000000000000e+00	 1.625000000000000e+00	 1.055593292307692e+01
0	 3.750000000000000e+00	 1.750000000000000e+00	 1.052918513846154e+01
0	 3.750000000000000e+00	 1.875000000000000e+00	 1.050642292307692e+01
0	 3.750000000000000e+00	 2.000000000000000e+00	 1.048764627692307e+01
0	 3.750000000000000e+00	 2.125000000000001e+00	 1.047285520000000e+01
0	 3.750000000000000e+00	 2.250000000000001e+00	 1.046204969230769e+01
0	 3.750000000000000e+00	 2.375000000000001e+00	 1.045522975384615e+01
0	 3.750000000000000e+00	 2.500000000000000e+00	 1.045239538461539e+01
0	 3.875000000000000e+00	 1.250000000000000e+00	 1.055007433615384e+01
0	 3.875000000000000e+00	 1.375000000000000e+00	 1.052354870561539e+01
0	 3.874999999999999e+00	 1.500000000000000e+00	 1.050056523046153e+01
0	 3.875000000000000e+00	 1.625000000000001e+00	 1.048112391069231e+01
0	 3.875000000000000e+00	 1.750000000000000e+00	 1.046522474630769e+01
0	 3.875000000000000e+00	 1.875000000000001e+00	 1.045286773730769e+01
0	 3.875000000000000e+00	 2.000000000000001e+00	 1.044405288369231e+01
0	 3.875000000000000e+00	 2.125000000000000e+00	 1.043878018546154e+01
0	 3.875000000000000e+00	 2.250000000000001e+00	 1.043704964261539e+01
0	 3.875000000000000e+00	 2.375000000000001e+00	 1.043886125515384e+01
0	 3.875000000000000e+00	 2.500000000000000e+00	 1.044421502307693e+01
0	 4.000000000000000e+00	 1.250000000000000e+00	 1.045396303692307e+01
0	 4.000000000000001e+00	 1.375000000000000e+00	 1.043811503630769e+01
0	 4.000000000000001e+00	 1.500000000000001e+00	 1.042536577723077e+01
0	 4.000000000000001e+00	 1.625000000000000e+00	 1.041571525969230e+01
0	 4.000000000000000e+00	 1.750000000000001e+00	 1.040916348369230e+01
0	 4.000000000000001e+00	 1.875000000000000e+00	 1.040571044923077e+01
0	 4.000000000000000e+00	 2.000000000000000e+00	 1.040535615630769e+01
0	 4.000000000000001e+00	 2.125000000000001e+00	 1.040810060492308e+01
0	 4.000000000000000e+00	 2.250000000000001e+00	 1.041394379507692e+01
0	 4.000000000000000e+00	 2.375000000000001e+00	 1.042288572676923e+01
0	 4.000000000000000e+00	 2.500000000000000e+00	 1.043492640000000e+01
0	 4.125000000000000e+00	 1.250000000000000e+00	 1.037175579461538e+01
0	 4.125000000000000e+00	 1.375000000000000e+00	 1.036508419207692e+01
0	 4.125000000000001e+00	 1.500000000000001e+00	 1.036106791723076e+01
0	 4.125000000000000e+00	 1.625000000000000e+00	 1.035970697007692e+01
0	 4.125000000000000e+00	 1.750000000000000e+00	 1.036100135061538e+01
0	 4.125000000000002e+00	 1.875000000000001e+00	 1.036495105884615e+01
0	 4.125000000000000e+00	 2.000000000000001e+00	 1.037155609476923e+01
0	 4.125000000000000e+00	 2.125000000000001e+00	 1.038081645838461e+01
0	 4.125000000000001e+00	 2.250000000000001e+00	 1.039273214969231e+01
0	 4.125000000000000e+00	 2.375000000000000e+00	 1.040730316869230e+01
0	 4.125000000000000e+00	 2.500000000000000e+00	 1.042452951538461e+01
0	 4.250000000000001e+00	 1.250000000000000e+00	 1.030345260923076e+01
0	 4.250000000000000e+00	 1.375000000000000e+00	 1.030445617292307e+01
0	 4.250000000000001e+00	 1.500000000000000e+00	 1.030767165046154e+01
0	 4.250000000000000e+00	 1.625000000000000e+00	 1.031309904184615e+01
0	 4.250000000000000e+00	 1.750000000000000e+00	 1.032073834707692e+01
0	 4.250000000000001e+00	 1.875000000000000e+00	 1.033058956615385e+01
0	 4.250000000000001e+00	 2.000000000000001e+00	 1.034265269907692e+01
0	 4.250000000000002e+00	 2.125000000000001e+00	 1.035692774584615e+01
0	 4.249999999999999e+00	 2.250000000000000e+00	 1.037341470646154e+01
0	 4.250000000000001e+00	 2.375000000000001e+00	 1.039211358092308e+01
0	 4.250000000000001e+00	 2.500000000000000e+00	 1.041302436923077e+01
0	 4.375000000000001e+00	 1.250000000000000e+00	 1.024905348076923e+01
0	 4.375000000000001e+00	 1.375000000000000e+00	 1.025623097884615e+01
0	 4.375000000000000e+00	 1.500000000000000e+00	 1.026517697692308e+01
0	 4.375000000000001e+00	 1.625000000000000e+00	 1.027589147500000e+01
0	 4.375000000000002e+00	 1.750000000000001e+00	 1.028837447307692e+01
0	 4.375000000000000e+00	 1.875000000000000e+00	 1.030262597115384e+01
0	 4.375000000000000e+00	 2.000000000000001e+00	 1.031864596923077e+01
0	 4.375000000000001e+00	 2.125000000000001e+00	 1.033643446730769e+01
0	 4.375000000000000e+00	 2.250000000000001e+00	 1.035599146538461e+01
0	 4.375000000000001e+00	 2.375000000000001e+00	 1.037731696346154e+01
0	 4.375000000000001e+00	 2.500000000000000e+00	 1.040041096153846e+01
0	 4.500000000000001e+00	 1.250000000000000e+00	 1.020855840923077e+01
0	 4.500000000000001e+00	 1.375000000000000e+00	 1.022040860984615e+01
0	 4.500000000000001e+00	 1.500000000000000e+00	 1.023358389661538e+01
0	 4.500000000000001e+00	 1.625000000000000e+00	 1.024808426953846e+01
0	 4.500000000000001e+00	 1.750000000000001e+00	 1.026390972861538e+01
0	 4.500000000000000e+00	 1.875000000000001e+00	 1.028106027384615e+01
0	 4.500000000000001e+00	 2.000000000000001e+00	 1.029953590523077e+01
0	 4.500000000000002e+00	 2.125000000000001e+00	 1.031933662276923e+01
0	 4.500000000000001e+00	 2.250000000000002e+00	 1.034046242646154e+01
0	 4.500000000000001e+00	 2.375000000000001e+00	 1.036291331630770e+01
0	 4.500000000000001e+00	 2.500000000000000e+00	 1.038668929230769e+01
0	 4.625000000000001e+00	 1.250000000000000e+00	 1.018196739461538e+01
0	 4.625000000000001e+00	 1.375000000000000e+00	 1.019698906592308e+01
0	 4.625000000000002e+00	 1.500000000000000e+00	 1.021289240953846e+01
0	 4.625000000000000e+00	 1.625000000000000e+00	 1.022967742546154e+01
0	 4.625000000000001e+00	 1.750000000000000e+00	 1.024734411369231e+01
0	 4.625000000000002e+00	 1.875000000000001e+00	 1.026589247423077e+01
0	 4.624999999999999e+00	 2.000000000000000e+00	 1.028532250707692e+01
0	 4.625000000000001e+00	 2.125000000000001e+00	 1.030563421223077e+01
0	 4.625000000000001e+00	 2.250000000000001e+00	 1.032682758969231e+01
0	 4.625000000000001e+00	 2.375000000000001e+00	 1.034890263946154e+01
0	 4.625000000000001e+00	 2.500000000000000e+00	 1.037185936153846e+01
0	 4.750000000000001e+00	 1.250000000000000e+00	 1.016928043692307e+01
0	 4.750000000000002e+00	 1.375000000000000e+00	 1.018597234707692e+01
0	 4.750000000000001e+00	 1.500000000000000e+00	 1.020310251569230e+01
0	 4.750000000000000e+00	 1.625000000000000e+00	 1.022067094276923e+01
0	 4.750000000000000e+00	 1.750000000000000e+00	 1.023867762830769e+01
0	 4.750000000000001e+00	 1.875000000000001e+00	 1.025712257230769e+01
0	 4.750000000000003e+00	 2.000000000000001e+00	 1.027600577476923e+01
0	 4.750000000000002e+00	 2.125000000000001e+00	 1.029532723569231e+01
0	 4.750000000000001e+00	 2.250000000000001e+00	 1.031508695507692e+01
0	 4.750000000000002e+00	 2.375000000000001e+00	 1.033528493292308e+01
0	 4.750000000000001e+00	 2.500000000000000e+00	 1.035592116923076e+01
0	 4.875000000000001e+00	 1.250000000000000e+00	 1.017049753615384e+01
0	 4.875000000000001e+00	 1.375000000000000e+00	 1.018735845330769e+01
0	 4.875000000000001e+00	 1.500000000000000e+00	 1.020421421507693e+01
0	 4.875000000000001e+00	 1.625000000000000e+00	 1.022106482146153e+01
0	 4.875000000000001e+00	 1.750000000000000e+00	 1.023791027246153e+01
0	 4.875000000000000e+00	 1.875000000000000e+00	 1.025475056807692e+01
0	 4.875000000000001e+00	 2.000000000000000e+00	 1.027158570830769e+01
0	 4.875000000000001e+00	 2.125000000000001e+00	 1.028841569315384e+01
0	 4.875000000000002e+00	 2.250000000000001e+00	 1.030524052261538e+01
0	 4.875000000000001e+00	 2.375000000000001e+00	 1.032206019669231e+01
0	 4.875000000000001e+00	 2.500000000000000e+00	 1.033887471538461e+01
0	 5.000000000000000e+00	 1.250000000000000e+00	 1.018561869230769e+01
0	 5.000000000000000e+00	 1.375000000000000e+00	 1.020114738461538e+01
0	 5.000000000000000e+00	 1.500000000000000e+00	 1.021622750769231e+01
0	 5.000000000000001e+00	 1.625000000000000e+00	 1.023085906153845e+01
0	 5.000000000000001e+00	 1.750000000000000e+00	 1.024504204615384e+01
0	 5.000000000000001e+00	 1.875000000000000e+00	 1.025877646153846e+01
0	 5.000000000000000e+00	 2.000000000000000e+00	 1.027206230769231e+01
0	 5.000000000000000e+00	 2.125000000000001e+00	 1.028489958461538e+01
0	 5.000000000000000e+00	 2.250000000000001e+00	 1.029728829230769e+01
0	 5.000000000000000e+00	 2.375000000000001e+00	 1.030922843076923e+01
0	 5.000000000000000e+00	 2.500000000000000e+00	 1.032072000000000e+01
0	 3.750000000000000e+00	 2.500000000000000e+00	 1.045239538461539e+01
0	 3.750000000000000e+00	 2.625000000000000e+00	 1.043878598461538e+01
0	 3.750000000000000e+00	 2.750000000000000e+00	 1.042491978461539e+01
0	 3.750000000000000e+00	 2.875000000000001e+00	 1.041079678461539e+01
0	 3.750000000000000e+00	 3.000000000000000e+00	 1.039641698461538e+01
0	 3.750000000000000e+00	 3.125000000000000e+00	 1.038178038461538e+01
0	 3.750000000000000e+00	 3.250000000000000e+00	 1.036688698461538e+01
0	 3.750000000000000e+00	 3.375000000000001e+00	 1.035173678461538e+01
0	 3.750000000000000e+00	 3.500000000000001e+00	 1.033632978461539e+01
0	 3.750000000000000e+00	 3.625000000000001e+00	 1.032066598461539e+01
0	 3.750000000000000e+00	 3.750000000000000e+00	 1.030474538461539e+01
0	 3.875000000000000e+00	 2.500000000000000e+00	 1.044421502307693e+01
0	 3.875000000000000e+00	 2.625000000000000e+00	 1.042936804692308e+01
0	 3.874999999999999e+00	 2.750000000000000e+00	 1.041445902615385e+01
0	 3.875000000000000e+00	 2.875000000000000e+00	 1.039948796076923e+01
0	 3.875000000000000e+00	 3.000000000000001e+00	 1.038445485076923e+01
0	 3.875000000000000e+00	 3.125000000000000e+00	 1.036935969615384e+01
0	 3.875000000000000e+00	 3.250000000000001e+00	 1.035420249692308e+01
0	 3.875000000000000e+00	 3.375000000000000e+00	 1.033898325307693e+01
0	 3.875000000000000e+00	 3.500000000000001e+00	 1.032370196461538e+01
0	 3.875000000000000e+00	 3.625000000000001e+00	 1.030835863153846e+01
0	 3.875000000000000e+00	 3.750000000000000e+00	 1.029295325384616e+01
0	 4.000000000000000e+00	 2.500000000000000e+00	 1.043492640000000e+01
0	 4.000000000000001e+00	 2.625000000000001e+00	 1.041904947846154e+01
0	 4.000000000000001e+00	 2.750000000000001e+00	 1.040330526769230e+01
0	 4.000000000000001e+00	 2.875000000000000e+00	 1.038769376769231e+01
0	 4.000000000000000e+00	 3.000000000000000e+00	 1.037221497846154e+01
0	 4.000000000000001e+00	 3.125000000000001e+00	 1.035686890000000e+01
0	 4.000000000000000e+00	 3.250000000000001e+00	 1.034165553230770e+01
0	 4.000000000000001e+00	 3.375000000000001e+00	 1.032657487538461e+01
0	 4.000000000000000e+00	 3.500000000000001e+00	 1.031162692923077e+01
0	 4.000000000000000e+00	 3.625000000000001e+00	 1.029681169384615e+01
0	 4.000000000000000e+00	 3.750000000000000e+00	 1.028212916923077e+01
0	 4.125000000000000e+00	 2.500000000000000e+00	 1.042452951538461e+01
0	 4.125000000000000e+00	 2.625000000000000e+00	 1.040783027923077e+01
0	 4.125000000000001e+00	 2.750000000000000e+00	 1.039145850923077e+01
0	 4.125000000000000e+00	 2.875000000000000e+00	 1.037541420538462e+01
0	 4.125000000000000e+00	 3.000000000000000e+00	 1.035969736769231e+01
0	 4.125000000000002e+00	 3.125000000000001e+00	 1.034430799615385e+01
0	 4.125000000000000e+00	 3.250000000000000e+00	 1.032924609076923e+01
0	 4.125000000000000e+00	 3.375000000000001e+00	 1.031451165153846e+01
0	 4.125000000000001e+00	 3.500000000000000e+00	 1.030010467846154e+01
0	 4.125000000000000e+00	 3.625000000000000e+00	 1.028602517153847e+01
0	 4.125000000000000e+00	 3.750000000000000e+00	 1.027227313076923e+01
0	 4.250000000000001e+00	 2.500000000000000e+00	 1.041302436923077e+01
0	 4.250000000000000e+00	 2.625000000000000e+00	 1.039571044923076e+01
0	 4.250000000000001e+00	 2.750000000000000e+00	 1.037891875076922e+01
0	 4.250000000000000e+00	 2.875000000000000e+00	 1.036264927384615e+01
0	 4.250000000000000e+00	 3.000000000000000e+00	 1.034690201846154e+01
0	 4.250000000000001e+00	 3.125000000000001e+00	 1.033167698461538e+01
0	 4.250000000000001e+00	 3.250000000000001e+00	 1.031697417230770e+01
0	 4.250000000000002e+00	 3.375000000000001e+00	 1.030279358153846e+01
0	 4.249999999999999e+00	 3.500000000000000e+00	 1.028913521230769e+01
0	 4.250000000000001e+00	 3.625000000000001e+00	 1.027599906461539e+01
0	 4.250000000000001e+00	 3.750000000000000e+00	 1.026338513846154e+01
0	 4.375000000000001e+00	 2.500000000000000e+00	 1.040041096153846e+01
0	 4.375000000000001e+00	 2.625000000000001e+00	 1.038268998846153e+01
0	 4.375000000000000e+00	 2.750000000000000e+00	 1.036568599230769e+01
0	 4.375000000000001e+00	 2.875000000000000e+00	 1.034939897307693e+01
0	 4.375000000000002e+00	 3.000000000000001e+00	 1.033382893076924e+01
0	 4.375000000000000e+00	 3.125000000000001e+00	 1.031897586538461e+01
0	 4.375000000000000e+00	 3.250000000000000e+00	 1.030483977692308e+01
0	 4.375000000000001e+00	 3.375000000000001e+00	 1.029142066538462e+01
0	 4.375000000000000e+00	 3.500000000000001e+00	 1.027871853076924e+01
0	 4.375000000000001e+00	 3.625000000000000e+00	 1.026673337307692e+01
0	 4.375000000000001e+00	 3.750000000000000e+00	 1.025546519230769e+01
0	 4.500000000000001e+00	 2.500000000000000e+00	 1.038668929230769e+01
0	 4.500000000000001e+00	 2.625000000000000e+00	 1.036876889692308e+01
0	 4.500000000000001e+00	 2.750000000000000e+00	 1.035176023384615e+01
0	 4.500000000000001e+00	 2.875000000000000e+00	 1.033566330307692e+01
0	 4.500000000000001e+00	 3.000000000000000e+00	 1.032047810461538e+01
0	 4.500000000000000e+00	 3.125000000000000e+00	 1.030620463846154e+01
0	 4.500000000000001e+00	 3.250000000000000e+00	 1.029284290461538e+01
0	 4.500000000000002e+00	 3.375000000000001e+00	 1.028039290307692e+01
0	 4.500000000000001e+00	 3.500000000000000e+00	 1.026885463384616e+01
0	 4.500000000000001e+00	 3.625000000000000e+00	 1.025822809692308e+01
0	 4.500000000000001e+00	 3.750000000000000e+00	 1.024851329230770e+01
0	 4.625000000000001e+00	 2.500000000000000e+00	 1.037185936153846e+01
0	 4.625000000000001e+00	 2.625000000000000e+00	 1.035394717461539e+01
0	 4.625000000000002e+00	 2.750000000000001e+00	 1.033714147538461e+01
0	 4.625000000000000e+00	 2.875000000000000e+00	 1.032144226384615e+01
0	 4.625000000000001e+00	 3.000000000000001e+00	 1.030684954000000e+01
0	 4.625000000000002e+00	 3.125000000000000e+00	 1.029336330384616e+01
0	 4.624999999999999e+00	 3.250000000000000e+00	 1.028098355538461e+01
0	 4.625000000000001e+00	 3.375000000000001e+00	 1.026971029461538e+01
0	 4.625000000000001e+00	 3.500000000000001e+00	 1.025954352153846e+01
0	 4.625000000000001e+00	 3.625000000000001e+00	 1.025048323615385e+01
0	 4.625000000000001e+00	 3.750000000000000e+00	 1.024252943846154e+01
0	 4.750000000000001e+00	 2.500000000000000e+00	 1.035592116923076e+01
0	 4.750000000000002e+00	 2.625000000000000e+00	 1.033822482153846e+01
0	 4.750000000000001e+00	 2.750000000000000e+00	 1.032182971692308e+01
0	 4.750000000000000e+00	 2.875000000000000e+00	 1.030673585538461e+01
0	 4.750000000000000e+00	 3.000000000000000e+00	 1.029294323692308e+01
0	 4.750000000000001e+00	 3.125000000000001e+00	 1.028045186153846e+01
0	 4.750000000000003e+00	 3.250000000000001e+00	 1.026926172923078e+01
0	 4.750000000000002e+00	 3.375000000000001e+00	 1.025937284000000e+01
0	 4.750000000000001e+00	 3.500000000000001e+00	 1.025078519384615e+01
0	 4.750000000000002e+00	 3.625000000000001e+00	 1.024349879076923e+01
0	 4.750000000000001e+00	 3.750000000000000e+00	 1.023751363076923e+01
0	 4.875000000000001e+00	 2.500000000000000e+00	 1.033887471538461e+01
0	 4.875000000000001e+00	 2.625000000000000e+00	 1.032160183769231e+01
0	 4.875000000000001e+00	 2.750000000000000e+00	 1.030582495846154e+01
0	 4.875000000000001e+00	 2.875000000000000e+00	 1.029154407769231e+01
0	 4.875000000000001e+00	 3.000000000000000e+00	 1.027875919538461e+01
0	 4.875000000000000e+00	 3.125000000000000e+00	 1.026747031153846e+01
0	 4.875000000000001e+00	 3.250000000000000e+00	 1.025767742615385e+01
0	 4.875000000000001e+00	 3.375000000000000e+00	 1.024938053923077e+01
0	 4.875000000000002e+00	 3.500000000000001e+00	 1.024257965076923e+01
0	 4.875000000000001e+00	 3.625000000000001e+00	 1.023727476076923e+01
0	 4.875000000000001e+00	 3.750000000000000e+00	 1.023346586923077e+01
0	 5.000000000000000e+00	 2.500000000000000e+00	 1.032072000000000e+01
0	 5.000000000000000e+00	 2.625000000000000e+00	 1.030407822307692e+01
0	 5.000000000000000e+00	 2.750000000000000e+00	 1.028912720000000e+01
0	 5.000000000000001e+00	 2.875000000000001e+00	 1.027586693076923e+01
0	 5.000000000000001e+00	 3.000000000000000e+00	 1.026429741538462e+01
0	 5.000000000000001e+00	 3.125000000000000e+00	 1.025441865384615e+01
0	 5.000000000000000e+00	 3.250000000000000e+00	 1.024623064615385e+01
0	 5.000000000000000e+00	 3.375000000000001e+00	 1.023973339230769e+01
0	 5.000000000000000e+00	 3.500000000000001e+00	 1.023492689230769e+01
0	 5.000000000000000e+00	 3.625000000000001e+00	 1.023181114615384e+01
0	 5.000000000000000e+00	 3.750000000000000e+00	 1.023038615384615e+01
0	 3.750000000000000e+00	 3.750000000000000e+00	 1.030474538461539e+01
0	 3.750000000000000e+00	 3.875000000000000e+00	 1.027880976153846e+01
0	 3.750000000000000e+00	 4.000000000000001e+00	 1.025392104615385e+01
0	 3.750000000000000e+00	 4.125000000000001e+00	 1.023007923846153e+01
0	 3.750000000000000e+00	 4.250000000000001e+00	 1.020728433846154e+01
0	 3.750000000000000e+00	 4.375000000000001e+00	 1.018553634615385e+01
0	 3.750000000000000e+00	 4.500000000000000e+00	 1.016483526153846e+01
0	 3.750000000000000e+00	 4.625000000000001e+00	 1.014518108461538e+01
0	 3.750000000000000e+00	 4.750000000000002e+00	 1.012657381538462e+01
0	 3.750000000000000e+00	 4.875000000000002e+00	 1.010901345384615e+01
0	 3.750000000000000e+00	 5.000000000000000e+00	 1.009250000000000e+01
0	 3.875000000000000e+00	 3.750000000000000e+00	 1.029295325384616e+01
0	 3.875000000000000e+00	 3.875000000000000e+00	 1.027082768230769e+01
0	 3.874999999999999e+00	 4.000000000000000e+00	 1.024962793384615e+01
0	 3.875000000000000e+00	 4.125000000000001e+00	 1.022935400846154e+01
0	 3.875000000000000e+00	 4.250000000000001e+00	 1.021000590615385e+01
0	 3.875000000000000e+00	 4.375000000000002e+00	 1.019158362692308e+01
0	 3.875000000000000e+00	 4.500000000000001e+00	 1.017408717076923e+01
0	 3.875000000000000e+00	 4.625000000000002e+00	 1.015751653769231e+01
0	 3.875000000000000e+00	 4.750000000000002e+00	 1.014187172769232e+01
0	 3.875000000000000e+00	 4.875000000000001e+00	 1.012715274076923e+01
0	 3.875000000000000e+00	 4.999999999999999e+00	 1.011335957692308e+01
0	 4.000000000000000e+00	 3.750000000000000e+00	 1.028212916923077e+01
0	 4.000000000000001e+00	 3.875000000000001e+00	 1.026341471384616e+01
0	 4.000000000000001e+00	 4.000000000000001e+00	 1.024550499692308e+01
0	 4.000000000000001e+00	 4.125000000000000e+00	 1.022840001846153e+01
0	 4.000000000000000e+00	 4.250000000000001e+00	 1.021209977846154e+01
0	 4.000000000000001e+00	 4.375000000000001e+00	 1.019660427692308e+01
0	 4.000000000000000e+00	 4.500000000000000e+00	 1.018191351384615e+01
0	 4.000000000000001e+00	 4.625000000000002e+00	 1.016802748923077e+01
0	 4.000000000000000e+00	 4.750000000000002e+00	 1.015494620307692e+01
0	 4.000000000000000e+00	 4.875000000000001e+00	 1.014266965538461e+01
0	 4.000000000000000e+00	 5.000000000000000e+00	 1.013119784615384e+01
0	 4.125000000000000e+00	 3.750000000000000e+00	 1.027227313076923e+01
0	 4.125000000000000e+00	 3.875000000000000e+00	 1.025657085615384e+01
0	 4.125000000000001e+00	 4.000000000000001e+00	 1.024155223538462e+01
0	 4.125000000000000e+00	 4.124999999999999e+00	 1.022721726846154e+01
0	 4.125000000000000e+00	 4.250000000000000e+00	 1.021356595538462e+01
0	 4.125000000000002e+00	 4.375000000000002e+00	 1.020059829615385e+01
0	 4.125000000000000e+00	 4.500000000000001e+00	 1.018831429076923e+01
0	 4.125000000000000e+00	 4.625000000000001e+00	 1.017671393923076e+01
0	 4.125000000000001e+00	 4.750000000000001e+00	 1.016579724153846e+01
0	 4.125000000000000e+00	 4.875000000000002e+00	 1.015556419769231e+01
0	 4.125000000000000e+00	 5.000000000000000e+00	 1.014601480769230e+01
0	 4.250000000000001e+00	 3.750000000000000e+00	 1.026338513846154e+01
0	 4.250000000000000e+00	 3.875000000000000e+00	 1.025029610923077e+01
0	 4.250000000000001e+00	 4.000000000000000e+00	 1.023776964923077e+01
0	 4.250000000000000e+00	 4.125000000000000e+00	 1.022580575846154e+01
0	 4.250000000000000e+00	 4.250000000000001e+00	 1.021440443692308e+01
0	 4.250000000000001e+00	 4.375000000000000e+00	 1.020356568461539e+01
0	 4.250000000000001e+00	 4.500000000000001e+00	 1.019328950153847e+01
0	 4.250000000000002e+00	 4.625000000000001e+00	 1.018357588769230e+01
0	 4.249999999999999e+00	 4.749999999999999e+00	 1.017442484307692e+01
0	 4.250000000000001e+00	 4.875000000000001e+00	 1.016583636769231e+01
0	 4.250000000000001e+00	 5.000000000000001e+00	 1.015781046153847e+01
0	 4.375000000000001e+00	 3.750000000000000e+00	 1.025546519230769e+01
0	 4.375000000000001e+00	 3.875000000000000e+00	 1.024459047307692e+01
0	 4.375000000000000e+00	 4.000000000000000e+00	 1.023415723846153e+01
0	 4.375000000000001e+00	 4.125000000000000e+00	 1.022416548846154e+01
0	 4.375000000000002e+00	 4.250000000000002e+00	 1.021461522307692e+01
0	 4.375000000000000e+00	 4.375000000000000e+00	 1.020550644230769e+01
0	 4.375000000000000e+00	 4.500000000000001e+00	 1.019683914615385e+01
0	 4.375000000000001e+00	 4.625000000000002e+00	 1.018861333461538e+01
0	 4.375000000000000e+00	 4.750000000000001e+00	 1.018082900769230e+01
0	 4.375000000000001e+00	 4.875000000000002e+00	 1.017348616538461e+01
0	 4.375000000000001e+00	 5.000000000000001e+00	 1.016658480769230e+01
0	 4.500000000000001e+00	 3.750000000000000e+00	 1.024851329230770e+01
0	 4.500000000000001e+00	 3.875000000000000e+00	 1.023945394769231e+01
0	 4.500000000000001e+00	 4.000000000000000e+00	 1.023071500307692e+01
0	 4.500000000000001e+00	 4.125000000000001e+00	 1.022229645846154e+01
0	 4.500000000000001e+00	 4.250000000000001e+00	 1.021419831384616e+01
0	 4.500000000000000e+00	 4.375000000000001e+00	 1.020642056923077e+01
0	 4.500000000000001e+00	 4.500000000000001e+00	 1.019896322461539e+01
0	 4.500000000000002e+00	 4.625000000000002e+00	 1.019182628000000e+01
0	 4.500000000000001e+00	 4.750000000000003e+00	 1.018500973538462e+01
0	 4.500000000000001e+00	 4.875000000000001e+00	 1.017851359076924e+01
0	 4.500000000000001e+00	 4.999999999999999e+00	 1.017233784615384e+01
0	 4.625000000000001e+00	 3.750000000000000e+00	 1.024252943846154e+01
0	 4.625000000000001e+00	 3.875000000000000e+00	 1.023488653307692e+01
0	 4.625000000000002e+00	 4.000000000000001e+00	 1.022744294307692e+01
0	 4.625000000000000e+00	 4.125000000000000e+00	 1.022019866846154e+01
0	 4.625000000000001e+00	 4.250000000000000e+00	 1.021315370923077e+01
0	 4.625000000000002e+00	 4.375000000000001e+00	 1.020630806538461e+01
0	 4.624999999999999e+00	 4.499999999999999e+00	 1.019966173692307e+01
0	 4.625000000000001e+00	 4.625000000000001e+00	 1.019321472384616e+01
0	 4.625000000000001e+00	 4.750000000000001e+00	 1.018696702615384e+01
0	 4.625000000000001e+00	 4.875000000000001e+00	 1.018091864384616e+01
0	 4.625000000000001e+00	 5.000000000000000e+00	 1.017506957692308e+01
0	 4.750000000000001e+00	 3.750000000000000e+00	 1.023751363076923e+01
0	 4.750000000000002e+00	 3.875000000000000e+00	 1.023088822923077e+01
0	 4.750000000000001e+00	 4.000000000000000e+00	 1.022434105846154e+01
0	 4.750000000000000e+00	 4.125000000000000e+00	 1.021787211846154e+01
0	 4.750000000000000e+00	 4.249999999999999e+00	 1.021148140923077e+01
0	 4.750000000000001e+00	 4.375000000000000e+00	 1.020516893076923e+01
0	 4.750000000000003e+00	 4.500000000000003e+00	 1.019893468307693e+01
0	 4.750000000000002e+00	 4.625000000000002e+00	 1.019277866615385e+01
0	 4.750000000000001e+00	 4.750000000000002e+00	 1.018670088000000e+01
0	 4.750000000000002e+00	 4.875000000000002e+00	 1.018070132461538e+01
0	 4.750000000000001e+00	 5.000000000000000e+00	 1.017478000000000e+01
0	 4.875000000000001e+00	 3.750000000000000e+00	 1.023346586923077e+01
0	 4.875000000000001e+00	 3.875000000000000e+00	 1.022745903615385e+01
0	 4.875000000000001e+00	 4.000000000000000e+00	 1.022140934923077e+01
0	 4.875000000000001e+00	 4.125000000000000e+00	 1.021531680846154e+01
0	 4.875000000000001e+00	 4.250000000000000e+00	 1.020918141384615e+01
0	 4.875000000000000e+00	 4.375000000000000e+00	 1.020300316538461e+01
0	 4.875000000000001e+00	 4.500000000000001e+00	 1.019678206307692e+01
0	 4.875000000000001e+00	 4.625000000000000e+00	 1.019051810692308e+01
0	 4.875000000000002e+00	 4.750000000000002e+00	 1.018421129692308e+01
0	 4.875000000000001e+00	 4.875000000000001e+00	 1.017786163307692e+01
0	 4.875000000000001e+00	 5.000000000000000e+00	 1.017146911538462e+01
0	 5.000000000000000e+00	 3.750000000000000e+00	 1.023038615384615e+01
0	 5.000000000000000e+00	 3.875000000000000e+00	 1.022459895384615e+01
0	 5.000000000000000e+00	 4.000000000000001e+00	 1.021864781538462e+01
0	 5.000000000000001e+00	 4.125000000000001e+00	 1.021253273846153e+01
0	 5.000000000000001e+00	 4.250000000000001e+00	 1.020625372307692e+01
0	 5.000000000000001e+00	 4.375000000000001e+00	 1.019981076923077e+01
0	 5.000000000000000e+00	 4.500000000000000e+00	 1.019320387692307e+01
0	 5.000000000000000e+00	 4.625000000000001e+00	 1.018643304615385e+01
0	 5.000000000000000e+00	 4.750000000000002e+00	 1.017949827692308e+01
0	 5.000000000000000e+00	 4.875000000000002e+00	 1.017239956923077e+01
0	 5.000000000000000e+00	 5.000000000000000e+00	 1.016513692307692e+01
0	 3.750000000000000e+00	 5.000000000000000e+00	 1.009250000000000e+01
0	 3.750000000000000e+00	 5.124999999999999e+00	 1.009350360769232e+01
0	 3.750000000000000e+00	 5.250000000000000e+00	 1.009360966153846e+01
0	 3.750000000000000e+00	 5.374999999999998e+00	 1.009281816153845e+01
0	 3.750000000000000e+00	 5.499999999999999e+00	 1.009112910769230e+01
0	 3.750000000000000e+00	 5.624999999999997e+00	 1.008854250000000e+01
0	 3.750000000000000e+00	 5.749999999999997e+00	 1.008505833846153e+01
0	 3.750000000000000e+00	 5.874999999999996e+00	 1.008067662307692e+01
0	 3.750000000000000e+00	 5.999999999999996e+00	 1.007539735384615e+01
0	 3.750000000000000e+00	 6.124999999999996e+00	 1.006922053076923e+01
0	 3.750000000000000e+00	 6.250000000000000e+00	 1.006214615384615e+01
0	 3.875000000000000e+00	 4.999999999999999e+00	 1.011335957692308e+01
0	 3.875000000000000e+00	 5.125000000000000e+00	 1.011187666153846e+01
0	 3.875000000000000e+00	 5.249999999999997e+00	 1.010961989846154e+01
0	 3.874999999999998e+00	 5.374999999999997e+00	 1.010658928769231e+01
0	 3.874999999999999e+00	 5.499999999999997e+00	 1.010278482923077e+01
0	 3.874999999999999e+00	 5.624999999999997e+00	 1.009820652307692e+01
0	 3.875000000000000e+00	 5.749999999999997e+00	 1.009285436923077e+01
0	 3.875000000000000e+00	 5.874999999999996e+00	 1.008672836769230e+01
0	 3.875000000000000e+00	 5.999999999999997e+00	 1.007982851846154e+01
0	 3.875000000000000e+00	 6.124999999999997e+00	 1.007215482153846e+01
0	 3.875000000000000e+00	 6.250000000000000e+00	 1.006370727692307e+01
0	 4.000000000000000e+00	 5.000000000000000e+00	 1.013119784615384e+01
0	 4.000000000000000e+00	 5.124999999999999e+00	 1.012753202461538e+01
0	 4.000000000000000e+00	 5.249999999999999e+00	 1.012321606153846e+01
0	 4.000000000000000e+00	 5.374999999999999e+00	 1.011824995692307e+01
0	 4.000000000000001e+00	 5.499999999999999e+00	 1.011263371076923e+01
0	 4.000000000000000e+00	 5.624999999999997e+00	 1.010636732307692e+01
0	 4.000000000000000e+00	 5.749999999999997e+00	 1.009945079384615e+01
0	 4.000000000000000e+00	 5.874999999999997e+00	 1.009188412307692e+01
0	 4.000000000000000e+00	 5.999999999999996e+00	 1.008366731076923e+01
0	 4.000000000000000e+00	 6.124999999999996e+00	 1.007480035692307e+01
0	 4.000000000000000e+00	 6.250000000000001e+00	 1.006528326153845e+01
0	 4.125000000000000e+00	 5.000000000000000e+00	 1.014601480769230e+01
0	 4.125000000000001e+00	 5.124999999999999e+00	 1.014046969692308e+01
0	 4.125000000000000e+00	 5.249999999999999e+00	 1.013439815076922e+01
0	 4.125000000000001e+00	 5.374999999999998e+00	 1.012780016923076e+01
0	 4.124999999999999e+00	 5.499999999999997e+00	 1.012067575230768e+01
0	 4.125000000000000e+00	 5.624999999999997e+00	 1.011302490000000e+01
0	 4.125000000000000e+00	 5.749999999999998e+00	 1.010484761230769e+01
0	 4.125000000000001e+00	 5.874999999999996e+00	 1.009614388923076e+01
0	 4.125000000000000e+00	 5.999999999999996e+00	 1.008691373076923e+01
0	 4.125000000000000e+00	 6.124999999999995e+00	 1.007715713692307e+01
0	 4.125000000000000e+00	 6.250000000000000e+00	 1.006687410769230e+01
0	 4.250000000000001e+00	 5.000000000000001e+00	 1.015781046153847e+01
0	 4.250000000000002e+00	 5.125000000000000e+00	 1.015068967846153e+01
0	 4.250000000000001e+00	 5.250000000000000e+00	 1.014316616615385e+01
0	 4.250000000000001e+00	 5.374999999999998e+00	 1.013523992461538e+01
0	 4.250000000000001e+00	 5.499999999999998e+00	 1.012691095384615e+01
0	 4.249999999999999e+00	 5.624999999999996e+00	 1.011817925384615e+01
0	 4.250000000000001e+00	 5.749999999999998e+00	 1.010904482461538e+01
0	 4.250000000000001e+00	 5.874999999999997e+00	 1.009950766615384e+01
0	 4.250000000000001e+00	 5.999999999999997e+00	 1.008956777846153e+01
0	 4.250000000000000e+00	 6.124999999999996e+00	 1.007922516153845e+01
0	 4.250000000000001e+00	 6.250000000000000e+00	 1.006847981538460e+01
0	 4.375000000000001e+00	 5.000000000000001e+00	 1.016658480769230e+01
0	 4.375000000000001e+00	 5.124999999999998e+00	 1.015819196923077e+01
0	 4.375000000000000e+00	 5.249999999999999e+00	 1.014952010769230e+01
0	 4.375000000000001e+00	 5.375000000000000e+00	 1.014056922307692e+01
0	 4.375000000000000e+00	 5.499999999999998e+00	 1.013133931538461e+01
0	 4.375000000000001e+00	 5.624999999999999e+00	 1.012183038461538e+01
0	 4.375000000000002e+00	 5.749999999999996e+00	 1.011204243076923e+01
0	 4.375000000000002e+00	 5.874999999999998e+00	 1.010197545384615e+01
0	 4.375000000000001e+00	 5.999999999999998e+00	 1.009162945384615e+01
0	 4.375000000000002e+00	 6.124999999999997e+00	 1.008100443076922e+01
0	 4.375000000000001e+00	 6.250000000000000e+00	 1.007010038461538e+01
0	 4.500000000000001e+00	 4.999999999999999e+00	 1.017233784615384e+01
0	 4.500000000000001e+00	 5.124999999999999e+00	 1.016297656923077e+01
0	 4.500000000000001e+00	 5.249999999999999e+00	 1.015345997538461e+01
0	 4.500000000000001e+00	 5.374999999999997e+00	 1.014378806461538e+01
0	 4.500000000000001e+00	 5.499999999999998e+00	 1.013396083692307e+01
0	 4.500000000000001e+00	 5.624999999999997e+00	 1.012397829230769e+01
0	 4.500000000000001e+00	 5.749999999999997e+00	 1.011384043076922e+01
0	 4.500000000000001e+00	 5.874999999999996e+00	 1.010354725230769e+01
0	 4.500000000000001e+00	 5.999999999999997e+00	 1.009309875692307e+01
0	 4.500000000000001e+00	 6.124999999999996e+00	 1.008249494461538e+01
0	 4.500000000000001e+00	 6.250000000000000e+00	 1.007173581538460e+01
0	 4.625000000000001e+00	 5.000000000000000e+00	 1.017506957692308e+01
0	 4.625000000000001e+00	 5.124999999999999e+00	 1.016504347846154e+01
0	 4.625000000000001e+00	 5.249999999999999e+00	 1.015498576923076e+01
0	 4.625000000000001e+00	 5.374999999999998e+00	 1.014489644923077e+01
0	 4.625000000000001e+00	 5.499999999999998e+00	 1.013477551846153e+01
0	 4.625000000000002e+00	 5.624999999999999e+00	 1.012462297692307e+01
0	 4.625000000000001e+00	 5.749999999999996e+00	 1.011443882461538e+01
0	 4.625000000000002e+00	 5.874999999999997e+00	 1.010422306153845e+01
0	 4.625000000000002e+00	 5.999999999999996e+00	 1.009397568769230e+01
0	 4.625000000000002e+00	 6.124999999999996e+00	 1.008369670307692e+01
0	 4.625000000000001e+00	 6.249999999999999e+00	 1.007338610769231e+01
0	 4.750000000000001e+00	 5.000000000000000e+00	 1.017478000000000e+01
0	 4.750000000000002e+00	 5.125000000000000e+00	 1.016439269692308e+01
0	 4.750000000000001e+00	 5.249999999999999e+00	 1.015409748923077e+01
0	 4.750000000000001e+00	 5.374999999999999e+00	 1.014389437692308e+01
0	 4.750000000000001e+00	 5.499999999999999e+00	 1.013378336000000e+01
0	 4.750000000000001e+00	 5.624999999999998e+00	 1.012376443846154e+01
0	 4.750000000000001e+00	 5.749999999999998e+00	 1.011383761230769e+01
0	 4.750000000000000e+00	 5.874999999999997e+00	 1.010400288153846e+01
0	 4.750000000000000e+00	 5.999999999999996e+00	 1.009426024615384e+01
0	 4.750000000000000e+00	 6.124999999999996e+00	 1.008460970615384e+01
0	 4.750000000000001e+00	 6.250000000000000e+00	 1.007505126153845e+01
0	 4.875000000000001e+00	 5.000000000000000e+00	 1.017146911538462e+01
0	 4.875000000000000e+00	 5.125000000000000e+00	 1.016102422461538e+01
0	 4.875000000000001e+00	 5.249999999999999e+00	 1.015079513538462e+01
0	 4.875000000000001e+00	 5.374999999999998e+00	 1.014078184769230e+01
0	 4.875000000000002e+00	 5.499999999999998e+00	 1.013098436153845e+01
0	 4.875000000000001e+00	 5.624999999999997e+00	 1.012140267692307e+01
0	 4.875000000000001e+00	 5.749999999999996e+00	 1.011203679384614e+01
0	 4.875000000000000e+00	 5.874999999999996e+00	 1.010288671230769e+01
0	 4.875000000000000e+00	 5.999999999999996e+00	 1.009395243230768e+01
0	 4.875000000000001e+00	 6.124999999999996e+00	 1.008523395384615e+01
0	 4.875000000000001e+00	 6.250000000000000e+00	 1.007673127692306e+01
0	 5.000000000000000e+00	 5.000000000000000e+00	 1.016513692307692e+01
0	 5.000000000000000e+00	 5.124999999999999e+00	 1.015493806153848e+01
0	 5.000000000000001e+00	 5.250000000000000e+00	 1.014507870769230e+01
0	 5.000000000000000e+00	 5.374999999999998e+00	 1.013555886153845e+01
0	 5.000000000000001e+00	 5.499999999999999e+00	 1.012637852307692e+01
0	 5.000000000000000e+00	 5.624999999999997e+00	 1.011753769230770e+01
0	 5.000000000000000e+00	 5.749999999999997e+00	 1.010903636923076e+01
0	 5.000000000000000e+00	 5.874999999999996e+00	 1.010087455384614e+01
0	 5.000000000000000e+00	 5.999999999999996e+00	 1.009305224615384e+01
0	 5.000000000000000e+00	 6.124999999999996e+00	 1.008556944615385e+01
0	 5.000000000000000e+00	 6.250000000000000e+00	 1.007842615384615e+01
0	 3.750000000000000e+00	 6.250000000000000e+00	 1.006214615384615e+01
0	 3.750000000000000e+00	 6.375000000000000e+00	 1.005627956923075e+01
0	 3.750000000000000e+00	 6.500000000000000e+00	 1.005064827692307e+01
0	 3.750000000000000e+00	 6.624999999999998e+00	 1.004525227692308e+01
0	 3.750000000000000e+00	 6.749999999999998e+00	 1.004009156923077e+01
0	 3.750000000000000e+00	 6.874999999999998e+00	 1.003516615384616e+01
0	 3.750000000000000e+00	 6.999999999999997e+00	 1.003047603076923e+01
0	 3.750000000000000e+00	 7.124999999999996e+00	 1.002602120000000e+01
0	 3.750000000000000e+00	 7.249999999999997e+00	 1.002180166153847e+01
0	 3.750000000000000e+00	 7.374999999999996e+00	 1.001781741538462e+01
0	 3.750000000000000e+00	 7.500000000000000e+00	 1.001406846153847e+01
0	 3.875000000000000e+00	 6.250000000000000e+00	 1.006370727692307e+01
0	 3.875000000000000e+00	 6.374999999999997e+00	 1.005855370461538e+01
0	 3.875000000000000e+00	 6.500000000000000e+00	 1.005358393076922e+01
0	 3.874999999999998e+00	 6.624999999999996e+00	 1.004879795538461e+01
0	 3.874999999999999e+00	 6.749999999999996e+00	 1.004419577846154e+01
0	 3.874999999999999e+00	 6.874999999999996e+00	 1.003977740000000e+01
0	 3.875000000000000e+00	 6.999999999999998e+00	 1.003554282000000e+01
0	 3.875000000000000e+00	 7.124999999999997e+00	 1.003149203846154e+01
0	 3.875000000000000e+00	 7.249999999999996e+00	 1.002762505538462e+01
0	 3.875000000000000e+00	 7.374999999999996e+00	 1.002394187076925e+01
0	 3.875000000000000e+00	 7.500000000000001e+00	 1.002044248461539e+01
0	 4.000000000000000e+00	 6.250000000000001e+00	 1.006528326153845e+01
0	 4.000000000000000e+00	 6.374999999999999e+00	 1.006076043538461e+01
0	 4.000000000000000e+00	 6.500000000000000e+00	 1.005636991384615e+01
0	 4.000000000000000e+00	 6.624999999999999e+00	 1.005211169692308e+01
0	 4.000000000000001e+00	 6.749999999999998e+00	 1.004798578461539e+01
0	 4.000000000000000e+00	 6.874999999999999e+00	 1.004399217692308e+01
0	 4.000000000000000e+00	 6.999999999999997e+00	 1.004013087384616e+01
0	 4.000000000000000e+00	 7.124999999999998e+00	 1.003640187538462e+01
0	 4.000000000000000e+00	 7.249999999999996e+00	 1.003280518153847e+01
0	 4.000000000000000e+00	 7.374999999999996e+00	 1.002934079230769e+01
0	 4.000000000000000e+00	 7.500000000000000e+00	 1.002600870769233e+01
0	 4.125000000000000e+00	 6.250000000000000e+00	 1.006687410769230e+01
0	 4.125000000000001e+00	 6.375000000000001e+00	 1.006289976153845e+01
0	 4.125000000000000e+00	 6.500000000000000e+00	 1.005900622615384e+01
0	 4.125000000000001e+00	 6.624999999999997e+00	 1.005519350153846e+01
0	 4.124999999999999e+00	 6.749999999999996e+00	 1.005146158769231e+01
0	 4.125000000000000e+00	 6.874999999999998e+00	 1.004781048461539e+01
0	 4.125000000000000e+00	 6.999999999999997e+00	 1.004424019230770e+01
0	 4.125000000000001e+00	 7.124999999999997e+00	 1.004075071076923e+01
0	 4.125000000000000e+00	 7.249999999999996e+00	 1.003734204000001e+01
0	 4.125000000000000e+00	 7.374999999999996e+00	 1.003401418000001e+01
0	 4.125000000000000e+00	 7.500000000000001e+00	 1.003076713076924e+01
0	 4.250000000000001e+00	 6.250000000000000e+00	 1.006847981538460e+01
0	 4.250000000000002e+00	 6.375000000000001e+00	 1.006497168307691e+01
0	 4.250000000000001e+00	 6.500000000000000e+00	 1.006149286769230e+01
0	 4.250000000000001e+00	 6.624999999999999e+00	 1.005804336923077e+01
0	 4.250000000000001e+00	 6.749999999999998e+00	 1.005462318769230e+01
0	 4.249999999999999e+00	 6.874999999999996e+00	 1.005123232307692e+01
0	 4.250000000000001e+00	 6.999999999999997e+00	 1.004787077538461e+01
0	 4.250000000000001e+00	 7.124999999999996e+00	 1.004453854461539e+01
0	 4.250000000000001e+00	 7.249999999999997e+00	 1.004123563076923e+01
0	 4.250000000000000e+00	 7.374999999999996e+00	 1.003796203384616e+01
0	 4.250000000000001e+00	 7.500000000000000e+00	 1.003471775384616e+01
0	 4.375000000000001e+00	 6.250000000000000e+00	 1.007010038461538e+01
0	 4.375000000000001e+00	 6.374999999999999e+00	 1.006697620000000e+01
0	 4.375000000000000e+00	 6.500000000000000e+00	 1.006382983846154e+01
0	 4.375000000000001e+00	 6.625000000000000e+00	 1.006066130000000e+01
0	 4.375000000000000e+00	 6.749999999999997e+00	 1.005747058461539e+01
0	 4.375000000000001e+00	 6.874999999999998e+00	 1.005425769230769e+01
0	 4.375000000000002e+00	 6.999999999999997e+00	 1.005102262307693e+01
0	 4.375000000000002e+00	 7.124999999999997e+00	 1.004776537692308e+01
0	 4.375000000000001e+00	 7.249999999999996e+00	 1.004448595384616e+01
0	 4.375000000000002e+00	 7.374999999999997e+00	 1.004118435384617e+01
0	 4.375000000000001e+00	 7.500000000000000e+00	 1.003786057692308e+01
0	 4.500000000000001e+00	 6.250000000000000e+00	 1.007173581538460e+01
0	 4.500000000000001e+00	 6.375000000000000e+00	 1.006891331230769e+01
0	 4.500000000000001e+00	 6.499999999999999e+00	 1.006601713846154e+01
0	 4.500000000000001e+00	 6.624999999999998e+00	 1.006304729384615e+01
0	 4.500000000000001e+00	 6.749999999999998e+00	 1.006000377846154e+01
0	 4.500000000000001e+00	 6.874999999999997e+00	 1.005688659230770e+01
0	 4.500000000000001e+00	 6.999999999999996e+00	 1.005369573538462e+01
0	 4.500000000000001e+00	 7.124999999999997e+00	 1.005043120769231e+01
0	 4.500000000000001e+00	 7.249999999999996e+00	 1.004709300923077e+01
0	 4.500000000000001e+00	 7.374999999999996e+00	 1.004368114000000e+01
0	 4.500000000000001e+00	 7.500000000000000e+00	 1.004019560000002e+01
0	 4.625000000000001e+00	 6.249999999999999e+00	 1.007338610769231e+01
0	 4.625000000000001e+00	 6.375000000000001e+00	 1.007078301999999e+01
0	 4.625000000000001e+00	 6.499999999999999e+00	 1.006805476769230e+01
0	 4.625000000000001e+00	 6.624999999999997e+00	 1.006520135076922e+01
0	 4.625000000000001e+00	 6.749999999999998e+00	 1.006222276923077e+01
0	 4.625000000000002e+00	 6.874999999999998e+00	 1.005911902307693e+01
0	 4.625000000000001e+00	 6.999999999999998e+00	 1.005589011230770e+01
0	 4.625000000000002e+00	 7.124999999999997e+00	 1.005253603692307e+01
0	 4.625000000000002e+00	 7.249999999999996e+00	 1.004905679692308e+01
0	 4.625000000000002e+00	 7.374999999999997e+00	 1.004545239230771e+01
0	 4.625000000000001e+00	 7.499999999999999e+00	 1.004172282307693e+01
0	 4.750000000000001e+00	 6.250000000000000e+00	 1.007505126153845e+01
0	 4.750000000000002e+00	 6.375000000000000e+00	 1.007258532307691e+01
0	 4.750000000000001e+00	 6.499999999999999e+00	 1.006994272615384e+01
0	 4.750000000000001e+00	 6.624999999999998e+00	 1.006712347076922e+01
0	 4.750000000000001e+00	 6.749999999999999e+00	 1.006412755692307e+01
0	 4.750000000000001e+00	 6.874999999999998e+00	 1.006095498461538e+01
0	 4.750000000000001e+00	 6.999999999999997e+00	 1.005760575384616e+01
0	 4.750000000000000e+00	 7.124999999999996e+00	 1.005407986461539e+01
0	 4.750000000000000e+00	 7.249999999999996e+00	 1.005037731692308e+01
0	 4.750000000000000e+00	 7.374999999999996e+00	 1.004649811076924e+01
0	 4.750000000000001e+00	 7.500000000000000e+00	 1.004244224615386e+01
0	 4.875000000000001e+00	 6.250000000000000e+00	 1.007673127692306e+01
0	 4.875000000000000e+00	 6.374999999999998e+00	 1.007432022153845e+01
0	 4.875000000000001e+00	 6.499999999999999e+00	 1.007168101384614e+01
0	 4.875000000000001e+00	 6.625000000000000e+00	 1.006881365384615e+01
0	 4.875000000000002e+00	 6.749999999999999e+00	 1.006571814153846e+01
0	 4.875000000000001e+00	 6.874999999999996e+00	 1.006239447692307e+01
0	 4.875000000000001e+00	 6.999999999999998e+00	 1.005884266000000e+01
0	 4.875000000000000e+00	 7.124999999999996e+00	 1.005506269076923e+01
0	 4.875000000000000e+00	 7.249999999999997e+00	 1.005105456923078e+01
0	 4.875000000000001e+00	 7.374999999999996e+00	 1.004681829538462e+01
0	 4.875000000000001e+00	 7.500000000000000e+00	 1.004235386923078e+01
0	 5.000000000000000e+00	 6.250000000000000e+00	 1.007842615384615e+01
0	 5.000000000000000e+00	 6.375000000000000e+00	 1.007598771538460e+01
0	 5.000000000000001e+00	 6.500000000000000e+00	 1.007326963076922e+01
0	 5.000000000000000e+00	 6.624999999999998e+00	 1.007027190000000e+01
0	 5.000000000000001e+00	 6.749999999999998e+00	 1.006699452307692e+01
0	 5.000000000000000e+00	 6.874999999999998e+00	 1.006343750000000e+01
0	 5.000000000000000e+00	 6.999999999999997e+00	 1.005960083076923e+01
0	 5.000000000000000e+00	 7.124999999999996e+00	 1.005548451538461e+01
0	 5.000000000000000e+00	 7.249999999999997e+00	 1.005108855384616e+01
0	 5.000000000000000e+00	 7.374999999999996e+00	 1.004641294615384e+01
0	 5.000000000000000e+00	 7.500000000000000e+00	 1.004145769230770e+01
0	 3.750000000000000e+00	 7.500000000000000e+00	 1.001406846153847e+01
0	 3.750000000000000e+00	 7.625000000000000e+00	 1.001434572307694e+01
0	 3.750000000000000e+00	 7.750000000000000e+00	 1.001436858461539e+01
0	 3.750000000000000e+00	 7.874999999999998e+00	 1.001413704615385e+01
0	 3.750000000000000e+00	 7.999999999999999e+00	 1.001365110769231e+01
0	 3.750000000000000e+00	 8.124999999999998e+00	 1.001291076923078e+01
0	 3.750000000000000e+00	 8.249999999999998e+00	 1.001191603076923e+01
0	 3.750000000000000e+00	 8.374999999999996e+00	 1.001066689230769e+01
0	 3.750000000000000e+00	 8.499999999999996e+00	 1.000916335384615e+01
0	 3.750000000000000e+00	 8.624999999999996e+00	 1.000740541538462e+01
0	 3.750000000000000e+00	 8.750000000000000e+00	 1.000539307692308e+01
0	 3.875000000000000e+00	 7.500000000000001e+00	 1.002044248461539e+01
0	 3.875000000000000e+00	 7.624999999999997e+00	 1.001998315153846e+01
0	 3.875000000000000e+00	 7.749999999999998e+00	 1.001929360769233e+01
0	 3.874999999999998e+00	 7.874999999999996e+00	 1.001837385307693e+01
0	 3.874999999999999e+00	 7.999999999999997e+00	 1.001722388769231e+01
0	 3.874999999999999e+00	 8.124999999999996e+00	 1.001584371153846e+01
0	 3.875000000000000e+00	 8.249999999999998e+00	 1.001423332461539e+01
0	 3.875000000000000e+00	 8.374999999999996e+00	 1.001239272692308e+01
0	 3.875000000000000e+00	 8.499999999999996e+00	 1.001032191846154e+01
0	 3.875000000000000e+00	 8.624999999999995e+00	 1.000802089923076e+01
0	 3.875000000000000e+00	 8.750000000000000e+00	 1.000548966923077e+01
0	 4.000000000000000e+00	 7.500000000000000e+00	 1.002600870769233e+01
0	 4.000000000000000e+00	 7.624999999999998e+00	 1.002489518615386e+01
0	 4.000000000000000e+00	 7.750000000000000e+00	 1.002357564307694e+01
0	 4.000000000000000e+00	 7.874999999999999e+00	 1.002205007846154e+01
0	 4.000000000000001e+00	 7.999999999999998e+00	 1.002031849230770e+01
0	 4.000000000000000e+00	 8.124999999999998e+00	 1.001838088461539e+01
0	 4.000000000000000e+00	 8.249999999999998e+00	 1.001623725538462e+01
0	 4.000000000000000e+00	 8.374999999999995e+00	 1.001388760461539e+01
0	 4.000000000000000e+00	 8.499999999999996e+00	 1.001133193230769e+01
0	 4.000000000000000e+00	 8.624999999999996e+00	 1.000857023846154e+01
0	 4.000000000000000e+00	 8.750000000000000e+00	 1.000560252307691e+01
0	 4.125000000000000e+00	 7.500000000000001e+00	 1.003076713076924e+01
0	 4.125000000000001e+00	 7.625000000000000e+00	 1.002908182692309e+01
0	 4.125000000000000e+00	 7.749999999999999e+00	 1.002721469076924e+01
0	 4.125000000000001e+00	 7.874999999999998e+00	 1.002516572230770e+01
0	 4.124999999999999e+00	 7.999999999999996e+00	 1.002293492153847e+01
0	 4.125000000000000e+00	 8.124999999999998e+00	 1.002052228846154e+01
0	 4.125000000000000e+00	 8.249999999999998e+00	 1.001792782307693e+01
0	 4.125000000000001e+00	 8.374999999999996e+00	 1.001515152538462e+01
0	 4.125000000000000e+00	 8.499999999999996e+00	 1.001219339538463e+01
0	 4.125000000000000e+00	 8.624999999999995e+00	 1.000905343307693e+01
0	 4.125000000000000e+00	 8.750000000000000e+00	 1.000573163846153e+01
0	 4.250000000000001e+00	 7.500000000000000e+00	 1.003471775384616e+01
0	 4.250000000000002e+00	 7.625000000000000e+00	 1.003254307384616e+01
0	 4.250000000000001e+00	 7.749999999999999e+00	 1.003021075076925e+01
0	 4.250000000000001e+00	 7.874999999999998e+00	 1.002772078461539e+01
0	 4.250000000000001e+00	 8.000000000000000e+00	 1.002507317538462e+01
0	 4.249999999999999e+00	 8.124999999999996e+00	 1.002226792307693e+01
0	 4.250000000000001e+00	 8.249999999999998e+00	 1.001930502769231e+01
0	 4.250000000000001e+00	 8.374999999999996e+00	 1.001618448923078e+01
0	 4.250000000000001e+00	 8.499999999999996e+00	 1.001290630769232e+01
0	 4.250000000000000e+00	 8.624999999999996e+00	 1.000947048307693e+01
0	 4.250000000000001e+00	 8.750000000000000e+00	 1.000587701538462e+01
0	 4.375000000000001e+00	 7.500000000000000e+00	 1.003786057692308e+01
0	 4.375000000000001e+00	 7.625000000000000e+00	 1.003527892692307e+01
0	 4.375000000000000e+00	 7.749999999999999e+00	 1.003256382307693e+01
0	 4.375000000000001e+00	 7.874999999999998e+00	 1.002971526538462e+01
0	 4.375000000000000e+00	 7.999999999999996e+00	 1.002673325384615e+01
0	 4.375000000000001e+00	 8.125000000000000e+00	 1.002361778846154e+01
0	 4.375000000000002e+00	 8.249999999999996e+00	 1.002036886923078e+01
0	 4.375000000000002e+00	 8.374999999999996e+00	 1.001698649615386e+01
0	 4.375000000000001e+00	 8.499999999999996e+00	 1.001347066923077e+01
0	 4.375000000000002e+00	 8.624999999999998e+00	 1.000982138846154e+01
0	 4.375000000000001e+00	 8.750000000000002e+00	 1.000603865384615e+01
0	 4.500000000000001e+00	 7.500000000000000e+00	 1.004019560000002e+01
0	 4.500000000000001e+00	 7.624999999999999e+00	 1.003728938615385e+01
0	 4.500000000000001e+00	 7.749999999999999e+00	 1.003427390769231e+01
0	 4.500000000000001e+00	 7.874999999999997e+00	 1.003114916461539e+01
0	 4.500000000000001e+00	 7.999999999999999e+00	 1.002791515692308e+01
0	 4.500000000000001e+00	 8.124999999999996e+00	 1.002457188461539e+01
0	 4.500000000000001e+00	 8.249999999999998e+00	 1.002111934769231e+01
0	 4.500000000000001e+00	 8.374999999999996e+00	 1.001755754615384e+01
0	 4.500000000000001e+00	 8.499999999999996e+00	 1.001388648000001e+01
0	 4.500000000000001e+00	 8.624999999999996e+00	 1.001010614923078e+01
0	 4.500000000000001e+00	 8.750000000000000e+00	 1.000621655384615e+01
0	 4.625000000000001e+00	 7.499999999999999e+00	 1.004172282307693e+01
0	 4.625000000000001e+00	 7.625000000000001e+00	 1.003857445153848e+01
0	 4.625000000000001e+00	 7.749999999999999e+00	 1.003534100461538e+01
0	 4.625000000000001e+00	 7.874999999999997e+00	 1.003202248230769e+01
0	 4.625000000000001e+00	 7.999999999999997e+00	 1.002861888461539e+01
0	 4.625000000000002e+00	 8.125000000000000e+00	 1.002513021153847e+01
0	 4.625000000000001e+00	 8.249999999999996e+00	 1.002155646307693e+01
0	 4.625000000000002e+00	 8.374999999999998e+00	 1.001789763923077e+01
0	 4.625000000000002e+00	 8.499999999999996e+00	 1.001415374000000e+01
0	 4.625000000000002e+00	 8.624999999999998e+00	 1.001032476538462e+01
0	 4.625000000000001e+00	 8.750000000000000e+00	 1.000641071538463e+01
0	 4.750000000000001e+00	 7.500000000000000e+00	 1.004244224615386e+01
0	 4.750000000000002e+00	 7.624999999999999e+00	 1.003913412307694e+01
0	 4.750000000000001e+00	 7.750000000000000e+00	 1.003576511384616e+01
0	 4.750000000000001e+00	 7.874999999999998e+00	 1.003233521846154e+01
0	 4.750000000000001e+00	 7.999999999999999e+00	 1.002884443692308e+01
0	 4.750000000000001e+00	 8.124999999999996e+00	 1.002529276923077e+01
0	 4.750000000000001e+00	 8.249999999999998e+00	 1.002168021538462e+01
0	 4.750000000000000e+00	 8.374999999999996e+00	 1.001800677538461e+01
0	 4.750000000000000e+00	 8.499999999999996e+00	 1.001427244923076e+01
0	 4.750000000000000e+00	 8.624999999999995e+00	 1.001047723692309e+01
0	 4.750000000000001e+00	 8.750000000000000e+00	 1.000662113846153e+01
0	 4.875000000000001e+00	 7.500000000000000e+00	 1.004235386923078e+01
0	 4.875000000000000e+00	 7.624999999999997e+00	 1.003896840076924e+01
0	 4.875000000000001e+00	 7.749999999999998e+00	 1.003554623538462e+01
0	 4.875000000000001e+00	 7.875000000000000e+00	 1.003208737307692e+01
0	 4.875000000000002e+00	 7.999999999999998e+00	 1.002859181384616e+01
0	 4.875000000000001e+00	 8.124999999999996e+00	 1.002505955769230e+01
0	 4.875000000000001e+00	 8.249999999999998e+00	 1.002149060461539e+01
0	 4.875000000000000e+00	 8.374999999999995e+00	 1.001788495461539e+01
0	 4.875000000000000e+00	 8.499999999999996e+00	 1.001424260769231e+01
0	 4.875000000000001e+00	 8.624999999999996e+00	 1.001056356384615e+01
0	 4.875000000000001e+00	 8.750000000000000e+00	 1.000684782307693e+01
0	 5.000000000000000e+00	 7.500000000000000e+00	 1.004145769230770e+01
0	 5.000000000000000e+00	 7.625000000000000e+00	 1.003807728461540e+01
0	 5.000000000000001e+00	 7.750000000000000e+00	 1.003468436923078e+01
0	 5.000000000000000e+00	 7.874999999999998e+00	 1.003127894615385e+01
0	 5.000000000000001e+00	 7.999999999999999e+00	 1.002786101538461e+01
0	 5.000000000000000e+00	 8.124999999999998e+00	 1.002443057692309e+01
0	 5.000000000000000e+00	 8.249999999999998e+00	 1.002098763076922e+01
0	 5.000000000000000e+00	 8.374999999999996e+00	 1.001753217692308e+01
0	 5.000000000000000e+00	 8.499999999999996e+00	 1.001406421538461e+01
0	 5.000000000000000e+00	 8.624999999999996e+00	 1.001058374615385e+01
0	 5.000000000000000e+00	 8.750000000000000e+00	 1.000709076923077e+01
0	 3.750000000000000e+00	 8.750000000000000e+00	 1.000539307692308e+01
0	 3.750000000000000e+00	 8.874999999999998e+00	 1.000468778461538e+01
0	 3.750000000000000e+00	 9.000000000000000e+00	 1.000397021538461e+01
0	 3.750000000000000e+00	 9.124999999999998e+00	 1.000324036923076e+01
0	 3.750000000000000e+00	 9.250000000000000e+00	 1.000249824615384e+01
0	 3.750000000000000e+00	 9.374999999999996e+00	 1.000174384615383e+01
0	 3.750000000000000e+00	 9.499999999999996e+00	 1.000097716923075e+01
0	 3.750000000000000e+00	 9.624999999999996e+00	 1.000019821538461e+01
0	 3.750000000000000e+00	 9.749999999999998e+00	 9.999406984615355e+00
0	 3.750000000000000e+00	 9.874999999999996e+00	 9.998603476923051e+00
0	 3.750000000000000e+00	 1.000000000000000e+01	 9.997787692307671e+00
0	 3.875000000000000e+00	 8.750000000000000e+00	 1.000548966923077e+01
0	 3.875000000000000e+00	 8.875000000000000e+00	 1.000498616076922e+01
0	 3.874999999999999e+00	 8.999999999999998e+00	 1.000443667384615e+01
0	 3.875000000000000e+00	 9.125000000000000e+00	 1.000384120846152e+01
0	 3.875000000000001e+00	 9.249999999999998e+00	 1.000319976461537e+01
0	 3.875000000000000e+00	 9.374999999999998e+00	 1.000251234230768e+01
0	 3.875000000000000e+00	 9.499999999999998e+00	 1.000177894153844e+01
0	 3.875000000000000e+00	 9.624999999999998e+00	 1.000099956230767e+01
0	 3.875000000000000e+00	 9.749999999999998e+00	 1.000017420461537e+01
0	 3.875000000000000e+00	 9.874999999999995e+00	 9.999302868461530e+00
0	 3.875000000000000e+00	 1.000000000000000e+01	 9.998385553846155e+00
0	 4.000000000000000e+00	 8.750000000000000e+00	 1.000560252307691e+01
0	 4.000000000000000e+00	 8.874999999999998e+00	 1.000527748307693e+01
0	 4.000000000000000e+00	 8.999999999999998e+00	 1.000487276307691e+01
0	 4.000000000000002e+00	 9.125000000000000e+00	 1.000438836307692e+01
0	 4.000000000000001e+00	 9.249999999999998e+00	 1.000382428307692e+01
0	 4.000000000000001e+00	 9.374999999999998e+00	 1.000318052307692e+01
0	 4.000000000000000e+00	 9.499999999999996e+00	 1.000245708307691e+01
0	 4.000000000000000e+00	 9.624999999999995e+00	 1.000165396307689e+01
0	 3.999999999999999e+00	 9.749999999999995e+00	 1.000077116307690e+01
0	 4.000000000000001e+00	 9.874999999999995e+00	 9.999808683076886e+00
0	 4.000000000000000e+00	 1.000000000000000e+01	 9.998766523076904e+00
0	 4.125000000000000e+00	 8.750000000000000e+00	 1.000573163846153e+01
0	 4.125000000000000e+00	 8.875000000000000e+00	 1.000556175153846e+01
0	 4.125000000000000e+00	 9.000000000000000e+00	 1.000527848307692e+01
0	 4.125000000000000e+00	 9.125000000000000e+00	 1.000488183307691e+01
0	 4.124999999999999e+00	 9.249999999999996e+00	 1.000437180153845e+01
0	 4.125000000000000e+00	 9.374999999999996e+00	 1.000374838846152e+01
0	 4.125000000000000e+00	 9.499999999999998e+00	 1.000301159384613e+01
0	 4.124999999999999e+00	 9.624999999999996e+00	 1.000216141769229e+01
0	 4.125000000000001e+00	 9.749999999999998e+00	 1.000119785999999e+01
0	 4.125000000000001e+00	 9.874999999999996e+00	 1.000012092076922e+01
0	 4.125000000000001e+00	 1.000000000000000e+01	 9.998930599999960e+00
0	 4.250000000000001e+00	 8.750000000000000e+00	 1.000587701538462e+01
0	 4.250000000000000e+00	 8.875000000000000e+00	 1.000583896615384e+01
0	 4.250000000000001e+00	 8.999999999999998e+00	 1.000565383384614e+01
0	 4.250000000000002e+00	 9.124999999999998e+00	 1.000532161846153e+01
0	 4.250000000000000e+00	 9.250000000000000e+00	 1.000484231999999e+01
0	 4.250000000000001e+00	 9.374999999999998e+00	 1.000421593846153e+01
0	 4.250000000000001e+00	 9.499999999999998e+00	 1.000344247384614e+01
0	 4.250000000000001e+00	 9.625000000000000e+00	 1.000252192615383e+01
0	 4.250000000000001e+00	 9.749999999999996e+00	 1.000145429538460e+01
0	 4.250000000000000e+00	 9.874999999999993e+00	 1.000023958153846e+01
0	 4.250000000000001e+00	 1.000000000000000e+01	 9.998877784615365e+00
0	 4.375000000000001e+00	 8.750000000000002e+00	 1.000603865384615e+01
0	 4.375000000000001e+00	 8.875000000000000e+00	 1.000610912692307e+01
0	 4.375000000000001e+00	 8.999999999999998e+00	 1.000599881538461e+01
0	 4.375000000000001e+00	 9.125000000000000e+00	 1.000570771923076e+01
0	 4.375000000000000e+00	 9.249999999999998e+00	 1.000523583846152e+01
0	 4.375000000000001e+00	 9.374999999999998e+00	 1.000458317307690e+01
0	 4.375000000000001e+00	 9.499999999999998e+00	 1.000374972307690e+01
0	 4.375000000000001e+00	 9.624999999999996e+00	 1.000273548846150e+01
0	 4.375000000000001e+00	 9.749999999999996e+00	 1.000154046923076e+01
0	 4.375000000000001e+00	 9.874999999999996e+00	 1.000016466538460e+01
0	 4.375000000000000e+00	 1.000000000000000e+01	 9.998608076923041e+00
0	 4.500000000000001e+00	 8.750000000000000e+00	 1.000621655384615e+01
0	 4.500000000000001e+00	 8.875000000000000e+00	 1.000637223384615e+01
0	 4.500000000000001e+00	 8.999999999999998e+00	 1.000631342769230e+01
0	 4.500000000000001e+00	 9.124999999999998e+00	 1.000604013538461e+01
0	 4.500000000000000e+00	 9.249999999999996e+00	 1.000555235692306e+01
0	 4.500000000000001e+00	 9.374999999999996e+00	 1.000485009230769e+01
0	 4.500000000000000e+00	 9.499999999999996e+00	 1.000393334153843e+01
0	 4.500000000000002e+00	 9.624999999999998e+00	 1.000280210461537e+01
0	 4.500000000000001e+00	 9.749999999999996e+00	 1.000145638153842e+01
0	 4.500000000000001e+00	 9.874999999999996e+00	 9.999896172307688e+00
0	 4.500000000000001e+00	 1.000000000000000e+01	 9.998121476923053e+00
0	 4.625000000000001e+00	 8.750000000000000e+00	 1.000641071538463e+01
0	 4.625000000000002e+00	 8.875000000000002e+00	 1.000662828692308e+01
0	 4.625000000000002e+00	 9.000000000000000e+00	 1.000659767076922e+01
0	 4.625000000000001e+00	 9.124999999999998e+00	 1.000631886692306e+01
0	 4.625000000000001e+00	 9.249999999999998e+00	 1.000579187538460e+01
0	 4.625000000000001e+00	 9.374999999999998e+00	 1.000501669615383e+01
0	 4.625000000000001e+00	 9.499999999999996e+00	 1.000399332923077e+01
0	 4.625000000000002e+00	 9.624999999999998e+00	 1.000272177461538e+01
0	 4.625000000000001e+00	 9.749999999999996e+00	 1.000120203230769e+01
0	 4.625000000000001e+00	 9.874999999999996e+00	 9.999434102307662e+00
0	 4.625000000000001e+00	 1.000000000000000e+01	 9.997417984615328e+00
0	 4.750000000000001e+00	 8.750000000000000e+00	 1.000662113846153e+01
0	 4.750000000000000e+00	 8.874999999999998e+00	 1.000687728615385e+01
0	 4.750000000000000e+00	 8.999999999999998e+00	 1.000685154461538e+01
0	 4.750000000000001e+00	 9.125000000000000e+00	 1.000654391384614e+01
0	 4.750000000000001e+00	 9.249999999999998e+00	 1.000595439384614e+01
0	 4.750000000000000e+00	 9.374999999999996e+00	 1.000508298461537e+01
0	 4.750000000000000e+00	 9.499999999999998e+00	 1.000392968615384e+01
0	 4.750000000000000e+00	 9.624999999999996e+00	 1.000249449846153e+01
0	 4.750000000000000e+00	 9.749999999999996e+00	 1.000077742153846e+01
0	 4.750000000000002e+00	 9.874999999999995e+00	 9.998778455384603e+00
0	 4.750000000000001e+00	 1.000000000000000e+01	 9.996497599999966e+00
0	 4.875000000000001e+00	 8.750000000000000e+00	 1.000684782307693e+01
0	 4.875000000000001e+00	 8.875000000000000e+00	 1.000711923153845e+01
0	 4.875000000000002e+00	 9.000000000000000e+00	 1.000707504923077e+01
0	 4.875000000000001e+00	 9.125000000000000e+00	 1.000671527615384e+01
0	 4.875000000000000e+00	 9.249999999999996e+00	 1.000603991230768e+01
0	 4.875000000000001e+00	 9.374999999999996e+00	 1.000504895769230e+01
0	 4.875000000000002e+00	 9.499999999999996e+00	 1.000374241230767e+01
0	 4.875000000000001e+00	 9.624999999999996e+00	 1.000212027615384e+01
0	 4.875000000000001e+00	 9.749999999999996e+00	 1.000018254923074e+01
0	 4.875000000000000e+00	 9.874999999999995e+00	 9.997929231538448e+00
0	 4.875000000000001e+00	 1.000000000000000e+01	 9.995360323076907e+00
0	 5.000000000000000e+00	 8.750000000000000e+00	 1.000709076923077e+01
0	 5.000000000000000e+00	 8.874999999999998e+00	 1.000735412307692e+01
0	 5.000000000000000e+00	 9.000000000000000e+00	 1.000726818461538e+01
0	 4.999999999999999e+00	 9.124999999999998e+00	 1.000683295384614e+01
0	 5.000000000000000e+00	 9.250000000000000e+00	 1.000604843076922e+01
0	 5.000000000000000e+00	 9.374999999999996e+00	 1.000491461538460e+01
0	 5.000000000000000e+00	 9.499999999999996e+00	 1.000343150769229e+01
0	 5.000000000000000e+00	 9.624999999999996e+00	 1.000159910769230e+01
0	 5.000000000000001e+00	 9.749999999999998e+00	 9.999417415384601e+00
0	 5.000000000000000e+00	 9.874999999999996e+00	 9.996886430769218e+00
0	 5.000000000000000e+00	 1.000000000000000e+01	 9.994006153846140e+00
0	 5.000000000000000e+00	 0.000000000000000e+00	 1.025923338461538e+01
0	 5.000000000000000e+00	 1.250000000000000e-01	 1.026184945384615e+01
0	 5.000000000000001e+00	 2.500000000000000e-01	 1.026224829230769e+01
0	 5.000000000000000e+00	 3.750000000000001e-01	 1.026042990000000e+01
0	 5.000000000000000e+00	 5.000000000000000e-01	 1.025639427692308e+01
0	 5.000000000000000e+00	 6.250000000000000e-01	 1.025014142307692e+01
0	 5.000000000000000e+00	 7.500000000000000e-01	 1.024167133846153e+01
0	 5.000000000000000e+00	 8.749999999999999e-01	 1.023098402307692e+01
0	 5.000000000000002e+00	 1.000000000000000e+00	 1.021807947692307e+01
0	 5.000000000000000e+00	 1.125000000000000e+00	 1.020295770000000e+01
0	 5.000000000000000e+00	 1.250000000000000e+00	 1.018561869230769e+01
0	 5.125000000000000e+00	 0.000000000000000e+00	 1.021587669230769e+01
0	 5.124999999999999e+00	 1.250000000000000e-01	 1.022279873461538e+01
0	 5.124999999999998e+00	 2.499999999999999e-01	 1.022774360615384e+01
0	 5.124999999999999e+00	 3.750000000000001e-01	 1.023071130692308e+01
0	 5.124999999999998e+00	 5.000000000000000e-01	 1.023170183692307e+01
0	 5.125000000000000e+00	 6.250000000000001e-01	 1.023071519615384e+01
0	 5.124999999999999e+00	 7.499999999999999e-01	 1.022775138461538e+01
0	 5.124999999999999e+00	 8.749999999999999e-01	 1.022281040230769e+01
0	 5.125000000000002e+00	 1.000000000000000e+00	 1.021589224923076e+01
0	 5.125000000000000e+00	 1.125000000000000e+00	 1.020699692538461e+01
0	 5.124999999999999e+00	 1.250000000000000e+00	 1.019612443076923e+01
0	 5.249999999999999e+00	 0.000000000000000e+00	 1.017854366153846e+01
0	 5.249999999999999e+00	 1.250000000000000e-01	 1.018884952923077e+01
0	 5.249999999999999e+00	 2.500000000000000e-01	 1.019741828615384e+01
0	 5.249999999999999e+00	 3.750000000000001e-01	 1.020424993230769e+01
0	 5.249999999999999e+00	 5.000000000000001e-01	 1.020934446769230e+01
0	 5.249999999999998e+00	 6.250000000000000e-01	 1.021270189230770e+01
0	 5.250000000000000e+00	 7.499999999999999e-01	 1.021432220615384e+01
0	 5.249999999999999e+00	 8.750000000000000e-01	 1.021420540923076e+01
0	 5.249999999999999e+00	 9.999999999999999e-01	 1.021235150153846e+01
0	 5.250000000000000e+00	 1.125000000000000e+00	 1.020876048307692e+01
0	 5.250000000000000e+00	 1.250000000000000e+00	 1.020343235384615e+01
0	 5.374999999999998e+00	 0.000000000000000e+00	 1.014723429230769e+01
0	 5.374999999999998e+00	 1.250000000000000e-01	 1.016000183769231e+01
0	 5.374999999999999e+00	 2.500000000000000e-01	 1.017127233230769e+01
0	 5.375000000000000e+00	 3.750000000000001e-01	 1.018104577615384e+01
0	 5.374999999999999e+00	 5.000000000000001e-01	 1.018932216923077e+01
0	 5.374999999999998e+00	 6.250000000000000e-01	 1.019610151153846e+01
0	 5.374999999999997e+00	 7.499999999999999e-01	 1.020138380307692e+01
0	 5.374999999999998e+00	 8.749999999999999e-01	 1.020516904384615e+01
0	 5.374999999999997e+00	 9.999999999999998e-01	 1.020745723384615e+01
0	 5.374999999999999e+00	 1.125000000000000e+00	 1.020824837307692e+01
0	 5.374999999999998e+00	 1.250000000000000e+00	 1.020754246153846e+01
0	 5.499999999999999e+00	 0.000000000000000e+00	 1.012194858461539e+01
0	 5.499999999999997e+00	 1.250000000000000e-01	 1.013625566000000e+01
0	 5.499999999999996e+00	 2.499999999999999e-01	 1.014930574461539e+01
0	 5.499999999999997e+00	 3.750000000000000e-01	 1.016109883846153e+01
0	 5.499999999999998e+00	 5.000000000000000e-01	 1.017163494153846e+01
0	 5.499999999999999e+00	 6.250000000000000e-01	 1.018091405384615e+01
0	 5.499999999999999e+00	 7.500000000000000e-01	 1.018893617538461e+01
0	 5.499999999999999e+00	 8.750000000000000e-01	 1.019570130615384e+01
0	 5.499999999999998e+00	 9.999999999999998e-01	 1.020120944615384e+01
0	 5.499999999999999e+00	 1.125000000000000e+00	 1.020546059538461e+01
0	 5.499999999999998e+00	 1.250000000000000e+00	 1.020845475384615e+01
0	 5.624999999999997e+00	 0.000000000000000e+00	 1.010268653846154e+01
0	 5.624999999999997e+00	 1.250000000000000e-01	 1.011761099615384e+01
0	 5.624999999999998e+00	 2.500000000000001e-01	 1.013151852307692e+01
0	 5.624999999999997e+00	 3.750000000000000e-01	 1.014440911923077e+01
0	 5.624999999999997e+00	 4.999999999999999e-01	 1.015628278461538e+01
0	 5.624999999999997e+00	 6.250000000000000e-01	 1.016713951923077e+01
0	 5.624999999999998e+00	 7.500000000000000e-01	 1.017697932307692e+01
0	 5.624999999999999e+00	 8.750000000000000e-01	 1.018580219615385e+01
0	 5.624999999999997e+00	 9.999999999999998e-01	 1.019360813846153e+01
0	 5.624999999999999e+00	 1.125000000000000e+00	 1.020039715000000e+01
0	 5.624999999999998e+00	 1.250000000000000e+00	 1.020616923076923e+01
0	 5.749999999999997e+00	 0.000000000000000e+00	 1.008944815384615e+01
0	 5.749999999999997e+00	 1.250000000000000e-01	 1.010406784615385e+01
0	 5.749999999999998e+00	 2.500000000000000e-01	 1.011791066769230e+01
0	 5.749999999999996e+00	 3.750000000000001e-01	 1.013097661846154e+01
0	 5.749999999999997e+00	 5.000000000000001e-01	 1.014326569846154e+01
0	 5.749999999999997e+00	 6.250000000000002e-01	 1.015477790769231e+01
0	 5.749999999999997e+00	 7.499999999999999e-01	 1.016551324615384e+01
0	 5.749999999999998e+00	 8.750000000000000e-01	 1.017547171384615e+01
0	 5.749999999999997e+00	 9.999999999999997e-01	 1.018465331076923e+01
0	 5.749999999999998e+00	 1.125000000000000e+00	 1.019305803692307e+01
0	 5.749999999999998e+00	 1.250000000000000e+00	 1.020068589230769e+01
0	 5.874999999999997e+00	 0.000000000000000e+00	 1.008223343076923e+01
0	 5.874999999999998e+00	 1.250000000000000e-01	 1.009562621000000e+01
0	 5.874999999999998e+00	 2.500000000000001e-01	 1.010848217846154e+01
0	 5.874999999999997e+00	 3.750000000000000e-01	 1.012080133615384e+01
0	 5.874999999999997e+00	 5.000000000000000e-01	 1.013258368307692e+01
0	 5.874999999999997e+00	 6.250000000000001e-01	 1.014382921923077e+01
0	 5.874999999999997e+00	 7.500000000000000e-01	 1.015453794461538e+01
0	 5.874999999999997e+00	 8.750000000000000e-01	 1.016470985923077e+01
0	 5.874999999999997e+00	 9.999999999999999e-01	 1.017434496307692e+01
0	 5.874999999999996e+00	 1.125000000000000e+00	 1.018344325615384e+01
0	 5.874999999999997e+00	 1.250000000000000e+00	 1.019200473846154e+01
0	 5.999999999999996e+00	 0.000000000000000e+00	 1.008104236923077e+01
0	 5.999999999999997e+00	 1.250000000000000e-01	 1.009228608769231e+01
0	 5.999999999999997e+00	 2.500000000000001e-01	 1.010323305538462e+01
0	 5.999999999999996e+00	 3.750000000000001e-01	 1.011388327230769e+01
0	 5.999999999999996e+00	 5.000000000000000e-01	 1.012423673846154e+01
0	 5.999999999999996e+00	 6.249999999999999e-01	 1.013429345384615e+01
0	 5.999999999999996e+00	 7.499999999999999e-01	 1.014405341846154e+01
0	 5.999999999999996e+00	 8.750000000000000e-01	 1.015351663230769e+01
0	 5.999999999999996e+00	 9.999999999999999e-01	 1.016268309538461e+01
0	 5.999999999999997e+00	 1.125000000000000e+00	 1.017155280769230e+01
0	 5.999999999999996e+00	 1.250000000000000e+00	 1.018012576923077e+01
0	 6.124999999999996e+00	 0.000000000000000e+00	 1.008587496923077e+01
0	 6.124999999999997e+00	 1.250000000000000e-01	 1.009404747923076e+01
0	 6.124999999999996e+00	 2.500000000000000e-01	 1.010216329846153e+01
0	 6.124999999999997e+00	 3.750000000000001e-01	 1.011022242692307e+01
0	 6.124999999999995e+00	 4.999999999999999e-01	 1.011822486461538e+01
0	 6.124999999999996e+00	 6.250000000000000e-01	 1.012617061153846e+01
0	 6.124999999999996e+00	 7.500000000000000e-01	 1.013405966769231e+01
0	 6.124999999999996e+00	 8.750000000000000e-01	 1.014189203307692e+01
0	 6.124999999999995e+00	 9.999999999999998e-01	 1.014966770769230e+01
0	 6.124999999999996e+00	 1.125000000000000e+00	 1.015738669153846e+01
0	 6.124999999999996e+00	 1.250000000000000e+00	 1.016504898461539e+01
0	 6.250000000000000e+00	 0.000000000000000e+00	 1.009673123076923e+01
0	 6.250000000000001e+00	 1.250000000000000e-01	 1.010091038461538e+01
0	 6.249999999999999e+00	 2.500000000000000e-01	 1.010527290769230e+01
0	 6.249999999999999e+00	 3.750000000000001e-01	 1.010981880000000e+01
0	 6.250000000000002e+00	 5.000000000000000e-01	 1.011454806153846e+01
0	 6.250000000000000e+00	 6.250000000000000e-01	 1.011946069230769e+01
0	 6.250000000000000e+00	 7.500000000000000e-01	 1.012455669230769e+01
0	 6.250000000000000e+00	 8.749999999999999e-01	 1.012983606153846e+01
0	 6.250000000000000e+00	 1.000000000000000e+00	 1.013529880000000e+01
0	 6.250000000000000e+00	 1.125000000000000e+00	 1.014094490769230e+01
0	 6.250000000000000e+00	 1.250000000000000e+00	 1.014677438461538e+01
0	 5.000000000000000e+00	 1.250000000000000e+00	 1.018561869230769e+01
0	 5.000000000000000e+00	 1.375000000000000e+00	 1.020114738461538e+01
0	 5.000000000000000e+00	 1.500000000000000e+00	 1.021622750769231e+01
0	 5.000000000000001e+00	 1.625000000000000e+00	 1.023085906153845e+01
0	 5.000000000000001e+00	 1.750000000000000e+00	 1.024504204615384e+01
0	 5.000000000000001e+00	 1.875000000000000e+00	 1.025877646153846e+01
0	 5.000000000000000e+00	 2.000000000000000e+00	 1.027206230769231e+01
0	 5.000000000000000e+00	 2.125000000000001e+00	 1.028489958461538e+01
0	 5.000000000000000e+00	 2.250000000000001e+00	 1.029728829230769e+01
0	 5.000000000000000e+00	 2.375000000000001e+00	 1.030922843076923e+01
0	 5.000000000000000e+00	 2.500000000000000e+00	 1.032072000000000e+01
0	 5.124999999999999e+00	 1.250000000000000e+00	 1.019612443076923e+01
0	 5.125000000000001e+00	 1.375000000000000e+00	 1.020762435769230e+01
0	 5.125000000000000e+00	 1.500000000000000e+00	 1.021875237692308e+01
0	 5.124999999999999e+00	 1.625000000000000e+00	 1.022950848846154e+01
0	 5.125000000000001e+00	 1.750000000000001e+00	 1.023989269230769e+01
0	 5.124999999999999e+00	 1.875000000000001e+00	 1.024990498846154e+01
0	 5.125000000000000e+00	 2.000000000000001e+00	 1.025954537692308e+01
0	 5.125000000000000e+00	 2.125000000000001e+00	 1.026881385769231e+01
0	 5.124999999999999e+00	 2.250000000000000e+00	 1.027771043076923e+01
0	 5.125000000000000e+00	 2.375000000000000e+00	 1.028623509615385e+01
0	 5.124999999999999e+00	 2.500000000000000e+00	 1.029438785384616e+01
0	 5.250000000000000e+00	 1.250000000000000e+00	 1.020343235384615e+01
0	 5.250000000000000e+00	 1.375000000000000e+00	 1.021143623692307e+01
0	 5.249999999999999e+00	 1.500000000000000e+00	 1.021914487384615e+01
0	 5.249999999999999e+00	 1.625000000000000e+00	 1.022655826461538e+01
0	 5.250000000000000e+00	 1.750000000000001e+00	 1.023367640923077e+01
0	 5.250000000000000e+00	 1.875000000000001e+00	 1.024049930769231e+01
0	 5.250000000000000e+00	 2.000000000000001e+00	 1.024702696000000e+01
0	 5.249999999999999e+00	 2.125000000000000e+00	 1.025325936615384e+01
0	 5.249999999999999e+00	 2.250000000000000e+00	 1.025919652615385e+01
0	 5.249999999999999e+00	 2.375000000000001e+00	 1.026483844000000e+01
0	 5.250000000000000e+00	 2.500000000000000e+00	 1.027018510769231e+01
0	 5.374999999999998e+00	 1.250000000000000e+00	 1.020754246153846e+01
0	 5.374999999999998e+00	 1.375000000000000e+00	 1.021258302230769e+01
0	 5.374999999999999e+00	 1.500000000000000e+00	 1.021740499846153e+01
0	 5.374999999999998e+00	 1.625000000000000e+00	 1.022200839000000e+01
0	 5.374999999999999e+00	 1.750000000000000e+00	 1.022639319692307e+01
0	 5.374999999999998e+00	 1.875000000000000e+00	 1.023055941923076e+01
0	 5.374999999999998e+00	 2.000000000000000e+00	 1.023450705692308e+01
0	 5.374999999999999e+00	 2.125000000000000e+00	 1.023823611000000e+01
0	 5.374999999999999e+00	 2.250000000000001e+00	 1.024174657846154e+01
0	 5.374999999999998e+00	 2.375000000000001e+00	 1.024503846230769e+01
0	 5.374999999999998e+00	 2.500000000000000e+00	 1.024811176153846e+01
0	 5.499999999999998e+00	 1.250000000000000e+00	 1.020845475384615e+01
0	 5.499999999999999e+00	 1.375000000000000e+00	 1.021106471384615e+01
0	 5.499999999999999e+00	 1.500000000000000e+00	 1.021353275076922e+01
0	 5.499999999999998e+00	 1.625000000000000e+00	 1.021585886461539e+01
0	 5.499999999999998e+00	 1.750000000000001e+00	 1.021804305538461e+01
0	 5.499999999999998e+00	 1.875000000000000e+00	 1.022008532307692e+01
0	 5.499999999999998e+00	 2.000000000000001e+00	 1.022198566769231e+01
0	 5.499999999999998e+00	 2.125000000000001e+00	 1.022374408923077e+01
0	 5.499999999999998e+00	 2.250000000000001e+00	 1.022536058769231e+01
0	 5.499999999999999e+00	 2.375000000000001e+00	 1.022683516307692e+01
0	 5.499999999999998e+00	 2.500000000000000e+00	 1.022816781538462e+01
0	 5.624999999999998e+00	 1.250000000000000e+00	 1.020616923076923e+01
0	 5.624999999999996e+00	 1.375000000000000e+00	 1.020688131153846e+01
0	 5.624999999999997e+00	 1.500000000000000e+00	 1.020752813076923e+01
0	 5.624999999999998e+00	 1.625000000000000e+00	 1.020810968846153e+01
0	 5.624999999999997e+00	 1.750000000000001e+00	 1.020862598461538e+01
0	 5.624999999999997e+00	 1.875000000000000e+00	 1.020907701923077e+01
0	 5.624999999999998e+00	 2.000000000000001e+00	 1.020946279230769e+01
0	 5.624999999999998e+00	 2.125000000000001e+00	 1.020978330384615e+01
0	 5.624999999999997e+00	 2.250000000000001e+00	 1.021003855384615e+01
0	 5.624999999999996e+00	 2.375000000000001e+00	 1.021022854230769e+01
0	 5.624999999999998e+00	 2.500000000000000e+00	 1.021035326923077e+01
0	 5.749999999999998e+00	 1.250000000000000e+00	 1.020068589230769e+01
0	 5.749999999999997e+00	 1.375000000000000e+00	 1.020003281538461e+01
0	 5.749999999999999e+00	 1.500000000000001e+00	 1.019939113846154e+01
0	 5.749999999999997e+00	 1.625000000000000e+00	 1.019876086153846e+01
0	 5.749999999999996e+00	 1.750000000000000e+00	 1.019814198461539e+01
0	 5.749999999999997e+00	 1.875000000000001e+00	 1.019753450769231e+01
0	 5.749999999999997e+00	 2.000000000000000e+00	 1.019693843076923e+01
0	 5.749999999999996e+00	 2.125000000000001e+00	 1.019635375384616e+01
0	 5.749999999999998e+00	 2.250000000000001e+00	 1.019578047692308e+01
0	 5.749999999999997e+00	 2.375000000000001e+00	 1.019521859999999e+01
0	 5.749999999999998e+00	 2.500000000000000e+00	 1.019466812307693e+01
0	 5.874999999999997e+00	 1.250000000000000e+00	 1.019200473846154e+01
0	 5.874999999999997e+00	 1.375000000000000e+00	 1.019051922538461e+01
0	 5.874999999999998e+00	 1.500000000000000e+00	 1.018912177384615e+01
0	 5.874999999999997e+00	 1.625000000000000e+00	 1.018781238384615e+01
0	 5.874999999999996e+00	 1.750000000000000e+00	 1.018659105538461e+01
0	 5.874999999999997e+00	 1.875000000000001e+00	 1.018545778846154e+01
0	 5.874999999999996e+00	 2.000000000000001e+00	 1.018441258307692e+01
0	 5.874999999999997e+00	 2.125000000000001e+00	 1.018345543923077e+01
0	 5.874999999999997e+00	 2.250000000000001e+00	 1.018258635692308e+01
0	 5.874999999999997e+00	 2.375000000000001e+00	 1.018180533615384e+01
0	 5.874999999999997e+00	 2.500000000000000e+00	 1.018111237692308e+01
0	 5.999999999999996e+00	 1.250000000000000e+00	 1.018012576923077e+01
0	 5.999999999999997e+00	 1.375000000000000e+00	 1.017834054153846e+01
0	 5.999999999999996e+00	 1.500000000000000e+00	 1.017672003692307e+01
0	 5.999999999999996e+00	 1.625000000000000e+00	 1.017526425538462e+01
0	 5.999999999999996e+00	 1.750000000000001e+00	 1.017397319692308e+01
0	 5.999999999999996e+00	 1.875000000000000e+00	 1.017284686153846e+01
0	 5.999999999999998e+00	 2.000000000000001e+00	 1.017188524923077e+01
0	 5.999999999999996e+00	 2.125000000000000e+00	 1.017108836000000e+01
0	 5.999999999999996e+00	 2.250000000000001e+00	 1.017045619384615e+01
0	 5.999999999999996e+00	 2.375000000000001e+00	 1.016998875076923e+01
0	 5.999999999999996e+00	 2.500000000000000e+00	 1.016968603076923e+01
0	 6.124999999999996e+00	 1.250000000000000e+00	 1.016504898461539e+01
0	 6.124999999999997e+00	 1.375000000000000e+00	 1.016349676384615e+01
0	 6.124999999999996e+00	 1.500000000000000e+00	 1.016218592769230e+01
0	 6.124999999999996e+00	 1.625000000000000e+00	 1.016111647615385e+01
0	 6.124999999999996e+00	 1.750000000000000e+00	 1.016028840923076e+01
0	 6.124999999999996e+00	 1.875000000000000e+00	 1.015970172692307e+01
0	 6.124999999999996e+00	 2.000000000000001e+00	 1.015935642923077e+01
0	 6.124999999999996e+00	 2.125000000000000e+00	 1.015925251615384e+01
0	 6.124999999999995e+00	 2.250000000000001e+00	 1.015938998769230e+01
0	 6.124999999999996e+00	 2.375000000000001e+00	 1.015976884384615e+01
0	 6.124999999999996e+00	 2.500000000000000e+00	 1.016038908461538e+01
0	 6.250000000000000e+00	 1.250000000000000e+00	 1.014677438461538e+01
0	 6.250000000000001e+00	 1.375000000000000e+00	 1.014598789230769e+01
0	 6.250000000000001e+00	 1.500000000000000e+00	 1.014551944615384e+01
0	 6.250000000000001e+00	 1.625000000000000e+00	 1.014536904615385e+01
0	 6.250000000000000e+00	 1.750000000000000e+00	 1.014553669230769e+01
0	 6.250000000000000e+00	 1.875000000000000e+00	 1.014602238461538e+01
0	 6.250000000000001e+00	 2.000000000000000e+00	 1.014682612307692e+01
0	 6.250000000000000e+00	 2.125000000000001e+00	 1.014794790769231e+01
0	 6.250000000000001e+00	 2.250000000000001e+00	 1.014938773846154e+01
0	 6.250000000000000e+00	 2.375000000000001e+00	 1.015114561538461e+01
0	 6.250000000000000e+00	 2.500000000000000e+00	 1.015322153846154e+01
0	 5.000000000000000e+00	 2.500000000000000e+00	 1.032072000000000e+01
0	 5.000000000000000e+00	 2.625000000000000e+00	 1.030407822307692e+01
0	 5.000000000000000e+00	 2.750000000000000e+00	 1.028912720000000e+01
0	 5.000000000000001e+00	 2.875000000000001e+00	 1.027586693076923e+01
0	 5.000000000000001e+00	 3.000000000000000e+00	 1.026429741538462e+01
0	 5.000000000000001e+00	 3.125000000000000e+00	 1.025441865384615e+01
0	 5.000000000000000e+00	 3.250000000000000e+00	 1.024623064615385e+01
0	 5.000000000000000e+00	 3.375000000000001e+00	 1.023973339230769e+01
0	 5.000000000000000e+00	 3.500000000000001e+00	 1.023492689230769e+01
0	 5.000000000000000e+00	 3.625000000000001e+00	 1.023181114615384e+01
0	 5.000000000000000e+00	 3.750000000000000e+00	 1.023038615384615e+01
0	 5.124999999999999e+00	 2.500000000000000e+00	 1.029438785384616e+01
0	 5.125000000000001e+00	 2.625000000000000e+00	 1.028087955846154e+01
0	 5.125000000000000e+00	 2.750000000000000e+00	 1.026889678153846e+01
0	 5.124999999999999e+00	 2.875000000000000e+00	 1.025843952307692e+01
0	 5.125000000000001e+00	 3.000000000000001e+00	 1.024950778307692e+01
0	 5.124999999999999e+00	 3.125000000000001e+00	 1.024210156153846e+01
0	 5.125000000000000e+00	 3.250000000000001e+00	 1.023622085846153e+01
0	 5.125000000000000e+00	 3.375000000000001e+00	 1.023186567384615e+01
0	 5.124999999999999e+00	 3.500000000000000e+00	 1.022903600769230e+01
0	 5.125000000000000e+00	 3.625000000000000e+00	 1.022773186000000e+01
0	 5.124999999999999e+00	 3.750000000000000e+00	 1.022795323076923e+01
0	 5.250000000000000e+00	 2.500000000000000e+00	 1.027018510769231e+01
0	 5.250000000000000e+00	 2.625000000000000e+00	 1.025951055384615e+01
0	 5.249999999999999e+00	 2.750000000000001e+00	 1.025019628307692e+01
0	 5.249999999999999e+00	 2.875000000000000e+00	 1.024224229538462e+01
0	 5.250000000000000e+00	 3.000000000000000e+00	 1.023564859076923e+01
0	 5.250000000000000e+00	 3.125000000000001e+00	 1.023041516923077e+01
0	 5.250000000000000e+00	 3.250000000000001e+00	 1.022654203076923e+01
0	 5.249999999999999e+00	 3.375000000000000e+00	 1.022402917538462e+01
0	 5.249999999999999e+00	 3.500000000000001e+00	 1.022287660307692e+01
0	 5.249999999999999e+00	 3.625000000000002e+00	 1.022308431384615e+01
0	 5.250000000000000e+00	 3.750000000000000e+00	 1.022465230769230e+01
0	 5.374999999999998e+00	 2.500000000000000e+00	 1.024811176153846e+01
0	 5.374999999999998e+00	 2.625000000000000e+00	 1.023997120923077e+01
0	 5.374999999999999e+00	 2.750000000000000e+00	 1.023302570461539e+01
0	 5.374999999999998e+00	 2.875000000000000e+00	 1.022727524769231e+01
0	 5.374999999999999e+00	 3.000000000000000e+00	 1.022271983846154e+01
0	 5.374999999999998e+00	 3.125000000000000e+00	 1.021935947692308e+01
0	 5.374999999999998e+00	 3.250000000000000e+00	 1.021719416307692e+01
0	 5.374999999999999e+00	 3.375000000000001e+00	 1.021622389692307e+01
0	 5.374999999999999e+00	 3.500000000000001e+00	 1.021644867846153e+01
0	 5.374999999999998e+00	 3.625000000000000e+00	 1.021786850769230e+01
0	 5.374999999999998e+00	 3.750000000000000e+00	 1.022048338461538e+01
0	 5.499999999999998e+00	 2.500000000000000e+00	 1.022816781538462e+01
0	 5.499999999999999e+00	 2.625000000000000e+00	 1.022226152461538e+01
0	 5.499999999999999e+00	 2.750000000000000e+00	 1.021738504615385e+01
0	 5.499999999999998e+00	 2.875000000000000e+00	 1.021353838000000e+01
0	 5.499999999999998e+00	 3.000000000000000e+00	 1.021072152615384e+01
0	 5.499999999999998e+00	 3.125000000000000e+00	 1.020893448461538e+01
0	 5.499999999999998e+00	 3.250000000000001e+00	 1.020817725538461e+01
0	 5.499999999999998e+00	 3.375000000000001e+00	 1.020844983846154e+01
0	 5.499999999999998e+00	 3.500000000000001e+00	 1.020975223384615e+01
0	 5.499999999999999e+00	 3.625000000000001e+00	 1.021208444153846e+01
0	 5.499999999999998e+00	 3.750000000000000e+00	 1.021544646153846e+01
0	 5.624999999999998e+00	 2.500000000000000e+00	 1.021035326923077e+01
0	 5.624999999999996e+00	 2.625000000000000e+00	 1.020638150000000e+01
0	 5.624999999999997e+00	 2.750000000000000e+00	 1.020327430769231e+01
0	 5.624999999999998e+00	 2.875000000000000e+00	 1.020103169230769e+01
0	 5.624999999999997e+00	 3.000000000000000e+00	 1.019965365384615e+01
0	 5.624999999999997e+00	 3.125000000000000e+00	 1.019914019230769e+01
0	 5.624999999999998e+00	 3.250000000000000e+00	 1.019949130769230e+01
0	 5.624999999999998e+00	 3.375000000000001e+00	 1.020070699999999e+01
0	 5.624999999999997e+00	 3.500000000000000e+00	 1.020278726923076e+01
0	 5.624999999999996e+00	 3.625000000000001e+00	 1.020573211538461e+01
0	 5.624999999999998e+00	 3.750000000000000e+00	 1.020954153846153e+01
0	 5.749999999999998e+00	 2.500000000000000e+00	 1.019466812307693e+01
0	 5.749999999999997e+00	 2.625000000000000e+00	 1.019233113538462e+01
0	 5.749999999999999e+00	 2.750000000000000e+00	 1.019069348923076e+01
0	 5.749999999999997e+00	 2.875000000000000e+00	 1.018975518461539e+01
0	 5.749999999999996e+00	 3.000000000000000e+00	 1.018951622153845e+01
0	 5.749999999999997e+00	 3.125000000000000e+00	 1.018997659999999e+01
0	 5.749999999999997e+00	 3.250000000000000e+00	 1.019113632000000e+01
0	 5.749999999999996e+00	 3.375000000000000e+00	 1.019299538153846e+01
0	 5.749999999999998e+00	 3.500000000000001e+00	 1.019555378461538e+01
0	 5.749999999999997e+00	 3.625000000000000e+00	 1.019881152923076e+01
0	 5.749999999999998e+00	 3.750000000000000e+00	 1.020276861538461e+01
0	 5.874999999999997e+00	 2.500000000000000e+00	 1.018111237692308e+01
0	 5.874999999999997e+00	 2.625000000000000e+00	 1.018011043076923e+01
0	 5.874999999999998e+00	 2.750000000000000e+00	 1.017964259076923e+01
0	 5.874999999999997e+00	 2.875000000000000e+00	 1.017970885692307e+01
0	 5.874999999999996e+00	 3.000000000000001e+00	 1.018030922923076e+01
0	 5.874999999999997e+00	 3.125000000000001e+00	 1.018144370769231e+01
0	 5.874999999999996e+00	 3.250000000000000e+00	 1.018311229230769e+01
0	 5.874999999999997e+00	 3.375000000000001e+00	 1.018531498307692e+01
0	 5.874999999999997e+00	 3.500000000000001e+00	 1.018805178000000e+01
0	 5.874999999999997e+00	 3.625000000000001e+00	 1.019132268307691e+01
0	 5.874999999999997e+00	 3.750000000000000e+00	 1.019512769230769e+01
0	 5.999999999999996e+00	 2.500000000000000e+00	 1.016968603076923e+01
0	 5.999999999999997e+00	 2.625000000000000e+00	 1.016971938615385e+01
0	 5.999999999999996e+00	 2.750000000000000e+00	 1.017012161230769e+01
0	 5.999999999999996e+00	 2.875000000000000e+00	 1.017089270923077e+01
0	 5.999999999999996e+00	 3.000000000000000e+00	 1.017203267692308e+01
0	 5.999999999999996e+00	 3.125000000000000e+00	 1.017354151538461e+01
0	 5.999999999999998e+00	 3.250000000000002e+00	 1.017541922461538e+01
0	 5.999999999999996e+00	 3.375000000000000e+00	 1.017766580461538e+01
0	 5.999999999999996e+00	 3.500000000000001e+00	 1.018028125538460e+01
0	 5.999999999999996e+00	 3.625000000000001e+00	 1.018326557692307e+01
0	 5.999999999999996e+00	 3.750000000000000e+00	 1.018661876923077e+01
0	 6.124999999999996e+00	 2.500000000000000e+00	 1.016038908461538e+01
0	 6.124999999999997e+00	 2.625000000000001e+00	 1.016115800153846e+01
0	 6.124999999999996e+00	 2.750000000000000e+00	 1.016213055384615e+01
0	 6.124999999999996e+00	 2.875000000000000e+00	 1.016330674153846e+01
0	 6.124999999999996e+00	 3.000000000000001e+00	 1.016468656461538e+01
0	 6.124999999999996e+00	 3.125000000000000e+00	 1.016627002307692e+01
0	 6.124999999999996e+00	 3.250000000000000e+00	 1.016805711692307e+01
0	 6.124999999999996e+00	 3.375000000000000e+00	 1.017004784615385e+01
0	 6.124999999999995e+00	 3.500000000000000e+00	 1.017224221076923e+01
0	 6.124999999999996e+00	 3.625000000000001e+00	 1.017464021076923e+01
0	 6.124999999999996e+00	 3.750000000000000e+00	 1.017724184615385e+01
0	 6.250000000000000e+00	 2.500000000000000e+00	 1.015322153846154e+01
0	 6.250000000000001e+00	 2.625000000000000e+00	 1.015442627692307e+01
0	 6.250000000000001e+00	 2.750000000000000e+00	 1.015566941538462e+01
0	 6.250000000000001e+00	 2.875000000000001e+00	 1.015695095384616e+01
0	 6.250000000000000e+00	 3.000000000000000e+00	 1.015827089230769e+01
0	 6.250000000000000e+00	 3.125000000000000e+00	 1.015962923076923e+01
0	 6.250000000000001e+00	 3.250000000000000e+00	 1.016102596923077e+01
0	 6.250000000000000e+00	 3.375000000000001e+00	 1.016246110769231e+01
0	 6.250000000000001e+00	 3.500000000000001e+00	 1.016393464615384e+01
0	 6.250000000000000e+00	 3.625000000000001e+00	 1.016544658461538e+01
0	 6.250000000000000e+00	 3.750000000000000e+00	 1.016699692307692e+01
0	 5.000000000000000e+00	 3.750000000000000e+00	 1.023038615384615e+01
0	 5.000000000000000e+00	 3.875000000000000e+00	 1.022459895384615e+01
0	 5.000000000000000e+00	 4.000000000000001e+00	 1.021864781538462e+01
0	 5.000000000000001e+00	 4.125000000000001e+00	 1.021253273846153e+01
0	 5.000000000000001e+00	 4.250000000000001e+00	 1.020625372307692e+01
0	 5.000000000000001e+00	 4.375000000000001e+00	 1.019981076923077e+01
0	 5.000000000000000e+00	 4.500000000000000e+00	 1.019320387692307e+01
0	 5.000000000000000e+00	 4.625000000000001e+00	 1.018643304615385e+01
0	 5.000000000000000e+00	 4.750000000000002e+00	 1.017949827692308e+01
0	 5.000000000000000e+00	 4.875000000000002e+00	 1.017239956923077e+01
0	 5.000000000000000e+00	 5.000000000000000e+00	 1.016513692307692e+01
0	 5.124999999999999e+00	 3.750000000000000e+00	 1.022795323076923e+01
0	 5.125000000000001e+00	 3.875000000000000e+00	 1.022146934461538e+01
0	 5.125000000000000e+00	 4.000000000000001e+00	 1.021488609846153e+01
0	 5.124999999999999e+00	 4.125000000000000e+00	 1.020820349230768e+01
0	 5.125000000000001e+00	 4.250000000000002e+00	 1.020142152615384e+01
0	 5.124999999999999e+00	 4.375000000000001e+00	 1.019454020000000e+01
0	 5.125000000000000e+00	 4.500000000000001e+00	 1.018755951384615e+01
0	 5.125000000000000e+00	 4.625000000000000e+00	 1.018047946769231e+01
0	 5.124999999999999e+00	 4.750000000000001e+00	 1.017330006153846e+01
0	 5.125000000000000e+00	 4.874999999999999e+00	 1.016602129538461e+01
0	 5.124999999999999e+00	 4.999999999999999e+00	 1.015864316923077e+01
0	 5.250000000000000e+00	 3.750000000000000e+00	 1.022465230769230e+01
0	 5.250000000000000e+00	 3.875000000000000e+00	 1.021759532307692e+01
0	 5.249999999999999e+00	 4.000000000000001e+00	 1.021050355692308e+01
0	 5.249999999999999e+00	 4.125000000000001e+00	 1.020337700923077e+01
0	 5.250000000000000e+00	 4.250000000000001e+00	 1.019621568000000e+01
0	 5.250000000000000e+00	 4.375000000000002e+00	 1.018901956923077e+01
0	 5.250000000000000e+00	 4.500000000000001e+00	 1.018178867692307e+01
0	 5.249999999999999e+00	 4.625000000000000e+00	 1.017452300307692e+01
0	 5.249999999999999e+00	 4.750000000000001e+00	 1.016722254769232e+01
0	 5.249999999999999e+00	 4.875000000000001e+00	 1.015988731076923e+01
0	 5.250000000000000e+00	 4.999999999999999e+00	 1.015251729230770e+01
0	 5.374999999999998e+00	 3.750000000000000e+00	 1.022048338461538e+01
0	 5.374999999999998e+00	 3.875000000000000e+00	 1.021297688923077e+01
0	 5.374999999999999e+00	 4.000000000000000e+00	 1.020550019076923e+01
0	 5.374999999999998e+00	 4.125000000000000e+00	 1.019805328923077e+01
0	 5.374999999999999e+00	 4.250000000000002e+00	 1.019063618461538e+01
0	 5.374999999999998e+00	 4.375000000000000e+00	 1.018324887692307e+01
0	 5.374999999999998e+00	 4.500000000000001e+00	 1.017589136615384e+01
0	 5.374999999999999e+00	 4.625000000000001e+00	 1.016856365230769e+01
0	 5.374999999999999e+00	 4.750000000000001e+00	 1.016126573538462e+01
0	 5.374999999999998e+00	 4.875000000000001e+00	 1.015399761538461e+01
0	 5.374999999999998e+00	 5.000000000000000e+00	 1.014675929230770e+01
0	 5.499999999999998e+00	 3.750000000000000e+00	 1.021544646153846e+01
0	 5.499999999999999e+00	 3.875000000000000e+00	 1.020761404307692e+01
0	 5.499999999999999e+00	 4.000000000000000e+00	 1.019987600000000e+01
0	 5.499999999999998e+00	 4.125000000000001e+00	 1.019223233230769e+01
0	 5.499999999999998e+00	 4.250000000000001e+00	 1.018468304000000e+01
0	 5.499999999999998e+00	 4.375000000000000e+00	 1.017722812307692e+01
0	 5.499999999999998e+00	 4.500000000000000e+00	 1.016986758153846e+01
0	 5.499999999999998e+00	 4.625000000000001e+00	 1.016260141538461e+01
0	 5.499999999999998e+00	 4.750000000000001e+00	 1.015542962461538e+01
0	 5.499999999999999e+00	 4.875000000000001e+00	 1.014835220923078e+01
0	 5.499999999999998e+00	 5.000000000000001e+00	 1.014136916923077e+01
0	 5.624999999999998e+00	 3.750000000000000e+00	 1.020954153846153e+01
0	 5.624999999999996e+00	 3.874999999999999e+00	 1.020150678461538e+01
0	 5.624999999999997e+00	 4.000000000000000e+00	 1.019363098461537e+01
0	 5.624999999999998e+00	 4.125000000000000e+00	 1.018591413846153e+01
0	 5.624999999999997e+00	 4.250000000000000e+00	 1.017835624615384e+01
0	 5.624999999999997e+00	 4.375000000000000e+00	 1.017095730769230e+01
0	 5.624999999999998e+00	 4.500000000000001e+00	 1.016371732307692e+01
0	 5.624999999999998e+00	 4.625000000000002e+00	 1.015663629230769e+01
0	 5.624999999999997e+00	 4.750000000000001e+00	 1.014971421538461e+01
0	 5.624999999999996e+00	 4.875000000000001e+00	 1.014295109230769e+01
0	 5.624999999999998e+00	 5.000000000000000e+00	 1.013634692307693e+01
0	 5.749999999999998e+00	 3.750000000000000e+00	 1.020276861538461e+01
0	 5.749999999999997e+00	 3.875000000000000e+00	 1.019465511384615e+01
0	 5.749999999999999e+00	 4.000000000000001e+00	 1.018676514461538e+01
0	 5.749999999999997e+00	 4.125000000000000e+00	 1.017909870769230e+01
0	 5.749999999999996e+00	 4.249999999999999e+00	 1.017165580307692e+01
0	 5.749999999999997e+00	 4.375000000000001e+00	 1.016443643076923e+01
0	 5.749999999999997e+00	 4.500000000000000e+00	 1.015744059076923e+01
0	 5.749999999999996e+00	 4.625000000000001e+00	 1.015066828307692e+01
0	 5.749999999999998e+00	 4.750000000000002e+00	 1.014411950769230e+01
0	 5.749999999999997e+00	 4.875000000000000e+00	 1.013779426461539e+01
0	 5.749999999999998e+00	 5.000000000000000e+00	 1.013169255384616e+01
0	 5.874999999999997e+00	 3.750000000000000e+00	 1.019512769230769e+01
0	 5.874999999999997e+00	 3.875000000000000e+00	 1.018705903076922e+01
0	 5.874999999999998e+00	 4.000000000000002e+00	 1.017927847999999e+01
0	 5.874999999999997e+00	 4.125000000000001e+00	 1.017178603999999e+01
0	 5.874999999999996e+00	 4.250000000000002e+00	 1.016458171076922e+01
0	 5.874999999999997e+00	 4.375000000000001e+00	 1.015766549230769e+01
0	 5.874999999999996e+00	 4.500000000000001e+00	 1.015103738461538e+01
0	 5.874999999999997e+00	 4.625000000000002e+00	 1.014469738769231e+01
0	 5.874999999999997e+00	 4.750000000000000e+00	 1.013864550153846e+01
0	 5.874999999999997e+00	 4.875000000000001e+00	 1.013288172615384e+01
0	 5.874999999999997e+00	 5.000000000000000e+00	 1.012740606153846e+01
0	 5.999999999999996e+00	 3.750000000000000e+00	 1.018661876923077e+01
0	 5.999999999999997e+00	 3.875000000000000e+00	 1.017871853538461e+01
0	 5.999999999999996e+00	 3.999999999999999e+00	 1.017117099076923e+01
0	 5.999999999999996e+00	 4.124999999999999e+00	 1.016397613538461e+01
0	 5.999999999999996e+00	 4.250000000000001e+00	 1.015713396923077e+01
0	 5.999999999999996e+00	 4.375000000000001e+00	 1.015064449230769e+01
0	 5.999999999999998e+00	 4.500000000000001e+00	 1.014450770461538e+01
0	 5.999999999999996e+00	 4.625000000000000e+00	 1.013872360615384e+01
0	 5.999999999999996e+00	 4.750000000000000e+00	 1.013329219692308e+01
0	 5.999999999999996e+00	 4.875000000000002e+00	 1.012821347692308e+01
0	 5.999999999999996e+00	 4.999999999999999e+00	 1.012348744615385e+01
0	 6.124999999999996e+00	 3.750000000000000e+00	 1.017724184615385e+01
0	 6.124999999999997e+00	 3.875000000000000e+00	 1.016963362769231e+01
0	 6.124999999999996e+00	 4.000000000000000e+00	 1.016244267692307e+01
0	 6.124999999999996e+00	 4.125000000000000e+00	 1.015566899384615e+01
0	 6.124999999999996e+00	 4.250000000000000e+00	 1.014931257846154e+01
0	 6.124999999999996e+00	 4.375000000000001e+00	 1.014337343076923e+01
0	 6.124999999999996e+00	 4.500000000000001e+00	 1.013785155076923e+01
0	 6.124999999999996e+00	 4.625000000000001e+00	 1.013274693846153e+01
0	 6.124999999999995e+00	 4.750000000000000e+00	 1.012805959384615e+01
0	 6.124999999999996e+00	 4.875000000000001e+00	 1.012378951692308e+01
0	 6.124999999999996e+00	 5.000000000000000e+00	 1.011993670769231e+01
0	 6.250000000000000e+00	 3.750000000000000e+00	 1.016699692307692e+01
0	 6.250000000000001e+00	 3.875000000000000e+00	 1.015980430769230e+01
0	 6.250000000000001e+00	 4.000000000000001e+00	 1.015309353846154e+01
0	 6.250000000000001e+00	 4.125000000000001e+00	 1.014686461538461e+01
0	 6.250000000000000e+00	 4.250000000000001e+00	 1.014111753846154e+01
0	 6.250000000000000e+00	 4.375000000000001e+00	 1.013585230769230e+01
0	 6.250000000000001e+00	 4.500000000000000e+00	 1.013106892307692e+01
0	 6.250000000000000e+00	 4.625000000000001e+00	 1.012676738461538e+01
0	 6.250000000000001e+00	 4.750000000000002e+00	 1.012294769230769e+01
0	 6.250000000000000e+00	 4.875000000000002e+00	 1.011960984615385e+01
0	 6.250000000000000e+00	 5.000000000000000e+00	 1.011675384615384e+01
0	 5.000000000000000e+00	 5.000000000000000e+00	 1.016513692307692e+01
0	 5.000000000000000e+00	 5.124999999999999e+00	 1.015493806153848e+01
0	 5.000000000000001e+00	 5.250000000000000e+00	 1.014507870769230e+01
0	 5.000000000000000e+00	 5.374999999999998e+00	 1.013555886153845e+01
0	 5.000000000000001e+00	 5.499999999999999e+00	 1.012637852307692e+01
0	 5.000000000000000e+00	 5.624999999999997e+00	 1.011753769230770e+01
0	 5.000000000000000e+00	 5.749999999999997e+00	 1.010903636923076e+01
0	 5.000000000000000e+00	 5.874999999999996e+00	 1.010087455384614e+01
0	 5.000000000000000e+00	 5.999999999999996e+00	 1.009305224615384e+01
0	 5.000000000000000e+00	 6.124999999999996e+00	 1.008556944615385e+01
0	 5.000000000000000e+00	 6.250000000000000e+00	 1.007842615384615e+01
0	 5.124999999999999e+00	 4.999999999999999e+00	 1.015864316923077e+01
0	 5.125000000000001e+00	 5.125000000000001e+00	 1.014968324769231e+01
0	 5.125000000000000e+00	 5.249999999999998e+00	 1.014102460923077e+01
0	 5.125000000000000e+00	 5.374999999999998e+00	 1.013266725384615e+01
0	 5.124999999999999e+00	 5.499999999999999e+00	 1.012461118153846e+01
0	 5.125000000000000e+00	 5.624999999999998e+00	 1.011685639230769e+01
0	 5.125000000000000e+00	 5.749999999999999e+00	 1.010940288615384e+01
0	 5.125000000000001e+00	 5.874999999999997e+00	 1.010225066307692e+01
0	 5.125000000000001e+00	 5.999999999999998e+00	 1.009539972307692e+01
0	 5.124999999999999e+00	 6.124999999999994e+00	 1.008885006615384e+01
0	 5.124999999999999e+00	 6.249999999999999e+00	 1.008260169230768e+01
0	 5.250000000000000e+00	 4.999999999999999e+00	 1.015251729230770e+01
0	 5.249999999999998e+00	 5.125000000000000e+00	 1.014467013846154e+01
0	 5.249999999999999e+00	 5.250000000000000e+00	 1.013708604307692e+01
0	 5.249999999999999e+00	 5.375000000000000e+00	 1.012976500615385e+01
0	 5.249999999999999e+00	 5.499999999999997e+00	 1.012270702769231e+01
0	 5.249999999999999e+00	 5.624999999999998e+00	 1.011591210769231e+01
0	 5.249999999999999e+00	 5.749999999999997e+00	 1.010938024615384e+01
0	 5.250000000000001e+00	 5.874999999999998e+00	 1.010311144307691e+01
0	 5.249999999999999e+00	 5.999999999999996e+00	 1.009710569846153e+01
0	 5.250000000000000e+00	 6.124999999999997e+00	 1.009136301230768e+01
0	 5.250000000000000e+00	 6.250000000000000e+00	 1.008588338461538e+01
0	 5.374999999999998e+00	 5.000000000000000e+00	 1.014675929230770e+01
0	 5.374999999999997e+00	 5.125000000000000e+00	 1.013989873384615e+01
0	 5.375000000000000e+00	 5.249999999999999e+00	 1.013326300923077e+01
0	 5.374999999999998e+00	 5.374999999999998e+00	 1.012685211846153e+01
0	 5.374999999999999e+00	 5.499999999999998e+00	 1.012066606153846e+01
0	 5.375000000000000e+00	 5.624999999999998e+00	 1.011470483846154e+01
0	 5.374999999999999e+00	 5.749999999999998e+00	 1.010896844923076e+01
0	 5.374999999999999e+00	 5.874999999999997e+00	 1.010345689384615e+01
0	 5.374999999999999e+00	 5.999999999999997e+00	 1.009817017230768e+01
0	 5.374999999999998e+00	 6.124999999999996e+00	 1.009310828461538e+01
0	 5.374999999999998e+00	 6.250000000000000e+00	 1.008827123076922e+01
0	 5.499999999999998e+00	 5.000000000000001e+00	 1.014136916923077e+01
0	 5.499999999999999e+00	 5.124999999999999e+00	 1.013536903384615e+01
0	 5.499999999999999e+00	 5.250000000000000e+00	 1.012955550769231e+01
0	 5.499999999999998e+00	 5.375000000000000e+00	 1.012392859076923e+01
0	 5.499999999999999e+00	 5.499999999999999e+00	 1.011848828307691e+01
0	 5.499999999999998e+00	 5.624999999999998e+00	 1.011323458461538e+01
0	 5.499999999999998e+00	 5.749999999999997e+00	 1.010816749538461e+01
0	 5.499999999999998e+00	 5.874999999999996e+00	 1.010328701538461e+01
0	 5.499999999999999e+00	 5.999999999999997e+00	 1.009859314461537e+01
0	 5.499999999999997e+00	 6.124999999999996e+00	 1.009408588307692e+01
0	 5.499999999999998e+00	 6.250000000000000e+00	 1.008976523076923e+01
0	 5.624999999999998e+00	 5.000000000000000e+00	 1.013634692307693e+01
0	 5.624999999999997e+00	 5.124999999999998e+00	 1.013108103846154e+01
0	 5.624999999999997e+00	 5.249999999999999e+00	 1.012596353846153e+01
0	 5.625000000000000e+00	 5.375000000000000e+00	 1.012099442307693e+01
0	 5.624999999999997e+00	 5.499999999999998e+00	 1.011617369230768e+01
0	 5.624999999999997e+00	 5.624999999999997e+00	 1.011150134615385e+01
0	 5.624999999999999e+00	 5.749999999999998e+00	 1.010697738461537e+01
0	 5.624999999999997e+00	 5.874999999999996e+00	 1.010260180769230e+01
0	 5.624999999999997e+00	 5.999999999999996e+00	 1.009837461538460e+01
0	 5.624999999999998e+00	 6.124999999999996e+00	 1.009429580769230e+01
0	 5.624999999999998e+00	 6.250000000000000e+00	 1.009036538461538e+01
0	 5.749999999999998e+00	 5.000000000000000e+00	 1.013169255384616e+01
0	 5.749999999999998e+00	 5.124999999999999e+00	 1.012703474769230e+01
0	 5.749999999999997e+00	 5.249999999999999e+00	 1.012248710153846e+01
0	 5.749999999999998e+00	 5.374999999999999e+00	 1.011804961538461e+01
0	 5.749999999999998e+00	 5.500000000000000e+00	 1.011372228923076e+01
0	 5.749999999999998e+00	 5.624999999999999e+00	 1.010950512307692e+01
0	 5.749999999999997e+00	 5.749999999999997e+00	 1.010539811692307e+01
0	 5.749999999999997e+00	 5.874999999999997e+00	 1.010140127076922e+01
0	 5.749999999999998e+00	 5.999999999999997e+00	 1.009751458461538e+01
0	 5.749999999999998e+00	 6.124999999999996e+00	 1.009373805846153e+01
0	 5.749999999999998e+00	 6.250000000000000e+00	 1.009007169230768e+01
0	 5.874999999999997e+00	 5.000000000000000e+00	 1.012740606153846e+01
0	 5.874999999999997e+00	 5.124999999999999e+00	 1.012323016153846e+01
0	 5.874999999999997e+00	 5.249999999999999e+00	 1.011912619692307e+01
0	 5.874999999999997e+00	 5.375000000000000e+00	 1.011509416769230e+01
0	 5.874999999999996e+00	 5.499999999999998e+00	 1.011113407384615e+01
0	 5.874999999999997e+00	 5.624999999999998e+00	 1.010724591538461e+01
0	 5.874999999999997e+00	 5.749999999999997e+00	 1.010342969230769e+01
0	 5.874999999999996e+00	 5.874999999999996e+00	 1.009968540461538e+01
0	 5.874999999999997e+00	 5.999999999999996e+00	 1.009601305230769e+01
0	 5.874999999999997e+00	 6.124999999999996e+00	 1.009241263538461e+01
0	 5.874999999999997e+00	 6.250000000000000e+00	 1.008888415384614e+01
0	 5.999999999999996e+00	 4.999999999999999e+00	 1.012348744615385e+01
0	 5.999999999999998e+00	 5.125000000000002e+00	 1.011966727999999e+01
0	 5.999999999999996e+00	 5.249999999999999e+00	 1.011588082461538e+01
0	 5.999999999999997e+00	 5.374999999999999e+00	 1.011212807999999e+01
0	 5.999999999999997e+00	 5.499999999999998e+00	 1.010840904615384e+01
0	 5.999999999999997e+00	 5.624999999999997e+00	 1.010472372307692e+01
0	 5.999999999999996e+00	 5.749999999999997e+00	 1.010107211076922e+01
0	 5.999999999999996e+00	 5.874999999999996e+00	 1.009745420923076e+01
0	 5.999999999999996e+00	 5.999999999999996e+00	 1.009387001846154e+01
0	 5.999999999999996e+00	 6.124999999999996e+00	 1.009031953846153e+01
0	 5.999999999999996e+00	 6.250000000000000e+00	 1.008680276923075e+01
0	 6.124999999999996e+00	 5.000000000000000e+00	 1.011993670769231e+01
0	 6.124999999999996e+00	 5.125000000000000e+00	 1.011634610307692e+01
0	 6.124999999999996e+00	 5.250000000000000e+00	 1.011275098461538e+01
0	 6.124999999999996e+00	 5.374999999999999e+00	 1.010915135230769e+01
0	 6.124999999999996e+00	 5.499999999999998e+00	 1.010554720615384e+01
0	 6.124999999999996e+00	 5.624999999999998e+00	 1.010193854615384e+01
0	 6.124999999999996e+00	 5.749999999999998e+00	 1.009832537230769e+01
0	 6.124999999999996e+00	 5.874999999999996e+00	 1.009470768461537e+01
0	 6.124999999999996e+00	 5.999999999999996e+00	 1.009108548307691e+01
0	 6.124999999999996e+00	 6.124999999999996e+00	 1.008745876769230e+01
0	 6.124999999999996e+00	 6.250000000000000e+00	 1.008382753846153e+01
0	 6.250000000000000e+00	 5.000000000000000e+00	 1.011675384615384e+01
0	 6.250000000000000e+00	 5.124999999999999e+00	 1.011326663076924e+01
0	 6.250000000000001e+00	 5.250000000000000e+00	 1.010973667692307e+01
0	 6.249999999999999e+00	 5.374999999999998e+00	 1.010616398461538e+01
0	 6.250000000000000e+00	 5.499999999999999e+00	 1.010254855384615e+01
0	 6.250000000000001e+00	 5.624999999999997e+00	 1.009889038461538e+01
0	 6.250000000000001e+00	 5.749999999999997e+00	 1.009518947692306e+01
0	 6.250000000000000e+00	 5.874999999999996e+00	 1.009144583076923e+01
0	 6.250000000000000e+00	 5.999999999999996e+00	 1.008765944615384e+01
0	 6.250000000000000e+00	 6.124999999999996e+00	 1.008383032307693e+01
0	 6.250000000000000e+00	 6.250000000000000e+00	 1.007995846153845e+01
0	 5.000000000000000e+00	 6.250000000000000e+00	 1.007842615384615e+01
0	 5.000000000000000e+00	 6.375000000000000e+00	 1.007598771538460e+01
0	 5.000000000000001e+00	 6.500000000000000e+00	 1.007326963076922e+01
0	 5.000000000000000e+00	 6.624999999999998e+00	 1.007027190000000e+01
0	 5.000000000000001e+00	 6.749999999999998e+00	 1.006699452307692e+01
0	 5.000000000000000e+00	 6.874999999999998e+00	 1.006343750000000e+01
0	 5.000000000000000e+00	 6.999999999999997e+00	 1.005960083076923e+01
0	 5.000000000000000e+00	 7.124999999999996e+00	 1.005548451538461e+01
0	 5.000000000000000e+00	 7.249999999999997e+00	 1.005108855384616e+01
0	 5.000000000000000e+00	 7.374999999999996e+00	 1.004641294615384e+01
0	 5.000000000000000e+00	 7.500000000000000e+00	 1.004145769230770e+01
0	 5.124999999999999e+00	 6.249999999999999e+00	 1.008260169230768e+01
0	 5.125000000000001e+00	 6.375000000000000e+00	 1.007954693923076e+01
0	 5.125000000000000e+00	 6.500000000000000e+00	 1.007624773230769e+01
0	 5.125000000000000e+00	 6.624999999999998e+00	 1.007270407153846e+01
0	 5.124999999999999e+00	 6.749999999999998e+00	 1.006891595692308e+01
0	 5.125000000000000e+00	 6.874999999999998e+00	 1.006488338846154e+01
0	 5.125000000000000e+00	 6.999999999999999e+00	 1.006060636615384e+01
0	 5.125000000000001e+00	 7.124999999999998e+00	 1.005608489000000e+01
0	 5.125000000000001e+00	 7.249999999999999e+00	 1.005131896000001e+01
0	 5.124999999999999e+00	 7.374999999999995e+00	 1.004630857615385e+01
0	 5.124999999999999e+00	 7.500000000000000e+00	 1.004105373846155e+01
0	 5.250000000000000e+00	 6.250000000000000e+00	 1.008588338461538e+01
0	 5.249999999999998e+00	 6.375000000000000e+00	 1.008229834153845e+01
0	 5.249999999999999e+00	 6.499999999999999e+00	 1.007850403692307e+01
0	 5.249999999999999e+00	 6.624999999999999e+00	 1.007450047076923e+01
0	 5.249999999999999e+00	 6.749999999999997e+00	 1.007028764307692e+01
0	 5.249999999999999e+00	 6.874999999999997e+00	 1.006586555384616e+01
0	 5.249999999999999e+00	 6.999999999999995e+00	 1.006123420307692e+01
0	 5.250000000000001e+00	 7.124999999999997e+00	 1.005639359076923e+01
0	 5.249999999999999e+00	 7.249999999999996e+00	 1.005134371692307e+01
0	 5.250000000000000e+00	 7.374999999999998e+00	 1.004608458153847e+01
0	 5.250000000000000e+00	 7.500000000000001e+00	 1.004061618461539e+01
0	 5.374999999999998e+00	 6.250000000000000e+00	 1.008827123076922e+01
0	 5.374999999999997e+00	 6.375000000000000e+00	 1.008424192230768e+01
0	 5.375000000000000e+00	 6.500000000000000e+00	 1.008003854461538e+01
0	 5.374999999999998e+00	 6.625000000000000e+00	 1.007566109769230e+01
0	 5.374999999999999e+00	 6.749999999999997e+00	 1.007110958153847e+01
0	 5.375000000000000e+00	 6.874999999999997e+00	 1.006638399615384e+01
0	 5.374999999999999e+00	 6.999999999999996e+00	 1.006148434153846e+01
0	 5.374999999999999e+00	 7.124999999999996e+00	 1.005641061769230e+01
0	 5.374999999999999e+00	 7.249999999999996e+00	 1.005116282461539e+01
0	 5.374999999999998e+00	 7.374999999999996e+00	 1.004574096230770e+01
0	 5.374999999999998e+00	 7.500000000000001e+00	 1.004014503076924e+01
0	 5.499999999999998e+00	 6.250000000000000e+00	 1.008976523076923e+01
0	 5.499999999999999e+00	 6.375000000000000e+00	 1.008537768153846e+01
0	 5.499999999999999e+00	 6.500000000000000e+00	 1.008085125538461e+01
0	 5.499999999999998e+00	 6.624999999999999e+00	 1.007618595230769e+01
0	 5.499999999999999e+00	 6.749999999999997e+00	 1.007138177230768e+01
0	 5.499999999999998e+00	 6.874999999999998e+00	 1.006643871538461e+01
0	 5.499999999999998e+00	 6.999999999999996e+00	 1.006135678153846e+01
0	 5.499999999999998e+00	 7.124999999999996e+00	 1.005613597076924e+01
0	 5.499999999999999e+00	 7.249999999999997e+00	 1.005077628307692e+01
0	 5.499999999999997e+00	 7.374999999999996e+00	 1.004527771846154e+01
0	 5.499999999999998e+00	 7.500000000000000e+00	 1.003964027692307e+01
0	 5.624999999999998e+00	 6.250000000000000e+00	 1.009036538461538e+01
0	 5.624999999999997e+00	 6.375000000000000e+00	 1.008570561923077e+01
0	 5.624999999999997e+00	 6.499999999999999e+00	 1.008094216923077e+01
0	 5.625000000000000e+00	 6.624999999999999e+00	 1.007607503461538e+01
0	 5.624999999999997e+00	 6.749999999999996e+00	 1.007110421538462e+01
0	 5.624999999999997e+00	 6.874999999999998e+00	 1.006602971153846e+01
0	 5.624999999999999e+00	 6.999999999999998e+00	 1.006085152307692e+01
0	 5.624999999999997e+00	 7.124999999999997e+00	 1.005556965000000e+01
0	 5.624999999999997e+00	 7.249999999999996e+00	 1.005018409230770e+01
0	 5.624999999999998e+00	 7.374999999999998e+00	 1.004469485000001e+01
0	 5.624999999999998e+00	 7.500000000000001e+00	 1.003910192307693e+01
0	 5.749999999999998e+00	 6.250000000000000e+00	 1.009007169230768e+01
0	 5.749999999999998e+00	 6.375000000000001e+00	 1.008522573538461e+01
0	 5.749999999999997e+00	 6.499999999999997e+00	 1.008031128615384e+01
0	 5.749999999999998e+00	 6.624999999999998e+00	 1.007532834461538e+01
0	 5.749999999999998e+00	 6.750000000000000e+00	 1.007027691076923e+01
0	 5.749999999999998e+00	 6.874999999999999e+00	 1.006515698461538e+01
0	 5.749999999999997e+00	 6.999999999999997e+00	 1.005996856615384e+01
0	 5.749999999999997e+00	 7.124999999999998e+00	 1.005471165538461e+01
0	 5.749999999999998e+00	 7.249999999999998e+00	 1.004938625230770e+01
0	 5.749999999999998e+00	 7.374999999999996e+00	 1.004399235692308e+01
0	 5.749999999999998e+00	 7.500000000000000e+00	 1.003852996923077e+01
0	 5.874999999999997e+00	 6.250000000000000e+00	 1.008888415384614e+01
0	 5.874999999999997e+00	 6.375000000000000e+00	 1.008393803000000e+01
0	 5.874999999999997e+00	 6.500000000000000e+00	 1.007895860615384e+01
0	 5.874999999999997e+00	 6.624999999999999e+00	 1.007394588230769e+01
0	 5.874999999999996e+00	 6.749999999999998e+00	 1.006889985846154e+01
0	 5.874999999999997e+00	 6.874999999999998e+00	 1.006382053461538e+01
0	 5.874999999999997e+00	 6.999999999999998e+00	 1.005870791076923e+01
0	 5.874999999999996e+00	 7.124999999999998e+00	 1.005356198692307e+01
0	 5.874999999999997e+00	 7.249999999999996e+00	 1.004838276307694e+01
0	 5.874999999999997e+00	 7.374999999999997e+00	 1.004317023923077e+01
0	 5.874999999999997e+00	 7.500000000000000e+00	 1.003792441538461e+01
0	 5.999999999999996e+00	 6.250000000000000e+00	 1.008680276923075e+01
0	 5.999999999999998e+00	 6.375000000000002e+00	 1.008184250307692e+01
0	 5.999999999999996e+00	 6.499999999999999e+00	 1.007688412923077e+01
0	 5.999999999999997e+00	 6.624999999999999e+00	 1.007192764769230e+01
0	 5.999999999999997e+00	 6.749999999999998e+00	 1.006697305846154e+01
0	 5.999999999999997e+00	 6.874999999999998e+00	 1.006202036153846e+01
0	 5.999999999999996e+00	 6.999999999999996e+00	 1.005706955692307e+01
0	 5.999999999999996e+00	 7.124999999999996e+00	 1.005212064461538e+01
0	 5.999999999999996e+00	 7.249999999999996e+00	 1.004717362461538e+01
0	 5.999999999999996e+00	 7.374999999999996e+00	 1.004222849692307e+01
0	 5.999999999999996e+00	 7.500000000000001e+00	 1.003728526153847e+01
0	 6.124999999999996e+00	 6.250000000000000e+00	 1.008382753846153e+01
0	 6.124999999999996e+00	 6.375000000000000e+00	 1.007893915461537e+01
0	 6.124999999999996e+00	 6.500000000000000e+00	 1.007408785538460e+01
0	 6.124999999999996e+00	 6.624999999999999e+00	 1.006927364076923e+01
0	 6.124999999999996e+00	 6.749999999999998e+00	 1.006449651076922e+01
0	 6.124999999999996e+00	 6.874999999999999e+00	 1.005975646538461e+01
0	 6.124999999999996e+00	 6.999999999999996e+00	 1.005505350461538e+01
0	 6.124999999999996e+00	 7.124999999999996e+00	 1.005038762846154e+01
0	 6.124999999999996e+00	 7.249999999999996e+00	 1.004575883692307e+01
0	 6.124999999999996e+00	 7.374999999999995e+00	 1.004116713000000e+01
0	 6.124999999999996e+00	 7.500000000000000e+00	 1.003661250769231e+01
0	 6.250000000000000e+00	 6.250000000000000e+00	 1.007995846153845e+01
0	 6.250000000000000e+00	 6.375000000000000e+00	 1.007522798461537e+01
0	 6.250000000000001e+00	 6.500000000000000e+00	 1.007056978461537e+01
0	 6.249999999999999e+00	 6.624999999999998e+00	 1.006598386153846e+01
0	 6.250000000000000e+00	 6.749999999999998e+00	 1.006147021538461e+01
0	 6.250000000000001e+00	 6.874999999999998e+00	 1.005702884615384e+01
0	 6.250000000000001e+00	 6.999999999999997e+00	 1.005265975384616e+01
0	 6.250000000000000e+00	 7.124999999999996e+00	 1.004836293846154e+01
0	 6.250000000000000e+00	 7.249999999999997e+00	 1.004413840000000e+01
0	 6.250000000000000e+00	 7.374999999999996e+00	 1.003998613846154e+01
0	 6.250000000000000e+00	 7.500000000000000e+00	 1.003590615384616e+01
0	 5.000000000000000e+00	 7.500000000000000e+00	 1.004145769230770e+01
0	 5.000000000000000e+00	 7.625000000000000e+00	 1.003807728461540e+01
0	 5.000000000000001e+00	 7.750000000000000e+00	 1.003468436923078e+01
0	 5.000000000000000e+00	 7.874999999999998e+00	 1.003127894615385e+01
0	 5.000000000000001e+00	 7.999999999999999e+00	 1.002786101538461e+01
0	 5.000000000000000e+00	 8.124999999999998e+00	 1.002443057692309e+01
0	 5.000000000000000e+00	 8.249999999999998e+00	 1.002098763076922e+01
0	 5.000000000000000e+00	 8.374999999999996e+00	 1.001753217692308e+01
0	 5.000000000000000e+00	 8.499999999999996e+00	 1.001406421538461e+01
0	 5.000000000000000e+00	 8.624999999999996e+00	 1.001058374615385e+01
0	 5.000000000000000e+00	 8.750000000000000e+00	 1.000709076923077e+01
0	 5.124999999999999e+00	 7.500000000000000e+00	 1.004105373846155e+01
0	 5.125000000000001e+00	 7.625000000000000e+00	 1.003792083923077e+01
0	 5.125000000000000e+00	 7.749999999999999e+00	 1.003475876153847e+01
0	 5.125000000000000e+00	 7.874999999999999e+00	 1.003156750538462e+01
0	 5.124999999999999e+00	 7.999999999999998e+00	 1.002834707076923e+01
0	 5.125000000000000e+00	 8.124999999999998e+00	 1.002509745769231e+01
0	 5.125000000000000e+00	 8.250000000000000e+00	 1.002181866615385e+01
0	 5.125000000000001e+00	 8.375000000000000e+00	 1.001851069615385e+01
0	 5.125000000000001e+00	 8.500000000000000e+00	 1.001517354769230e+01
0	 5.124999999999999e+00	 8.624999999999995e+00	 1.001180722076924e+01
0	 5.124999999999999e+00	 8.750000000000000e+00	 1.000841171538461e+01
0	 5.250000000000000e+00	 7.500000000000001e+00	 1.004061618461539e+01
0	 5.249999999999998e+00	 7.624999999999999e+00	 1.003770872769231e+01
0	 5.249999999999999e+00	 7.750000000000000e+00	 1.003475542153847e+01
0	 5.249999999999999e+00	 7.874999999999999e+00	 1.003175626615385e+01
0	 5.249999999999999e+00	 7.999999999999998e+00	 1.002871126153846e+01
0	 5.249999999999999e+00	 8.124999999999998e+00	 1.002562040769231e+01
0	 5.249999999999999e+00	 8.249999999999995e+00	 1.002248370461539e+01
0	 5.250000000000001e+00	 8.374999999999996e+00	 1.001930115230769e+01
0	 5.249999999999999e+00	 8.499999999999996e+00	 1.001607275076923e+01
0	 5.250000000000000e+00	 8.624999999999996e+00	 1.001279850000001e+01
0	 5.250000000000000e+00	 8.750000000000000e+00	 1.000947839999998e+01
0	 5.374999999999998e+00	 7.500000000000001e+00	 1.004014503076924e+01
0	 5.374999999999997e+00	 7.624999999999999e+00	 1.003744095000000e+01
0	 5.375000000000000e+00	 7.750000000000000e+00	 1.003467434923077e+01
0	 5.374999999999998e+00	 7.875000000000000e+00	 1.003184522846154e+01
0	 5.374999999999999e+00	 7.999999999999998e+00	 1.002895358769230e+01
0	 5.375000000000000e+00	 8.125000000000000e+00	 1.002599942692307e+01
0	 5.374999999999999e+00	 8.249999999999996e+00	 1.002298274615385e+01
0	 5.374999999999999e+00	 8.374999999999998e+00	 1.001990354538461e+01
0	 5.374999999999999e+00	 8.499999999999996e+00	 1.001676182461537e+01
0	 5.374999999999998e+00	 8.624999999999995e+00	 1.001355758384617e+01
0	 5.374999999999998e+00	 8.750000000000000e+00	 1.001029082307691e+01
0	 5.499999999999998e+00	 7.500000000000000e+00	 1.003964027692307e+01
0	 5.499999999999999e+00	 7.624999999999999e+00	 1.003711750615385e+01
0	 5.499999999999999e+00	 7.749999999999999e+00	 1.003451554461538e+01
0	 5.499999999999998e+00	 7.874999999999999e+00	 1.003183439230769e+01
0	 5.499999999999999e+00	 7.999999999999998e+00	 1.002907404923077e+01
0	 5.499999999999998e+00	 8.124999999999998e+00	 1.002623451538461e+01
0	 5.499999999999998e+00	 8.249999999999996e+00	 1.002331579076923e+01
0	 5.499999999999998e+00	 8.374999999999998e+00	 1.002031787538461e+01
0	 5.499999999999999e+00	 8.499999999999996e+00	 1.001724076923076e+01
0	 5.499999999999997e+00	 8.624999999999996e+00	 1.001408447230769e+01
0	 5.499999999999998e+00	 8.750000000000000e+00	 1.001084898461539e+01
0	 5.624999999999998e+00	 7.500000000000001e+00	 1.003910192307693e+01
0	 5.624999999999997e+00	 7.625000000000000e+00	 1.003673839615385e+01
0	 5.624999999999997e+00	 7.750000000000000e+00	 1.003427900769231e+01
0	 5.625000000000000e+00	 7.874999999999998e+00	 1.003172375769232e+01
0	 5.624999999999997e+00	 7.999999999999996e+00	 1.002907264615384e+01
0	 5.624999999999997e+00	 8.124999999999998e+00	 1.002632567307692e+01
0	 5.624999999999999e+00	 8.250000000000000e+00	 1.002348283846153e+01
0	 5.624999999999997e+00	 8.374999999999996e+00	 1.002054414230769e+01
0	 5.624999999999997e+00	 8.499999999999996e+00	 1.001750958461537e+01
0	 5.624999999999998e+00	 8.624999999999996e+00	 1.001437916538461e+01
0	 5.624999999999998e+00	 8.750000000000000e+00	 1.001115288461538e+01
0	 5.749999999999998e+00	 7.500000000000000e+00	 1.003852996923077e+01
0	 5.749999999999998e+00	 7.625000000000000e+00	 1.003630362000000e+01
0	 5.749999999999997e+00	 7.749999999999997e+00	 1.003396473846154e+01
0	 5.749999999999998e+00	 7.874999999999999e+00	 1.003151332461539e+01
0	 5.749999999999998e+00	 8.000000000000000e+00	 1.002894937846154e+01
0	 5.749999999999998e+00	 8.125000000000000e+00	 1.002627290000001e+01
0	 5.749999999999997e+00	 8.249999999999998e+00	 1.002348388923076e+01
0	 5.749999999999997e+00	 8.374999999999996e+00	 1.002058234615384e+01
0	 5.749999999999998e+00	 8.499999999999998e+00	 1.001756827076923e+01
0	 5.749999999999998e+00	 8.624999999999995e+00	 1.001444166307693e+01
0	 5.749999999999998e+00	 8.750000000000000e+00	 1.001120252307691e+01
0	 5.874999999999997e+00	 7.500000000000000e+00	 1.003792441538461e+01
0	 5.874999999999997e+00	 7.625000000000000e+00	 1.003581317769230e+01
0	 5.874999999999997e+00	 7.749999999999999e+00	 1.003357273692308e+01
0	 5.874999999999997e+00	 7.874999999999998e+00	 1.003120309307693e+01
0	 5.874999999999996e+00	 7.999999999999997e+00	 1.002870424615385e+01
0	 5.874999999999997e+00	 8.125000000000000e+00	 1.002607619615385e+01
0	 5.874999999999997e+00	 8.249999999999998e+00	 1.002331894307693e+01
0	 5.874999999999996e+00	 8.374999999999998e+00	 1.002043248692308e+01
0	 5.874999999999997e+00	 8.499999999999996e+00	 1.001741682769230e+01
0	 5.874999999999997e+00	 8.624999999999996e+00	 1.001427196538462e+01
0	 5.874999999999997e+00	 8.750000000000000e+00	 1.001099789999999e+01
0	 5.999999999999996e+00	 7.500000000000001e+00	 1.003728526153847e+01
0	 5.999999999999998e+00	 7.625000000000001e+00	 1.003526706923078e+01
0	 5.999999999999996e+00	 7.749999999999999e+00	 1.003310300307692e+01
0	 5.999999999999997e+00	 7.875000000000001e+00	 1.003079306307692e+01
0	 5.999999999999997e+00	 7.999999999999998e+00	 1.002833724923077e+01
0	 5.999999999999997e+00	 8.124999999999996e+00	 1.002573556153847e+01
0	 5.999999999999996e+00	 8.249999999999998e+00	 1.002298800000001e+01
0	 5.999999999999996e+00	 8.374999999999996e+00	 1.002009456461538e+01
0	 5.999999999999996e+00	 8.499999999999996e+00	 1.001705525538463e+01
0	 5.999999999999996e+00	 8.624999999999996e+00	 1.001387007230769e+01
0	 5.999999999999996e+00	 8.750000000000000e+00	 1.001053901538461e+01
0	 6.124999999999996e+00	 7.500000000000000e+00	 1.003661250769231e+01
0	 6.124999999999996e+00	 7.624999999999999e+00	 1.003466529461538e+01
0	 6.124999999999996e+00	 7.750000000000000e+00	 1.003255553692308e+01
0	 6.124999999999996e+00	 7.874999999999998e+00	 1.003028323461538e+01
0	 6.124999999999996e+00	 7.999999999999998e+00	 1.002784838769231e+01
0	 6.124999999999996e+00	 8.124999999999996e+00	 1.002525099615384e+01
0	 6.124999999999996e+00	 8.249999999999996e+00	 1.002249105999999e+01
0	 6.124999999999996e+00	 8.374999999999996e+00	 1.001956857923077e+01
0	 6.124999999999996e+00	 8.499999999999996e+00	 1.001648355384615e+01
0	 6.124999999999996e+00	 8.624999999999996e+00	 1.001323598384616e+01
0	 6.124999999999996e+00	 8.750000000000000e+00	 1.000982586923076e+01
0	 6.250000000000000e+00	 7.500000000000000e+00	 1.003590615384616e+01
0	 6.250000000000000e+00	 7.625000000000000e+00	 1.003400785384616e+01
0	 6.250000000000001e+00	 7.750000000000000e+00	 1.003193033846155e+01
0	 6.249999999999999e+00	 7.874999999999998e+00	 1.002967360769230e+01
0	 6.250000000000000e+00	 7.999999999999999e+00	 1.002723766153846e+01
0	 6.250000000000001e+00	 8.124999999999998e+00	 1.002462250000001e+01
0	 6.250000000000001e+00	 8.249999999999998e+00	 1.002182812307692e+01
0	 6.250000000000000e+00	 8.374999999999996e+00	 1.001885453076923e+01
0	 6.250000000000000e+00	 8.499999999999996e+00	 1.001570172307692e+01
0	 6.250000000000000e+00	 8.624999999999996e+00	 1.001236970000001e+01
0	 6.250000000000000e+00	 8.750000000000000e+00	 1.000885846153846e+01
0	 5.000000000000000e+00	 8.750000000000000e+00	 1.000709076923077e+01
0	 5.000000000000000e+00	 8.874999999999998e+00	 1.000735412307692e+01
0	 5.000000000000000e+00	 9.000000000000000e+00	 1.000726818461538e+01
0	 4.999999999999999e+00	 9.124999999999998e+00	 1.000683295384614e+01
0	 5.000000000000000e+00	 9.250000000000000e+00	 1.000604843076922e+01
0	 5.000000000000000e+00	 9.374999999999996e+00	 1.000491461538460e+01
0	 5.000000000000000e+00	 9.499999999999996e+00	 1.000343150769229e+01
0	 5.000000000000000e+00	 9.624999999999996e+00	 1.000159910769230e+01
0	 5.000000000000001e+00	 9.749999999999998e+00	 9.999417415384601e+00
0	 5.000000000000000e+00	 9.874999999999996e+00	 9.996886430769218e+00
0	 5.000000000000000e+00	 1.000000000000000e+01	 9.994006153846140e+00
0	 5.124999999999999e+00	 8.750000000000000e+00	 1.000841171538461e+01
0	 5.125000000000001e+00	 8.875000000000002e+00	 1.000851285692306e+01
0	 5.124999999999999e+00	 8.999999999999998e+00	 1.000827876000000e+01
0	 5.124999999999998e+00	 9.124999999999998e+00	 1.000770942461537e+01
0	 5.125000000000000e+00	 9.249999999999998e+00	 1.000680485076922e+01
0	 5.125000000000000e+00	 9.375000000000000e+00	 1.000556503846154e+01
0	 5.125000000000000e+00	 9.499999999999998e+00	 1.000398998769230e+01
0	 5.125000000000000e+00	 9.624999999999996e+00	 1.000207969846153e+01
0	 5.124999999999998e+00	 9.749999999999996e+00	 9.999834170769239e+00
0	 5.125000000000000e+00	 9.874999999999996e+00	 9.997253404615360e+00
0	 5.125000000000000e+00	 1.000000000000000e+01	 9.994337399999955e+00
0	 5.250000000000000e+00	 8.750000000000000e+00	 1.000947839999998e+01
0	 5.249999999999998e+00	 8.874999999999998e+00	 1.000943635846154e+01
0	 5.249999999999998e+00	 8.999999999999998e+00	 1.000907313230768e+01
0	 5.249999999999999e+00	 9.124999999999998e+00	 1.000838872153846e+01
0	 5.249999999999999e+00	 9.250000000000000e+00	 1.000738312615384e+01
0	 5.250000000000000e+00	 9.375000000000000e+00	 1.000605634615384e+01
0	 5.249999999999999e+00	 9.499999999999998e+00	 1.000440838153846e+01
0	 5.250000000000000e+00	 9.625000000000000e+00	 1.000243923230768e+01
0	 5.250000000000000e+00	 9.749999999999998e+00	 1.000014889846154e+01
0	 5.249999999999999e+00	 9.874999999999998e+00	 9.997537379999997e+00
0	 5.249999999999999e+00	 1.000000000000000e+01	 9.994604676923068e+00
0	 5.374999999999998e+00	 8.750000000000000e+00	 1.001029082307691e+01
0	 5.374999999999998e+00	 8.874999999999998e+00	 1.001012462769230e+01
0	 5.374999999999998e+00	 8.999999999999996e+00	 1.000965130153846e+01
0	 5.375000000000000e+00	 9.124999999999998e+00	 1.000887084461538e+01
0	 5.374999999999998e+00	 9.249999999999998e+00	 1.000778325692307e+01
0	 5.374999999999999e+00	 9.374999999999996e+00	 1.000638853846153e+01
0	 5.374999999999998e+00	 9.499999999999995e+00	 1.000468668923077e+01
0	 5.374999999999999e+00	 9.624999999999996e+00	 1.000267770923075e+01
0	 5.374999999999999e+00	 9.749999999999998e+00	 1.000036159846152e+01
0	 5.374999999999998e+00	 9.874999999999995e+00	 9.997738356923083e+00
0	 5.374999999999998e+00	 1.000000000000000e+01	 9.994807984615377e+00
0	 5.499999999999998e+00	 8.750000000000000e+00	 1.001084898461539e+01
0	 5.499999999999999e+00	 8.874999999999998e+00	 1.001057766461537e+01
0	 5.500000000000000e+00	 9.000000000000002e+00	 1.001001326769229e+01
0	 5.499999999999998e+00	 9.124999999999998e+00	 1.000915579384616e+01
0	 5.499999999999999e+00	 9.249999999999998e+00	 1.000800524307692e+01
0	 5.499999999999999e+00	 9.374999999999998e+00	 1.000656161538460e+01
0	 5.499999999999999e+00	 9.499999999999998e+00	 1.000482491076923e+01
0	 5.499999999999999e+00	 9.624999999999996e+00	 1.000279512923076e+01
0	 5.499999999999999e+00	 9.749999999999996e+00	 1.000047227076922e+01
0	 5.499999999999998e+00	 9.874999999999996e+00	 9.997856335384631e+00
0	 5.499999999999999e+00	 1.000000000000000e+01	 9.994947323076918e+00
0	 5.624999999999998e+00	 8.750000000000000e+00	 1.001115288461538e+01
0	 5.624999999999999e+00	 8.874999999999998e+00	 1.001079546923076e+01
0	 5.624999999999997e+00	 8.999999999999998e+00	 1.001015903076923e+01
0	 5.624999999999998e+00	 9.125000000000002e+00	 1.000924356923077e+01
0	 5.624999999999998e+00	 9.249999999999996e+00	 1.000804908461538e+01
0	 5.624999999999997e+00	 9.375000000000000e+00	 1.000657557692308e+01
0	 5.624999999999998e+00	 9.499999999999998e+00	 1.000482304615384e+01
0	 5.624999999999997e+00	 9.624999999999998e+00	 1.000279149230768e+01
0	 5.624999999999997e+00	 9.749999999999996e+00	 1.000048091538459e+01
0	 5.624999999999998e+00	 9.874999999999996e+00	 9.997891315384596e+00
0	 5.624999999999997e+00	 1.000000000000000e+01	 9.995022692307662e+00
0	 5.749999999999998e+00	 8.750000000000000e+00	 1.001120252307691e+01
0	 5.749999999999997e+00	 8.874999999999998e+00	 1.001077804153845e+01
0	 5.749999999999998e+00	 9.000000000000000e+00	 1.001008859076923e+01
0	 5.749999999999997e+00	 9.125000000000000e+00	 1.000913417076922e+01
0	 5.749999999999998e+00	 9.250000000000000e+00	 1.000791478153845e+01
0	 5.749999999999997e+00	 9.374999999999998e+00	 1.000643042307693e+01
0	 5.749999999999998e+00	 9.499999999999998e+00	 1.000468109538460e+01
0	 5.749999999999996e+00	 9.624999999999995e+00	 1.000266679846153e+01
0	 5.749999999999998e+00	 9.749999999999995e+00	 1.000038753230768e+01
0	 5.749999999999997e+00	 9.874999999999998e+00	 9.997843296923055e+00
0	 5.749999999999997e+00	 9.999999999999998e+00	 9.995034092307694e+00
0	 5.874999999999997e+00	 8.750000000000000e+00	 1.001099789999999e+01
0	 5.874999999999996e+00	 8.875000000000000e+00	 1.001052538153846e+01
0	 5.874999999999997e+00	 9.000000000000000e+00	 1.000980194769230e+01
0	 5.874999999999997e+00	 9.125000000000000e+00	 1.000882759846152e+01
0	 5.874999999999997e+00	 9.249999999999998e+00	 1.000760233384615e+01
0	 5.874999999999996e+00	 9.374999999999998e+00	 1.000612615384615e+01
0	 5.874999999999998e+00	 9.500000000000000e+00	 1.000439905846151e+01
0	 5.874999999999998e+00	 9.624999999999996e+00	 1.000242104769231e+01
0	 5.874999999999996e+00	 9.749999999999996e+00	 1.000019212153846e+01
0	 5.874999999999996e+00	 9.874999999999996e+00	 9.997712279999996e+00
0	 5.874999999999997e+00	 1.000000000000000e+01	 9.994981523076937e+00
0	 5.999999999999996e+00	 8.750000000000000e+00	 1.001053901538461e+01
0	 5.999999999999996e+00	 8.875000000000004e+00	 1.001003748923076e+01
0	 5.999999999999996e+00	 8.999999999999998e+00	 1.000929910153846e+01
0	 5.999999999999996e+00	 9.125000000000000e+00	 1.000832385230769e+01
0	 5.999999999999996e+00	 9.249999999999998e+00	 1.000711174153845e+01
0	 5.999999999999996e+00	 9.374999999999998e+00	 1.000566276923077e+01
0	 5.999999999999996e+00	 9.499999999999998e+00	 1.000397693538462e+01
0	 5.999999999999996e+00	 9.624999999999996e+00	 1.000205423999997e+01
0	 5.999999999999996e+00	 9.749999999999996e+00	 9.999894683076910e+00
0	 5.999999999999996e+00	 9.874999999999996e+00	 9.997498264615363e+00
0	 5.999999999999996e+00	 1.000000000000000e+01	 9.994864984615381e+00
0	 6.124999999999996e+00	 8.750000000000000e+00	 1.000982586923076e+01
0	 6.124999999999996e+00	 8.875000000000000e+00	 1.000931436461538e+01
0	 6.124999999999995e+00	 8.999999999999998e+00	 1.000858005230770e+01
0	 6.124999999999998e+00	 9.125000000000000e+00	 1.000762293230769e+01
0	 6.124999999999996e+00	 9.249999999999998e+00	 1.000644300461539e+01
0	 6.124999999999996e+00	 9.374999999999996e+00	 1.000504026923075e+01
0	 6.124999999999996e+00	 9.499999999999996e+00	 1.000341472615384e+01
0	 6.124999999999996e+00	 9.624999999999998e+00	 1.000156637538460e+01
0	 6.124999999999996e+00	 9.749999999999996e+00	 9.999495216923068e+00
0	 6.124999999999996e+00	 9.874999999999996e+00	 9.997201250769201e+00
0	 6.124999999999996e+00	 1.000000000000000e+01	 9.994684476923084e+00
0	 6.250000000000000e+00	 8.750000000000000e+00	 1.000885846153846e+01
0	 6.249999999999999e+00	 8.874999999999998e+00	 1.000835600769230e+01
0	 6.250000000000000e+00	 9.000000000000000e+00	 1.000764479999999e+01
0	 6.249999999999999e+00	 9.124999999999998e+00	 1.000672483846153e+01
0	 6.250000000000001e+00	 9.250000000000000e+00	 1.000559612307692e+01
0	 6.250000000000000e+00	 9.374999999999996e+00	 1.000425865384615e+01
0	 6.250000000000000e+00	 9.499999999999996e+00	 1.000271243076923e+01
0	 6.250000000000000e+00	 9.624999999999996e+00	 1.000095745384616e+01
0	 6.250000000000001e+00	 9.749999999999998e+00	 9.998993723076914e+00
0	 6.250000000000000e+00	 9.874999999999996e+00	 9.996821238461528e+00
0	 6.250000000000000e+00	 1.000000000000000e+01	 9.994439999999990e+00
0	 6.250000000000000e+00	 0.000000000000000e+00	 1.009673123076923e+01
0	 6.250000000000001e+00	 1.250000000000000e-01	 1.010091038461538e+01
0	 6.249999999999999e+00	 2.500000000000000e-01	 1.010527290769230e+01
0	 6.249999999999999e+00	 3.750000000000001e-01	 1.010981880000000e+01
0	 6.250000000000002e+00	 5.000000000000000e-01	 1.011454806153846e+01
0	 6.250000000000000e+00	 6.250000000000000e-01	 1.011946069230769e+01
0	 6.250000000000000e+00	 7.500000000000000e-01	 1.012455669230769e+01
0	 6.250000000000000e+00	 8.749999999999999e-01	 1.012983606153846e+01
0	 6.250000000000000e+00	 1.000000000000000e+00	 1.013529880000000e+01
0	 6.250000000000000e+00	 1.125000000000000e+00	 1.014094490769230e+01
0	 6.250000000000000e+00	 1.250000000000000e+00	 1.014677438461538e+01
0	 6.374999999999999e+00	 0.000000000000000e+00	 1.009710578307692e+01
0	 6.374999999999997e+00	 1.250000000000000e-01	 1.010001655715384e+01
0	 6.374999999999999e+00	 2.499999999999999e-01	 1.010303922199999e+01
0	 6.375000000000000e+00	 3.750000000000001e-01	 1.010617377761538e+01
0	 6.374999999999999e+00	 5.000000000000000e-01	 1.010942022400000e+01
0	 6.375000000000000e+00	 6.250000000000001e-01	 1.011277856115385e+01
0	 6.375000000000000e+00	 7.499999999999999e-01	 1.011624878907692e+01
0	 6.375000000000000e+00	 8.749999999999999e-01	 1.011983090776923e+01
0	 6.375000000000000e+00	 1.000000000000000e+00	 1.012352491723077e+01
0	 6.375000000000000e+00	 1.125000000000000e+00	 1.012733081746154e+01
0	 6.375000000000000e+00	 1.250000000000000e+00	 1.013124860846154e+01
0	 6.499999999999999e+00	 0.000000000000000e+00	 1.009588987076923e+01
0	 6.500000000000000e+00	 1.250000000000000e-01	 1.009780125784616e+01
0	 6.500000000000000e+00	 2.500000000000000e-01	 1.009975305723077e+01
0	 6.499999999999999e+00	 3.750000000000001e-01	 1.010174526892307e+01
0	 6.499999999999999e+00	 5.000000000000001e-01	 1.010377789292308e+01
0	 6.499999999999999e+00	 6.250000000000000e-01	 1.010585092923077e+01
0	 6.499999999999999e+00	 7.499999999999999e-01	 1.010796437784615e+01
0	 6.499999999999999e+00	 8.750000000000000e-01	 1.011011823876923e+01
0	 6.500000000000000e+00	 9.999999999999999e-01	 1.011231251200000e+01
0	 6.500000000000000e+00	 1.125000000000000e+00	 1.011454719753846e+01
0	 6.500000000000000e+00	 1.250000000000000e+00	 1.011682229538462e+01
0	 6.624999999999998e+00	 0.000000000000000e+00	 1.009308349384615e+01
0	 6.624999999999999e+00	 1.250000000000000e-01	 1.009426448669231e+01
0	 6.624999999999998e+00	 2.500000000000000e-01	 1.009541441338461e+01
0	 6.624999999999999e+00	 3.750000000000001e-01	 1.009653327392307e+01
0	 6.625000000000001e+00	 5.000000000000001e-01	 1.009762106830769e+01
0	 6.624999999999997e+00	 6.250000000000000e-01	 1.009867779653846e+01
0	 6.624999999999998e+00	 7.499999999999999e-01	 1.009970345861538e+01
0	 6.624999999999998e+00	 8.749999999999999e-01	 1.010069805453846e+01
0	 6.624999999999996e+00	 9.999999999999998e-01	 1.010166158430769e+01
0	 6.624999999999999e+00	 1.125000000000000e+00	 1.010259404792307e+01
0	 6.624999999999999e+00	 1.250000000000000e+00	 1.010349544538461e+01
0	 6.749999999999998e+00	 0.000000000000000e+00	 1.008868665230769e+01
0	 6.749999999999997e+00	 1.250000000000000e-01	 1.008940624369231e+01
0	 6.749999999999997e+00	 2.499999999999999e-01	 1.009002329046154e+01
0	 6.749999999999997e+00	 3.750000000000000e-01	 1.009053779261538e+01
0	 6.749999999999997e+00	 5.000000000000000e-01	 1.009094975015384e+01
0	 6.749999999999999e+00	 6.250000000000000e-01	 1.009125916307692e+01
0	 6.749999999999998e+00	 7.500000000000000e-01	 1.009146603138461e+01
0	 6.750000000000000e+00	 8.750000000000000e-01	 1.009157035507692e+01
0	 6.749999999999997e+00	 9.999999999999998e-01	 1.009157213415384e+01
0	 6.749999999999999e+00	 1.125000000000000e+00	 1.009147136861538e+01
0	 6.749999999999998e+00	 1.250000000000000e+00	 1.009126805846154e+01
0	 6.874999999999998e+00	 0.000000000000000e+00	 1.008269934615385e+01
0	 6.874999999999996e+00	 1.250000000000000e-01	 1.008322652884615e+01
0	 6.875000000000000e+00	 2.500000000000001e-01	 1.008357968846154e+01
0	 6.874999999999996e+00	 3.750000000000000e-01	 1.008375882500000e+01
0	 6.874999999999996e+00	 4.999999999999999e-01	 1.008376393846154e+01
0	 6.874999999999998e+00	 6.250000000000000e-01	 1.008359502884615e+01
0	 6.874999999999998e+00	 7.500000000000000e-01	 1.008325209615385e+01
0	 6.874999999999997e+00	 8.750000000000000e-01	 1.008273514038462e+01
0	 6.874999999999996e+00	 9.999999999999998e-01	 1.008204416153846e+01
0	 6.874999999999999e+00	 1.125000000000000e+00	 1.008117915961538e+01
0	 6.874999999999998e+00	 1.250000000000000e+00	 1.008014013461539e+01
0	 6.999999999999997e+00	 0.000000000000000e+00	 1.007512157538461e+01
0	 6.999999999999997e+00	 1.250000000000000e-01	 1.007572534215384e+01
0	 6.999999999999998e+00	 2.500000000000000e-01	 1.007608360738461e+01
0	 6.999999999999998e+00	 3.750000000000001e-01	 1.007619637107692e+01
0	 6.999999999999997e+00	 5.000000000000001e-01	 1.007606363323077e+01
0	 6.999999999999999e+00	 6.250000000000002e-01	 1.007568539384615e+01
0	 6.999999999999996e+00	 7.499999999999999e-01	 1.007506165292308e+01
0	 6.999999999999999e+00	 8.750000000000000e-01	 1.007419241046153e+01
0	 6.999999999999996e+00	 9.999999999999997e-01	 1.007307766646153e+01
0	 6.999999999999997e+00	 1.125000000000000e+00	 1.007171742092307e+01
0	 6.999999999999997e+00	 1.250000000000000e+00	 1.007011167384615e+01
0	 7.124999999999997e+00	 0.000000000000000e+00	 1.006595334000000e+01
0	 7.124999999999998e+00	 1.250000000000000e-01	 1.006690268361538e+01
0	 7.124999999999996e+00	 2.500000000000001e-01	 1.006753504723077e+01
0	 7.124999999999997e+00	 3.750000000000000e-01	 1.006785043084616e+01
0	 7.124999999999996e+00	 5.000000000000000e-01	 1.006784883446154e+01
0	 7.124999999999998e+00	 6.250000000000001e-01	 1.006753025807692e+01
0	 7.124999999999997e+00	 7.500000000000000e-01	 1.006689470169231e+01
0	 7.124999999999997e+00	 8.750000000000000e-01	 1.006594216530769e+01
0	 7.124999999999996e+00	 9.999999999999999e-01	 1.006467264892307e+01
0	 7.124999999999999e+00	 1.125000000000000e+00	 1.006308615253846e+01
0	 7.124999999999996e+00	 1.250000000000000e+00	 1.006118267615384e+01
0	 7.249999999999996e+00	 0.000000000000000e+00	 1.005519464000000e+01
0	 7.249999999999996e+00	 1.250000000000000e-01	 1.005675855323077e+01
0	 7.249999999999997e+00	 2.500000000000001e-01	 1.005793400800000e+01
0	 7.249999999999999e+00	 3.750000000000001e-01	 1.005872100430769e+01
0	 7.249999999999994e+00	 5.000000000000000e-01	 1.005911954215384e+01
0	 7.249999999999994e+00	 6.249999999999999e-01	 1.005912962153846e+01
0	 7.249999999999996e+00	 7.499999999999999e-01	 1.005875124246154e+01
0	 7.249999999999996e+00	 8.750000000000000e-01	 1.005798440492308e+01
0	 7.249999999999996e+00	 9.999999999999999e-01	 1.005682910892308e+01
0	 7.249999999999996e+00	 1.125000000000000e+00	 1.005528535446153e+01
0	 7.249999999999997e+00	 1.250000000000000e+00	 1.005335314153846e+01
0	 7.374999999999996e+00	 0.000000000000000e+00	 1.004284547538461e+01
0	 7.374999999999996e+00	 1.250000000000000e-01	 1.004529295099999e+01
0	 7.374999999999996e+00	 2.500000000000000e-01	 1.004728048969230e+01
0	 7.374999999999996e+00	 3.750000000000001e-01	 1.004880809146153e+01
0	 7.374999999999995e+00	 4.999999999999999e-01	 1.004987575630769e+01
0	 7.374999999999996e+00	 6.250000000000000e-01	 1.005048348423077e+01
0	 7.374999999999996e+00	 7.500000000000000e-01	 1.005063127523077e+01
0	 7.374999999999996e+00	 8.750000000000000e-01	 1.005031912930769e+01
0	 7.374999999999995e+00	 9.999999999999998e-01	 1.004954704646154e+01
0	 7.374999999999996e+00	 1.125000000000000e+00	 1.004831502669231e+01
0	 7.374999999999996e+00	 1.250000000000000e+00	 1.004662307000000e+01
0	 7.500000000000000e+00	 0.000000000000000e+00	 1.002890584615385e+01
0	 7.500000000000001e+00	 1.250000000000000e-01	 1.003250587692308e+01
0	 7.500000000000000e+00	 2.500000000000000e-01	 1.003557449230769e+01
0	 7.499999999999999e+00	 3.750000000000001e-01	 1.003811169230769e+01
0	 7.500000000000001e+00	 5.000000000000000e-01	 1.004011747692307e+01
0	 7.500000000000000e+00	 6.250000000000000e-01	 1.004159184615385e+01
0	 7.500000000000000e+00	 7.500000000000000e-01	 1.004253480000000e+01
0	 7.500000000000000e+00	 8.749999999999999e-01	 1.004294633846154e+01
0	 7.500000000000001e+00	 1.000000000000000e+00	 1.004282646153846e+01
0	 7.500000000000000e+00	 1.125000000000000e+00	 1.004217516923077e+01
0	 7.500000000000000e+00	 1.250000000000000e+00	 1.004099246153846e+01
0	 6.250000000000000e+00	 1.250000000000000e+00	 1.014677438461538e+01
0	 6.250000000000001e+00	 1.375000000000000e+00	 1.014598789230769e+01
0	 6.250000000000001e+00	 1.500000000000000e+00	 1.014551944615384e+01
0	 6.250000000000001e+00	 1.625000000000000e+00	 1.014536904615385e+01
0	 6.250000000000000e+00	 1.750000000000000e+00	 1.014553669230769e+01
0	 6.250000000000000e+00	 1.875000000000000e+00	 1.014602238461538e+01
0	 6.250000000000001e+00	 2.000000000000000e+00	 1.014682612307692e+01
0	 6.250000000000000e+00	 2.125000000000001e+00	 1.014794790769231e+01
0	 6.250000000000001e+00	 2.250000000000001e+00	 1.014938773846154e+01
0	 6.250000000000000e+00	 2.375000000000001e+00	 1.015114561538461e+01
0	 6.250000000000000e+00	 2.500000000000000e+00	 1.015322153846154e+01
0	 6.375000000000000e+00	 1.250000000000000e+00	 1.013124860846154e+01
0	 6.374999999999999e+00	 1.375000000000000e+00	 1.013146322992307e+01
0	 6.375000000000000e+00	 1.500000000000000e+00	 1.013195690215384e+01
0	 6.375000000000000e+00	 1.625000000000000e+00	 1.013272962515385e+01
0	 6.375000000000002e+00	 1.750000000000001e+00	 1.013378139892307e+01
0	 6.374999999999999e+00	 1.875000000000001e+00	 1.013511222346153e+01
0	 6.374999999999999e+00	 2.000000000000001e+00	 1.013672209876923e+01
0	 6.375000000000001e+00	 2.125000000000001e+00	 1.013861102484615e+01
0	 6.375000000000000e+00	 2.250000000000000e+00	 1.014077900169231e+01
0	 6.374999999999997e+00	 2.375000000000000e+00	 1.014322602930770e+01
0	 6.375000000000000e+00	 2.500000000000000e+00	 1.014595210769231e+01
0	 6.500000000000000e+00	 1.250000000000000e+00	 1.011682229538462e+01
0	 6.500000000000001e+00	 1.375000000000000e+00	 1.011790785969231e+01
0	 6.500000000000001e+00	 1.500000000000000e+00	 1.011923347938462e+01
0	 6.500000000000001e+00	 1.625000000000000e+00	 1.012079915446154e+01
0	 6.500000000000000e+00	 1.750000000000001e+00	 1.012260488492308e+01
0	 6.500000000000001e+00	 1.875000000000001e+00	 1.012465067076923e+01
0	 6.500000000000001e+00	 2.000000000000001e+00	 1.012693651200000e+01
0	 6.500000000000000e+00	 2.125000000000000e+00	 1.012946240861538e+01
0	 6.499999999999998e+00	 2.250000000000000e+00	 1.013222836061539e+01
0	 6.500000000000000e+00	 2.375000000000001e+00	 1.013523436800000e+01
0	 6.500000000000000e+00	 2.500000000000000e+00	 1.013848043076923e+01
0	 6.624999999999999e+00	 1.250000000000000e+00	 1.010349544538461e+01
0	 6.624999999999998e+00	 1.375000000000000e+00	 1.010532178161539e+01
0	 6.624999999999999e+00	 1.500000000000000e+00	 1.010734917784615e+01
0	 6.624999999999998e+00	 1.625000000000000e+00	 1.010957763407692e+01
0	 6.624999999999999e+00	 1.750000000000000e+00	 1.011200715030769e+01
0	 6.624999999999998e+00	 1.875000000000000e+00	 1.011463772653846e+01
0	 6.624999999999997e+00	 2.000000000000000e+00	 1.011746936276923e+01
0	 6.624999999999998e+00	 2.125000000000000e+00	 1.012050205900000e+01
0	 6.624999999999998e+00	 2.250000000000001e+00	 1.012373581523077e+01
0	 6.625000000000000e+00	 2.375000000000001e+00	 1.012717063146154e+01
0	 6.624999999999999e+00	 2.500000000000000e+00	 1.013080650769231e+01
0	 6.749999999999998e+00	 1.250000000000000e+00	 1.009126805846154e+01
0	 6.749999999999998e+00	 1.375000000000000e+00	 1.009370499569230e+01
0	 6.749999999999997e+00	 1.500000000000000e+00	 1.009630399753846e+01
0	 6.749999999999998e+00	 1.625000000000000e+00	 1.009906506400000e+01
0	 6.749999999999998e+00	 1.750000000000001e+00	 1.010198819507692e+01
0	 6.749999999999996e+00	 1.875000000000000e+00	 1.010507339076923e+01
0	 6.749999999999998e+00	 2.000000000000001e+00	 1.010832065107692e+01
0	 6.749999999999998e+00	 2.125000000000001e+00	 1.011172997600000e+01
0	 6.749999999999999e+00	 2.250000000000001e+00	 1.011530136553846e+01
0	 6.749999999999998e+00	 2.375000000000001e+00	 1.011903481969231e+01
0	 6.749999999999998e+00	 2.500000000000000e+00	 1.012293033846154e+01
0	 6.874999999999998e+00	 1.250000000000000e+00	 1.008014013461539e+01
0	 6.874999999999996e+00	 1.375000000000000e+00	 1.008305750192307e+01
0	 6.874999999999998e+00	 1.500000000000000e+00	 1.008609793846153e+01
0	 6.874999999999999e+00	 1.625000000000000e+00	 1.008926144423077e+01
0	 6.874999999999997e+00	 1.750000000000001e+00	 1.009254801923077e+01
0	 6.874999999999997e+00	 1.875000000000000e+00	 1.009595766346154e+01
0	 6.874999999999996e+00	 2.000000000000001e+00	 1.009949037692308e+01
0	 6.874999999999997e+00	 2.125000000000001e+00	 1.010314615961538e+01
0	 6.874999999999997e+00	 2.250000000000001e+00	 1.010692501153846e+01
0	 6.874999999999998e+00	 2.375000000000001e+00	 1.011082693269231e+01
0	 6.874999999999998e+00	 2.500000000000000e+00	 1.011485192307692e+01
0	 6.999999999999997e+00	 1.250000000000000e+00	 1.007011167384615e+01
0	 6.999999999999996e+00	 1.375000000000000e+00	 1.007337930030769e+01
0	 6.999999999999998e+00	 1.500000000000001e+00	 1.007673100061538e+01
0	 6.999999999999996e+00	 1.625000000000000e+00	 1.008016677476923e+01
0	 6.999999999999995e+00	 1.750000000000000e+00	 1.008368662276923e+01
0	 6.999999999999996e+00	 1.875000000000001e+00	 1.008729054461538e+01
0	 6.999999999999996e+00	 2.000000000000000e+00	 1.009097854030769e+01
0	 6.999999999999996e+00	 2.125000000000001e+00	 1.009475060984615e+01
0	 6.999999999999996e+00	 2.250000000000001e+00	 1.009860675323077e+01
0	 6.999999999999996e+00	 2.375000000000001e+00	 1.010254697046154e+01
0	 6.999999999999997e+00	 2.500000000000000e+00	 1.010657126153846e+01
0	 7.124999999999996e+00	 1.250000000000000e+00	 1.006118267615384e+01
0	 7.124999999999997e+00	 1.375000000000000e+00	 1.006467039084615e+01
0	 7.124999999999999e+00	 1.500000000000000e+00	 1.006820318400000e+01
0	 7.124999999999996e+00	 1.625000000000000e+00	 1.007178105561538e+01
0	 7.124999999999998e+00	 1.750000000000000e+00	 1.007540400569231e+01
0	 7.124999999999997e+00	 1.875000000000001e+00	 1.007907203423077e+01
0	 7.124999999999997e+00	 2.000000000000001e+00	 1.008278514123077e+01
0	 7.124999999999998e+00	 2.125000000000001e+00	 1.008654332669231e+01
0	 7.124999999999996e+00	 2.250000000000001e+00	 1.009034659061539e+01
0	 7.124999999999997e+00	 2.375000000000001e+00	 1.009419493300000e+01
0	 7.124999999999996e+00	 2.500000000000000e+00	 1.009808835384616e+01
0	 7.249999999999997e+00	 1.250000000000000e+00	 1.005335314153846e+01
0	 7.249999999999996e+00	 1.375000000000000e+00	 1.005693077353846e+01
0	 7.249999999999995e+00	 1.500000000000000e+00	 1.006051448861538e+01
0	 7.249999999999995e+00	 1.625000000000000e+00	 1.006410428676923e+01
0	 7.249999999999997e+00	 1.750000000000001e+00	 1.006770016800000e+01
0	 7.249999999999996e+00	 1.875000000000000e+00	 1.007130213230769e+01
0	 7.249999999999999e+00	 2.000000000000001e+00	 1.007491017969230e+01
0	 7.249999999999996e+00	 2.125000000000000e+00	 1.007852431015385e+01
0	 7.249999999999996e+00	 2.250000000000001e+00	 1.008214452369231e+01
0	 7.249999999999996e+00	 2.375000000000001e+00	 1.008577082030769e+01
0	 7.249999999999997e+00	 2.500000000000000e+00	 1.008940320000000e+01
0	 7.374999999999996e+00	 1.250000000000000e+00	 1.004662307000000e+01
0	 7.374999999999997e+00	 1.375000000000000e+00	 1.005016044838461e+01
0	 7.374999999999996e+00	 1.500000000000000e+00	 1.005366491446154e+01
0	 7.374999999999996e+00	 1.625000000000000e+00	 1.005713646823077e+01
0	 7.374999999999996e+00	 1.750000000000000e+00	 1.006057510969231e+01
0	 7.374999999999996e+00	 1.875000000000000e+00	 1.006398083884615e+01
0	 7.374999999999996e+00	 2.000000000000001e+00	 1.006735365569230e+01
0	 7.374999999999996e+00	 2.125000000000000e+00	 1.007069356023077e+01
0	 7.374999999999996e+00	 2.250000000000001e+00	 1.007400055246154e+01
0	 7.374999999999996e+00	 2.375000000000001e+00	 1.007727463238462e+01
0	 7.374999999999996e+00	 2.500000000000000e+00	 1.008051580000000e+01
0	 7.500000000000000e+00	 1.250000000000000e+00	 1.004099246153846e+01
0	 7.500000000000000e+00	 1.375000000000000e+00	 1.004435941538462e+01
0	 7.500000000000000e+00	 1.500000000000000e+00	 1.004765446153846e+01
0	 7.500000000000001e+00	 1.625000000000000e+00	 1.005087760000000e+01
0	 7.500000000000000e+00	 1.750000000000000e+00	 1.005402883076923e+01
0	 7.500000000000000e+00	 1.875000000000000e+00	 1.005710815384615e+01
0	 7.500000000000000e+00	 2.000000000000000e+00	 1.006011556923077e+01
0	 7.499999999999999e+00	 2.125000000000001e+00	 1.006305107692308e+01
0	 7.500000000000001e+00	 2.250000000000001e+00	 1.006591467692308e+01
0	 7.500000000000000e+00	 2.375000000000001e+00	 1.006870636923077e+01
0	 7.500000000000000e+00	 2.500000000000000e+00	 1.007142615384615e+01
0	 6.250000000000000e+00	 2.500000000000000e+00	 1.015322153846154e+01
0	 6.250000000000001e+00	 2.625000000000000e+00	 1.015442627692307e+01
0	 6.250000000000001e+00	 2.750000000000000e+00	 1.015566941538462e+01
0	 6.250000000000001e+00	 2.875000000000001e+00	 1.015695095384616e+01
0	 6.250000000000000e+00	 3.000000000000000e+00	 1.015827089230769e+01
0	 6.250000000000000e+00	 3.125000000000000e+00	 1.015962923076923e+01
0	 6.250000000000001e+00	 3.250000000000000e+00	 1.016102596923077e+01
0	 6.250000000000000e+00	 3.375000000000001e+00	 1.016246110769231e+01
0	 6.250000000000001e+00	 3.500000000000001e+00	 1.016393464615384e+01
0	 6.250000000000000e+00	 3.625000000000001e+00	 1.016544658461538e+01
0	 6.250000000000000e+00	 3.750000000000000e+00	 1.016699692307692e+01
0	 6.375000000000000e+00	 2.500000000000000e+00	 1.014595210769231e+01
0	 6.374999999999999e+00	 2.625000000000000e+00	 1.014651934538462e+01
0	 6.375000000000000e+00	 2.750000000000000e+00	 1.014714536461538e+01
0	 6.375000000000000e+00	 2.875000000000000e+00	 1.014783016538462e+01
0	 6.375000000000002e+00	 3.000000000000001e+00	 1.014857374769231e+01
0	 6.374999999999999e+00	 3.125000000000001e+00	 1.014937611153846e+01
0	 6.374999999999999e+00	 3.250000000000001e+00	 1.015023725692308e+01
0	 6.375000000000001e+00	 3.375000000000001e+00	 1.015115718384615e+01
0	 6.375000000000000e+00	 3.500000000000000e+00	 1.015213589230769e+01
0	 6.374999999999997e+00	 3.625000000000000e+00	 1.015317338230769e+01
0	 6.375000000000000e+00	 3.750000000000000e+00	 1.015426965384615e+01
0	 6.500000000000000e+00	 2.500000000000000e+00	 1.013848043076923e+01
0	 6.500000000000001e+00	 2.625000000000000e+00	 1.013850690769231e+01
0	 6.500000000000001e+00	 2.750000000000001e+00	 1.013861254769231e+01
0	 6.500000000000001e+00	 2.875000000000000e+00	 1.013879735076923e+01
0	 6.500000000000000e+00	 3.000000000000000e+00	 1.013906131692307e+01
0	 6.500000000000001e+00	 3.125000000000001e+00	 1.013940444615384e+01
0	 6.500000000000001e+00	 3.250000000000001e+00	 1.013982673846154e+01
0	 6.500000000000000e+00	 3.375000000000000e+00	 1.014032819384616e+01
0	 6.499999999999998e+00	 3.500000000000001e+00	 1.014090881230769e+01
0	 6.500000000000000e+00	 3.625000000000002e+00	 1.014156859384616e+01
0	 6.500000000000000e+00	 3.750000000000000e+00	 1.014230753846153e+01
0	 6.624999999999999e+00	 2.500000000000000e+00	 1.013080650769231e+01
0	 6.624999999999998e+00	 2.625000000000000e+00	 1.013038896384616e+01
0	 6.624999999999999e+00	 2.750000000000000e+00	 1.013007096461538e+01
0	 6.624999999999998e+00	 2.875000000000000e+00	 1.012985251000000e+01
0	 6.624999999999999e+00	 3.000000000000000e+00	 1.012973360000000e+01
0	 6.624999999999998e+00	 3.125000000000000e+00	 1.012971423461539e+01
0	 6.624999999999997e+00	 3.250000000000000e+00	 1.012979441384615e+01
0	 6.624999999999998e+00	 3.375000000000001e+00	 1.012997413769231e+01
0	 6.624999999999998e+00	 3.500000000000001e+00	 1.013025340615384e+01
0	 6.625000000000000e+00	 3.625000000000000e+00	 1.013063221923077e+01
0	 6.624999999999999e+00	 3.750000000000000e+00	 1.013111057692308e+01
0	 6.749999999999998e+00	 2.500000000000000e+00	 1.012293033846154e+01
0	 6.749999999999998e+00	 2.625000000000000e+00	 1.012216551384615e+01
0	 6.749999999999997e+00	 2.750000000000000e+00	 1.012152061538462e+01
0	 6.749999999999998e+00	 2.875000000000000e+00	 1.012099564307692e+01
0	 6.749999999999998e+00	 3.000000000000000e+00	 1.012059059692308e+01
0	 6.749999999999996e+00	 3.125000000000000e+00	 1.012030547692308e+01
0	 6.749999999999998e+00	 3.250000000000001e+00	 1.012014028307692e+01
0	 6.749999999999998e+00	 3.375000000000001e+00	 1.012009501538461e+01
0	 6.749999999999999e+00	 3.500000000000001e+00	 1.012016967384616e+01
0	 6.749999999999998e+00	 3.625000000000001e+00	 1.012036425846154e+01
0	 6.749999999999998e+00	 3.750000000000000e+00	 1.012067876923077e+01
0	 6.874999999999998e+00	 2.500000000000000e+00	 1.011485192307692e+01
0	 6.874999999999996e+00	 2.625000000000000e+00	 1.011383655769231e+01
0	 6.874999999999998e+00	 2.750000000000000e+00	 1.011296150000000e+01
0	 6.874999999999999e+00	 2.875000000000000e+00	 1.011222675000000e+01
0	 6.874999999999997e+00	 3.000000000000000e+00	 1.011163230769231e+01
0	 6.874999999999997e+00	 3.125000000000000e+00	 1.011117817307692e+01
0	 6.874999999999996e+00	 3.250000000000000e+00	 1.011086434615385e+01
0	 6.874999999999997e+00	 3.375000000000001e+00	 1.011069082692307e+01
0	 6.874999999999997e+00	 3.500000000000000e+00	 1.011065761538461e+01
0	 6.874999999999998e+00	 3.625000000000001e+00	 1.011076471153846e+01
0	 6.874999999999998e+00	 3.750000000000000e+00	 1.011101211538462e+01
0	 6.999999999999997e+00	 2.500000000000000e+00	 1.010657126153846e+01
0	 6.999999999999996e+00	 2.625000000000000e+00	 1.010540209538462e+01
0	 6.999999999999998e+00	 2.750000000000000e+00	 1.010439361846154e+01
0	 6.999999999999996e+00	 2.875000000000000e+00	 1.010354583076923e+01
0	 6.999999999999995e+00	 3.000000000000000e+00	 1.010285873230769e+01
0	 6.999999999999996e+00	 3.125000000000000e+00	 1.010233232307692e+01
0	 6.999999999999996e+00	 3.250000000000000e+00	 1.010196660307693e+01
0	 6.999999999999996e+00	 3.375000000000000e+00	 1.010176157230769e+01
0	 6.999999999999996e+00	 3.500000000000001e+00	 1.010171723076922e+01
0	 6.999999999999996e+00	 3.625000000000000e+00	 1.010183357846154e+01
0	 6.999999999999997e+00	 3.750000000000000e+00	 1.010211061538461e+01
0	 7.124999999999996e+00	 2.500000000000000e+00	 1.009808835384616e+01
0	 7.124999999999997e+00	 2.625000000000000e+00	 1.009686212692308e+01
0	 7.124999999999999e+00	 2.750000000000000e+00	 1.009581697076923e+01
0	 7.124999999999996e+00	 2.875000000000000e+00	 1.009495288538461e+01
0	 7.124999999999998e+00	 3.000000000000001e+00	 1.009426987076923e+01
0	 7.124999999999997e+00	 3.125000000000001e+00	 1.009376792692308e+01
0	 7.124999999999997e+00	 3.250000000000000e+00	 1.009344705384616e+01
0	 7.124999999999998e+00	 3.375000000000001e+00	 1.009330725153847e+01
0	 7.124999999999996e+00	 3.500000000000001e+00	 1.009334852000000e+01
0	 7.124999999999997e+00	 3.625000000000001e+00	 1.009357085923077e+01
0	 7.124999999999996e+00	 3.750000000000000e+00	 1.009397426923077e+01
0	 7.249999999999997e+00	 2.500000000000000e+00	 1.008940320000000e+01
0	 7.249999999999996e+00	 2.625000000000000e+00	 1.008821665230770e+01
0	 7.249999999999995e+00	 2.750000000000000e+00	 1.008723155692308e+01
0	 7.249999999999995e+00	 2.875000000000000e+00	 1.008644791384616e+01
0	 7.249999999999997e+00	 3.000000000000000e+00	 1.008586572307693e+01
0	 7.249999999999996e+00	 3.125000000000000e+00	 1.008548498461538e+01
0	 7.249999999999999e+00	 3.250000000000002e+00	 1.008530569846154e+01
0	 7.249999999999996e+00	 3.375000000000000e+00	 1.008532786461538e+01
0	 7.249999999999996e+00	 3.500000000000001e+00	 1.008555148307692e+01
0	 7.249999999999996e+00	 3.625000000000001e+00	 1.008597655384615e+01
0	 7.249999999999997e+00	 3.750000000000000e+00	 1.008660307692308e+01
0	 7.374999999999996e+00	 2.500000000000000e+00	 1.008051580000000e+01
0	 7.374999999999997e+00	 2.625000000000001e+00	 1.007946567153846e+01
0	 7.374999999999996e+00	 2.750000000000000e+00	 1.007863737692308e+01
0	 7.374999999999996e+00	 2.875000000000000e+00	 1.007803091615385e+01
0	 7.374999999999996e+00	 3.000000000000001e+00	 1.007764628923077e+01
0	 7.374999999999996e+00	 3.125000000000000e+00	 1.007748349615385e+01
0	 7.374999999999996e+00	 3.250000000000000e+00	 1.007754253692308e+01
0	 7.374999999999996e+00	 3.375000000000000e+00	 1.007782341153846e+01
0	 7.374999999999996e+00	 3.500000000000000e+00	 1.007832612000000e+01
0	 7.374999999999996e+00	 3.625000000000001e+00	 1.007905066230770e+01
0	 7.374999999999996e+00	 3.750000000000000e+00	 1.007999703846154e+01
0	 7.500000000000000e+00	 2.500000000000000e+00	 1.007142615384615e+01
0	 7.500000000000000e+00	 2.625000000000000e+00	 1.007060918461538e+01
0	 7.500000000000000e+00	 2.750000000000000e+00	 1.007003443076923e+01
0	 7.500000000000001e+00	 2.875000000000001e+00	 1.006970189230770e+01
0	 7.500000000000000e+00	 3.000000000000000e+00	 1.006961156923077e+01
0	 7.500000000000000e+00	 3.125000000000000e+00	 1.006976346153846e+01
0	 7.500000000000000e+00	 3.250000000000000e+00	 1.007015756923077e+01
0	 7.499999999999999e+00	 3.375000000000001e+00	 1.007079389230769e+01
0	 7.500000000000001e+00	 3.500000000000001e+00	 1.007167243076923e+01
0	 7.500000000000000e+00	 3.625000000000001e+00	 1.007279318461539e+01
0	 7.500000000000000e+00	 3.750000000000000e+00	 1.007415615384615e+01
0	 6.250000000000000e+00	 3.750000000000000e+00	 1.016699692307692e+01
0	 6.250000000000001e+00	 3.875000000000000e+00	 1.015980430769230e+01
0	 6.250000000000001e+00	 4.000000000000001e+00	 1.015309353846154e+01
0	 6.250000000000001e+00	 4.125000000000001e+00	 1.014686461538461e+01
0	 6.250000000000000e+00	 4.250000000000001e+00	 1.014111753846154e+01
0	 6.250000000000000e+00	 4.375000000000001e+00	 1.013585230769230e+01
0	 6.250000000000001e+00	 4.500000000000000e+00	 1.013106892307692e+01
0	 6.250000000000000e+00	 4.625000000000001e+00	 1.012676738461538e+01
0	 6.250000000000001e+00	 4.750000000000002e+00	 1.012294769230769e+01
0	 6.250000000000000e+00	 4.875000000000002e+00	 1.011960984615385e+01
0	 6.250000000000000e+00	 5.000000000000000e+00	 1.011675384615384e+01
0	 6.375000000000000e+00	 3.750000000000000e+00	 1.015426965384615e+01
0	 6.374999999999999e+00	 3.875000000000000e+00	 1.014823747461538e+01
0	 6.375000000000000e+00	 4.000000000000001e+00	 1.014264574153846e+01
0	 6.375000000000000e+00	 4.125000000000000e+00	 1.013749445461538e+01
0	 6.375000000000002e+00	 4.250000000000002e+00	 1.013278361384615e+01
0	 6.374999999999999e+00	 4.375000000000001e+00	 1.012851321923077e+01
0	 6.374999999999999e+00	 4.500000000000001e+00	 1.012468327076923e+01
0	 6.375000000000001e+00	 4.625000000000000e+00	 1.012129376846154e+01
0	 6.375000000000000e+00	 4.750000000000001e+00	 1.011834471230769e+01
0	 6.374999999999997e+00	 4.874999999999999e+00	 1.011583610230769e+01
0	 6.375000000000000e+00	 4.999999999999999e+00	 1.011376793846154e+01
0	 6.500000000000000e+00	 3.750000000000000e+00	 1.014230753846153e+01
0	 6.500000000000001e+00	 3.875000000000000e+00	 1.013732477538462e+01
0	 6.500000000000001e+00	 4.000000000000001e+00	 1.013274105846154e+01
0	 6.500000000000001e+00	 4.125000000000001e+00	 1.012855638769231e+01
0	 6.500000000000000e+00	 4.250000000000001e+00	 1.012477076307692e+01
0	 6.500000000000001e+00	 4.375000000000002e+00	 1.012138418461538e+01
0	 6.500000000000001e+00	 4.500000000000001e+00	 1.011839665230769e+01
0	 6.500000000000000e+00	 4.625000000000000e+00	 1.011580816615384e+01
0	 6.499999999999998e+00	 4.750000000000001e+00	 1.011361872615385e+01
0	 6.500000000000000e+00	 4.875000000000001e+00	 1.011182833230769e+01
0	 6.500000000000000e+00	 4.999999999999999e+00	 1.011043698461538e+01
0	 6.624999999999999e+00	 3.750000000000000e+00	 1.013111057692308e+01
0	 6.624999999999998e+00	 3.875000000000000e+00	 1.012706621000000e+01
0	 6.624999999999999e+00	 4.000000000000000e+00	 1.012337948923077e+01
0	 6.624999999999998e+00	 4.125000000000000e+00	 1.012005041461538e+01
0	 6.624999999999999e+00	 4.250000000000002e+00	 1.011707898615385e+01
0	 6.624999999999998e+00	 4.375000000000000e+00	 1.011446520384615e+01
0	 6.624999999999997e+00	 4.500000000000001e+00	 1.011220906769231e+01
0	 6.624999999999998e+00	 4.625000000000001e+00	 1.011031057769230e+01
0	 6.624999999999998e+00	 4.750000000000001e+00	 1.010876973384615e+01
0	 6.625000000000000e+00	 4.875000000000001e+00	 1.010758653615384e+01
0	 6.624999999999999e+00	 5.000000000000000e+00	 1.010676098461538e+01
0	 6.749999999999998e+00	 3.750000000000000e+00	 1.012067876923077e+01
0	 6.749999999999998e+00	 3.875000000000000e+00	 1.011746177846154e+01
0	 6.749999999999997e+00	 4.000000000000000e+00	 1.011456103384615e+01
0	 6.749999999999998e+00	 4.125000000000001e+00	 1.011197653538461e+01
0	 6.749999999999998e+00	 4.250000000000001e+00	 1.010970828307693e+01
0	 6.749999999999996e+00	 4.375000000000000e+00	 1.010775627692307e+01
0	 6.749999999999998e+00	 4.500000000000000e+00	 1.010612051692308e+01
0	 6.749999999999998e+00	 4.625000000000001e+00	 1.010480100307692e+01
0	 6.749999999999999e+00	 4.750000000000001e+00	 1.010379773538461e+01
0	 6.749999999999998e+00	 4.875000000000001e+00	 1.010311071384615e+01
0	 6.749999999999998e+00	 5.000000000000001e+00	 1.010273993846154e+01
0	 6.874999999999998e+00	 3.750000000000000e+00	 1.011101211538462e+01
0	 6.874999999999996e+00	 3.874999999999999e+00	 1.010851148076923e+01
0	 6.874999999999998e+00	 4.000000000000000e+00	 1.010628569230769e+01
0	 6.874999999999999e+00	 4.125000000000000e+00	 1.010433475000000e+01
0	 6.874999999999997e+00	 4.250000000000000e+00	 1.010265865384615e+01
0	 6.874999999999997e+00	 4.375000000000000e+00	 1.010125740384615e+01
0	 6.874999999999996e+00	 4.500000000000001e+00	 1.010013100000000e+01
0	 6.874999999999997e+00	 4.625000000000002e+00	 1.009927944230769e+01
0	 6.874999999999997e+00	 4.750000000000001e+00	 1.009870273076923e+01
0	 6.874999999999998e+00	 4.875000000000001e+00	 1.009840086538461e+01
0	 6.874999999999998e+00	 5.000000000000000e+00	 1.009837384615385e+01
0	 6.999999999999997e+00	 3.750000000000000e+00	 1.010211061538461e+01
0	 6.999999999999996e+00	 3.875000000000000e+00	 1.010021531692307e+01
0	 6.999999999999998e+00	 4.000000000000001e+00	 1.009855346461538e+01
0	 6.999999999999996e+00	 4.125000000000000e+00	 1.009712505846154e+01
0	 6.999999999999995e+00	 4.249999999999999e+00	 1.009593009846154e+01
0	 6.999999999999996e+00	 4.375000000000001e+00	 1.009496858461539e+01
0	 6.999999999999996e+00	 4.500000000000000e+00	 1.009424051692308e+01
0	 6.999999999999996e+00	 4.625000000000001e+00	 1.009374589538461e+01
0	 6.999999999999996e+00	 4.750000000000002e+00	 1.009348472000000e+01
0	 6.999999999999996e+00	 4.875000000000000e+00	 1.009345699076923e+01
0	 6.999999999999997e+00	 5.000000000000000e+00	 1.009366270769231e+01
0	 7.124999999999996e+00	 3.750000000000000e+00	 1.009397426923077e+01
0	 7.124999999999997e+00	 3.875000000000000e+00	 1.009257328692308e+01
0	 7.124999999999999e+00	 4.000000000000002e+00	 1.009136435076923e+01
0	 7.124999999999996e+00	 4.125000000000001e+00	 1.009034746076923e+01
0	 7.124999999999998e+00	 4.250000000000002e+00	 1.008952261692307e+01
0	 7.124999999999997e+00	 4.375000000000001e+00	 1.008888981923076e+01
0	 7.124999999999997e+00	 4.500000000000001e+00	 1.008844906769231e+01
0	 7.124999999999998e+00	 4.625000000000002e+00	 1.008820036230769e+01
0	 7.124999999999996e+00	 4.750000000000000e+00	 1.008814370307692e+01
0	 7.124999999999997e+00	 4.875000000000001e+00	 1.008827909000000e+01
0	 7.124999999999996e+00	 5.000000000000000e+00	 1.008860652307693e+01
0	 7.249999999999997e+00	 3.750000000000000e+00	 1.008660307692308e+01
0	 7.249999999999996e+00	 3.875000000000000e+00	 1.008558539076923e+01
0	 7.249999999999995e+00	 3.999999999999999e+00	 1.008471835076923e+01
0	 7.249999999999995e+00	 4.124999999999999e+00	 1.008400195692308e+01
0	 7.249999999999997e+00	 4.250000000000001e+00	 1.008343620923077e+01
0	 7.249999999999996e+00	 4.375000000000001e+00	 1.008302110769230e+01
0	 7.249999999999999e+00	 4.500000000000001e+00	 1.008275665230769e+01
0	 7.249999999999996e+00	 4.625000000000000e+00	 1.008264284307693e+01
0	 7.249999999999996e+00	 4.750000000000000e+00	 1.008267968000000e+01
0	 7.249999999999996e+00	 4.875000000000002e+00	 1.008286716307693e+01
0	 7.249999999999997e+00	 4.999999999999999e+00	 1.008320529230769e+01
0	 7.374999999999996e+00	 3.750000000000000e+00	 1.007999703846154e+01
0	 7.374999999999997e+00	 3.875000000000000e+00	 1.007925162846154e+01
0	 7.374999999999996e+00	 4.000000000000000e+00	 1.007861546461539e+01
0	 7.374999999999996e+00	 4.125000000000000e+00	 1.007808854692308e+01
0	 7.374999999999996e+00	 4.250000000000000e+00	 1.007767087538462e+01
0	 7.374999999999996e+00	 4.375000000000001e+00	 1.007736245000000e+01
0	 7.374999999999996e+00	 4.500000000000001e+00	 1.007716327076923e+01
0	 7.374999999999996e+00	 4.625000000000001e+00	 1.007707333769230e+01
0	 7.374999999999996e+00	 4.750000000000000e+00	 1.007709265076923e+01
0	 7.374999999999996e+00	 4.875000000000001e+00	 1.007722121000000e+01
0	 7.374999999999996e+00	 5.000000000000000e+00	 1.007745901538462e+01
0	 7.500000000000000e+00	 3.750000000000000e+00	 1.007415615384615e+01
0	 7.500000000000000e+00	 3.875000000000000e+00	 1.007357200000000e+01
0	 7.500000000000000e+00	 4.000000000000001e+00	 1.007305569230770e+01
0	 7.500000000000001e+00	 4.125000000000001e+00	 1.007260723076923e+01
0	 7.500000000000000e+00	 4.250000000000001e+00	 1.007222661538462e+01
0	 7.500000000000000e+00	 4.375000000000001e+00	 1.007191384615384e+01
0	 7.500000000000000e+00	 4.500000000000000e+00	 1.007166892307692e+01
0	 7.499999999999999e+00	 4.625000000000001e+00	 1.007149184615385e+01
0	 7.500000000000001e+00	 4.750000000000002e+00	 1.007138261538462e+01
0	 7.500000000000000e+00	 4.875000000000002e+00	 1.007134123076923e+01
0	 7.500000000000000e+00	 5.000000000000000e+00	 1.007136769230769e+01
0	 6.250000000000000e+00	 5.000000000000000e+00	 1.011675384615384e+01
0	 6.250000000000000e+00	 5.124999999999999e+00	 1.011326663076924e+01
0	 6.250000000000001e+00	 5.250000000000000e+00	 1.010973667692307e+01
0	 6.249999999999999e+00	 5.374999999999998e+00	 1.010616398461538e+01
0	 6.250000000000000e+00	 5.499999999999999e+00	 1.010254855384615e+01
0	 6.250000000000001e+00	 5.624999999999997e+00	 1.009889038461538e+01
0	 6.250000000000001e+00	 5.749999999999997e+00	 1.009518947692306e+01
0	 6.250000000000000e+00	 5.874999999999996e+00	 1.009144583076923e+01
0	 6.250000000000000e+00	 5.999999999999996e+00	 1.008765944615384e+01
0	 6.250000000000000e+00	 6.124999999999996e+00	 1.008383032307693e+01
0	 6.250000000000000e+00	 6.250000000000000e+00	 1.007995846153845e+01
0	 6.375000000000000e+00	 4.999999999999999e+00	 1.011376793846154e+01
0	 6.375000000000000e+00	 5.125000000000001e+00	 1.011010547692307e+01
0	 6.374999999999999e+00	 5.249999999999998e+00	 1.010641871538461e+01
0	 6.375000000000000e+00	 5.374999999999998e+00	 1.010270765384614e+01
0	 6.375000000000000e+00	 5.499999999999999e+00	 1.009897229230769e+01
0	 6.375000000000001e+00	 5.624999999999998e+00	 1.009521263076923e+01
0	 6.375000000000002e+00	 5.749999999999999e+00	 1.009142866923076e+01
0	 6.375000000000001e+00	 5.874999999999997e+00	 1.008762040769230e+01
0	 6.375000000000003e+00	 5.999999999999998e+00	 1.008378784615384e+01
0	 6.374999999999997e+00	 6.124999999999994e+00	 1.007993098461538e+01
0	 6.375000000000000e+00	 6.249999999999999e+00	 1.007604982307691e+01
0	 6.500000000000000e+00	 4.999999999999999e+00	 1.011043698461538e+01
0	 6.500000000000000e+00	 5.125000000000000e+00	 1.010664800769231e+01
0	 6.499999999999999e+00	 5.250000000000000e+00	 1.010285316923077e+01
0	 6.500000000000000e+00	 5.375000000000000e+00	 1.009905246923076e+01
0	 6.499999999999998e+00	 5.499999999999997e+00	 1.009524590769231e+01
0	 6.499999999999999e+00	 5.624999999999998e+00	 1.009143348461538e+01
0	 6.499999999999997e+00	 5.749999999999997e+00	 1.008761519999999e+01
0	 6.500000000000000e+00	 5.874999999999998e+00	 1.008379105384615e+01
0	 6.499999999999999e+00	 5.999999999999996e+00	 1.007996104615384e+01
0	 6.500000000000001e+00	 6.124999999999997e+00	 1.007612517692307e+01
0	 6.500000000000000e+00	 6.250000000000000e+00	 1.007228344615384e+01
0	 6.624999999999999e+00	 5.000000000000000e+00	 1.010676098461538e+01
0	 6.624999999999998e+00	 5.125000000000000e+00	 1.010289422307692e+01
0	 6.624999999999999e+00	 5.249999999999999e+00	 1.009904003846154e+01
0	 6.625000000000000e+00	 5.374999999999998e+00	 1.009519843076922e+01
0	 6.624999999999998e+00	 5.499999999999998e+00	 1.009136939999999e+01
0	 6.624999999999999e+00	 5.624999999999998e+00	 1.008755294615384e+01
0	 6.624999999999998e+00	 5.749999999999998e+00	 1.008374906923076e+01
0	 6.624999999999998e+00	 5.874999999999997e+00	 1.007995776923076e+01
0	 6.624999999999999e+00	 5.999999999999997e+00	 1.007617904615384e+01
0	 6.624999999999998e+00	 6.124999999999996e+00	 1.007241290000000e+01
0	 6.624999999999999e+00	 6.250000000000000e+00	 1.006865933076922e+01
0	 6.749999999999998e+00	 5.000000000000001e+00	 1.010273993846154e+01
0	 6.749999999999997e+00	 5.124999999999999e+00	 1.009884412307692e+01
0	 6.749999999999999e+00	 5.250000000000000e+00	 1.009497932307692e+01
0	 6.749999999999997e+00	 5.375000000000000e+00	 1.009114553846154e+01
0	 6.749999999999998e+00	 5.499999999999999e+00	 1.008734276923076e+01
0	 6.749999999999998e+00	 5.624999999999998e+00	 1.008357101538461e+01
0	 6.749999999999997e+00	 5.749999999999997e+00	 1.007983027692307e+01
0	 6.749999999999998e+00	 5.874999999999996e+00	 1.007612055384614e+01
0	 6.749999999999998e+00	 5.999999999999997e+00	 1.007244184615384e+01
0	 6.749999999999999e+00	 6.124999999999996e+00	 1.006879415384615e+01
0	 6.749999999999998e+00	 6.250000000000000e+00	 1.006517747692307e+01
0	 6.874999999999998e+00	 5.000000000000000e+00	 1.009837384615385e+01
0	 6.874999999999997e+00	 5.124999999999998e+00	 1.009449770769230e+01
0	 6.874999999999997e+00	 5.249999999999999e+00	 1.009067102307692e+01
0	 6.874999999999998e+00	 5.375000000000000e+00	 1.008689379230769e+01
0	 6.874999999999996e+00	 5.499999999999998e+00	 1.008316601538461e+01
0	 6.874999999999998e+00	 5.624999999999997e+00	 1.007948769230769e+01
0	 6.874999999999999e+00	 5.749999999999998e+00	 1.007585882307691e+01
0	 6.874999999999998e+00	 5.874999999999996e+00	 1.007227940769230e+01
0	 6.874999999999998e+00	 5.999999999999996e+00	 1.006874944615383e+01
0	 6.875000000000000e+00	 6.124999999999996e+00	 1.006526893846153e+01
0	 6.874999999999998e+00	 6.250000000000000e+00	 1.006183788461538e+01
0	 6.999999999999997e+00	 5.000000000000000e+00	 1.009366270769231e+01
0	 6.999999999999997e+00	 5.124999999999999e+00	 1.008985497692307e+01
0	 6.999999999999995e+00	 5.249999999999999e+00	 1.008611513846153e+01
0	 6.999999999999997e+00	 5.374999999999999e+00	 1.008244319230769e+01
0	 6.999999999999998e+00	 5.500000000000000e+00	 1.007883913846154e+01
0	 6.999999999999999e+00	 5.624999999999999e+00	 1.007530297692307e+01
0	 6.999999999999997e+00	 5.749999999999997e+00	 1.007183470769230e+01
0	 6.999999999999998e+00	 5.874999999999997e+00	 1.006843433076922e+01
0	 6.999999999999998e+00	 5.999999999999997e+00	 1.006510184615384e+01
0	 6.999999999999996e+00	 6.124999999999996e+00	 1.006183725384615e+01
0	 6.999999999999997e+00	 6.250000000000000e+00	 1.005864055384614e+01
0	 7.124999999999996e+00	 5.000000000000000e+00	 1.008860652307693e+01
0	 7.124999999999997e+00	 5.124999999999999e+00	 1.008491593076923e+01
0	 7.124999999999997e+00	 5.249999999999999e+00	 1.008131166923077e+01
0	 7.124999999999996e+00	 5.375000000000000e+00	 1.007779373846153e+01
0	 7.124999999999997e+00	 5.499999999999998e+00	 1.007436213846153e+01
0	 7.124999999999998e+00	 5.624999999999998e+00	 1.007101686923076e+01
0	 7.124999999999997e+00	 5.749999999999997e+00	 1.006775793076923e+01
0	 7.124999999999998e+00	 5.874999999999996e+00	 1.006458532307692e+01
0	 7.124999999999996e+00	 5.999999999999996e+00	 1.006149904615384e+01
0	 7.124999999999997e+00	 6.124999999999996e+00	 1.005849910000000e+01
0	 7.124999999999996e+00	 6.250000000000000e+00	 1.005558548461538e+01
0	 7.249999999999997e+00	 4.999999999999999e+00	 1.008320529230769e+01
0	 7.249999999999997e+00	 5.125000000000002e+00	 1.007968056923076e+01
0	 7.249999999999996e+00	 5.249999999999999e+00	 1.007626061538462e+01
0	 7.249999999999997e+00	 5.374999999999999e+00	 1.007294543076922e+01
0	 7.249999999999996e+00	 5.499999999999998e+00	 1.006973501538461e+01
0	 7.249999999999996e+00	 5.624999999999997e+00	 1.006662936923077e+01
0	 7.249999999999996e+00	 5.749999999999997e+00	 1.006362849230768e+01
0	 7.249999999999996e+00	 5.874999999999996e+00	 1.006073238461538e+01
0	 7.249999999999996e+00	 5.999999999999996e+00	 1.005794104615384e+01
0	 7.249999999999996e+00	 6.124999999999996e+00	 1.005525447692307e+01
0	 7.249999999999997e+00	 6.250000000000000e+00	 1.005267267692307e+01
0	 7.374999999999996e+00	 5.000000000000000e+00	 1.007745901538462e+01
0	 7.374999999999996e+00	 5.125000000000000e+00	 1.007414889230769e+01
0	 7.374999999999996e+00	 5.250000000000000e+00	 1.007096197692307e+01
0	 7.374999999999996e+00	 5.374999999999999e+00	 1.006789826923077e+01
0	 7.374999999999996e+00	 5.499999999999998e+00	 1.006495776923077e+01
0	 7.374999999999996e+00	 5.624999999999998e+00	 1.006214047692307e+01
0	 7.374999999999996e+00	 5.749999999999998e+00	 1.005944639230769e+01
0	 7.374999999999996e+00	 5.874999999999996e+00	 1.005687551538460e+01
0	 7.374999999999996e+00	 5.999999999999996e+00	 1.005442784615385e+01
0	 7.374999999999995e+00	 6.124999999999996e+00	 1.005210338461537e+01
0	 7.374999999999996e+00	 6.250000000000000e+00	 1.004990213076922e+01
0	 7.500000000000000e+00	 5.000000000000000e+00	 1.007136769230769e+01
0	 7.500000000000001e+00	 5.124999999999999e+00	 1.006832090000001e+01
0	 7.500000000000002e+00	 5.250000000000000e+00	 1.006541575384616e+01
0	 7.500000000000000e+00	 5.374999999999998e+00	 1.006265225384615e+01
0	 7.500000000000000e+00	 5.499999999999999e+00	 1.006003040000000e+01
0	 7.500000000000000e+00	 5.624999999999997e+00	 1.005755019230770e+01
0	 7.500000000000000e+00	 5.749999999999997e+00	 1.005521163076921e+01
0	 7.499999999999999e+00	 5.874999999999996e+00	 1.005301471538461e+01
0	 7.500000000000001e+00	 5.999999999999996e+00	 1.005095944615384e+01
0	 7.500000000000000e+00	 6.124999999999996e+00	 1.004904582307693e+01
0	 7.500000000000000e+00	 6.250000000000000e+00	 1.004727384615384e+01
0	 6.250000000000000e+00	 6.250000000000000e+00	 1.007995846153845e+01
0	 6.250000000000000e+00	 6.375000000000000e+00	 1.007522798461537e+01
0	 6.250000000000001e+00	 6.500000000000000e+00	 1.007056978461537e+01
0	 6.249999999999999e+00	 6.624999999999998e+00	 1.006598386153846e+01
0	 6.250000000000000e+00	 6.749999999999998e+00	 1.006147021538461e+01
0	 6.250000000000001e+00	 6.874999999999998e+00	 1.005702884615384e+01
0	 6.250000000000001e+00	 6.999999999999997e+00	 1.005265975384616e+01
0	 6.250000000000000e+00	 7.124999999999996e+00	 1.004836293846154e+01
0	 6.250000000000000e+00	 7.249999999999997e+00	 1.004413840000000e+01
0	 6.250000000000000e+00	 7.374999999999996e+00	 1.003998613846154e+01
0	 6.250000000000000e+00	 7.500000000000000e+00	 1.003590615384616e+01
0	 6.375000000000000e+00	 6.249999999999999e+00	 1.007604982307691e+01
0	 6.375000000000000e+00	 6.375000000000000e+00	 1.007177630076922e+01
0	 6.374999999999999e+00	 6.500000000000000e+00	 1.006756342461538e+01
0	 6.375000000000000e+00	 6.624999999999998e+00	 1.006341119461539e+01
0	 6.375000000000000e+00	 6.749999999999998e+00	 1.005931961076923e+01
0	 6.375000000000001e+00	 6.874999999999998e+00	 1.005528867307692e+01
0	 6.375000000000002e+00	 6.999999999999999e+00	 1.005131838153846e+01
0	 6.375000000000001e+00	 7.124999999999998e+00	 1.004740873615386e+01
0	 6.375000000000003e+00	 7.249999999999999e+00	 1.004355973692308e+01
0	 6.374999999999997e+00	 7.374999999999995e+00	 1.003977138384616e+01
0	 6.375000000000000e+00	 7.500000000000000e+00	 1.003604367692308e+01
0	 6.500000000000000e+00	 6.250000000000000e+00	 1.007228344615384e+01
0	 6.500000000000000e+00	 6.375000000000000e+00	 1.006842900307691e+01
0	 6.499999999999999e+00	 6.499999999999999e+00	 1.006462357538461e+01
0	 6.500000000000000e+00	 6.624999999999999e+00	 1.006086716307691e+01
0	 6.499999999999998e+00	 6.749999999999997e+00	 1.005715976615384e+01
0	 6.499999999999999e+00	 6.874999999999997e+00	 1.005350138461538e+01
0	 6.499999999999997e+00	 6.999999999999995e+00	 1.004989201846154e+01
0	 6.500000000000000e+00	 7.124999999999997e+00	 1.004633166769230e+01
0	 6.499999999999999e+00	 7.249999999999996e+00	 1.004282033230769e+01
0	 6.500000000000001e+00	 7.374999999999998e+00	 1.003935801230771e+01
0	 6.500000000000000e+00	 7.500000000000001e+00	 1.003594470769232e+01
0	 6.624999999999999e+00	 6.250000000000000e+00	 1.006865933076922e+01
0	 6.624999999999998e+00	 6.375000000000000e+00	 1.006518609153846e+01
0	 6.624999999999999e+00	 6.500000000000000e+00	 1.006175023692307e+01
0	 6.625000000000000e+00	 6.625000000000000e+00	 1.005835176692307e+01
0	 6.624999999999998e+00	 6.749999999999997e+00	 1.005499068153847e+01
0	 6.624999999999999e+00	 6.874999999999997e+00	 1.005166698076923e+01
0	 6.624999999999998e+00	 6.999999999999996e+00	 1.004838066461538e+01
0	 6.624999999999998e+00	 7.124999999999996e+00	 1.004513173307692e+01
0	 6.624999999999999e+00	 7.249999999999996e+00	 1.004192018615386e+01
0	 6.624999999999998e+00	 7.374999999999996e+00	 1.003874602384617e+01
0	 6.624999999999999e+00	 7.500000000000001e+00	 1.003560924615385e+01
0	 6.749999999999998e+00	 6.250000000000000e+00	 1.006517747692307e+01
0	 6.749999999999997e+00	 6.375000000000000e+00	 1.006204756615385e+01
0	 6.749999999999999e+00	 6.500000000000000e+00	 1.005894340923077e+01
0	 6.749999999999997e+00	 6.624999999999999e+00	 1.005586500615384e+01
0	 6.749999999999998e+00	 6.749999999999997e+00	 1.005281235692308e+01
0	 6.749999999999998e+00	 6.874999999999998e+00	 1.004978546153846e+01
0	 6.749999999999997e+00	 6.999999999999996e+00	 1.004678432000000e+01
0	 6.749999999999998e+00	 7.124999999999996e+00	 1.004380893230769e+01
0	 6.749999999999998e+00	 7.249999999999997e+00	 1.004085929846154e+01
0	 6.749999999999999e+00	 7.374999999999996e+00	 1.003793541846154e+01
0	 6.749999999999998e+00	 7.500000000000000e+00	 1.003503729230771e+01
0	 6.874999999999998e+00	 6.250000000000000e+00	 1.006183788461538e+01
0	 6.874999999999997e+00	 6.375000000000000e+00	 1.005901342692306e+01
0	 6.874999999999997e+00	 6.499999999999999e+00	 1.005620309230769e+01
0	 6.874999999999998e+00	 6.624999999999999e+00	 1.005340688076923e+01
0	 6.874999999999996e+00	 6.749999999999996e+00	 1.005062479230769e+01
0	 6.874999999999998e+00	 6.874999999999998e+00	 1.004785682692307e+01
0	 6.874999999999999e+00	 6.999999999999998e+00	 1.004510298461538e+01
0	 6.874999999999998e+00	 7.124999999999997e+00	 1.004236326538462e+01
0	 6.874999999999998e+00	 7.249999999999996e+00	 1.003963766923077e+01
0	 6.875000000000000e+00	 7.374999999999998e+00	 1.003692619615386e+01
0	 6.874999999999998e+00	 7.500000000000001e+00	 1.003422884615386e+01
0	 6.999999999999997e+00	 6.250000000000000e+00	 1.005864055384614e+01
0	 6.999999999999997e+00	 6.375000000000001e+00	 1.005608367384615e+01
0	 6.999999999999995e+00	 6.499999999999997e+00	 1.005352928615384e+01
0	 6.999999999999997e+00	 6.624999999999998e+00	 1.005097739076923e+01
0	 6.999999999999998e+00	 6.750000000000000e+00	 1.004842798769231e+01
0	 6.999999999999999e+00	 6.874999999999999e+00	 1.004588107692308e+01
0	 6.999999999999997e+00	 6.999999999999997e+00	 1.004333665846153e+01
0	 6.999999999999998e+00	 7.124999999999998e+00	 1.004079473230769e+01
0	 6.999999999999998e+00	 7.249999999999998e+00	 1.003825529846154e+01
0	 6.999999999999996e+00	 7.374999999999996e+00	 1.003571835692308e+01
0	 6.999999999999997e+00	 7.500000000000000e+00	 1.003318390769232e+01
0	 7.124999999999996e+00	 6.250000000000000e+00	 1.005558548461538e+01
0	 7.124999999999997e+00	 6.375000000000000e+00	 1.005325830692307e+01
0	 7.124999999999997e+00	 6.500000000000000e+00	 1.005092199076923e+01
0	 7.124999999999996e+00	 6.624999999999999e+00	 1.004857653615385e+01
0	 7.124999999999997e+00	 6.749999999999998e+00	 1.004622194307693e+01
0	 7.124999999999998e+00	 6.874999999999998e+00	 1.004385821153846e+01
0	 7.124999999999997e+00	 6.999999999999998e+00	 1.004148534153846e+01
0	 7.124999999999998e+00	 7.124999999999998e+00	 1.003910333307692e+01
0	 7.124999999999996e+00	 7.249999999999996e+00	 1.003671218615386e+01
0	 7.124999999999997e+00	 7.374999999999997e+00	 1.003431190076924e+01
0	 7.124999999999996e+00	 7.500000000000000e+00	 1.003190247692308e+01
0	 7.249999999999997e+00	 6.250000000000000e+00	 1.005267267692307e+01
0	 7.249999999999997e+00	 6.375000000000002e+00	 1.005053732615384e+01
0	 7.249999999999996e+00	 6.499999999999999e+00	 1.004838120615384e+01
0	 7.249999999999997e+00	 6.624999999999999e+00	 1.004620431692307e+01
0	 7.249999999999996e+00	 6.749999999999998e+00	 1.004400665846154e+01
0	 7.249999999999996e+00	 6.874999999999998e+00	 1.004178823076923e+01
0	 7.249999999999996e+00	 6.999999999999996e+00	 1.003954903384615e+01
0	 7.249999999999996e+00	 7.124999999999996e+00	 1.003728906769231e+01
0	 7.249999999999996e+00	 7.249999999999996e+00	 1.003500833230770e+01
0	 7.249999999999996e+00	 7.374999999999996e+00	 1.003270682769230e+01
0	 7.249999999999997e+00	 7.500000000000001e+00	 1.003038455384617e+01
0	 7.374999999999996e+00	 6.250000000000000e+00	 1.004990213076922e+01
0	 7.374999999999996e+00	 6.375000000000000e+00	 1.004792073153845e+01
0	 7.374999999999996e+00	 6.500000000000000e+00	 1.004590693230769e+01
0	 7.374999999999996e+00	 6.624999999999999e+00	 1.004386073307692e+01
0	 7.374999999999996e+00	 6.749999999999998e+00	 1.004178213384616e+01
0	 7.374999999999996e+00	 6.874999999999999e+00	 1.003967113461538e+01
0	 7.374999999999996e+00	 6.999999999999996e+00	 1.003752773538462e+01
0	 7.374999999999996e+00	 7.124999999999996e+00	 1.003535193615385e+01
0	 7.374999999999996e+00	 7.249999999999996e+00	 1.003314373692309e+01
0	 7.374999999999995e+00	 7.374999999999995e+00	 1.003090313769231e+01
0	 7.374999999999996e+00	 7.500000000000000e+00	 1.002863013846154e+01
0	 7.500000000000000e+00	 6.250000000000000e+00	 1.004727384615384e+01
0	 7.500000000000001e+00	 6.375000000000000e+00	 1.004540852307690e+01
0	 7.500000000000002e+00	 6.500000000000000e+00	 1.004349916923076e+01
0	 7.500000000000000e+00	 6.624999999999998e+00	 1.004154578461539e+01
0	 7.500000000000000e+00	 6.749999999999998e+00	 1.003954836923077e+01
0	 7.500000000000000e+00	 6.874999999999998e+00	 1.003750692307692e+01
0	 7.500000000000000e+00	 6.999999999999997e+00	 1.003542144615385e+01
0	 7.499999999999999e+00	 7.124999999999996e+00	 1.003329193846154e+01
0	 7.500000000000001e+00	 7.249999999999997e+00	 1.003111840000000e+01
0	 7.500000000000000e+00	 7.374999999999996e+00	 1.002890083076923e+01
0	 7.500000000000000e+00	 7.500000000000000e+00	 1.002663923076924e+01
0	 6.250000000000000e+00	 7.500000000000000e+00	 1.003590615384616e+01
0	 6.250000000000000e+00	 7.625000000000000e+00	 1.003400785384616e+01
0	 6.250000000000001e+00	 7.750000000000000e+00	 1.003193033846155e+01
0	 6.249999999999999e+00	 7.874999999999998e+00	 1.002967360769230e+01
0	 6.250000000000000e+00	 7.999999999999999e+00	 1.002723766153846e+01
0	 6.250000000000001e+00	 8.124999999999998e+00	 1.002462250000001e+01
0	 6.250000000000001e+00	 8.249999999999998e+00	 1.002182812307692e+01
0	 6.250000000000000e+00	 8.374999999999996e+00	 1.001885453076923e+01
0	 6.250000000000000e+00	 8.499999999999996e+00	 1.001570172307692e+01
0	 6.250000000000000e+00	 8.624999999999996e+00	 1.001236970000001e+01
0	 6.250000000000000e+00	 8.750000000000000e+00	 1.000885846153846e+01
0	 6.375000000000000e+00	 7.500000000000000e+00	 1.003604367692308e+01
0	 6.375000000000000e+00	 7.625000000000000e+00	 1.003403973923077e+01
0	 6.374999999999999e+00	 7.749999999999999e+00	 1.003187008615385e+01
0	 6.375000000000000e+00	 7.874999999999999e+00	 1.002953471769231e+01
0	 6.375000000000000e+00	 7.999999999999998e+00	 1.002703363384615e+01
0	 6.375000000000001e+00	 8.124999999999998e+00	 1.002436683461538e+01
0	 6.375000000000002e+00	 8.250000000000000e+00	 1.002153432000001e+01
0	 6.375000000000001e+00	 8.375000000000000e+00	 1.001853609000000e+01
0	 6.375000000000003e+00	 8.500000000000000e+00	 1.001537214461537e+01
0	 6.374999999999997e+00	 8.624999999999995e+00	 1.001204248384615e+01
0	 6.375000000000000e+00	 8.750000000000000e+00	 1.000854710769231e+01
0	 6.500000000000000e+00	 7.500000000000001e+00	 1.003594470769232e+01
0	 6.500000000000000e+00	 7.624999999999999e+00	 1.003385761846155e+01
0	 6.499999999999999e+00	 7.750000000000000e+00	 1.003161831384616e+01
0	 6.500000000000000e+00	 7.874999999999999e+00	 1.002922679384616e+01
0	 6.499999999999998e+00	 7.999999999999998e+00	 1.002668305846154e+01
0	 6.499999999999999e+00	 8.124999999999998e+00	 1.002398710769231e+01
0	 6.499999999999997e+00	 8.249999999999995e+00	 1.002113894153847e+01
0	 6.500000000000000e+00	 8.374999999999996e+00	 1.001813855999999e+01
0	 6.499999999999999e+00	 8.499999999999996e+00	 1.001498596307692e+01
0	 6.500000000000001e+00	 8.624999999999996e+00	 1.001168115076923e+01
0	 6.500000000000000e+00	 8.750000000000000e+00	 1.000822412307691e+01
0	 6.624999999999999e+00	 7.500000000000001e+00	 1.003560924615385e+01
0	 6.624999999999998e+00	 7.624999999999999e+00	 1.003346149153847e+01
0	 6.624999999999999e+00	 7.750000000000000e+00	 1.003117502153846e+01
0	 6.625000000000000e+00	 7.875000000000000e+00	 1.002874983615385e+01
0	 6.624999999999998e+00	 7.999999999999998e+00	 1.002618593538461e+01
0	 6.624999999999999e+00	 8.125000000000000e+00	 1.002348331923077e+01
0	 6.624999999999998e+00	 8.249999999999996e+00	 1.002064198769231e+01
0	 6.624999999999998e+00	 8.374999999999998e+00	 1.001766194076924e+01
0	 6.624999999999999e+00	 8.499999999999996e+00	 1.001454317846153e+01
0	 6.624999999999998e+00	 8.624999999999995e+00	 1.001128570076923e+01
0	 6.624999999999999e+00	 8.750000000000000e+00	 1.000788950769231e+01
0	 6.749999999999998e+00	 7.500000000000000e+00	 1.003503729230771e+01
0	 6.749999999999997e+00	 7.624999999999999e+00	 1.003285135846154e+01
0	 6.749999999999999e+00	 7.749999999999999e+00	 1.003054020923076e+01
0	 6.749999999999997e+00	 7.874999999999999e+00	 1.002810384461538e+01
0	 6.749999999999998e+00	 7.999999999999998e+00	 1.002554226461539e+01
0	 6.749999999999998e+00	 8.124999999999998e+00	 1.002285546923077e+01
0	 6.749999999999997e+00	 8.249999999999996e+00	 1.002004345846154e+01
0	 6.749999999999998e+00	 8.374999999999998e+00	 1.001710623230769e+01
0	 6.749999999999998e+00	 8.499999999999996e+00	 1.001404379076923e+01
0	 6.749999999999999e+00	 8.624999999999996e+00	 1.001085613384615e+01
0	 6.749999999999998e+00	 8.750000000000000e+00	 1.000754326153846e+01
0	 6.874999999999998e+00	 7.500000000000001e+00	 1.003422884615386e+01
0	 6.874999999999997e+00	 7.625000000000000e+00	 1.003202721923077e+01
0	 6.874999999999997e+00	 7.750000000000000e+00	 1.002971387692308e+01
0	 6.874999999999998e+00	 7.874999999999998e+00	 1.002728881923078e+01
0	 6.874999999999996e+00	 7.999999999999996e+00	 1.002475204615385e+01
0	 6.874999999999998e+00	 8.124999999999998e+00	 1.002210355769231e+01
0	 6.874999999999999e+00	 8.250000000000000e+00	 1.001934335384616e+01
0	 6.874999999999998e+00	 8.374999999999996e+00	 1.001647143461539e+01
0	 6.874999999999998e+00	 8.499999999999996e+00	 1.001348780000000e+01
0	 6.875000000000000e+00	 8.624999999999996e+00	 1.001039245000000e+01
0	 6.874999999999998e+00	 8.750000000000000e+00	 1.000718538461539e+01
0	 6.999999999999997e+00	 7.500000000000000e+00	 1.003318390769232e+01
0	 6.999999999999997e+00	 7.625000000000000e+00	 1.003098907384617e+01
0	 6.999999999999995e+00	 7.749999999999997e+00	 1.002869602461538e+01
0	 6.999999999999997e+00	 7.874999999999999e+00	 1.002630476000001e+01
0	 6.999999999999998e+00	 8.000000000000000e+00	 1.002381528000000e+01
0	 6.999999999999999e+00	 8.125000000000000e+00	 1.002122758461539e+01
0	 6.999999999999997e+00	 8.249999999999998e+00	 1.001854167384616e+01
0	 6.999999999999998e+00	 8.374999999999996e+00	 1.001575754769230e+01
0	 6.999999999999998e+00	 8.499999999999998e+00	 1.001287520615385e+01
0	 6.999999999999996e+00	 8.624999999999995e+00	 1.000989464923076e+01
0	 6.999999999999997e+00	 8.750000000000000e+00	 1.000681587692306e+01
0	 7.124999999999996e+00	 7.500000000000000e+00	 1.003190247692308e+01
0	 7.124999999999997e+00	 7.625000000000000e+00	 1.002973692230769e+01
0	 7.124999999999997e+00	 7.749999999999999e+00	 1.002748665230770e+01
0	 7.124999999999996e+00	 7.874999999999998e+00	 1.002515166692308e+01
0	 7.124999999999997e+00	 7.999999999999997e+00	 1.002273196615386e+01
0	 7.124999999999998e+00	 8.125000000000000e+00	 1.002022755000001e+01
0	 7.124999999999997e+00	 8.249999999999998e+00	 1.001763841846155e+01
0	 7.124999999999998e+00	 8.374999999999998e+00	 1.001496457153847e+01
0	 7.124999999999996e+00	 8.499999999999996e+00	 1.001220600923077e+01
0	 7.124999999999997e+00	 8.624999999999996e+00	 1.000936273153847e+01
0	 7.124999999999996e+00	 8.750000000000000e+00	 1.000643473846153e+01
0	 7.249999999999997e+00	 7.500000000000001e+00	 1.003038455384617e+01
0	 7.249999999999997e+00	 7.625000000000001e+00	 1.002827076461541e+01
0	 7.249999999999996e+00	 7.749999999999999e+00	 1.002608576000000e+01
0	 7.249999999999997e+00	 7.875000000000001e+00	 1.002382954000000e+01
0	 7.249999999999996e+00	 7.999999999999998e+00	 1.002150210461539e+01
0	 7.249999999999996e+00	 8.124999999999996e+00	 1.001910345384615e+01
0	 7.249999999999996e+00	 8.249999999999998e+00	 1.001663358769231e+01
0	 7.249999999999996e+00	 8.374999999999996e+00	 1.001409250615385e+01
0	 7.249999999999996e+00	 8.499999999999996e+00	 1.001148020923077e+01
0	 7.249999999999996e+00	 8.624999999999996e+00	 1.000879669692308e+01
0	 7.249999999999997e+00	 8.750000000000000e+00	 1.000604196923078e+01
0	 7.374999999999996e+00	 7.500000000000000e+00	 1.002863013846154e+01
0	 7.374999999999996e+00	 7.624999999999999e+00	 1.002659060076924e+01
0	 7.374999999999996e+00	 7.750000000000000e+00	 1.002449334769230e+01
0	 7.374999999999996e+00	 7.874999999999998e+00	 1.002233837923078e+01
0	 7.374999999999996e+00	 7.999999999999998e+00	 1.002012569538462e+01
0	 7.374999999999996e+00	 8.124999999999996e+00	 1.001785529615385e+01
0	 7.374999999999996e+00	 8.249999999999996e+00	 1.001552718153847e+01
0	 7.374999999999996e+00	 8.374999999999996e+00	 1.001314135153847e+01
0	 7.374999999999996e+00	 8.499999999999996e+00	 1.001069780615385e+01
0	 7.374999999999995e+00	 8.624999999999996e+00	 1.000819654538462e+01
0	 7.374999999999996e+00	 8.750000000000000e+00	 1.000563756923077e+01
0	 7.500000000000000e+00	 7.500000000000000e+00	 1.002663923076924e+01
0	 7.500000000000001e+00	 7.625000000000000e+00	 1.002469643076924e+01
0	 7.500000000000002e+00	 7.750000000000000e+00	 1.002270941538463e+01
0	 7.500000000000000e+00	 7.874999999999998e+00	 1.002067818461538e+01
0	 7.500000000000000e+00	 7.999999999999999e+00	 1.001860273846154e+01
0	 7.500000000000000e+00	 8.124999999999998e+00	 1.001648307692309e+01
0	 7.500000000000000e+00	 8.249999999999998e+00	 1.001431920000000e+01
0	 7.499999999999999e+00	 8.374999999999996e+00	 1.001211110769231e+01
0	 7.500000000000001e+00	 8.499999999999996e+00	 1.000985880000001e+01
0	 7.500000000000000e+00	 8.624999999999996e+00	 1.000756227692309e+01
0	 7.500000000000000e+00	 8.750000000000000e+00	 1.000522153846154e+01
0	 6.250000000000000e+00	 8.750000000000000e+00	 1.000885846153846e+01
0	 6.249999999999999e+00	 8.874999999999998e+00	 1.000835600769230e+01
0	 6.250000000000000e+00	 9.000000000000000e+00	 1.000764479999999e+01
0	 6.249999999999999e+00	 9.124999999999998e+00	 1.000672483846153e+01
0	 6.250000000000001e+00	 9.250000000000000e+00	 1.000559612307692e+01
0	 6.250000000000000e+00	 9.374999999999996e+00	 1.000425865384615e+01
0	 6.250000000000000e+00	 9.499999999999996e+00	 1.000271243076923e+01
0	 6.250000000000000e+00	 9.624999999999996e+00	 1.000095745384616e+01
0	 6.250000000000001e+00	 9.749999999999998e+00	 9.998993723076914e+00
0	 6.250000000000000e+00	 9.874999999999996e+00	 9.996821238461528e+00
0	 6.250000000000000e+00	 1.000000000000000e+01	 9.994439999999990e+00
0	 6.375000000000000e+00	 8.750000000000000e+00	 1.000854710769231e+01
0	 6.375000000000002e+00	 8.875000000000002e+00	 1.000817887692307e+01
0	 6.374999999999997e+00	 8.999999999999998e+00	 1.000760113538461e+01
0	 6.374999999999999e+00	 9.124999999999998e+00	 1.000681388307692e+01
0	 6.375000000000002e+00	 9.249999999999998e+00	 1.000581712000001e+01
0	 6.375000000000000e+00	 9.375000000000000e+00	 1.000461084615385e+01
0	 6.375000000000000e+00	 9.499999999999998e+00	 1.000319506153845e+01
0	 6.375000000000000e+00	 9.624999999999996e+00	 1.000156976615383e+01
0	 6.375000000000001e+00	 9.749999999999996e+00	 9.999734960000008e+00
0	 6.374999999999998e+00	 9.874999999999996e+00	 9.997690643076886e+00
0	 6.374999999999999e+00	 1.000000000000000e+01	 9.995436815384583e+00
0	 6.500000000000000e+00	 8.750000000000000e+00	 1.000822412307691e+01
0	 6.499999999999997e+00	 8.874999999999998e+00	 1.000797251846154e+01
0	 6.500000000000000e+00	 8.999999999999998e+00	 1.000751064615383e+01
0	 6.499999999999998e+00	 9.124999999999998e+00	 1.000683850615384e+01
0	 6.500000000000001e+00	 9.250000000000000e+00	 1.000595609846153e+01
0	 6.500000000000000e+00	 9.375000000000000e+00	 1.000486342307692e+01
0	 6.499999999999999e+00	 9.499999999999998e+00	 1.000356047999999e+01
0	 6.500000000000001e+00	 9.625000000000000e+00	 1.000204726923076e+01
0	 6.499999999999999e+00	 9.749999999999998e+00	 1.000032379076922e+01
0	 6.500000000000000e+00	 9.874999999999998e+00	 9.998390044615384e+00
0	 6.499999999999999e+00	 1.000000000000000e+01	 9.996246030769221e+00
0	 6.624999999999999e+00	 8.750000000000000e+00	 1.000788950769231e+01
0	 6.624999999999997e+00	 8.874999999999998e+00	 1.000773693230769e+01
0	 6.624999999999998e+00	 8.999999999999996e+00	 1.000737333230768e+01
0	 6.625000000000000e+00	 9.124999999999998e+00	 1.000679870769230e+01
0	 6.624999999999996e+00	 9.249999999999998e+00	 1.000601305846152e+01
0	 6.624999999999999e+00	 9.374999999999996e+00	 1.000501638461538e+01
0	 6.624999999999997e+00	 9.499999999999995e+00	 1.000380868615386e+01
0	 6.624999999999997e+00	 9.624999999999996e+00	 1.000238996307690e+01
0	 6.624999999999998e+00	 9.749999999999998e+00	 1.000076021538458e+01
0	 6.624999999999998e+00	 9.874999999999995e+00	 9.998919443076925e+00
0	 6.624999999999998e+00	 1.000000000000000e+01	 9.996867646153840e+00
0	 6.749999999999998e+00	 8.750000000000000e+00	 1.000754326153846e+01
0	 6.749999999999999e+00	 8.874999999999998e+00	 1.000747211846153e+01
0	 6.750000000000000e+00	 9.000000000000002e+00	 1.000718919384614e+01
0	 6.749999999999998e+00	 9.124999999999998e+00	 1.000669448769230e+01
0	 6.749999999999997e+00	 9.249999999999998e+00	 1.000598799999999e+01
0	 6.749999999999998e+00	 9.374999999999998e+00	 1.000506973076922e+01
0	 6.749999999999998e+00	 9.499999999999998e+00	 1.000393968000000e+01
0	 6.749999999999999e+00	 9.624999999999996e+00	 1.000259784769230e+01
0	 6.749999999999998e+00	 9.749999999999996e+00	 1.000104423384612e+01
0	 6.749999999999997e+00	 9.874999999999996e+00	 9.999278838461542e+00
0	 6.749999999999998e+00	 1.000000000000000e+01	 9.997301661538462e+00
0	 6.874999999999998e+00	 8.750000000000000e+00	 1.000718538461539e+01
0	 6.874999999999997e+00	 8.874999999999998e+00	 1.000717807692307e+01
0	 6.874999999999998e+00	 8.999999999999998e+00	 1.000695823076923e+01
0	 6.874999999999997e+00	 9.125000000000002e+00	 1.000652584615384e+01
0	 6.874999999999996e+00	 9.249999999999996e+00	 1.000588092307693e+01
0	 6.874999999999998e+00	 9.375000000000000e+00	 1.000502346153846e+01
0	 6.874999999999999e+00	 9.499999999999998e+00	 1.000395346153845e+01
0	 6.874999999999998e+00	 9.624999999999998e+00	 1.000267092307692e+01
0	 6.874999999999997e+00	 9.749999999999996e+00	 1.000117584615382e+01
0	 6.874999999999998e+00	 9.874999999999996e+00	 9.999468230769212e+00
0	 6.874999999999998e+00	 1.000000000000000e+01	 9.997548076923081e+00
0	 6.999999999999997e+00	 8.750000000000000e+00	 1.000681587692306e+01
0	 6.999999999999996e+00	 8.874999999999998e+00	 1.000685480769231e+01
0	 6.999999999999997e+00	 9.000000000000000e+00	 1.000668044307692e+01
0	 6.999999999999997e+00	 9.125000000000000e+00	 1.000629278307691e+01
0	 6.999999999999998e+00	 9.250000000000000e+00	 1.000569182769231e+01
0	 6.999999999999997e+00	 9.374999999999998e+00	 1.000487757692308e+01
0	 6.999999999999997e+00	 9.499999999999998e+00	 1.000385003076921e+01
0	 6.999999999999996e+00	 9.624999999999995e+00	 1.000260918923073e+01
0	 6.999999999999996e+00	 9.749999999999995e+00	 1.000115505230767e+01
0	 6.999999999999996e+00	 9.874999999999998e+00	 9.999487619999964e+00
0	 6.999999999999997e+00	 9.999999999999998e+00	 9.997606892307701e+00
0	 7.124999999999996e+00	 8.750000000000000e+00	 1.000643473846153e+01
0	 7.124999999999996e+00	 8.875000000000000e+00	 1.000650231076923e+01
0	 7.124999999999997e+00	 9.000000000000000e+00	 1.000635583076922e+01
0	 7.124999999999996e+00	 9.125000000000000e+00	 1.000599529846153e+01
0	 7.124999999999997e+00	 9.249999999999998e+00	 1.000542071384614e+01
0	 7.124999999999997e+00	 9.374999999999998e+00	 1.000463207692307e+01
0	 7.124999999999997e+00	 9.500000000000000e+00	 1.000362938769230e+01
0	 7.124999999999997e+00	 9.624999999999996e+00	 1.000241264615384e+01
0	 7.124999999999996e+00	 9.749999999999996e+00	 1.000098185230768e+01
0	 7.124999999999997e+00	 9.874999999999996e+00	 9.999337006153828e+00
0	 7.124999999999997e+00	 1.000000000000000e+01	 9.997478107692299e+00
0	 7.249999999999997e+00	 8.750000000000000e+00	 1.000604196923078e+01
0	 7.249999999999997e+00	 8.875000000000004e+00	 1.000612058615385e+01
0	 7.249999999999996e+00	 8.999999999999998e+00	 1.000598439384614e+01
0	 7.249999999999996e+00	 9.125000000000000e+00	 1.000563339230769e+01
0	 7.249999999999996e+00	 9.249999999999998e+00	 1.000506758153844e+01
0	 7.249999999999996e+00	 9.374999999999998e+00	 1.000428696153846e+01
0	 7.249999999999996e+00	 9.499999999999998e+00	 1.000329153230768e+01
0	 7.249999999999996e+00	 9.624999999999996e+00	 1.000208129384613e+01
0	 7.249999999999996e+00	 9.749999999999996e+00	 1.000065624615383e+01
0	 7.249999999999996e+00	 9.874999999999996e+00	 9.999016389230722e+00
0	 7.249999999999996e+00	 1.000000000000000e+01	 9.997161723076907e+00
0	 7.374999999999996e+00	 8.750000000000000e+00	 1.000563756923077e+01
0	 7.374999999999996e+00	 8.875000000000000e+00	 1.000570963384615e+01
0	 7.374999999999996e+00	 8.999999999999998e+00	 1.000556613230768e+01
0	 7.374999999999998e+00	 9.125000000000000e+00	 1.000520706461539e+01
0	 7.374999999999996e+00	 9.249999999999998e+00	 1.000463243076923e+01
0	 7.374999999999996e+00	 9.374999999999996e+00	 1.000384223076921e+01
0	 7.374999999999996e+00	 9.499999999999996e+00	 1.000283646461538e+01
0	 7.374999999999996e+00	 9.624999999999998e+00	 1.000161513230767e+01
0	 7.374999999999996e+00	 9.749999999999996e+00	 1.000017823384613e+01
0	 7.374999999999996e+00	 9.874999999999996e+00	 9.998525769230744e+00
0	 7.374999999999996e+00	 1.000000000000000e+01	 9.996657738461534e+00
0	 7.500000000000000e+00	 8.750000000000000e+00	 1.000522153846154e+01
0	 7.499999999999999e+00	 8.874999999999998e+00	 1.000526945384615e+01
0	 7.499999999999999e+00	 9.000000000000000e+00	 1.000510104615384e+01
0	 7.499999999999999e+00	 9.124999999999998e+00	 1.000471631538461e+01
0	 7.500000000000000e+00	 9.250000000000000e+00	 1.000411526153846e+01
0	 7.500000000000000e+00	 9.374999999999996e+00	 1.000329788461538e+01
0	 7.500000000000000e+00	 9.499999999999996e+00	 1.000226418461538e+01
0	 7.500000000000000e+00	 9.624999999999996e+00	 1.000101416153846e+01
0	 7.500000000000001e+00	 9.749999999999998e+00	 9.999547815384609e+00
0	 7.500000000000000e+00	 9.874999999999996e+00	 9.997865146153835e+00
0	 7.500000000000000e+00	 1.000000000000000e+01	 9.995966153846133e+00
0	 7.500000000000000e+00	 0.000000000000000e+00	 1.002890584615385e+01
0	 7.500000000000001e+00	 1.250000000000000e-01	 1.003250587692308e+01
0	 7.500000000000000e+00	 2.500000000000000e-01	 1.003557449230769e+01
0	 7.499999999999999e+00	 3.750000000000001e-01	 1.003811169230769e+01
0	 7.500000000000001e+00	 5.000000000000000e-01	 1.004011747692307e+01
0	 7.500000000000000e+00	 6.250000000000000e-01	 1.004159184615385e+01
0	 7.500000000000000e+00	 7.500000000000000e-01	 1.004253480000000e+01
0	 7.500000000000000e+00	 8.749999999999999e-01	 1.004294633846154e+01
0	 7.500000000000001e+00	 1.000000000000000e+00	 1.004282646153846e+01
0	 7.500000000000000e+00	 1.125000000000000e+00	 1.004217516923077e+01
0	 7.500000000000000e+00	 1.250000000000000e+00	 1.004099246153846e+01
0	 7.625000000000000e+00	 0.000000000000000e+00	 1.002149281076923e+01
0	 7.624999999999998e+00	 1.250000000000000e-01	 1.002491687761538e+01
0	 7.624999999999998e+00	 2.499999999999999e-01	 1.002786862446153e+01
0	 7.624999999999998e+00	 3.750000000000001e-01	 1.003034805130769e+01
0	 7.625000000000000e+00	 5.000000000000000e-01	 1.003235515815384e+01
0	 7.624999999999999e+00	 6.250000000000001e-01	 1.003388994500000e+01
0	 7.624999999999999e+00	 7.499999999999999e-01	 1.003495241184615e+01
0	 7.625000000000000e+00	 8.749999999999999e-01	 1.003554255869230e+01
0	 7.625000000000000e+00	 1.000000000000000e+00	 1.003566038553846e+01
0	 7.624999999999999e+00	 1.125000000000000e+00	 1.003530589238462e+01
0	 7.624999999999999e+00	 1.250000000000000e+00	 1.003447907923077e+01
0	 7.749999999999998e+00	 0.000000000000000e+00	 1.001399665846153e+01
0	 7.750000000000001e+00	 1.250000000000000e-01	 1.001721640276923e+01
0	 7.749999999999999e+00	 2.500000000000000e-01	 1.002002292246154e+01
0	 7.749999999999999e+00	 3.750000000000001e-01	 1.002241621753846e+01
0	 7.749999999999999e+00	 5.000000000000001e-01	 1.002439628799999e+01
0	 7.750000000000000e+00	 6.250000000000000e-01	 1.002596313384615e+01
0	 7.749999999999999e+00	 7.499999999999999e-01	 1.002711675507692e+01
0	 7.749999999999999e+00	 8.750000000000000e-01	 1.002785715169230e+01
0	 7.750000000000000e+00	 9.999999999999999e-01	 1.002818432369230e+01
0	 7.749999999999998e+00	 1.125000000000000e+00	 1.002809827107692e+01
0	 7.749999999999998e+00	 1.250000000000000e+00	 1.002759899384615e+01
0	 7.874999999999999e+00	 0.000000000000000e+00	 1.000641738923077e+01
0	 7.874999999999998e+00	 1.250000000000000e-01	 1.000940445238462e+01
0	 7.874999999999999e+00	 2.500000000000000e-01	 1.001203738630769e+01
0	 7.874999999999999e+00	 3.750000000000001e-01	 1.001431619100000e+01
0	 7.875000000000000e+00	 5.000000000000001e-01	 1.001624086646154e+01
0	 7.874999999999999e+00	 6.250000000000000e-01	 1.001781141269231e+01
0	 7.874999999999998e+00	 7.499999999999999e-01	 1.001902782969231e+01
0	 7.874999999999999e+00	 8.749999999999999e-01	 1.001989011746154e+01
0	 7.874999999999996e+00	 9.999999999999998e-01	 1.002039827600000e+01
0	 7.875000000000000e+00	 1.125000000000000e+00	 1.002055230530769e+01
0	 7.874999999999998e+00	 1.250000000000000e+00	 1.002035220538461e+01
0	 7.999999999999999e+00	 0.000000000000000e+00	 9.998755003076925e+00
0	 7.999999999999997e+00	 1.250000000000000e-01	 1.000148102646154e+01
0	 7.999999999999998e+00	 2.499999999999999e-01	 1.000391201600000e+01
0	 7.999999999999996e+00	 3.750000000000000e-01	 1.000604797169230e+01
0	 7.999999999999998e+00	 5.000000000000000e-01	 1.000788889353846e+01
0	 7.999999999999997e+00	 6.250000000000000e-01	 1.000943478153846e+01
0	 7.999999999999998e+00	 7.500000000000000e-01	 1.001068563569230e+01
0	 7.999999999999999e+00	 8.750000000000000e-01	 1.001164145599999e+01
0	 7.999999999999998e+00	 9.999999999999998e-01	 1.001230224246153e+01
0	 8.000000000000000e+00	 1.125000000000000e+00	 1.001266799507692e+01
0	 7.999999999999998e+00	 1.250000000000000e+00	 1.001273871384615e+01
0	 8.124999999999998e+00	 0.000000000000000e+00	 9.991009499999997e+00
0	 8.124999999999996e+00	 1.250000000000000e-01	 9.993446124999998e+00
0	 8.125000000000000e+00	 2.500000000000001e-01	 9.995646811538460e+00
0	 8.124999999999998e+00	 3.750000000000000e-01	 9.997611559615383e+00
0	 8.124999999999996e+00	 4.999999999999999e-01	 9.999340369230762e+00
0	 8.124999999999998e+00	 6.250000000000000e-01	 1.000083324038461e+01
0	 8.124999999999998e+00	 7.500000000000000e-01	 1.000209017307692e+01
0	 8.124999999999998e+00	 8.750000000000000e-01	 1.000311116730769e+01
0	 8.124999999999996e+00	 9.999999999999998e-01	 1.000389622307692e+01
0	 8.125000000000000e+00	 1.125000000000000e+00	 1.000444534038461e+01
0	 8.124999999999998e+00	 1.250000000000000e+00	 1.000475851923076e+01
0	 8.249999999999998e+00	 0.000000000000000e+00	 9.983180880000004e+00
0	 8.249999999999998e+00	 1.250000000000000e-01	 9.985299747999997e+00
0	 8.249999999999998e+00	 2.500000000000000e-01	 9.987241772923076e+00
0	 8.249999999999998e+00	 3.750000000000001e-01	 9.989006954769231e+00
0	 8.249999999999998e+00	 5.000000000000001e-01	 9.990595293538458e+00
0	 8.249999999999998e+00	 6.250000000000002e-01	 9.992006789230766e+00
0	 8.249999999999996e+00	 7.499999999999999e-01	 9.993241441846148e+00
0	 8.249999999999998e+00	 8.750000000000000e-01	 9.994299251384614e+00
0	 8.249999999999996e+00	 9.999999999999997e-01	 9.995180217846148e+00
0	 8.249999999999996e+00	 1.125000000000000e+00	 9.995884341230767e+00
0	 8.249999999999996e+00	 1.250000000000000e+00	 9.996411621538460e+00
0	 8.374999999999998e+00	 0.000000000000000e+00	 9.975269143076922e+00
0	 8.374999999999996e+00	 1.250000000000000e-01	 9.977041895461536e+00
0	 8.374999999999996e+00	 2.500000000000001e-01	 9.978696900153849e+00
0	 8.374999999999998e+00	 3.750000000000000e-01	 9.980234157153845e+00
0	 8.374999999999996e+00	 5.000000000000000e-01	 9.981653666461536e+00
0	 8.374999999999998e+00	 6.250000000000001e-01	 9.982955428076927e+00
0	 8.374999999999998e+00	 7.500000000000000e-01	 9.984139441999998e+00
0	 8.374999999999996e+00	 8.750000000000000e-01	 9.985205708230767e+00
0	 8.374999999999996e+00	 9.999999999999999e-01	 9.986154226769225e+00
0	 8.374999999999996e+00	 1.125000000000000e+00	 9.986984997615384e+00
0	 8.374999999999996e+00	 1.250000000000000e+00	 9.987698020769230e+00
0	 8.499999999999996e+00	 0.000000000000000e+00	 9.967274289230771e+00
0	 8.499999999999996e+00	 1.250000000000000e-01	 9.968672567384614e+00
0	 8.499999999999996e+00	 2.500000000000001e-01	 9.970012193230772e+00
0	 8.499999999999998e+00	 3.750000000000001e-01	 9.971293166769231e+00
0	 8.499999999999995e+00	 5.000000000000000e-01	 9.972515487999999e+00
0	 8.499999999999995e+00	 6.249999999999999e-01	 9.973679156923072e+00
0	 8.499999999999998e+00	 7.499999999999999e-01	 9.974784173538460e+00
0	 8.499999999999996e+00	 8.750000000000000e-01	 9.975830537846152e+00
0	 8.499999999999996e+00	 9.999999999999999e-01	 9.976818249846152e+00
0	 8.499999999999996e+00	 1.125000000000000e+00	 9.977747309538456e+00
0	 8.499999999999996e+00	 1.250000000000000e+00	 9.978617716923074e+00
0	 8.624999999999996e+00	 0.000000000000000e+00	 9.959196318461535e+00
0	 8.624999999999998e+00	 1.250000000000000e-01	 9.960191763769231e+00
0	 8.624999999999996e+00	 2.500000000000000e-01	 9.961187652153843e+00
0	 8.624999999999998e+00	 3.750000000000001e-01	 9.962183983615384e+00
0	 8.624999999999995e+00	 4.999999999999999e-01	 9.963180758153845e+00
0	 8.624999999999996e+00	 6.250000000000000e-01	 9.964177975769223e+00
0	 8.624999999999995e+00	 7.500000000000000e-01	 9.965175636461534e+00
0	 8.624999999999996e+00	 8.750000000000000e-01	 9.966173740230770e+00
0	 8.624999999999995e+00	 9.999999999999998e-01	 9.967172287076925e+00
0	 8.624999999999996e+00	 1.125000000000000e+00	 9.968171276999998e+00
0	 8.624999999999996e+00	 1.250000000000000e+00	 9.969170709999997e+00
0	 8.750000000000000e+00	 0.000000000000000e+00	 9.951035230769232e+00
0	 8.750000000000002e+00	 1.250000000000000e-01	 9.951599484615382e+00
0	 8.750000000000000e+00	 2.500000000000000e-01	 9.952223276923075e+00
0	 8.750000000000000e+00	 3.750000000000001e-01	 9.952906607692302e+00
0	 8.750000000000000e+00	 5.000000000000000e-01	 9.953649476923079e+00
0	 8.750000000000000e+00	 6.250000000000000e-01	 9.954451884615384e+00
0	 8.750000000000000e+00	 7.500000000000000e-01	 9.955313830769224e+00
0	 8.750000000000000e+00	 8.749999999999999e-01	 9.956235315384610e+00
0	 8.750000000000000e+00	 1.000000000000000e+00	 9.957216338461539e+00
0	 8.750000000000000e+00	 1.125000000000000e+00	 9.958256900000000e+00
0	 8.750000000000000e+00	 1.250000000000000e+00	 9.959356999999997e+00
0	 7.500000000000000e+00	 1.250000000000000e+00	 1.004099246153846e+01
0	 7.500000000000000e+00	 1.375000000000000e+00	 1.004435941538462e+01
0	 7.500000000000000e+00	 1.500000000000000e+00	 1.004765446153846e+01
0	 7.500000000000001e+00	 1.625000000000000e+00	 1.005087760000000e+01
0	 7.500000000000000e+00	 1.750000000000000e+00	 1.005402883076923e+01
0	 7.500000000000000e+00	 1.875000000000000e+00	 1.005710815384615e+01
0	 7.500000000000000e+00	 2.000000000000000e+00	 1.006011556923077e+01
0	 7.499999999999999e+00	 2.125000000000001e+00	 1.006305107692308e+01
0	 7.500000000000001e+00	 2.250000000000001e+00	 1.006591467692308e+01
0	 7.500000000000000e+00	 2.375000000000001e+00	 1.006870636923077e+01
0	 7.500000000000000e+00	 2.500000000000000e+00	 1.007142615384615e+01
0	 7.624999999999999e+00	 1.250000000000000e+00	 1.003447907923077e+01
0	 7.624999999999999e+00	 1.375000000000000e+00	 1.003745741515384e+01
0	 7.624999999999999e+00	 1.500000000000000e+00	 1.004036923415384e+01
0	 7.625000000000000e+00	 1.625000000000000e+00	 1.004321453623077e+01
0	 7.625000000000001e+00	 1.750000000000001e+00	 1.004599332138461e+01
0	 7.625000000000000e+00	 1.875000000000001e+00	 1.004870558961539e+01
0	 7.625000000000000e+00	 2.000000000000001e+00	 1.005135134092308e+01
0	 7.625000000000000e+00	 2.125000000000001e+00	 1.005393057530770e+01
0	 7.624999999999999e+00	 2.250000000000000e+00	 1.005644329276923e+01
0	 7.624999999999997e+00	 2.375000000000000e+00	 1.005888949330770e+01
0	 7.624999999999999e+00	 2.500000000000000e+00	 1.006126917692308e+01
0	 7.749999999999998e+00	 1.250000000000000e+00	 1.002759899384615e+01
0	 7.749999999999999e+00	 1.375000000000000e+00	 1.003025487907692e+01
0	 7.750000000000001e+00	 1.500000000000000e+00	 1.003284963815385e+01
0	 7.749999999999999e+00	 1.625000000000000e+00	 1.003538327107692e+01
0	 7.749999999999999e+00	 1.750000000000001e+00	 1.003785577784616e+01
0	 7.749999999999999e+00	 1.875000000000001e+00	 1.004026715846154e+01
0	 7.749999999999999e+00	 2.000000000000001e+00	 1.004261741292308e+01
0	 7.749999999999999e+00	 2.125000000000000e+00	 1.004490654123077e+01
0	 7.750000000000000e+00	 2.250000000000000e+00	 1.004713454338461e+01
0	 7.749999999999999e+00	 2.375000000000001e+00	 1.004930141938461e+01
0	 7.749999999999998e+00	 2.500000000000000e+00	 1.005140716923077e+01
0	 7.874999999999998e+00	 1.250000000000000e+00	 1.002035220538461e+01
0	 7.874999999999999e+00	 1.375000000000000e+00	 1.002275180715384e+01
0	 7.874999999999999e+00	 1.500000000000000e+00	 1.002509567353846e+01
0	 7.874999999999998e+00	 1.625000000000000e+00	 1.002738380453846e+01
0	 7.874999999999998e+00	 1.750000000000000e+00	 1.002961620015384e+01
0	 7.874999999999997e+00	 1.875000000000000e+00	 1.003179286038462e+01
0	 7.874999999999997e+00	 2.000000000000000e+00	 1.003391378523077e+01
0	 7.874999999999999e+00	 2.125000000000000e+00	 1.003597897469231e+01
0	 7.874999999999999e+00	 2.250000000000001e+00	 1.003798842876923e+01
0	 7.874999999999999e+00	 2.375000000000001e+00	 1.003994214746154e+01
0	 7.874999999999998e+00	 2.500000000000000e+00	 1.004184013076923e+01
0	 7.999999999999998e+00	 1.250000000000000e+00	 1.001273871384615e+01
0	 7.999999999999998e+00	 1.375000000000000e+00	 1.001494819938461e+01
0	 7.999999999999996e+00	 1.500000000000000e+00	 1.001710734030769e+01
0	 7.999999999999998e+00	 1.625000000000000e+00	 1.001921613661538e+01
0	 7.999999999999999e+00	 1.750000000000001e+00	 1.002127458830769e+01
0	 7.999999999999997e+00	 1.875000000000000e+00	 1.002328269538461e+01
0	 8.000000000000000e+00	 2.000000000000001e+00	 1.002524045784615e+01
0	 7.999999999999998e+00	 2.125000000000001e+00	 1.002714787569231e+01
0	 7.999999999999999e+00	 2.250000000000001e+00	 1.002900494892308e+01
0	 7.999999999999999e+00	 2.375000000000001e+00	 1.003081167753846e+01
0	 7.999999999999998e+00	 2.500000000000000e+00	 1.003256806153847e+01
0	 8.124999999999998e+00	 1.250000000000000e+00	 1.000475851923076e+01
0	 8.124999999999996e+00	 1.375000000000000e+00	 1.000684405576923e+01
0	 8.124999999999998e+00	 1.500000000000000e+00	 1.000888463846153e+01
0	 8.124999999999998e+00	 1.625000000000000e+00	 1.001088026730769e+01
0	 8.124999999999998e+00	 1.750000000000001e+00	 1.001283094230769e+01
0	 8.125000000000000e+00	 1.875000000000000e+00	 1.001473666346154e+01
0	 8.124999999999998e+00	 2.000000000000001e+00	 1.001659743076923e+01
0	 8.124999999999998e+00	 2.125000000000001e+00	 1.001841324423077e+01
0	 8.124999999999998e+00	 2.250000000000001e+00	 1.002018410384615e+01
0	 8.124999999999998e+00	 2.375000000000001e+00	 1.002191000961538e+01
0	 8.124999999999998e+00	 2.500000000000000e+00	 1.002359096153846e+01
0	 8.249999999999996e+00	 1.250000000000000e+00	 9.996411621538460e+00
0	 8.249999999999995e+00	 1.375000000000000e+00	 9.998439376307692e+00
0	 8.249999999999998e+00	 1.500000000000001e+00	 1.000042756800000e+01
0	 8.249999999999996e+00	 1.625000000000000e+00	 1.000237619661538e+01
0	 8.249999999999996e+00	 1.750000000000000e+00	 1.000428526215385e+01
0	 8.249999999999998e+00	 1.875000000000001e+00	 1.000615476461538e+01
0	 8.249999999999998e+00	 2.000000000000000e+00	 1.000798470400000e+01
0	 8.249999999999996e+00	 2.125000000000001e+00	 1.000977508030769e+01
0	 8.249999999999998e+00	 2.250000000000001e+00	 1.001152589353846e+01
0	 8.249999999999995e+00	 2.375000000000001e+00	 1.001323714369230e+01
0	 8.249999999999996e+00	 2.500000000000000e+00	 1.001490883076923e+01
0	 8.374999999999996e+00	 1.250000000000000e+00	 9.987698020769230e+00
0	 8.374999999999996e+00	 1.375000000000000e+00	 9.989734161000001e+00
0	 8.374999999999998e+00	 1.500000000000000e+00	 9.991736128923069e+00
0	 8.374999999999996e+00	 1.625000000000000e+00	 9.993703924538458e+00
0	 8.375000000000000e+00	 1.750000000000000e+00	 9.995637547846155e+00
0	 8.374999999999998e+00	 1.875000000000001e+00	 9.997536998846154e+00
0	 8.374999999999995e+00	 2.000000000000001e+00	 9.999402277538460e+00
0	 8.374999999999998e+00	 2.125000000000001e+00	 1.000123338392308e+01
0	 8.374999999999996e+00	 2.250000000000001e+00	 1.000303031800000e+01
0	 8.374999999999996e+00	 2.375000000000001e+00	 1.000479307976923e+01
0	 8.374999999999996e+00	 2.500000000000000e+00	 1.000652166923077e+01
0	 8.499999999999996e+00	 1.250000000000000e+00	 9.978617716923074e+00
0	 8.499999999999996e+00	 1.375000000000000e+00	 9.980728409846154e+00
0	 8.499999999999996e+00	 1.500000000000000e+00	 9.982810321230764e+00
0	 8.499999999999996e+00	 1.625000000000000e+00	 9.984863451076922e+00
0	 8.499999999999996e+00	 1.750000000000001e+00	 9.986887799384613e+00
0	 8.499999999999996e+00	 1.875000000000000e+00	 9.988883366153846e+00
0	 8.499999999999998e+00	 2.000000000000001e+00	 9.990850151384612e+00
0	 8.499999999999996e+00	 2.125000000000000e+00	 9.992788155076921e+00
0	 8.499999999999996e+00	 2.250000000000001e+00	 9.994697377230771e+00
0	 8.499999999999996e+00	 2.375000000000001e+00	 9.996577817846156e+00
0	 8.499999999999996e+00	 2.500000000000000e+00	 9.998429476923077e+00
0	 8.624999999999996e+00	 1.250000000000000e+00	 9.969170709999997e+00
0	 8.624999999999998e+00	 1.375000000000000e+00	 9.971422122846151e+00
0	 8.624999999999996e+00	 1.500000000000000e+00	 9.973650144923074e+00
0	 8.624999999999995e+00	 1.625000000000000e+00	 9.975854776230765e+00
0	 8.624999999999998e+00	 1.750000000000000e+00	 9.978036016769224e+00
0	 8.624999999999996e+00	 1.875000000000000e+00	 9.980193866538460e+00
0	 8.624999999999996e+00	 2.000000000000001e+00	 9.982328325538461e+00
0	 8.624999999999996e+00	 2.125000000000000e+00	 9.984439393769232e+00
0	 8.624999999999996e+00	 2.250000000000001e+00	 9.986527071230766e+00
0	 8.624999999999996e+00	 2.375000000000001e+00	 9.988591357923077e+00
0	 8.624999999999996e+00	 2.500000000000000e+00	 9.990632253846151e+00
0	 8.750000000000000e+00	 1.250000000000000e+00	 9.959356999999997e+00
0	 8.750000000000000e+00	 1.375000000000000e+00	 9.961815299999998e+00
0	 8.750000000000000e+00	 1.500000000000000e+00	 9.964255600000001e+00
0	 8.750000000000002e+00	 1.625000000000000e+00	 9.966677899999997e+00
0	 8.750000000000000e+00	 1.750000000000000e+00	 9.969082199999997e+00
0	 8.750000000000002e+00	 1.875000000000000e+00	 9.971468499999997e+00
0	 8.750000000000000e+00	 2.000000000000000e+00	 9.973836799999997e+00
0	 8.750000000000000e+00	 2.125000000000001e+00	 9.976187100000001e+00
0	 8.750000000000002e+00	 2.250000000000001e+00	 9.978519399999996e+00
0	 8.750000000000000e+00	 2.375000000000001e+00	 9.980833699999998e+00
0	 8.750000000000000e+00	 2.500000000000000e+00	 9.983129999999999e+00
0	 7.500000000000000e+00	 2.500000000000000e+00	 1.007142615384615e+01
0	 7.500000000000000e+00	 2.625000000000000e+00	 1.007060918461538e+01
0	 7.500000000000000e+00	 2.750000000000000e+00	 1.007003443076923e+01
0	 7.500000000000001e+00	 2.875000000000001e+00	 1.006970189230770e+01
0	 7.500000000000000e+00	 3.000000000000000e+00	 1.006961156923077e+01
0	 7.500000000000000e+00	 3.125000000000000e+00	 1.006976346153846e+01
0	 7.500000000000000e+00	 3.250000000000000e+00	 1.007015756923077e+01
0	 7.499999999999999e+00	 3.375000000000001e+00	 1.007079389230769e+01
0	 7.500000000000001e+00	 3.500000000000001e+00	 1.007167243076923e+01
0	 7.500000000000000e+00	 3.625000000000001e+00	 1.007279318461539e+01
0	 7.500000000000000e+00	 3.750000000000000e+00	 1.007415615384615e+01
0	 7.624999999999999e+00	 2.500000000000000e+00	 1.006126917692308e+01
0	 7.624999999999999e+00	 2.625000000000000e+00	 1.006093194923077e+01
0	 7.624999999999999e+00	 2.750000000000000e+00	 1.006081361076923e+01
0	 7.625000000000000e+00	 2.875000000000000e+00	 1.006091416153846e+01
0	 7.625000000000001e+00	 3.000000000000001e+00	 1.006123360153846e+01
0	 7.625000000000000e+00	 3.125000000000001e+00	 1.006177193076923e+01
0	 7.625000000000000e+00	 3.250000000000001e+00	 1.006252914923077e+01
0	 7.625000000000000e+00	 3.375000000000001e+00	 1.006350525692307e+01
0	 7.624999999999999e+00	 3.500000000000000e+00	 1.006470025384615e+01
0	 7.624999999999997e+00	 3.625000000000000e+00	 1.006611414000000e+01
0	 7.624999999999999e+00	 3.750000000000000e+00	 1.006774691538461e+01
0	 7.749999999999998e+00	 2.500000000000000e+00	 1.005140716923077e+01
0	 7.749999999999999e+00	 2.625000000000000e+00	 1.005151886153846e+01
0	 7.750000000000001e+00	 2.750000000000001e+00	 1.005182611692308e+01
0	 7.749999999999999e+00	 2.875000000000000e+00	 1.005232893538461e+01
0	 7.749999999999999e+00	 3.000000000000000e+00	 1.005302731692308e+01
0	 7.749999999999999e+00	 3.125000000000001e+00	 1.005392126153846e+01
0	 7.749999999999999e+00	 3.250000000000001e+00	 1.005501076923077e+01
0	 7.749999999999999e+00	 3.375000000000000e+00	 1.005629584000000e+01
0	 7.750000000000000e+00	 3.500000000000001e+00	 1.005777647384615e+01
0	 7.749999999999999e+00	 3.625000000000002e+00	 1.005945267076923e+01
0	 7.749999999999998e+00	 3.750000000000000e+00	 1.006132443076923e+01
0	 7.874999999999998e+00	 2.500000000000000e+00	 1.004184013076923e+01
0	 7.874999999999999e+00	 2.625000000000000e+00	 1.004236992153847e+01
0	 7.874999999999999e+00	 2.750000000000000e+00	 1.004307194923077e+01
0	 7.874999999999998e+00	 2.875000000000000e+00	 1.004394621384616e+01
0	 7.874999999999998e+00	 3.000000000000000e+00	 1.004499271538462e+01
0	 7.874999999999997e+00	 3.125000000000000e+00	 1.004621145384616e+01
0	 7.874999999999997e+00	 3.250000000000000e+00	 1.004760242923077e+01
0	 7.874999999999999e+00	 3.375000000000001e+00	 1.004916564153846e+01
0	 7.874999999999999e+00	 3.500000000000001e+00	 1.005090109076923e+01
0	 7.874999999999999e+00	 3.625000000000000e+00	 1.005280877692307e+01
0	 7.874999999999998e+00	 3.750000000000000e+00	 1.005488870000000e+01
0	 7.999999999999998e+00	 2.500000000000000e+00	 1.003256806153847e+01
0	 7.999999999999998e+00	 2.625000000000000e+00	 1.003348512923077e+01
0	 7.999999999999996e+00	 2.750000000000000e+00	 1.003455110769231e+01
0	 7.999999999999998e+00	 2.875000000000000e+00	 1.003576599692308e+01
0	 7.999999999999999e+00	 3.000000000000000e+00	 1.003712979692308e+01
0	 7.999999999999997e+00	 3.125000000000000e+00	 1.003864250769231e+01
0	 8.000000000000000e+00	 3.250000000000001e+00	 1.004030412923077e+01
0	 7.999999999999998e+00	 3.375000000000001e+00	 1.004211466153846e+01
0	 7.999999999999999e+00	 3.500000000000001e+00	 1.004407410461538e+01
0	 7.999999999999999e+00	 3.625000000000001e+00	 1.004618245846154e+01
0	 7.999999999999998e+00	 3.750000000000000e+00	 1.004843972307692e+01
0	 8.124999999999998e+00	 2.500000000000000e+00	 1.002359096153846e+01
0	 8.124999999999996e+00	 2.625000000000000e+00	 1.002486448461539e+01
0	 8.124999999999998e+00	 2.750000000000000e+00	 1.002626359230769e+01
0	 8.124999999999998e+00	 2.875000000000000e+00	 1.002778828461538e+01
0	 8.124999999999998e+00	 3.000000000000000e+00	 1.002943856153847e+01
0	 8.125000000000000e+00	 3.125000000000000e+00	 1.003121442307692e+01
0	 8.124999999999998e+00	 3.250000000000000e+00	 1.003311586923077e+01
0	 8.124999999999998e+00	 3.375000000000001e+00	 1.003514290000000e+01
0	 8.124999999999998e+00	 3.500000000000000e+00	 1.003729551538462e+01
0	 8.124999999999998e+00	 3.625000000000001e+00	 1.003957371538461e+01
0	 8.124999999999998e+00	 3.750000000000000e+00	 1.004197750000000e+01
0	 8.249999999999996e+00	 2.500000000000000e+00	 1.001490883076923e+01
0	 8.249999999999995e+00	 2.625000000000000e+00	 1.001650798769231e+01
0	 8.249999999999998e+00	 2.750000000000000e+00	 1.001820940307692e+01
0	 8.249999999999996e+00	 2.875000000000000e+00	 1.002001307692308e+01
0	 8.249999999999996e+00	 3.000000000000000e+00	 1.002191900923077e+01
0	 8.249999999999998e+00	 3.125000000000000e+00	 1.002392720000000e+01
0	 8.249999999999998e+00	 3.250000000000000e+00	 1.002603764923077e+01
0	 8.249999999999996e+00	 3.375000000000000e+00	 1.002825035692307e+01
0	 8.249999999999998e+00	 3.500000000000001e+00	 1.003056532307692e+01
0	 8.249999999999995e+00	 3.625000000000000e+00	 1.003298254769231e+01
0	 8.249999999999996e+00	 3.750000000000000e+00	 1.003550203076923e+01
0	 8.374999999999996e+00	 2.500000000000000e+00	 1.000652166923077e+01
0	 8.374999999999996e+00	 2.625000000000000e+00	 1.000841563846154e+01
0	 8.374999999999998e+00	 2.750000000000000e+00	 1.001038854000000e+01
0	 8.374999999999996e+00	 2.875000000000000e+00	 1.001244037384615e+01
0	 8.375000000000000e+00	 3.000000000000001e+00	 1.001457114000000e+01
0	 8.374999999999998e+00	 3.125000000000001e+00	 1.001678083846154e+01
0	 8.374999999999995e+00	 3.250000000000000e+00	 1.001906946923077e+01
0	 8.374999999999998e+00	 3.375000000000001e+00	 1.002143703230770e+01
0	 8.374999999999996e+00	 3.500000000000001e+00	 1.002388352769231e+01
0	 8.374999999999996e+00	 3.625000000000001e+00	 1.002640895538461e+01
0	 8.374999999999996e+00	 3.750000000000000e+00	 1.002901331538462e+01
0	 8.499999999999996e+00	 2.500000000000000e+00	 9.998429476923077e+00
0	 8.499999999999996e+00	 2.625000000000000e+00	 1.000058743692308e+01
0	 8.499999999999996e+00	 2.750000000000000e+00	 1.000280100307692e+01
0	 8.499999999999996e+00	 2.875000000000000e+00	 1.000507017538462e+01
0	 8.499999999999996e+00	 3.000000000000000e+00	 1.000739495384615e+01
0	 8.499999999999996e+00	 3.125000000000000e+00	 1.000977533846154e+01
0	 8.499999999999998e+00	 3.250000000000002e+00	 1.001221132923077e+01
0	 8.499999999999996e+00	 3.375000000000000e+00	 1.001470292615384e+01
0	 8.499999999999996e+00	 3.500000000000001e+00	 1.001725012923077e+01
0	 8.499999999999996e+00	 3.625000000000001e+00	 1.001985293846154e+01
0	 8.499999999999996e+00	 3.750000000000000e+00	 1.002251135384615e+01
0	 8.624999999999996e+00	 2.500000000000000e+00	 9.990632253846151e+00
0	 8.624999999999998e+00	 2.625000000000001e+00	 9.993023383076920e+00
0	 8.624999999999996e+00	 2.750000000000000e+00	 9.995446792307693e+00
0	 8.624999999999995e+00	 2.875000000000000e+00	 9.997902481538459e+00
0	 8.624999999999998e+00	 3.000000000000001e+00	 1.000039045076923e+01
0	 8.624999999999996e+00	 3.125000000000000e+00	 1.000291070000000e+01
0	 8.624999999999996e+00	 3.250000000000000e+00	 1.000546322923077e+01
0	 8.624999999999996e+00	 3.375000000000000e+00	 1.000804803846154e+01
0	 8.624999999999996e+00	 3.500000000000000e+00	 1.001066512769231e+01
0	 8.624999999999996e+00	 3.625000000000001e+00	 1.001331449692308e+01
0	 8.624999999999996e+00	 3.750000000000000e+00	 1.001599614615385e+01
0	 8.750000000000000e+00	 2.500000000000000e+00	 9.983129999999999e+00
0	 8.750000000000000e+00	 2.625000000000000e+00	 9.985723476923075e+00
0	 8.750000000000000e+00	 2.750000000000000e+00	 9.988325907692310e+00
0	 8.750000000000002e+00	 2.875000000000001e+00	 9.990937292307697e+00
0	 8.750000000000000e+00	 3.000000000000000e+00	 9.993557630769228e+00
0	 8.750000000000002e+00	 3.125000000000000e+00	 9.996186923076920e+00
0	 8.750000000000000e+00	 3.250000000000000e+00	 9.998825169230770e+00
0	 8.750000000000000e+00	 3.375000000000001e+00	 1.000147236923077e+01
0	 8.750000000000002e+00	 3.500000000000001e+00	 1.000412852307692e+01
0	 8.750000000000000e+00	 3.625000000000001e+00	 1.000679363076923e+01
0	 8.750000000000000e+00	 3.750000000000000e+00	 1.000946769230769e+01
0	 7.500000000000000e+00	 3.750000000000000e+00	 1.007415615384615e+01
0	 7.500000000000000e+00	 3.875000000000000e+00	 1.007357200000000e+01
0	 7.500000000000000e+00	 4.000000000000001e+00	 1.007305569230770e+01
0	 7.500000000000001e+00	 4.125000000000001e+00	 1.007260723076923e+01
0	 7.500000000000000e+00	 4.250000000000001e+00	 1.007222661538462e+01
0	 7.500000000000000e+00	 4.375000000000001e+00	 1.007191384615384e+01
0	 7.500000000000000e+00	 4.500000000000000e+00	 1.007166892307692e+01
0	 7.499999999999999e+00	 4.625000000000001e+00	 1.007149184615385e+01
0	 7.500000000000001e+00	 4.750000000000002e+00	 1.007138261538462e+01
0	 7.500000000000000e+00	 4.875000000000002e+00	 1.007134123076923e+01
0	 7.500000000000000e+00	 5.000000000000000e+00	 1.007136769230769e+01
0	 7.624999999999999e+00	 3.750000000000000e+00	 1.006774691538461e+01
0	 7.624999999999999e+00	 3.875000000000000e+00	 1.006710815461538e+01
0	 7.624999999999999e+00	 4.000000000000001e+00	 1.006653912307692e+01
0	 7.625000000000000e+00	 4.125000000000000e+00	 1.006603982076922e+01
0	 7.625000000000001e+00	 4.250000000000002e+00	 1.006561024769230e+01
0	 7.625000000000000e+00	 4.375000000000001e+00	 1.006525040384616e+01
0	 7.625000000000000e+00	 4.500000000000001e+00	 1.006496028923076e+01
0	 7.625000000000000e+00	 4.625000000000000e+00	 1.006473990384615e+01
0	 7.624999999999999e+00	 4.750000000000001e+00	 1.006458924769230e+01
0	 7.624999999999997e+00	 4.874999999999999e+00	 1.006450832076923e+01
0	 7.624999999999999e+00	 4.999999999999999e+00	 1.006449712307692e+01
0	 7.749999999999998e+00	 3.750000000000000e+00	 1.006132443076923e+01
0	 7.749999999999999e+00	 3.875000000000000e+00	 1.006067027384616e+01
0	 7.750000000000001e+00	 4.000000000000001e+00	 1.006008772923077e+01
0	 7.749999999999999e+00	 4.125000000000001e+00	 1.005957679692308e+01
0	 7.749999999999999e+00	 4.250000000000001e+00	 1.005913747692307e+01
0	 7.749999999999999e+00	 4.375000000000002e+00	 1.005876976923077e+01
0	 7.749999999999999e+00	 4.500000000000001e+00	 1.005847367384615e+01
0	 7.749999999999999e+00	 4.625000000000000e+00	 1.005824919076922e+01
0	 7.750000000000000e+00	 4.750000000000001e+00	 1.005809632000000e+01
0	 7.749999999999999e+00	 4.875000000000001e+00	 1.005801506153846e+01
0	 7.749999999999998e+00	 4.999999999999999e+00	 1.005800541538462e+01
0	 7.874999999999998e+00	 3.750000000000000e+00	 1.005488870000000e+01
0	 7.874999999999999e+00	 3.875000000000000e+00	 1.005425835769231e+01
0	 7.874999999999999e+00	 4.000000000000000e+00	 1.005370151076923e+01
0	 7.874999999999998e+00	 4.125000000000000e+00	 1.005321815923076e+01
0	 7.874999999999998e+00	 4.250000000000002e+00	 1.005280830307692e+01
0	 7.874999999999997e+00	 4.375000000000000e+00	 1.005247194230769e+01
0	 7.874999999999997e+00	 4.500000000000001e+00	 1.005220907692307e+01
0	 7.874999999999999e+00	 4.625000000000001e+00	 1.005201970692307e+01
0	 7.874999999999999e+00	 4.750000000000001e+00	 1.005190383230769e+01
0	 7.874999999999999e+00	 4.875000000000001e+00	 1.005186145307692e+01
0	 7.874999999999998e+00	 5.000000000000000e+00	 1.005189256923077e+01
0	 7.999999999999998e+00	 3.750000000000000e+00	 1.004843972307692e+01
0	 7.999999999999998e+00	 3.875000000000000e+00	 1.004787240615384e+01
0	 7.999999999999996e+00	 4.000000000000000e+00	 1.004738046769230e+01
0	 7.999999999999998e+00	 4.125000000000001e+00	 1.004696390769231e+01
0	 7.999999999999999e+00	 4.250000000000001e+00	 1.004662272615385e+01
0	 7.999999999999997e+00	 4.375000000000000e+00	 1.004635692307692e+01
0	 8.000000000000000e+00	 4.500000000000000e+00	 1.004616649846154e+01
0	 7.999999999999998e+00	 4.625000000000001e+00	 1.004605145230769e+01
0	 7.999999999999999e+00	 4.750000000000001e+00	 1.004601178461538e+01
0	 7.999999999999999e+00	 4.875000000000001e+00	 1.004604749538462e+01
0	 7.999999999999998e+00	 5.000000000000001e+00	 1.004615858461539e+01
0	 8.124999999999998e+00	 3.750000000000000e+00	 1.004197750000000e+01
0	 8.124999999999996e+00	 3.874999999999999e+00	 1.004151241923076e+01
0	 8.124999999999998e+00	 4.000000000000000e+00	 1.004112460000000e+01
0	 8.124999999999998e+00	 4.125000000000000e+00	 1.004081404230769e+01
0	 8.124999999999998e+00	 4.250000000000000e+00	 1.004058074615384e+01
0	 8.125000000000000e+00	 4.375000000000000e+00	 1.004042471153846e+01
0	 8.124999999999998e+00	 4.500000000000001e+00	 1.004034593846154e+01
0	 8.124999999999998e+00	 4.625000000000002e+00	 1.004034442692307e+01
0	 8.124999999999998e+00	 4.750000000000001e+00	 1.004042017692307e+01
0	 8.124999999999998e+00	 4.875000000000001e+00	 1.004057318846153e+01
0	 8.124999999999998e+00	 5.000000000000000e+00	 1.004080346153846e+01
0	 8.249999999999996e+00	 3.750000000000000e+00	 1.003550203076923e+01
0	 8.249999999999995e+00	 3.875000000000000e+00	 1.003517839692307e+01
0	 8.249999999999998e+00	 4.000000000000001e+00	 1.003493390769230e+01
0	 8.249999999999996e+00	 4.125000000000000e+00	 1.003476856307693e+01
0	 8.249999999999996e+00	 4.249999999999999e+00	 1.003468236307692e+01
0	 8.249999999999998e+00	 4.375000000000001e+00	 1.003467530769231e+01
0	 8.249999999999998e+00	 4.500000000000000e+00	 1.003474739692308e+01
0	 8.249999999999996e+00	 4.625000000000001e+00	 1.003489863076923e+01
0	 8.249999999999998e+00	 4.750000000000002e+00	 1.003512900923077e+01
0	 8.249999999999995e+00	 4.875000000000000e+00	 1.003543853230769e+01
0	 8.249999999999996e+00	 5.000000000000000e+00	 1.003582720000000e+01
0	 8.374999999999996e+00	 3.750000000000000e+00	 1.002901331538462e+01
0	 8.374999999999996e+00	 3.875000000000000e+00	 1.002887033923077e+01
0	 8.374999999999998e+00	 4.000000000000002e+00	 1.002880839076923e+01
0	 8.374999999999996e+00	 4.125000000000001e+00	 1.002882747000000e+01
0	 8.375000000000000e+00	 4.250000000000002e+00	 1.002892757692307e+01
0	 8.374999999999998e+00	 4.375000000000001e+00	 1.002910871153846e+01
0	 8.374999999999995e+00	 4.500000000000001e+00	 1.002937087384615e+01
0	 8.374999999999998e+00	 4.625000000000002e+00	 1.002971406384615e+01
0	 8.374999999999996e+00	 4.750000000000000e+00	 1.003013828153845e+01
0	 8.374999999999996e+00	 4.875000000000001e+00	 1.003064352692307e+01
0	 8.374999999999996e+00	 5.000000000000000e+00	 1.003122980000000e+01
0	 8.499999999999996e+00	 3.750000000000000e+00	 1.002251135384615e+01
0	 8.499999999999996e+00	 3.875000000000000e+00	 1.002258824615385e+01
0	 8.499999999999996e+00	 3.999999999999999e+00	 1.002274804923077e+01
0	 8.499999999999996e+00	 4.124999999999999e+00	 1.002299076307692e+01
0	 8.499999999999996e+00	 4.250000000000001e+00	 1.002331638769230e+01
0	 8.499999999999996e+00	 4.375000000000001e+00	 1.002372492307692e+01
0	 8.499999999999998e+00	 4.500000000000001e+00	 1.002421636923076e+01
0	 8.499999999999996e+00	 4.625000000000000e+00	 1.002479072615384e+01
0	 8.499999999999996e+00	 4.750000000000000e+00	 1.002544799384616e+01
0	 8.499999999999996e+00	 4.875000000000002e+00	 1.002618817230769e+01
0	 8.499999999999996e+00	 4.999999999999999e+00	 1.002701126153846e+01
0	 8.624999999999996e+00	 3.750000000000000e+00	 1.001599614615385e+01
0	 8.624999999999998e+00	 3.875000000000000e+00	 1.001633211769230e+01
0	 8.624999999999996e+00	 4.000000000000000e+00	 1.001675288307692e+01
0	 8.624999999999995e+00	 4.125000000000000e+00	 1.001725844230769e+01
0	 8.624999999999998e+00	 4.250000000000000e+00	 1.001784879538461e+01
0	 8.624999999999996e+00	 4.375000000000001e+00	 1.001852394230770e+01
0	 8.624999999999996e+00	 4.500000000000001e+00	 1.001928388307692e+01
0	 8.624999999999996e+00	 4.625000000000001e+00	 1.002012861769230e+01
0	 8.624999999999996e+00	 4.750000000000000e+00	 1.002105814615384e+01
0	 8.624999999999996e+00	 4.875000000000001e+00	 1.002207246846154e+01
0	 8.624999999999996e+00	 5.000000000000000e+00	 1.002317158461538e+01
0	 8.750000000000000e+00	 3.750000000000000e+00	 1.000946769230769e+01
0	 8.750000000000000e+00	 3.875000000000000e+00	 1.001010195384615e+01
0	 8.750000000000000e+00	 4.000000000000001e+00	 1.001082289230770e+01
0	 8.750000000000002e+00	 4.125000000000001e+00	 1.001163050769231e+01
0	 8.750000000000000e+00	 4.250000000000001e+00	 1.001252480000000e+01
0	 8.750000000000002e+00	 4.375000000000001e+00	 1.001350576923077e+01
0	 8.750000000000000e+00	 4.500000000000000e+00	 1.001457341538461e+01
0	 8.750000000000000e+00	 4.625000000000001e+00	 1.001572773846154e+01
0	 8.750000000000002e+00	 4.750000000000002e+00	 1.001696873846154e+01
0	 8.750000000000000e+00	 4.875000000000002e+00	 1.001829641538461e+01
0	 8.750000000000000e+00	 5.000000000000000e+00	 1.001971076923076e+01
0	 7.500000000000000e+00	 5.000000000000000e+00	 1.007136769230769e+01
0	 7.500000000000001e+00	 5.124999999999999e+00	 1.006832090000001e+01
0	 7.500000000000002e+00	 5.250000000000000e+00	 1.006541575384616e+01
0	 7.500000000000000e+00	 5.374999999999998e+00	 1.006265225384615e+01
0	 7.500000000000000e+00	 5.499999999999999e+00	 1.006003040000000e+01
0	 7.500000000000000e+00	 5.624999999999997e+00	 1.005755019230770e+01
0	 7.500000000000000e+00	 5.749999999999997e+00	 1.005521163076921e+01
0	 7.499999999999999e+00	 5.874999999999996e+00	 1.005301471538461e+01
0	 7.500000000000001e+00	 5.999999999999996e+00	 1.005095944615384e+01
0	 7.500000000000000e+00	 6.124999999999996e+00	 1.004904582307693e+01
0	 7.500000000000000e+00	 6.250000000000000e+00	 1.004727384615384e+01
0	 7.624999999999999e+00	 4.999999999999999e+00	 1.006449712307692e+01
0	 7.624999999999999e+00	 5.125000000000001e+00	 1.006193405307692e+01
0	 7.624999999999999e+00	 5.249999999999998e+00	 1.005949982615384e+01
0	 7.624999999999999e+00	 5.374999999999998e+00	 1.005719444230769e+01
0	 7.625000000000000e+00	 5.499999999999999e+00	 1.005501790153846e+01
0	 7.625000000000001e+00	 5.624999999999998e+00	 1.005297020384615e+01
0	 7.625000000000001e+00	 5.749999999999999e+00	 1.005105134923076e+01
0	 7.625000000000000e+00	 5.874999999999997e+00	 1.004926133769230e+01
0	 7.625000000000002e+00	 5.999999999999998e+00	 1.004760016923076e+01
0	 7.624999999999997e+00	 6.124999999999994e+00	 1.004606784384615e+01
0	 7.624999999999999e+00	 6.249999999999999e+00	 1.004466436153845e+01
0	 7.749999999999998e+00	 4.999999999999999e+00	 1.005800541538462e+01
0	 7.749999999999999e+00	 5.125000000000000e+00	 1.005588690000000e+01
0	 7.750000000000000e+00	 5.250000000000000e+00	 1.005388442461539e+01
0	 7.750000000000000e+00	 5.375000000000000e+00	 1.005199798923077e+01
0	 7.749999999999996e+00	 5.499999999999997e+00	 1.005022759384615e+01
0	 7.750000000000000e+00	 5.624999999999998e+00	 1.004857323846154e+01
0	 7.749999999999996e+00	 5.749999999999997e+00	 1.004703492307692e+01
0	 7.749999999999999e+00	 5.874999999999998e+00	 1.004561264769230e+01
0	 7.749999999999998e+00	 5.999999999999996e+00	 1.004430641230768e+01
0	 7.750000000000001e+00	 6.124999999999997e+00	 1.004311621692307e+01
0	 7.749999999999998e+00	 6.250000000000000e+00	 1.004204206153846e+01
0	 7.874999999999998e+00	 5.000000000000000e+00	 1.005189256923077e+01
0	 7.874999999999999e+00	 5.125000000000000e+00	 1.005017944076922e+01
0	 7.875000000000000e+00	 5.249999999999999e+00	 1.004856954923077e+01
0	 7.874999999999999e+00	 5.374999999999998e+00	 1.004706289461538e+01
0	 7.874999999999999e+00	 5.499999999999998e+00	 1.004565947692308e+01
0	 7.874999999999998e+00	 5.624999999999998e+00	 1.004435929615384e+01
0	 7.874999999999999e+00	 5.749999999999998e+00	 1.004316235230769e+01
0	 7.874999999999998e+00	 5.874999999999997e+00	 1.004206864538461e+01
0	 7.875000000000000e+00	 5.999999999999997e+00	 1.004107817538461e+01
0	 7.874999999999996e+00	 6.124999999999996e+00	 1.004019094230769e+01
0	 7.874999999999998e+00	 6.250000000000000e+00	 1.003940694615384e+01
0	 7.999999999999998e+00	 5.000000000000001e+00	 1.004615858461539e+01
0	 7.999999999999998e+00	 5.124999999999999e+00	 1.004481167538462e+01
0	 7.999999999999999e+00	 5.250000000000000e+00	 1.004355520000000e+01
0	 7.999999999999998e+00	 5.375000000000000e+00	 1.004238915846154e+01
0	 7.999999999999997e+00	 5.499999999999999e+00	 1.004131355076922e+01
0	 7.999999999999998e+00	 5.624999999999998e+00	 1.004032837692307e+01
0	 7.999999999999997e+00	 5.749999999999997e+00	 1.003943363692307e+01
0	 7.999999999999998e+00	 5.874999999999996e+00	 1.003862933076923e+01
0	 7.999999999999998e+00	 5.999999999999997e+00	 1.003791545846154e+01
0	 7.999999999999998e+00	 6.124999999999996e+00	 1.003729202000000e+01
0	 7.999999999999998e+00	 6.250000000000000e+00	 1.003675901538460e+01
0	 8.124999999999998e+00	 5.000000000000000e+00	 1.004080346153846e+01
0	 8.124999999999998e+00	 5.124999999999998e+00	 1.003978360384615e+01
0	 8.124999999999998e+00	 5.249999999999999e+00	 1.003884137692307e+01
0	 8.125000000000000e+00	 5.375000000000000e+00	 1.003797678076923e+01
0	 8.124999999999995e+00	 5.499999999999998e+00	 1.003718981538461e+01
0	 8.124999999999998e+00	 5.624999999999997e+00	 1.003648048076923e+01
0	 8.125000000000000e+00	 5.749999999999998e+00	 1.003584877692307e+01
0	 8.124999999999998e+00	 5.874999999999996e+00	 1.003529470384616e+01
0	 8.124999999999998e+00	 5.999999999999996e+00	 1.003481826153845e+01
0	 8.124999999999998e+00	 6.124999999999996e+00	 1.003441945000000e+01
0	 8.124999999999998e+00	 6.250000000000000e+00	 1.003409826923077e+01
0	 8.249999999999996e+00	 5.000000000000000e+00	 1.003582720000000e+01
0	 8.249999999999996e+00	 5.124999999999999e+00	 1.003509522615384e+01
0	 8.249999999999996e+00	 5.249999999999999e+00	 1.003442807999999e+01
0	 8.249999999999995e+00	 5.374999999999999e+00	 1.003382576153845e+01
0	 8.250000000000000e+00	 5.500000000000000e+00	 1.003328827076923e+01
0	 8.249999999999998e+00	 5.624999999999999e+00	 1.003281560769231e+01
0	 8.249999999999998e+00	 5.749999999999997e+00	 1.003240777230769e+01
0	 8.249999999999998e+00	 5.874999999999997e+00	 1.003206476461538e+01
0	 8.249999999999996e+00	 5.999999999999997e+00	 1.003178658461538e+01
0	 8.249999999999996e+00	 6.124999999999996e+00	 1.003157323230770e+01
0	 8.249999999999996e+00	 6.250000000000000e+00	 1.003142470769230e+01
0	 8.374999999999996e+00	 5.000000000000000e+00	 1.003122980000000e+01
0	 8.374999999999996e+00	 5.124999999999999e+00	 1.003074654230769e+01
0	 8.374999999999998e+00	 5.249999999999999e+00	 1.003031530923077e+01
0	 8.374999999999998e+00	 5.375000000000000e+00	 1.002993610076923e+01
0	 8.374999999999996e+00	 5.499999999999998e+00	 1.002960891692307e+01
0	 8.375000000000000e+00	 5.624999999999998e+00	 1.002933375769230e+01
0	 8.374999999999998e+00	 5.749999999999997e+00	 1.002911062307692e+01
0	 8.374999999999998e+00	 5.874999999999996e+00	 1.002893951307692e+01
0	 8.374999999999996e+00	 5.999999999999996e+00	 1.002882042769230e+01
0	 8.374999999999998e+00	 6.124999999999996e+00	 1.002875336692307e+01
0	 8.374999999999996e+00	 6.250000000000000e+00	 1.002873833076922e+01
0	 8.499999999999996e+00	 4.999999999999999e+00	 1.002701126153846e+01
0	 8.500000000000000e+00	 5.125000000000002e+00	 1.002673755230768e+01
0	 8.499999999999996e+00	 5.249999999999999e+00	 1.002650306461538e+01
0	 8.499999999999996e+00	 5.374999999999999e+00	 1.002630779846153e+01
0	 8.499999999999996e+00	 5.499999999999998e+00	 1.002615175384615e+01
0	 8.499999999999996e+00	 5.624999999999997e+00	 1.002603493076923e+01
0	 8.499999999999996e+00	 5.749999999999997e+00	 1.002595732923077e+01
0	 8.499999999999996e+00	 5.874999999999996e+00	 1.002591894923076e+01
0	 8.499999999999996e+00	 5.999999999999996e+00	 1.002591979076923e+01
0	 8.499999999999996e+00	 6.124999999999996e+00	 1.002595985384615e+01
0	 8.499999999999996e+00	 6.250000000000000e+00	 1.002603913846153e+01
0	 8.624999999999996e+00	 5.000000000000000e+00	 1.002317158461538e+01
0	 8.624999999999998e+00	 5.125000000000000e+00	 1.002306825615384e+01
0	 8.624999999999996e+00	 5.250000000000000e+00	 1.002299134615384e+01
0	 8.624999999999996e+00	 5.374999999999999e+00	 1.002294085461538e+01
0	 8.624999999999996e+00	 5.499999999999998e+00	 1.002291678153846e+01
0	 8.624999999999996e+00	 5.624999999999998e+00	 1.002291912692307e+01
0	 8.624999999999995e+00	 5.749999999999998e+00	 1.002294789076923e+01
0	 8.624999999999995e+00	 5.874999999999996e+00	 1.002300307307691e+01
0	 8.624999999999996e+00	 5.999999999999996e+00	 1.002308467384615e+01
0	 8.624999999999996e+00	 6.124999999999996e+00	 1.002319269307691e+01
0	 8.624999999999996e+00	 6.250000000000000e+00	 1.002332713076922e+01
0	 8.750000000000000e+00	 5.000000000000000e+00	 1.001971076923076e+01
0	 8.750000000000000e+00	 5.124999999999999e+00	 1.001973865384616e+01
0	 8.750000000000002e+00	 5.250000000000000e+00	 1.001978015384615e+01
0	 8.750000000000000e+00	 5.374999999999998e+00	 1.001983526923076e+01
0	 8.750000000000000e+00	 5.499999999999999e+00	 1.001990400000000e+01
0	 8.750000000000000e+00	 5.624999999999997e+00	 1.001998634615385e+01
0	 8.750000000000000e+00	 5.749999999999997e+00	 1.002008230769230e+01
0	 8.750000000000000e+00	 5.874999999999996e+00	 1.002019188461539e+01
0	 8.750000000000000e+00	 5.999999999999996e+00	 1.002031507692307e+01
0	 8.750000000000000e+00	 6.124999999999996e+00	 1.002045188461539e+01
0	 8.750000000000000e+00	 6.250000000000000e+00	 1.002060230769230e+01
0	 7.500000000000000e+00	 6.250000000000000e+00	 1.004727384615384e+01
0	 7.500000000000001e+00	 6.375000000000000e+00	 1.004540852307690e+01
0	 7.500000000000002e+00	 6.500000000000000e+00	 1.004349916923076e+01
0	 7.500000000000000e+00	 6.624999999999998e+00	 1.004154578461539e+01
0	 7.500000000000000e+00	 6.749999999999998e+00	 1.003954836923077e+01
0	 7.500000000000000e+00	 6.874999999999998e+00	 1.003750692307692e+01
0	 7.500000000000000e+00	 6.999999999999997e+00	 1.003542144615385e+01
0	 7.499999999999999e+00	 7.124999999999996e+00	 1.003329193846154e+01
0	 7.500000000000001e+00	 7.249999999999997e+00	 1.003111840000000e+01
0	 7.500000000000000e+00	 7.374999999999996e+00	 1.002890083076923e+01
0	 7.500000000000000e+00	 7.500000000000000e+00	 1.002663923076924e+01
0	 7.624999999999999e+00	 6.249999999999999e+00	 1.004466436153845e+01
0	 7.624999999999999e+00	 6.375000000000000e+00	 1.004283023769230e+01
0	 7.624999999999999e+00	 6.500000000000000e+00	 1.004095978615384e+01
0	 7.624999999999999e+00	 6.624999999999998e+00	 1.003905300692308e+01
0	 7.625000000000000e+00	 6.749999999999998e+00	 1.003710989999999e+01
0	 7.625000000000001e+00	 6.874999999999998e+00	 1.003513046538461e+01
0	 7.625000000000001e+00	 6.999999999999999e+00	 1.003311470307692e+01
0	 7.625000000000000e+00	 7.124999999999998e+00	 1.003106261307693e+01
0	 7.625000000000002e+00	 7.249999999999999e+00	 1.002897419538461e+01
0	 7.624999999999997e+00	 7.374999999999995e+00	 1.002684945000000e+01
0	 7.624999999999999e+00	 7.500000000000000e+00	 1.002468837692309e+01
0	 7.749999999999998e+00	 6.250000000000000e+00	 1.004204206153846e+01
0	 7.749999999999999e+00	 6.375000000000000e+00	 1.004025029384614e+01
0	 7.750000000000000e+00	 6.499999999999999e+00	 1.003842990153845e+01
0	 7.750000000000000e+00	 6.624999999999999e+00	 1.003658088461538e+01
0	 7.749999999999996e+00	 6.749999999999997e+00	 1.003470324307692e+01
0	 7.750000000000000e+00	 6.874999999999997e+00	 1.003279697692308e+01
0	 7.749999999999996e+00	 6.999999999999995e+00	 1.003086208615384e+01
0	 7.749999999999999e+00	 7.124999999999997e+00	 1.002889857076922e+01
0	 7.749999999999998e+00	 7.249999999999996e+00	 1.002690643076923e+01
0	 7.750000000000001e+00	 7.374999999999998e+00	 1.002488566615386e+01
0	 7.749999999999998e+00	 7.500000000000001e+00	 1.002283627692308e+01
0	 7.874999999999998e+00	 6.250000000000000e+00	 1.003940694615384e+01
0	 7.874999999999999e+00	 6.375000000000000e+00	 1.003766869153845e+01
0	 7.875000000000000e+00	 6.500000000000000e+00	 1.003590951538462e+01
0	 7.874999999999999e+00	 6.625000000000000e+00	 1.003412941769231e+01
0	 7.874999999999999e+00	 6.749999999999997e+00	 1.003232839846154e+01
0	 7.874999999999998e+00	 6.874999999999997e+00	 1.003050645769231e+01
0	 7.874999999999999e+00	 6.999999999999996e+00	 1.002866359538461e+01
0	 7.874999999999998e+00	 7.124999999999996e+00	 1.002679981153846e+01
0	 7.875000000000000e+00	 7.249999999999996e+00	 1.002491510615386e+01
0	 7.874999999999996e+00	 7.374999999999996e+00	 1.002300947923077e+01
0	 7.874999999999998e+00	 7.500000000000001e+00	 1.002108293076923e+01
0	 7.999999999999998e+00	 6.250000000000000e+00	 1.003675901538460e+01
0	 7.999999999999998e+00	 6.375000000000000e+00	 1.003508543076923e+01
0	 7.999999999999999e+00	 6.500000000000000e+00	 1.003339862769231e+01
0	 7.999999999999998e+00	 6.624999999999999e+00	 1.003169860615384e+01
0	 7.999999999999997e+00	 6.749999999999997e+00	 1.002998536615383e+01
0	 7.999999999999998e+00	 6.874999999999998e+00	 1.002825890769231e+01
0	 7.999999999999997e+00	 6.999999999999996e+00	 1.002651923076923e+01
0	 7.999999999999998e+00	 7.124999999999996e+00	 1.002476633538462e+01
0	 7.999999999999998e+00	 7.249999999999997e+00	 1.002300022153846e+01
0	 7.999999999999998e+00	 7.374999999999996e+00	 1.002122088923077e+01
0	 7.999999999999998e+00	 7.500000000000000e+00	 1.001942833846154e+01
0	 8.124999999999998e+00	 6.250000000000000e+00	 1.003409826923077e+01
0	 8.124999999999998e+00	 6.375000000000000e+00	 1.003250051153846e+01
0	 8.124999999999998e+00	 6.499999999999999e+00	 1.003089723846154e+01
0	 8.125000000000000e+00	 6.624999999999999e+00	 1.002928845000000e+01
0	 8.124999999999995e+00	 6.749999999999996e+00	 1.002767414615385e+01
0	 8.124999999999998e+00	 6.874999999999998e+00	 1.002605432692308e+01
0	 8.125000000000000e+00	 6.999999999999998e+00	 1.002442899230769e+01
0	 8.124999999999998e+00	 7.124999999999997e+00	 1.002279814230769e+01
0	 8.124999999999998e+00	 7.249999999999996e+00	 1.002116177692307e+01
0	 8.124999999999998e+00	 7.374999999999998e+00	 1.001951989615386e+01
0	 8.124999999999998e+00	 7.500000000000001e+00	 1.001787250000000e+01
0	 8.249999999999996e+00	 6.250000000000000e+00	 1.003142470769230e+01
0	 8.249999999999996e+00	 6.375000000000001e+00	 1.002991393384616e+01
0	 8.249999999999996e+00	 6.499999999999997e+00	 1.002840534769230e+01
0	 8.249999999999995e+00	 6.624999999999998e+00	 1.002689894923076e+01
0	 8.250000000000000e+00	 6.750000000000000e+00	 1.002539473846153e+01
0	 8.249999999999998e+00	 6.874999999999999e+00	 1.002389271538462e+01
0	 8.249999999999998e+00	 6.999999999999997e+00	 1.002239287999999e+01
0	 8.249999999999998e+00	 7.124999999999998e+00	 1.002089523230769e+01
0	 8.249999999999996e+00	 7.249999999999998e+00	 1.001939977230770e+01
0	 8.249999999999996e+00	 7.374999999999996e+00	 1.001790650000000e+01
0	 8.249999999999996e+00	 7.500000000000000e+00	 1.001641541538461e+01
0	 8.374999999999996e+00	 6.250000000000000e+00	 1.002873833076922e+01
0	 8.374999999999996e+00	 6.375000000000000e+00	 1.002732569769232e+01
0	 8.374999999999998e+00	 6.500000000000000e+00	 1.002592295538461e+01
0	 8.374999999999998e+00	 6.624999999999999e+00	 1.002453010384616e+01
0	 8.374999999999996e+00	 6.749999999999998e+00	 1.002314714307692e+01
0	 8.375000000000000e+00	 6.874999999999998e+00	 1.002177407307692e+01
0	 8.374999999999998e+00	 6.999999999999998e+00	 1.002041089384615e+01
0	 8.374999999999998e+00	 7.124999999999998e+00	 1.001905760538460e+01
0	 8.374999999999996e+00	 7.249999999999996e+00	 1.001771420769231e+01
0	 8.374999999999998e+00	 7.374999999999997e+00	 1.001638070076923e+01
0	 8.374999999999996e+00	 7.500000000000000e+00	 1.001505708461540e+01
0	 8.499999999999996e+00	 6.250000000000000e+00	 1.002603913846153e+01
0	 8.500000000000000e+00	 6.375000000000002e+00	 1.002473580307692e+01
0	 8.499999999999996e+00	 6.499999999999999e+00	 1.002345006153846e+01
0	 8.499999999999996e+00	 6.624999999999999e+00	 1.002218191384615e+01
0	 8.499999999999996e+00	 6.749999999999998e+00	 1.002093136000000e+01
0	 8.499999999999996e+00	 6.874999999999998e+00	 1.001969839999999e+01
0	 8.499999999999996e+00	 6.999999999999996e+00	 1.001848303384615e+01
0	 8.499999999999996e+00	 7.124999999999996e+00	 1.001728526153846e+01
0	 8.499999999999996e+00	 7.249999999999996e+00	 1.001610508307692e+01
0	 8.499999999999996e+00	 7.374999999999996e+00	 1.001494249846154e+01
0	 8.499999999999996e+00	 7.500000000000001e+00	 1.001379750769231e+01
0	 8.624999999999996e+00	 6.250000000000000e+00	 1.002332713076922e+01
0	 8.624999999999998e+00	 6.375000000000000e+00	 1.002214425000000e+01
0	 8.624999999999996e+00	 6.500000000000000e+00	 1.002098666615384e+01
0	 8.624999999999996e+00	 6.624999999999999e+00	 1.001985437923077e+01
0	 8.624999999999996e+00	 6.749999999999998e+00	 1.001874738923076e+01
0	 8.624999999999996e+00	 6.874999999999999e+00	 1.001766569615384e+01
0	 8.624999999999995e+00	 6.999999999999996e+00	 1.001660930000000e+01
0	 8.624999999999995e+00	 7.124999999999996e+00	 1.001557820076923e+01
0	 8.624999999999996e+00	 7.249999999999996e+00	 1.001457239846154e+01
0	 8.624999999999996e+00	 7.374999999999995e+00	 1.001359189307691e+01
0	 8.624999999999996e+00	 7.500000000000000e+00	 1.001263668461537e+01
0	 8.750000000000000e+00	 6.250000000000000e+00	 1.002060230769230e+01
0	 8.750000000000000e+00	 6.375000000000000e+00	 1.001955103846153e+01
0	 8.750000000000002e+00	 6.500000000000000e+00	 1.001853276923077e+01
0	 8.750000000000000e+00	 6.624999999999998e+00	 1.001754750000000e+01
0	 8.750000000000000e+00	 6.749999999999998e+00	 1.001659523076923e+01
0	 8.750000000000000e+00	 6.874999999999998e+00	 1.001567596153846e+01
0	 8.750000000000000e+00	 6.999999999999997e+00	 1.001478969230769e+01
0	 8.750000000000000e+00	 7.124999999999996e+00	 1.001393642307692e+01
0	 8.750000000000000e+00	 7.249999999999997e+00	 1.001311615384615e+01
0	 8.750000000000000e+00	 7.374999999999996e+00	 1.001232888461538e+01
0	 8.750000000000000e+00	 7.500000000000000e+00	 1.001157461538462e+01
0	 7.500000000000000e+00	 7.500000000000000e+00	 1.002663923076924e+01
0	 7.500000000000001e+00	 7.625000000000000e+00	 1.002469643076924e+01
0	 7.500000000000002e+00	 7.750000000000000e+00	 1.002270941538463e+01
0	 7.500000000000000e+00	 7.874999999999998e+00	 1.002067818461538e+01
0	 7.500000000000000e+00	 7.999999999999999e+00	 1.001860273846154e+01
0	 7.500000000000000e+00	 8.124999999999998e+00	 1.001648307692309e+01
0	 7.500000000000000e+00	 8.249999999999998e+00	 1.001431920000000e+01
0	 7.499999999999999e+00	 8.374999999999996e+00	 1.001211110769231e+01
0	 7.500000000000001e+00	 8.499999999999996e+00	 1.000985880000001e+01
0	 7.500000000000000e+00	 8.624999999999996e+00	 1.000756227692309e+01
0	 7.500000000000000e+00	 8.750000000000000e+00	 1.000522153846154e+01
0	 7.624999999999999e+00	 7.500000000000000e+00	 1.002468837692309e+01
0	 7.624999999999999e+00	 7.625000000000000e+00	 1.002295027923077e+01
0	 7.624999999999999e+00	 7.749999999999999e+00	 1.002116809076923e+01
0	 7.624999999999999e+00	 7.874999999999999e+00	 1.001934181153847e+01
0	 7.625000000000000e+00	 7.999999999999998e+00	 1.001747144153847e+01
0	 7.625000000000001e+00	 8.124999999999998e+00	 1.001555698076923e+01
0	 7.625000000000001e+00	 8.250000000000000e+00	 1.001359842923077e+01
0	 7.625000000000000e+00	 8.375000000000000e+00	 1.001159578692309e+01
0	 7.625000000000002e+00	 8.500000000000000e+00	 1.000954905384615e+01
0	 7.624999999999997e+00	 8.624999999999995e+00	 1.000745823000001e+01
0	 7.624999999999999e+00	 8.750000000000000e+00	 1.000532331538461e+01
0	 7.749999999999998e+00	 7.500000000000001e+00	 1.002283627692308e+01
0	 7.749999999999999e+00	 7.624999999999999e+00	 1.002128539230770e+01
0	 7.750000000000000e+00	 7.750000000000000e+00	 1.001969054153847e+01
0	 7.750000000000000e+00	 7.874999999999999e+00	 1.001805172461538e+01
0	 7.749999999999996e+00	 7.999999999999998e+00	 1.001636894153846e+01
0	 7.750000000000000e+00	 8.124999999999998e+00	 1.001464219230769e+01
0	 7.749999999999996e+00	 8.249999999999995e+00	 1.001287147692308e+01
0	 7.749999999999999e+00	 8.374999999999996e+00	 1.001105679538461e+01
0	 7.749999999999998e+00	 8.499999999999996e+00	 1.000919814769230e+01
0	 7.750000000000001e+00	 8.624999999999996e+00	 1.000729553384617e+01
0	 7.749999999999998e+00	 8.750000000000000e+00	 1.000534895384614e+01
0	 7.874999999999998e+00	 7.500000000000001e+00	 1.002108293076923e+01
0	 7.874999999999999e+00	 7.624999999999999e+00	 1.001970177000000e+01
0	 7.875000000000000e+00	 7.750000000000000e+00	 1.001827676769231e+01
0	 7.874999999999999e+00	 7.875000000000000e+00	 1.001680792384617e+01
0	 7.874999999999999e+00	 7.999999999999998e+00	 1.001529523846154e+01
0	 7.874999999999998e+00	 8.125000000000000e+00	 1.001373871153847e+01
0	 7.874999999999999e+00	 8.249999999999996e+00	 1.001213834307693e+01
0	 7.874999999999998e+00	 8.374999999999998e+00	 1.001049413307693e+01
0	 7.875000000000000e+00	 8.499999999999996e+00	 1.000880608153845e+01
0	 7.874999999999996e+00	 8.624999999999995e+00	 1.000707418846155e+01
0	 7.874999999999998e+00	 8.750000000000000e+00	 1.000529845384615e+01
0	 7.999999999999998e+00	 7.500000000000000e+00	 1.001942833846154e+01
0	 7.999999999999998e+00	 7.624999999999999e+00	 1.001819941230769e+01
0	 7.999999999999999e+00	 7.749999999999999e+00	 1.001692676923077e+01
0	 7.999999999999998e+00	 7.874999999999999e+00	 1.001561040923076e+01
0	 7.999999999999997e+00	 7.999999999999998e+00	 1.001425033230769e+01
0	 7.999999999999998e+00	 8.124999999999998e+00	 1.001284653846154e+01
0	 7.999999999999997e+00	 8.249999999999996e+00	 1.001139902769232e+01
0	 7.999999999999998e+00	 8.374999999999998e+00	 1.000990780000000e+01
0	 7.999999999999998e+00	 8.499999999999996e+00	 1.000837285538462e+01
0	 7.999999999999998e+00	 8.624999999999996e+00	 1.000679419384615e+01
0	 7.999999999999998e+00	 8.750000000000000e+00	 1.000517181538463e+01
0	 8.124999999999998e+00	 7.500000000000001e+00	 1.001787250000000e+01
0	 8.124999999999998e+00	 7.625000000000000e+00	 1.001677831923077e+01
0	 8.124999999999998e+00	 7.750000000000000e+00	 1.001564054615384e+01
0	 8.125000000000000e+00	 7.874999999999998e+00	 1.001445918076924e+01
0	 8.124999999999995e+00	 7.999999999999996e+00	 1.001323422307692e+01
0	 8.124999999999998e+00	 8.124999999999998e+00	 1.001196567307692e+01
0	 8.125000000000000e+00	 8.250000000000000e+00	 1.001065353076923e+01
0	 8.124999999999998e+00	 8.374999999999996e+00	 1.000929779615385e+01
0	 8.124999999999998e+00	 8.499999999999996e+00	 1.000789846923076e+01
0	 8.124999999999998e+00	 8.624999999999996e+00	 1.000645555000000e+01
0	 8.124999999999998e+00	 8.750000000000000e+00	 1.000496903846154e+01
0	 8.249999999999996e+00	 7.500000000000000e+00	 1.001641541538461e+01
0	 8.249999999999996e+00	 7.625000000000000e+00	 1.001543849076923e+01
0	 8.249999999999996e+00	 7.749999999999997e+00	 1.001441809846154e+01
0	 8.249999999999995e+00	 7.874999999999999e+00	 1.001335423846154e+01
0	 8.250000000000000e+00	 8.000000000000000e+00	 1.001224691076923e+01
0	 8.249999999999998e+00	 8.125000000000000e+00	 1.001109611538462e+01
0	 8.249999999999998e+00	 8.249999999999998e+00	 1.000990185230770e+01
0	 8.249999999999998e+00	 8.374999999999996e+00	 1.000866412153846e+01
0	 8.249999999999996e+00	 8.499999999999998e+00	 1.000738292307692e+01
0	 8.249999999999996e+00	 8.624999999999995e+00	 1.000605825692308e+01
0	 8.249999999999996e+00	 8.750000000000000e+00	 1.000469012307693e+01
0	 8.374999999999996e+00	 7.500000000000000e+00	 1.001505708461540e+01
0	 8.374999999999996e+00	 7.625000000000000e+00	 1.001417992692308e+01
0	 8.374999999999998e+00	 7.749999999999999e+00	 1.001325942615384e+01
0	 8.374999999999998e+00	 7.874999999999998e+00	 1.001229558230770e+01
0	 8.374999999999996e+00	 7.999999999999997e+00	 1.001128839538462e+01
0	 8.375000000000000e+00	 8.125000000000000e+00	 1.001023786538462e+01
0	 8.374999999999998e+00	 8.249999999999998e+00	 1.000914399230769e+01
0	 8.374999999999998e+00	 8.374999999999998e+00	 1.000800677615385e+01
0	 8.374999999999996e+00	 8.499999999999996e+00	 1.000682621692307e+01
0	 8.374999999999998e+00	 8.624999999999996e+00	 1.000560231461539e+01
0	 8.374999999999996e+00	 8.750000000000000e+00	 1.000433506923077e+01
0	 8.499999999999996e+00	 7.500000000000001e+00	 1.001379750769231e+01
0	 8.500000000000000e+00	 7.625000000000001e+00	 1.001300262769231e+01
0	 8.499999999999996e+00	 7.749999999999999e+00	 1.001216452923077e+01
0	 8.499999999999996e+00	 7.875000000000001e+00	 1.001128321230770e+01
0	 8.499999999999996e+00	 7.999999999999998e+00	 1.001035867692308e+01
0	 8.499999999999996e+00	 8.124999999999996e+00	 1.000939092307692e+01
0	 8.499999999999996e+00	 8.249999999999998e+00	 1.000837995076924e+01
0	 8.499999999999996e+00	 8.374999999999996e+00	 1.000732576000000e+01
0	 8.499999999999996e+00	 8.499999999999996e+00	 1.000622835076924e+01
0	 8.499999999999996e+00	 8.624999999999996e+00	 1.000508772307693e+01
0	 8.499999999999996e+00	 8.750000000000000e+00	 1.000390387692308e+01
0	 8.624999999999996e+00	 7.500000000000000e+00	 1.001263668461537e+01
0	 8.624999999999998e+00	 7.624999999999999e+00	 1.001190659307692e+01
0	 8.624999999999996e+00	 7.750000000000000e+00	 1.001113340769230e+01
0	 8.624999999999996e+00	 7.874999999999998e+00	 1.001031712846154e+01
0	 8.624999999999996e+00	 7.999999999999998e+00	 1.000945775538462e+01
0	 8.624999999999996e+00	 8.124999999999996e+00	 1.000855528846154e+01
0	 8.624999999999995e+00	 8.249999999999996e+00	 1.000760972769231e+01
0	 8.624999999999995e+00	 8.374999999999996e+00	 1.000662107307694e+01
0	 8.624999999999996e+00	 8.499999999999996e+00	 1.000558932461539e+01
0	 8.624999999999996e+00	 8.624999999999996e+00	 1.000451448230770e+01
0	 8.624999999999996e+00	 8.750000000000000e+00	 1.000339654615385e+01
0	 8.750000000000000e+00	 7.500000000000000e+00	 1.001157461538462e+01
0	 8.750000000000000e+00	 7.625000000000000e+00	 1.001089182307693e+01
0	 8.750000000000002e+00	 7.750000000000000e+00	 1.001016606153846e+01
0	 8.750000000000000e+00	 7.874999999999998e+00	 1.000939733076922e+01
0	 8.750000000000000e+00	 7.999999999999999e+00	 1.000858563076923e+01
0	 8.750000000000000e+00	 8.124999999999998e+00	 1.000773096153847e+01
0	 8.750000000000000e+00	 8.249999999999998e+00	 1.000683332307692e+01
0	 8.750000000000000e+00	 8.374999999999996e+00	 1.000589271538461e+01
0	 8.750000000000000e+00	 8.499999999999996e+00	 1.000490913846154e+01
0	 8.750000000000000e+00	 8.624999999999996e+00	 1.000388259230771e+01
0	 8.750000000000000e+00	 8.750000000000000e+00	 1.000281307692308e+01
0	 7.500000000000000e+00	 8.750000000000000e+00	 1.000522153846154e+01
0	 7.499999999999999e+00	 8.874999999999998e+00	 1.000526945384615e+01
0	 7.499999999999999e+00	 9.000000000000000e+00	 1.000510104615384e+01
0	 7.499999999999999e+00	 9.124999999999998e+00	 1.000471631538461e+01
0	 7.500000000000000e+00	 9.250000000000000e+00	 1.000411526153846e+01
0	 7.500000000000000e+00	 9.374999999999996e+00	 1.000329788461538e+01
0	 7.500000000000000e+00	 9.499999999999996e+00	 1.000226418461538e+01
0	 7.500000000000000e+00	 9.624999999999996e+00	 1.000101416153846e+01
0	 7.500000000000001e+00	 9.749999999999998e+00	 9.999547815384609e+00
0	 7.500000000000000e+00	 9.874999999999996e+00	 9.997865146153835e+00
0	 7.500000000000000e+00	 1.000000000000000e+01	 9.995966153846133e+00
0	 7.624999999999999e+00	 8.750000000000000e+00	 1.000532331538461e+01
0	 7.625000000000000e+00	 8.875000000000002e+00	 1.000532736692307e+01
0	 7.624999999999997e+00	 8.999999999999998e+00	 1.000513093538462e+01
0	 7.624999999999999e+00	 9.124999999999998e+00	 1.000473402076922e+01
0	 7.625000000000000e+00	 9.249999999999998e+00	 1.000413662307692e+01
0	 7.625000000000001e+00	 9.375000000000000e+00	 1.000333874230769e+01
0	 7.625000000000001e+00	 9.499999999999998e+00	 1.000234037846152e+01
0	 7.624999999999999e+00	 9.624999999999996e+00	 1.000114153153845e+01
0	 7.624999999999999e+00	 9.749999999999996e+00	 9.999742201538446e+00
0	 7.624999999999998e+00	 9.874999999999996e+00	 9.998142388461522e+00
0	 7.625000000000000e+00	 1.000000000000000e+01	 9.996342092307660e+00
0	 7.749999999999998e+00	 8.750000000000000e+00	 1.000534895384614e+01
0	 7.749999999999997e+00	 8.874999999999998e+00	 1.000531391230770e+01
0	 7.750000000000000e+00	 8.999999999999998e+00	 1.000509422769230e+01
0	 7.750000000000000e+00	 9.124999999999998e+00	 1.000468989999999e+01
0	 7.750000000000000e+00	 9.250000000000000e+00	 1.000410092923076e+01
0	 7.749999999999999e+00	 9.375000000000000e+00	 1.000332731538460e+01
0	 7.749999999999999e+00	 9.499999999999998e+00	 1.000236905846153e+01
0	 7.750000000000000e+00	 9.625000000000000e+00	 1.000122615846153e+01
0	 7.749999999999999e+00	 9.749999999999998e+00	 9.999898615384593e+00
0	 7.750000000000000e+00	 9.874999999999998e+00	 9.998386429230775e+00
0	 7.749999999999998e+00	 1.000000000000000e+01	 9.996689599999979e+00
0	 7.874999999999998e+00	 8.750000000000000e+00	 1.000529845384615e+01
0	 7.874999999999998e+00	 8.874999999999998e+00	 1.000522909000000e+01
0	 7.874999999999997e+00	 8.999999999999996e+00	 1.000499092307691e+01
0	 7.874999999999998e+00	 9.124999999999998e+00	 1.000458395307692e+01
0	 7.874999999999997e+00	 9.249999999999998e+00	 1.000400817999999e+01
0	 7.874999999999997e+00	 9.374999999999996e+00	 1.000326360384615e+01
0	 7.874999999999998e+00	 9.499999999999995e+00	 1.000235022461540e+01
0	 7.874999999999997e+00	 9.624999999999996e+00	 1.000126804230768e+01
0	 7.874999999999999e+00	 9.749999999999998e+00	 1.000001705692305e+01
0	 7.874999999999997e+00	 9.874999999999995e+00	 9.998597268461536e+00
0	 7.874999999999999e+00	 1.000000000000000e+01	 9.997008676923063e+00
0	 7.999999999999998e+00	 8.750000000000000e+00	 1.000517181538463e+01
0	 7.999999999999999e+00	 8.874999999999998e+00	 1.000507290000000e+01
0	 7.999999999999999e+00	 9.000000000000002e+00	 1.000482102153845e+01
0	 7.999999999999998e+00	 9.124999999999998e+00	 1.000441618000000e+01
0	 7.999999999999996e+00	 9.249999999999998e+00	 1.000385837538461e+01
0	 7.999999999999999e+00	 9.374999999999998e+00	 1.000314760769230e+01
0	 7.999999999999998e+00	 9.499999999999998e+00	 1.000228387692306e+01
0	 7.999999999999998e+00	 9.624999999999996e+00	 1.000126718307690e+01
0	 7.999999999999998e+00	 9.749999999999996e+00	 1.000009752615382e+01
0	 7.999999999999997e+00	 9.874999999999996e+00	 9.998774906153846e+00
0	 7.999999999999999e+00	 1.000000000000000e+01	 9.997299323076895e+00
0	 8.124999999999998e+00	 8.750000000000000e+00	 1.000496903846154e+01
0	 8.124999999999998e+00	 8.874999999999998e+00	 1.000484534230770e+01
0	 8.124999999999998e+00	 8.999999999999998e+00	 1.000458452307693e+01
0	 8.124999999999998e+00	 9.125000000000002e+00	 1.000418658076923e+01
0	 8.124999999999996e+00	 9.249999999999996e+00	 1.000365151538462e+01
0	 8.124999999999998e+00	 9.375000000000000e+00	 1.000297932692306e+01
0	 8.124999999999998e+00	 9.499999999999998e+00	 1.000217001538460e+01
0	 8.124999999999996e+00	 9.624999999999998e+00	 1.000122358076921e+01
0	 8.125000000000000e+00	 9.749999999999996e+00	 1.000014002307690e+01
0	 8.124999999999996e+00	 9.874999999999996e+00	 9.998919342307676e+00
0	 8.124999999999998e+00	 1.000000000000000e+01	 9.997561538461529e+00
0	 8.249999999999996e+00	 8.750000000000000e+00	 1.000469012307693e+01
0	 8.249999999999998e+00	 8.874999999999998e+00	 1.000454641692308e+01
0	 8.249999999999998e+00	 9.000000000000000e+00	 1.000428142769232e+01
0	 8.249999999999998e+00	 9.125000000000000e+00	 1.000389515538460e+01
0	 8.249999999999998e+00	 9.250000000000000e+00	 1.000338760000000e+01
0	 8.249999999999996e+00	 9.374999999999998e+00	 1.000275876153846e+01
0	 8.249999999999998e+00	 9.499999999999998e+00	 1.000200863999999e+01
0	 8.249999999999996e+00	 9.624999999999995e+00	 1.000113723538460e+01
0	 8.249999999999996e+00	 9.749999999999995e+00	 1.000014454769228e+01
0	 8.249999999999998e+00	 9.874999999999998e+00	 9.999030576923056e+00
0	 8.249999999999998e+00	 9.999999999999998e+00	 9.997795323076891e+00
0	 8.374999999999996e+00	 8.750000000000000e+00	 1.000433506923077e+01
0	 8.374999999999996e+00	 8.875000000000000e+00	 1.000417612384615e+01
0	 8.374999999999995e+00	 9.000000000000000e+00	 1.000391173538461e+01
0	 8.374999999999998e+00	 9.125000000000000e+00	 1.000354190384615e+01
0	 8.374999999999998e+00	 9.249999999999998e+00	 1.000306662923077e+01
0	 8.374999999999998e+00	 9.374999999999998e+00	 1.000248591153845e+01
0	 8.374999999999998e+00	 9.500000000000000e+00	 1.000179975076922e+01
0	 8.374999999999998e+00	 9.624999999999996e+00	 1.000100814692307e+01
0	 8.374999999999996e+00	 9.749999999999996e+00	 1.000011110000000e+01
0	 8.374999999999998e+00	 9.874999999999996e+00	 9.999108610000004e+00
0	 8.374999999999998e+00	 1.000000000000000e+01	 9.998000676923079e+00
0	 8.499999999999996e+00	 8.750000000000000e+00	 1.000390387692308e+01
0	 8.499999999999996e+00	 8.875000000000004e+00	 1.000373446307693e+01
0	 8.499999999999995e+00	 8.999999999999998e+00	 1.000347544615385e+01
0	 8.499999999999996e+00	 9.125000000000000e+00	 1.000312682615385e+01
0	 8.499999999999995e+00	 9.249999999999998e+00	 1.000268860307691e+01
0	 8.499999999999996e+00	 9.374999999999998e+00	 1.000216077692308e+01
0	 8.499999999999996e+00	 9.499999999999998e+00	 1.000154334769230e+01
0	 8.499999999999996e+00	 9.624999999999996e+00	 1.000083631538459e+01
0	 8.499999999999996e+00	 9.749999999999996e+00	 1.000003967999998e+01
0	 8.499999999999996e+00	 9.874999999999996e+00	 9.999153441538439e+00
0	 8.499999999999996e+00	 1.000000000000000e+01	 9.998177599999972e+00
0	 8.624999999999996e+00	 8.750000000000000e+00	 1.000339654615385e+01
0	 8.624999999999995e+00	 8.875000000000000e+00	 1.000322143461539e+01
0	 8.624999999999996e+00	 8.999999999999998e+00	 1.000297256000000e+01
0	 8.624999999999996e+00	 9.125000000000000e+00	 1.000264992230770e+01
0	 8.624999999999996e+00	 9.249999999999998e+00	 1.000225352153846e+01
0	 8.624999999999995e+00	 9.374999999999996e+00	 1.000178335769229e+01
0	 8.624999999999995e+00	 9.499999999999996e+00	 1.000123943076921e+01
0	 8.624999999999996e+00	 9.624999999999998e+00	 1.000062174076921e+01
0	 8.624999999999996e+00	 9.749999999999996e+00	 9.999930287692285e+00
0	 8.624999999999996e+00	 9.874999999999996e+00	 9.999165071538467e+00
0	 8.624999999999996e+00	 1.000000000000000e+01	 9.998326092307673e+00
0	 8.750000000000000e+00	 8.750000000000000e+00	 1.000281307692308e+01
0	 8.750000000000000e+00	 8.874999999999998e+00	 1.000263703846154e+01
0	 8.750000000000000e+00	 9.000000000000000e+00	 1.000240307692308e+01
0	 8.749999999999998e+00	 9.124999999999998e+00	 1.000211119230769e+01
0	 8.750000000000000e+00	 9.250000000000000e+00	 1.000176138461538e+01
0	 8.750000000000000e+00	 9.374999999999996e+00	 1.000135365384615e+01
0	 8.750000000000000e+00	 9.499999999999996e+00	 1.000088800000000e+01
0	 8.750000000000000e+00	 9.624999999999996e+00	 1.000036442307693e+01
0	 8.750000000000002e+00	 9.749999999999998e+00	 9.999782923076911e+00
0	 8.750000000000000e+00	 9.874999999999996e+00	 9.999143499999999e+00
0	 8.750000000000000e+00	 1.000000000000000e+01	 9.998446153846142e+00
0	 8.750000000000000e+00	 0.000000000000000e+00	 9.951035230769232e+00
0	 8.750000000000002e+00	 1.250000000000000e-01	 9.951599484615382e+00
0	 8.750000000000000e+00	 2.500000000000000e-01	 9.952223276923075e+00
0	 8.750000000000000e+00	 3.750000000000001e-01	 9.952906607692302e+00
0	 8.750000000000000e+00	 5.000000000000000e-01	 9.953649476923079e+00
0	 8.750000000000000e+00	 6.250000000000000e-01	 9.954451884615384e+00
0	 8.750000000000000e+00	 7.500000000000000e-01	 9.955313830769224e+00
0	 8.750000000000000e+00	 8.749999999999999e-01	 9.956235315384610e+00
0	 8.750000000000000e+00	 1.000000000000000e+00	 9.957216338461539e+00
0	 8.750000000000000e+00	 1.125000000000000e+00	 9.958256900000000e+00
0	 8.750000000000000e+00	 1.250000000000000e+00	 9.959356999999997e+00
0	 8.875000000000002e+00	 0.000000000000000e+00	 9.941937216923078e+00
0	 8.875000000000000e+00	 1.250000000000000e-01	 9.942676614384613e+00
0	 8.875000000000000e+00	 2.500000000000000e-01	 9.943453119538457e+00
0	 8.874999999999998e+00	 3.750000000000001e-01	 9.944266732384618e+00
0	 8.875000000000000e+00	 5.000000000000001e-01	 9.945117452923075e+00
0	 8.875000000000000e+00	 6.250000000000001e-01	 9.946005281153841e+00
0	 8.875000000000000e+00	 7.500000000000000e-01	 9.946930217076924e+00
0	 8.875000000000000e+00	 8.750000000000000e-01	 9.947892260692306e+00
0	 8.875000000000000e+00	 1.000000000000000e+00	 9.948891411999995e+00
0	 8.875000000000000e+00	 1.125000000000000e+00	 9.949927670999996e+00
0	 8.874999999999998e+00	 1.250000000000000e+00	 9.951001037692302e+00
0	 9.000000000000000e+00	 0.000000000000000e+00	 9.932093390769234e+00
0	 9.000000000000002e+00	 1.250000000000000e-01	 9.933024517538461e+00
0	 8.999999999999996e+00	 2.500000000000000e-01	 9.933970321230763e+00
0	 9.000000000000000e+00	 3.750000000000001e-01	 9.934930801846152e+00
0	 8.999999999999998e+00	 5.000000000000001e-01	 9.935905959384618e+00
0	 8.999999999999998e+00	 6.249999999999999e-01	 9.936895793846155e+00
0	 9.000000000000000e+00	 7.500000000000000e-01	 9.937900305230762e+00
0	 8.999999999999998e+00	 8.750000000000000e-01	 9.938919493538460e+00
0	 8.999999999999998e+00	 9.999999999999999e-01	 9.939953358769227e+00
0	 9.000000000000000e+00	 1.125000000000000e+00	 9.941001900923073e+00
0	 9.000000000000000e+00	 1.250000000000000e+00	 9.942065119999999e+00
0	 9.124999999999998e+00	 0.000000000000000e+00	 9.921503752307693e+00
0	 9.124999999999998e+00	 1.250000000000000e-01	 9.922643194076919e+00
0	 9.125000000000000e+00	 2.500000000000001e-01	 9.923774882000000e+00
0	 9.124999999999998e+00	 3.750000000000001e-01	 9.924898816076919e+00
0	 9.124999999999998e+00	 5.000000000000001e-01	 9.926014996307694e+00
0	 9.125000000000000e+00	 6.250000000000000e-01	 9.927123422692304e+00
0	 9.124999999999998e+00	 7.500000000000002e-01	 9.928224095230769e+00
0	 9.124999999999998e+00	 8.749999999999999e-01	 9.929317013923074e+00
0	 9.124999999999998e+00	 1.000000000000000e+00	 9.930402178769230e+00
0	 9.125000000000000e+00	 1.125000000000000e+00	 9.931479589769229e+00
0	 9.125000000000000e+00	 1.250000000000000e+00	 9.932549246923074e+00
0	 9.250000000000000e+00	 0.000000000000000e+00	 9.910168301538462e+00
0	 9.249999999999998e+00	 1.250000000000000e-01	 9.911532644000001e+00
0	 9.250000000000000e+00	 2.500000000000001e-01	 9.912866801846151e+00
0	 9.249999999999996e+00	 3.750000000000001e-01	 9.914170775076919e+00
0	 9.249999999999998e+00	 5.000000000000001e-01	 9.915444563692299e+00
0	 9.249999999999998e+00	 6.250000000000001e-01	 9.916688167692303e+00
0	 9.250000000000000e+00	 7.499999999999999e-01	 9.917901587076919e+00
0	 9.249999999999998e+00	 8.749999999999998e-01	 9.919084821846148e+00
0	 9.249999999999998e+00	 9.999999999999998e-01	 9.920237871999998e+00
0	 9.250000000000000e+00	 1.125000000000000e+00	 9.921360737538459e+00
0	 9.249999999999998e+00	 1.250000000000000e+00	 9.922453418461537e+00
0	 9.374999999999996e+00	 0.000000000000000e+00	 9.898087038461535e+00
0	 9.374999999999996e+00	 1.250000000000000e-01	 9.899692867307680e+00
0	 9.374999999999996e+00	 2.499999999999999e-01	 9.901246080769226e+00
0	 9.374999999999998e+00	 3.750000000000000e-01	 9.902746678846151e+00
0	 9.374999999999998e+00	 5.000000000000001e-01	 9.904194661538458e+00
0	 9.374999999999998e+00	 6.250000000000000e-01	 9.905590028846150e+00
0	 9.375000000000000e+00	 7.500000000000001e-01	 9.906932780769226e+00
0	 9.374999999999998e+00	 8.749999999999999e-01	 9.908222917307693e+00
0	 9.374999999999998e+00	 9.999999999999998e-01	 9.909460438461537e+00
0	 9.374999999999998e+00	 1.125000000000000e+00	 9.910645344230765e+00
0	 9.374999999999998e+00	 1.250000000000000e+00	 9.911777634615385e+00
0	 9.499999999999996e+00	 0.000000000000000e+00	 9.885259963076919e+00
0	 9.499999999999996e+00	 1.250000000000000e-01	 9.887123863999999e+00
0	 9.499999999999996e+00	 2.500000000000000e-01	 9.888912718769229e+00
0	 9.499999999999996e+00	 3.750000000000000e-01	 9.890626527384613e+00
0	 9.499999999999998e+00	 5.000000000000000e-01	 9.892265289846154e+00
0	 9.499999999999998e+00	 6.250000000000000e-01	 9.893829006153847e+00
0	 9.499999999999998e+00	 7.500000000000000e-01	 9.895317676307689e+00
0	 9.500000000000000e+00	 8.750000000000001e-01	 9.896731300307689e+00
0	 9.499999999999998e+00	 1.000000000000000e+00	 9.898069878153844e+00
0	 9.499999999999998e+00	 1.125000000000000e+00	 9.899333409846152e+00
0	 9.499999999999998e+00	 1.250000000000000e+00	 9.900521895384612e+00
0	 9.624999999999996e+00	 0.000000000000000e+00	 9.871687075384612e+00
0	 9.624999999999996e+00	 1.250000000000000e-01	 9.873825634076926e+00
0	 9.624999999999996e+00	 2.500000000000000e-01	 9.875866715846149e+00
0	 9.624999999999995e+00	 3.750000000000001e-01	 9.877810320692301e+00
0	 9.624999999999996e+00	 5.000000000000000e-01	 9.879656448615382e+00
0	 9.624999999999995e+00	 6.249999999999999e-01	 9.881405099615382e+00
0	 9.624999999999996e+00	 7.500000000000000e-01	 9.883056273692304e+00
0	 9.624999999999996e+00	 8.750000000000000e-01	 9.884609970846155e+00
0	 9.624999999999996e+00	 9.999999999999998e-01	 9.886066191076923e+00
0	 9.624999999999996e+00	 1.125000000000000e+00	 9.887424934384619e+00
0	 9.624999999999996e+00	 1.250000000000000e+00	 9.888686200769229e+00
0	 9.749999999999996e+00	 0.000000000000000e+00	 9.857368375384615e+00
0	 9.749999999999996e+00	 1.250000000000000e-01	 9.859798177538455e+00
0	 9.749999999999996e+00	 2.500000000000000e-01	 9.862108071999995e+00
0	 9.749999999999998e+00	 3.750000000000001e-01	 9.864298058769224e+00
0	 9.749999999999996e+00	 5.000000000000000e-01	 9.866368137846148e+00
0	 9.749999999999996e+00	 6.250000000000001e-01	 9.868318309230768e+00
0	 9.749999999999996e+00	 7.500000000000001e-01	 9.870148572923075e+00
0	 9.750000000000000e+00	 8.750000000000001e-01	 9.871858928923078e+00
0	 9.749999999999996e+00	 1.000000000000000e+00	 9.873449377230768e+00
0	 9.749999999999996e+00	 1.125000000000000e+00	 9.874919917846146e+00
0	 9.749999999999996e+00	 1.250000000000000e+00	 9.876270550769227e+00
0	 9.874999999999996e+00	 0.000000000000000e+00	 9.842303863076912e+00
0	 9.874999999999998e+00	 1.250000000000000e-01	 9.845041494384613e+00
0	 9.874999999999995e+00	 2.500000000000000e-01	 9.847636787230767e+00
0	 9.874999999999996e+00	 3.750000000000001e-01	 9.850089741615378e+00
0	 9.874999999999996e+00	 5.000000000000001e-01	 9.852400357538462e+00
0	 9.874999999999996e+00	 6.250000000000000e-01	 9.854568634999998e+00
0	 9.874999999999996e+00	 7.500000000000000e-01	 9.856594574000001e+00
0	 9.874999999999996e+00	 8.750000000000000e-01	 9.858478174538460e+00
0	 9.874999999999995e+00	 9.999999999999998e-01	 9.860219436615385e+00
0	 9.874999999999996e+00	 1.125000000000000e+00	 9.861818360230766e+00
0	 9.874999999999996e+00	 1.250000000000000e+00	 9.863274945384616e+00
0	 1.000000000000000e+01	 0.000000000000000e+00	 9.826493538461532e+00
0	 1.000000000000000e+01	 1.250000000000000e-01	 9.829555584615388e+00
0	 1.000000000000000e+01	 2.500000000000000e-01	 9.832452861538449e+00
0	 1.000000000000000e+01	 3.750000000000001e-01	 9.835185369230761e+00
0	 1.000000000000000e+01	 5.000000000000000e-01	 9.837753107692304e+00
0	 1.000000000000000e+01	 6.250000000000000e-01	 9.840156076923067e+00
0	 1.000000000000000e+01	 7.500000000000000e-01	 9.842394276923073e+00
0	 1.000000000000000e+01	 8.750000000000000e-01	 9.844467707692306e+00
0	 1.000000000000000e+01	 1.000000000000000e+00	 9.846376369230766e+00
0	 1.000000000000000e+01	 1.125000000000000e+00	 9.848120261538458e+00
0	 1.000000000000000e+01	 1.250000000000000e+00	 9.849699384615379e+00
0	 8.750000000000000e+00	 1.250000000000000e+00	 9.959356999999997e+00
0	 8.750000000000000e+00	 1.375000000000000e+00	 9.961815299999998e+00
0	 8.750000000000000e+00	 1.500000000000000e+00	 9.964255600000001e+00
0	 8.750000000000002e+00	 1.625000000000000e+00	 9.966677899999997e+00
0	 8.750000000000000e+00	 1.750000000000000e+00	 9.969082199999997e+00
0	 8.750000000000002e+00	 1.875000000000000e+00	 9.971468499999997e+00
0	 8.750000000000000e+00	 2.000000000000000e+00	 9.973836799999997e+00
0	 8.750000000000000e+00	 2.125000000000001e+00	 9.976187100000001e+00
0	 8.750000000000002e+00	 2.250000000000001e+00	 9.978519399999996e+00
0	 8.750000000000000e+00	 2.375000000000001e+00	 9.980833699999998e+00
0	 8.750000000000000e+00	 2.500000000000000e+00	 9.983129999999999e+00
0	 8.874999999999998e+00	 1.250000000000000e+00	 9.951001037692302e+00
0	 8.875000000000000e+00	 1.375000000000000e+00	 9.953555965461531e+00
0	 8.875000000000002e+00	 1.500000000000001e+00	 9.956092274769230e+00
0	 8.875000000000000e+00	 1.625000000000000e+00	 9.958609965615382e+00
0	 8.875000000000000e+00	 1.750000000000000e+00	 9.961109037999996e+00
0	 8.874999999999996e+00	 1.875000000000000e+00	 9.963589491923074e+00
0	 8.875000000000000e+00	 2.000000000000000e+00	 9.966051327384612e+00
0	 8.875000000000002e+00	 2.125000000000002e+00	 9.968494544384617e+00
0	 8.875000000000000e+00	 2.250000000000001e+00	 9.970919142923075e+00
0	 8.875000000000002e+00	 2.375000000000002e+00	 9.973325122999999e+00
0	 8.874999999999998e+00	 2.500000000000000e+00	 9.975712484615380e+00
0	 9.000000000000000e+00	 1.250000000000000e+00	 9.942065119999999e+00
0	 9.000000000000000e+00	 1.375000000000000e+00	 9.944760552615376e+00
0	 8.999999999999996e+00	 1.500000000000000e+00	 9.947436748307688e+00
0	 9.000000000000000e+00	 1.625000000000000e+00	 9.950093707076919e+00
0	 8.999999999999996e+00	 1.750000000000000e+00	 9.952731428923077e+00
0	 8.999999999999996e+00	 1.875000000000001e+00	 9.955349913846156e+00
0	 8.999999999999998e+00	 2.000000000000000e+00	 9.957949161846152e+00
0	 9.000000000000000e+00	 2.125000000000001e+00	 9.960529172923067e+00
0	 9.000000000000000e+00	 2.250000000000001e+00	 9.963089947076920e+00
0	 9.000000000000002e+00	 2.375000000000001e+00	 9.965631484307691e+00
0	 9.000000000000000e+00	 2.500000000000000e+00	 9.968153784615382e+00
0	 9.125000000000000e+00	 1.250000000000000e+00	 9.932549246923074e+00
0	 9.125000000000000e+00	 1.375000000000000e+00	 9.935429061461543e+00
0	 9.125000000000002e+00	 1.500000000000000e+00	 9.938289020615382e+00
0	 9.125000000000000e+00	 1.625000000000001e+00	 9.941129124384613e+00
0	 9.124999999999998e+00	 1.750000000000000e+00	 9.943949372769227e+00
0	 9.124999999999998e+00	 1.875000000000000e+00	 9.946749765769226e+00
0	 9.125000000000000e+00	 2.000000000000001e+00	 9.949530303384609e+00
0	 9.125000000000000e+00	 2.125000000000001e+00	 9.952290985615384e+00
0	 9.124999999999996e+00	 2.250000000000001e+00	 9.955031812461534e+00
0	 9.125000000000000e+00	 2.375000000000001e+00	 9.957752783923077e+00
0	 9.125000000000000e+00	 2.500000000000000e+00	 9.960453899999999e+00
0	 9.249999999999998e+00	 1.250000000000000e+00	 9.922453418461537e+00
0	 9.249999999999998e+00	 1.375000000000000e+00	 9.925561492000003e+00
0	 9.249999999999998e+00	 1.500000000000000e+00	 9.928649091692298e+00
0	 9.249999999999998e+00	 1.625000000000000e+00	 9.931716217538458e+00
0	 9.249999999999998e+00	 1.750000000000000e+00	 9.934762869538464e+00
0	 9.250000000000000e+00	 1.875000000000001e+00	 9.937789047692306e+00
0	 9.249999999999996e+00	 2.000000000000000e+00	 9.940794751999992e+00
0	 9.249999999999998e+00	 2.125000000000000e+00	 9.943779982461541e+00
0	 9.249999999999998e+00	 2.250000000000001e+00	 9.946744739076919e+00
0	 9.249999999999998e+00	 2.375000000000000e+00	 9.949689021846144e+00
0	 9.249999999999998e+00	 2.500000000000000e+00	 9.952612830769231e+00
0	 9.374999999999998e+00	 1.250000000000000e+00	 9.911777634615385e+00
0	 9.374999999999996e+00	 1.375000000000000e+00	 9.915157844230773e+00
0	 9.374999999999998e+00	 1.500000000000000e+00	 9.918516961538458e+00
0	 9.374999999999998e+00	 1.625000000000000e+00	 9.921854986538454e+00
0	 9.375000000000000e+00	 1.750000000000000e+00	 9.925171919230767e+00
0	 9.374999999999998e+00	 1.875000000000000e+00	 9.928467759615376e+00
0	 9.374999999999998e+00	 2.000000000000000e+00	 9.931742507692306e+00
0	 9.374999999999998e+00	 2.125000000000001e+00	 9.934996163461534e+00
0	 9.374999999999998e+00	 2.250000000000001e+00	 9.938228726923075e+00
0	 9.374999999999996e+00	 2.375000000000001e+00	 9.941440198076926e+00
0	 9.374999999999998e+00	 2.500000000000000e+00	 9.944630576923075e+00
0	 9.499999999999998e+00	 1.250000000000000e+00	 9.900521895384612e+00
0	 9.499999999999998e+00	 1.375000000000000e+00	 9.904218118153842e+00
0	 9.499999999999996e+00	 1.500000000000000e+00	 9.907892630153846e+00
0	 9.499999999999998e+00	 1.625000000000000e+00	 9.911545431384615e+00
0	 9.499999999999995e+00	 1.750000000000000e+00	 9.915176521846146e+00
0	 9.499999999999998e+00	 1.875000000000001e+00	 9.918785901538465e+00
0	 9.499999999999998e+00	 2.000000000000000e+00	 9.922373570461534e+00
0	 9.499999999999998e+00	 2.125000000000001e+00	 9.925939528615377e+00
0	 9.499999999999998e+00	 2.250000000000001e+00	 9.929483775999993e+00
0	 9.499999999999996e+00	 2.375000000000001e+00	 9.933006312615383e+00
0	 9.499999999999998e+00	 2.500000000000000e+00	 9.936507138461542e+00
0	 9.624999999999996e+00	 1.250000000000000e+00	 9.888686200769229e+00
0	 9.624999999999998e+00	 1.375000000000000e+00	 9.892742313769222e+00
0	 9.624999999999995e+00	 1.500000000000000e+00	 9.896776097538464e+00
0	 9.625000000000000e+00	 1.625000000000000e+00	 9.900787552076920e+00
0	 9.624999999999996e+00	 1.750000000000000e+00	 9.904776677384612e+00
0	 9.624999999999996e+00	 1.875000000000001e+00	 9.908743473461534e+00
0	 9.624999999999998e+00	 2.000000000000001e+00	 9.912687940307693e+00
0	 9.624999999999996e+00	 2.125000000000001e+00	 9.916610077923076e+00
0	 9.624999999999998e+00	 2.250000000000001e+00	 9.920509886307686e+00
0	 9.624999999999998e+00	 2.375000000000001e+00	 9.924387365461534e+00
0	 9.624999999999996e+00	 2.500000000000000e+00	 9.928242515384614e+00
0	 9.749999999999996e+00	 1.250000000000000e+00	 9.876270550769227e+00
0	 9.749999999999996e+00	 1.375000000000000e+00	 9.880730431076916e+00
0	 9.749999999999996e+00	 1.500000000000000e+00	 9.885167363692304e+00
0	 9.749999999999998e+00	 1.625000000000000e+00	 9.889581348615373e+00
0	 9.749999999999996e+00	 1.750000000000000e+00	 9.893972385846151e+00
0	 9.749999999999996e+00	 1.875000000000000e+00	 9.898340475384614e+00
0	 9.749999999999996e+00	 2.000000000000001e+00	 9.902685617230770e+00
0	 9.749999999999996e+00	 2.125000000000001e+00	 9.907007811384609e+00
0	 9.749999999999998e+00	 2.250000000000001e+00	 9.911307057846155e+00
0	 9.749999999999996e+00	 2.375000000000001e+00	 9.915583356615386e+00
0	 9.749999999999996e+00	 2.500000000000000e+00	 9.919836707692303e+00
0	 9.874999999999996e+00	 1.250000000000000e+00	 9.863274945384616e+00
0	 9.874999999999996e+00	 1.375000000000000e+00	 9.868182470076921e+00
0	 9.874999999999996e+00	 1.500000000000000e+00	 9.873066428615383e+00
0	 9.874999999999996e+00	 1.625000000000001e+00	 9.877926820999992e+00
0	 9.874999999999996e+00	 1.750000000000000e+00	 9.882763647230769e+00
0	 9.874999999999995e+00	 1.875000000000000e+00	 9.887576907307691e+00
0	 9.874999999999998e+00	 2.000000000000001e+00	 9.892366601230773e+00
0	 9.874999999999996e+00	 2.125000000000001e+00	 9.897132729000003e+00
0	 9.874999999999996e+00	 2.250000000000001e+00	 9.901875290615394e+00
0	 9.874999999999996e+00	 2.375000000000001e+00	 9.906594286076922e+00
0	 9.874999999999996e+00	 2.500000000000000e+00	 9.911289715384616e+00
0	 1.000000000000000e+01	 1.250000000000000e+00	 9.849699384615379e+00
0	 1.000000000000000e+01	 1.375000000000000e+00	 9.855098430769228e+00
0	 1.000000000000000e+01	 1.500000000000000e+00	 9.860473292307692e+00
0	 1.000000000000000e+01	 1.625000000000000e+00	 9.865823969230760e+00
0	 1.000000000000000e+01	 1.750000000000000e+00	 9.871150461538452e+00
0	 1.000000000000000e+01	 1.875000000000000e+00	 9.876452769230765e+00
0	 1.000000000000000e+01	 2.000000000000000e+00	 9.881730892307694e+00
0	 1.000000000000000e+01	 2.125000000000001e+00	 9.886984830769233e+00
0	 1.000000000000000e+01	 2.250000000000001e+00	 9.892214584615386e+00
0	 1.000000000000000e+01	 2.375000000000001e+00	 9.897420153846149e+00
0	 1.000000000000000e+01	 2.500000000000000e+00	 9.902601538461536e+00
0	 8.750000000000000e+00	 2.500000000000000e+00	 9.983129999999999e+00
0	 8.750000000000000e+00	 2.625000000000000e+00	 9.985723476923075e+00
0	 8.750000000000000e+00	 2.750000000000000e+00	 9.988325907692310e+00
0	 8.750000000000002e+00	 2.875000000000001e+00	 9.990937292307697e+00
0	 8.750000000000000e+00	 3.000000000000000e+00	 9.993557630769228e+00
0	 8.750000000000002e+00	 3.125000000000000e+00	 9.996186923076920e+00
0	 8.750000000000000e+00	 3.250000000000000e+00	 9.998825169230770e+00
0	 8.750000000000000e+00	 3.375000000000001e+00	 1.000147236923077e+01
0	 8.750000000000002e+00	 3.500000000000001e+00	 1.000412852307692e+01
0	 8.750000000000000e+00	 3.625000000000001e+00	 1.000679363076923e+01
0	 8.750000000000000e+00	 3.750000000000000e+00	 1.000946769230769e+01
0	 8.874999999999998e+00	 2.500000000000000e+00	 9.975712484615380e+00
0	 8.875000000000000e+00	 2.625000000000000e+00	 9.978314206923073e+00
0	 8.875000000000002e+00	 2.750000000000000e+00	 9.980926332307691e+00
0	 8.875000000000000e+00	 2.875000000000000e+00	 9.983548860769226e+00
0	 8.875000000000000e+00	 3.000000000000000e+00	 9.986181792307692e+00
0	 8.874999999999996e+00	 3.125000000000001e+00	 9.988825126923075e+00
0	 8.875000000000000e+00	 3.250000000000000e+00	 9.991478864615379e+00
0	 8.875000000000002e+00	 3.375000000000001e+00	 9.994143005384615e+00
0	 8.875000000000000e+00	 3.500000000000000e+00	 9.996817549230769e+00
0	 8.875000000000002e+00	 3.625000000000001e+00	 9.999502496153852e+00
0	 8.874999999999998e+00	 3.750000000000000e+00	 1.000219784615385e+01
0	 9.000000000000000e+00	 2.500000000000000e+00	 9.968153784615382e+00
0	 9.000000000000000e+00	 2.625000000000000e+00	 9.970826332307693e+00
0	 8.999999999999996e+00	 2.750000000000000e+00	 9.973510732307693e+00
0	 9.000000000000000e+00	 2.875000000000000e+00	 9.976206984615384e+00
0	 8.999999999999996e+00	 3.000000000000000e+00	 9.978915089230767e+00
0	 8.999999999999996e+00	 3.125000000000000e+00	 9.981635046153848e+00
0	 8.999999999999998e+00	 3.250000000000000e+00	 9.984366855384616e+00
0	 9.000000000000000e+00	 3.375000000000000e+00	 9.987110516923078e+00
0	 9.000000000000000e+00	 3.500000000000001e+00	 9.989866030769235e+00
0	 9.000000000000002e+00	 3.625000000000002e+00	 9.992633396923075e+00
0	 9.000000000000000e+00	 3.750000000000000e+00	 9.995412615384620e+00
0	 9.125000000000000e+00	 2.500000000000000e+00	 9.960453899999999e+00
0	 9.125000000000000e+00	 2.625000000000000e+00	 9.963259853076922e+00
0	 9.125000000000002e+00	 2.750000000000000e+00	 9.966079107692309e+00
0	 9.125000000000000e+00	 2.875000000000000e+00	 9.968911663846155e+00
0	 9.124999999999998e+00	 3.000000000000000e+00	 9.971757521538464e+00
0	 9.124999999999998e+00	 3.125000000000000e+00	 9.974616680769229e+00
0	 9.125000000000000e+00	 3.250000000000001e+00	 9.977489141538463e+00
0	 9.125000000000000e+00	 3.375000000000001e+00	 9.980374903846158e+00
0	 9.124999999999996e+00	 3.500000000000001e+00	 9.983273967692313e+00
0	 9.125000000000000e+00	 3.625000000000001e+00	 9.986186333076919e+00
0	 9.125000000000000e+00	 3.750000000000000e+00	 9.989112000000008e+00
0	 9.249999999999998e+00	 2.500000000000000e+00	 9.952612830769231e+00
0	 9.249999999999998e+00	 2.625000000000000e+00	 9.955614769230765e+00
0	 9.249999999999998e+00	 2.750000000000000e+00	 9.958631458461532e+00
0	 9.249999999999998e+00	 2.875000000000000e+00	 9.961662898461533e+00
0	 9.249999999999998e+00	 3.000000000000000e+00	 9.964709089230766e+00
0	 9.250000000000000e+00	 3.125000000000000e+00	 9.967770030769229e+00
0	 9.249999999999996e+00	 3.250000000000000e+00	 9.970845723076922e+00
0	 9.249999999999998e+00	 3.375000000000001e+00	 9.973936166153845e+00
0	 9.249999999999998e+00	 3.500000000000001e+00	 9.977041360000003e+00
0	 9.249999999999998e+00	 3.625000000000000e+00	 9.980161304615386e+00
0	 9.249999999999998e+00	 3.750000000000000e+00	 9.983296000000006e+00
0	 9.374999999999998e+00	 2.500000000000000e+00	 9.944630576923075e+00
0	 9.374999999999996e+00	 2.625000000000000e+00	 9.947891080769228e+00
0	 9.374999999999998e+00	 2.750000000000001e+00	 9.951167784615388e+00
0	 9.374999999999998e+00	 2.875000000000000e+00	 9.954460688461538e+00
0	 9.375000000000000e+00	 3.000000000000000e+00	 9.957769792307692e+00
0	 9.374999999999998e+00	 3.125000000000001e+00	 9.961095096153846e+00
0	 9.374999999999998e+00	 3.250000000000000e+00	 9.964436600000001e+00
0	 9.374999999999998e+00	 3.375000000000001e+00	 9.967794303846153e+00
0	 9.374999999999998e+00	 3.500000000000001e+00	 9.971168207692306e+00
0	 9.374999999999996e+00	 3.625000000000001e+00	 9.974558311538466e+00
0	 9.374999999999998e+00	 3.750000000000000e+00	 9.977964615384620e+00
0	 9.499999999999998e+00	 2.500000000000000e+00	 9.936507138461542e+00
0	 9.499999999999998e+00	 2.625000000000000e+00	 9.940088787692307e+00
0	 9.499999999999996e+00	 2.750000000000000e+00	 9.943688086153839e+00
0	 9.499999999999998e+00	 2.875000000000000e+00	 9.947305033846151e+00
0	 9.499999999999995e+00	 3.000000000000000e+00	 9.950939630769227e+00
0	 9.499999999999998e+00	 3.125000000000000e+00	 9.954591876923081e+00
0	 9.499999999999998e+00	 3.250000000000000e+00	 9.958261772307694e+00
0	 9.499999999999998e+00	 3.375000000000001e+00	 9.961949316923079e+00
0	 9.499999999999998e+00	 3.500000000000000e+00	 9.965654510769230e+00
0	 9.499999999999996e+00	 3.625000000000001e+00	 9.969377353846156e+00
0	 9.499999999999998e+00	 3.750000000000000e+00	 9.973117846153848e+00
0	 9.624999999999996e+00	 2.500000000000000e+00	 9.928242515384614e+00
0	 9.624999999999998e+00	 2.625000000000001e+00	 9.932207889999999e+00
0	 9.624999999999995e+00	 2.750000000000000e+00	 9.936192363076918e+00
0	 9.625000000000000e+00	 2.875000000000001e+00	 9.940195934615383e+00
0	 9.624999999999996e+00	 3.000000000000001e+00	 9.944218604615383e+00
0	 9.624999999999996e+00	 3.125000000000001e+00	 9.948260373076931e+00
0	 9.624999999999998e+00	 3.250000000000000e+00	 9.952321240000005e+00
0	 9.624999999999996e+00	 3.375000000000001e+00	 9.956401205384623e+00
0	 9.624999999999998e+00	 3.500000000000001e+00	 9.960500269230772e+00
0	 9.624999999999998e+00	 3.625000000000001e+00	 9.964618431538463e+00
0	 9.624999999999996e+00	 3.750000000000000e+00	 9.968755692307697e+00
0	 9.749999999999996e+00	 2.500000000000000e+00	 9.919836707692303e+00
0	 9.749999999999996e+00	 2.625000000000000e+00	 9.924248387692307e+00
0	 9.749999999999996e+00	 2.750000000000000e+00	 9.928680615384613e+00
0	 9.749999999999998e+00	 2.875000000000000e+00	 9.933133390769225e+00
0	 9.749999999999996e+00	 3.000000000000000e+00	 9.937606713846153e+00
0	 9.749999999999996e+00	 3.125000000000001e+00	 9.942100584615385e+00
0	 9.749999999999996e+00	 3.250000000000000e+00	 9.946615003076925e+00
0	 9.749999999999996e+00	 3.375000000000001e+00	 9.951149969230766e+00
0	 9.749999999999998e+00	 3.500000000000001e+00	 9.955705483076930e+00
0	 9.749999999999996e+00	 3.625000000000001e+00	 9.960281544615384e+00
0	 9.749999999999996e+00	 3.750000000000000e+00	 9.964878153846158e+00
0	 9.874999999999996e+00	 2.500000000000000e+00	 9.911289715384616e+00
0	 9.874999999999996e+00	 2.625000000000000e+00	 9.916210280769231e+00
0	 9.874999999999996e+00	 2.750000000000000e+00	 9.921152843076923e+00
0	 9.874999999999996e+00	 2.875000000000000e+00	 9.926117402307693e+00
0	 9.874999999999996e+00	 3.000000000000000e+00	 9.931103958461545e+00
0	 9.874999999999995e+00	 3.125000000000001e+00	 9.936112511538468e+00
0	 9.874999999999998e+00	 3.250000000000001e+00	 9.941143061538467e+00
0	 9.874999999999996e+00	 3.375000000000001e+00	 9.946195608461531e+00
0	 9.874999999999996e+00	 3.500000000000001e+00	 9.951270152307696e+00
0	 9.874999999999996e+00	 3.625000000000001e+00	 9.956366693076930e+00
0	 9.874999999999996e+00	 3.750000000000000e+00	 9.961485230769235e+00
0	 1.000000000000000e+01	 2.500000000000000e+00	 9.902601538461536e+00
0	 1.000000000000000e+01	 2.625000000000000e+00	 9.908093569230758e+00
0	 1.000000000000000e+01	 2.750000000000000e+00	 9.913609046153846e+00
0	 1.000000000000000e+01	 2.875000000000001e+00	 9.919147969230764e+00
0	 1.000000000000000e+01	 3.000000000000000e+00	 9.924710338461534e+00
0	 1.000000000000000e+01	 3.125000000000000e+00	 9.930296153846161e+00
0	 1.000000000000000e+01	 3.250000000000000e+00	 9.935905415384617e+00
0	 1.000000000000000e+01	 3.375000000000001e+00	 9.941538123076928e+00
0	 1.000000000000000e+01	 3.500000000000001e+00	 9.947194276923071e+00
0	 1.000000000000000e+01	 3.625000000000001e+00	 9.952873876923080e+00
0	 1.000000000000000e+01	 3.750000000000000e+00	 9.958576923076922e+00
0	 8.750000000000000e+00	 3.750000000000000e+00	 1.000946769230769e+01
0	 8.750000000000000e+00	 3.875000000000000e+00	 1.001010195384615e+01
0	 8.750000000000000e+00	 4.000000000000001e+00	 1.001082289230770e+01
0	 8.750000000000002e+00	 4.125000000000001e+00	 1.001163050769231e+01
0	 8.750000000000000e+00	 4.250000000000001e+00	 1.001252480000000e+01
0	 8.750000000000002e+00	 4.375000000000001e+00	 1.001350576923077e+01
0	 8.750000000000000e+00	 4.500000000000000e+00	 1.001457341538461e+01
0	 8.750000000000000e+00	 4.625000000000001e+00	 1.001572773846154e+01
0	 8.750000000000002e+00	 4.750000000000002e+00	 1.001696873846154e+01
0	 8.750000000000000e+00	 4.875000000000002e+00	 1.001829641538461e+01
0	 8.750000000000000e+00	 5.000000000000000e+00	 1.001971076923076e+01
0	 8.874999999999998e+00	 3.750000000000000e+00	 1.000219784615385e+01
0	 8.875000000000000e+00	 3.875000000000000e+00	 1.000316441538462e+01
0	 8.875000000000002e+00	 4.000000000000001e+00	 1.000421183692308e+01
0	 8.875000000000000e+00	 4.125000000000000e+00	 1.000534011076923e+01
0	 8.875000000000000e+00	 4.250000000000001e+00	 1.000654923692308e+01
0	 8.874999999999996e+00	 4.375000000000000e+00	 1.000783921538461e+01
0	 8.875000000000000e+00	 4.500000000000002e+00	 1.000921004615384e+01
0	 8.875000000000002e+00	 4.625000000000002e+00	 1.001066172923076e+01
0	 8.875000000000000e+00	 4.750000000000002e+00	 1.001219426461538e+01
0	 8.875000000000002e+00	 4.875000000000001e+00	 1.001380765230769e+01
0	 8.874999999999998e+00	 5.000000000000000e+00	 1.001550189230769e+01
0	 9.000000000000000e+00	 3.750000000000000e+00	 9.995412615384620e+00
0	 9.000000000000000e+00	 3.875000000000000e+00	 9.996697255384611e+00
0	 8.999999999999996e+00	 4.000000000000000e+00	 9.998056923076922e+00
0	 9.000000000000000e+00	 4.125000000000001e+00	 9.999491618461539e+00
0	 8.999999999999996e+00	 4.250000000000000e+00	 1.000100134153846e+01
0	 8.999999999999996e+00	 4.375000000000000e+00	 1.000258609230769e+01
0	 8.999999999999998e+00	 4.500000000000000e+00	 1.000424587076923e+01
0	 9.000000000000000e+00	 4.625000000000002e+00	 1.000598067692308e+01
0	 9.000000000000000e+00	 4.750000000000003e+00	 1.000779051076923e+01
0	 9.000000000000002e+00	 4.875000000000003e+00	 1.000967537230769e+01
0	 9.000000000000000e+00	 4.999999999999999e+00	 1.001163526153845e+01
0	 9.125000000000000e+00	 3.750000000000000e+00	 9.989112000000008e+00
0	 9.125000000000000e+00	 3.875000000000000e+00	 9.990700473846159e+00
0	 9.125000000000002e+00	 4.000000000000001e+00	 9.992358150769231e+00
0	 9.125000000000000e+00	 4.125000000000001e+00	 9.994085030769233e+00
0	 9.124999999999998e+00	 4.250000000000001e+00	 9.995881113846155e+00
0	 9.124999999999998e+00	 4.374999999999999e+00	 9.997746399999999e+00
0	 9.125000000000000e+00	 4.500000000000001e+00	 9.999680889230765e+00
0	 9.125000000000000e+00	 4.625000000000001e+00	 1.000168458153847e+01
0	 9.124999999999996e+00	 4.750000000000001e+00	 1.000375747692308e+01
0	 9.125000000000000e+00	 4.875000000000001e+00	 1.000589957538462e+01
0	 9.125000000000000e+00	 4.999999999999999e+00	 1.000811087692308e+01
0	 9.249999999999998e+00	 3.750000000000000e+00	 9.983296000000006e+00
0	 9.249999999999998e+00	 3.875000000000001e+00	 9.985174070769238e+00
0	 9.249999999999998e+00	 4.000000000000000e+00	 9.987115519999996e+00
0	 9.249999999999998e+00	 4.125000000000001e+00	 9.989120347692303e+00
0	 9.249999999999998e+00	 4.250000000000001e+00	 9.991188553846150e+00
0	 9.250000000000000e+00	 4.375000000000002e+00	 9.993320138461536e+00
0	 9.249999999999996e+00	 4.499999999999999e+00	 9.995515101538455e+00
0	 9.249999999999998e+00	 4.625000000000001e+00	 9.997773443076918e+00
0	 9.249999999999998e+00	 4.750000000000002e+00	 1.000009516307692e+01
0	 9.249999999999998e+00	 4.874999999999999e+00	 1.000248026153846e+01
0	 9.249999999999998e+00	 5.000000000000001e+00	 1.000492873846154e+01
0	 9.374999999999998e+00	 3.750000000000000e+00	 9.977964615384620e+00
0	 9.374999999999996e+00	 3.875000000000000e+00	 9.980118046153848e+00
0	 9.374999999999998e+00	 4.000000000000000e+00	 9.982329030769236e+00
0	 9.374999999999998e+00	 4.125000000000001e+00	 9.984597569230770e+00
0	 9.375000000000000e+00	 4.250000000000001e+00	 9.986923661538464e+00
0	 9.374999999999998e+00	 4.375000000000001e+00	 9.989307307692307e+00
0	 9.374999999999998e+00	 4.500000000000002e+00	 9.991748507692307e+00
0	 9.374999999999998e+00	 4.625000000000001e+00	 9.994247261538458e+00
0	 9.374999999999998e+00	 4.750000000000001e+00	 9.996803569230769e+00
0	 9.374999999999996e+00	 4.875000000000001e+00	 9.999417430769228e+00
0	 9.374999999999998e+00	 5.000000000000000e+00	 1.000208884615384e+01
0	 9.499999999999998e+00	 3.750000000000000e+00	 9.973117846153848e+00
0	 9.499999999999998e+00	 3.875000000000000e+00	 9.975532400000006e+00
0	 9.499999999999996e+00	 4.000000000000000e+00	 9.977998683076924e+00
0	 9.499999999999998e+00	 4.125000000000001e+00	 9.980516695384615e+00
0	 9.499999999999995e+00	 4.249999999999999e+00	 9.983086436923074e+00
0	 9.499999999999998e+00	 4.375000000000001e+00	 9.985707907692312e+00
0	 9.499999999999998e+00	 4.500000000000001e+00	 9.988381107692309e+00
0	 9.499999999999998e+00	 4.625000000000002e+00	 9.991106036923082e+00
0	 9.499999999999998e+00	 4.750000000000000e+00	 9.993882695384611e+00
0	 9.499999999999996e+00	 4.875000000000001e+00	 9.996711083076926e+00
0	 9.499999999999998e+00	 5.000000000000000e+00	 9.999591199999999e+00
0	 9.624999999999996e+00	 3.750000000000000e+00	 9.968755692307697e+00
0	 9.624999999999998e+00	 3.875000000000000e+00	 9.971417132307691e+00
0	 9.624999999999995e+00	 3.999999999999999e+00	 9.974124476923077e+00
0	 9.625000000000000e+00	 4.125000000000001e+00	 9.976877726153850e+00
0	 9.624999999999996e+00	 4.250000000000000e+00	 9.979676880000007e+00
0	 9.624999999999996e+00	 4.375000000000001e+00	 9.982521938461538e+00
0	 9.624999999999998e+00	 4.500000000000002e+00	 9.985412901538462e+00
0	 9.624999999999996e+00	 4.625000000000001e+00	 9.988349769230773e+00
0	 9.624999999999998e+00	 4.750000000000002e+00	 9.991332541538462e+00
0	 9.624999999999998e+00	 4.875000000000001e+00	 9.994361218461535e+00
0	 9.624999999999996e+00	 5.000000000000000e+00	 9.997435799999998e+00
0	 9.749999999999996e+00	 3.750000000000000e+00	 9.964878153846158e+00
0	 9.749999999999996e+00	 3.875000000000000e+00	 9.967772243076924e+00
0	 9.749999999999996e+00	 4.000000000000000e+00	 9.970706412307688e+00
0	 9.749999999999998e+00	 4.125000000000001e+00	 9.973680661538463e+00
0	 9.749999999999996e+00	 4.250000000000000e+00	 9.976694990769234e+00
0	 9.749999999999996e+00	 4.375000000000001e+00	 9.979749399999996e+00
0	 9.749999999999996e+00	 4.500000000000000e+00	 9.982843889230772e+00
0	 9.749999999999996e+00	 4.625000000000001e+00	 9.985978458461538e+00
0	 9.749999999999998e+00	 4.750000000000002e+00	 9.989153107692305e+00
0	 9.749999999999996e+00	 4.875000000000001e+00	 9.992367836923076e+00
0	 9.749999999999996e+00	 5.000000000000000e+00	 9.995622646153857e+00
0	 9.874999999999996e+00	 3.750000000000000e+00	 9.961485230769235e+00
0	 9.874999999999996e+00	 3.875000000000000e+00	 9.964597732307691e+00
0	 9.874999999999996e+00	 4.000000000000001e+00	 9.967744489230780e+00
0	 9.874999999999996e+00	 4.125000000000001e+00	 9.970925501538463e+00
0	 9.874999999999996e+00	 4.250000000000001e+00	 9.974140769230777e+00
0	 9.874999999999995e+00	 4.375000000000001e+00	 9.977390292307692e+00
0	 9.874999999999998e+00	 4.500000000000001e+00	 9.980674070769235e+00
0	 9.874999999999996e+00	 4.625000000000001e+00	 9.983992104615380e+00
0	 9.874999999999996e+00	 4.750000000000001e+00	 9.987344393846158e+00
0	 9.874999999999996e+00	 4.875000000000002e+00	 9.990730938461549e+00
0	 9.874999999999996e+00	 5.000000000000000e+00	 9.994151738461547e+00
0	 1.000000000000000e+01	 3.750000000000000e+00	 9.958576923076922e+00
0	 1.000000000000000e+01	 3.875000000000000e+00	 9.961893599999998e+00
0	 1.000000000000000e+01	 4.000000000000000e+00	 9.965238707692315e+00
0	 1.000000000000000e+01	 4.125000000000001e+00	 9.968612246153841e+00
0	 1.000000000000000e+01	 4.250000000000001e+00	 9.972014215384615e+00
0	 1.000000000000000e+01	 4.375000000000000e+00	 9.975444615384617e+00
0	 1.000000000000000e+01	 4.500000000000001e+00	 9.978903446153840e+00
0	 1.000000000000000e+01	 4.625000000000001e+00	 9.982390707692316e+00
0	 1.000000000000000e+01	 4.750000000000001e+00	 9.985906400000019e+00
0	 1.000000000000000e+01	 4.875000000000001e+00	 9.989450523076927e+00
0	 1.000000000000000e+01	 5.000000000000000e+00	 9.993023076923079e+00
0	 8.750000000000000e+00	 5.000000000000000e+00	 1.001971076923076e+01
0	 8.750000000000000e+00	 5.124999999999999e+00	 1.001973865384616e+01
0	 8.750000000000002e+00	 5.250000000000000e+00	 1.001978015384615e+01
0	 8.750000000000000e+00	 5.374999999999998e+00	 1.001983526923076e+01
0	 8.750000000000000e+00	 5.499999999999999e+00	 1.001990400000000e+01
0	 8.750000000000000e+00	 5.624999999999997e+00	 1.001998634615385e+01
0	 8.750000000000000e+00	 5.749999999999997e+00	 1.002008230769230e+01
0	 8.750000000000000e+00	 5.874999999999996e+00	 1.002019188461539e+01
0	 8.750000000000000e+00	 5.999999999999996e+00	 1.002031507692307e+01
0	 8.750000000000000e+00	 6.124999999999996e+00	 1.002045188461539e+01
0	 8.750000000000000e+00	 6.250000000000000e+00	 1.002060230769230e+01
0	 8.874999999999998e+00	 5.000000000000000e+00	 1.001550189230769e+01
0	 8.875000000000000e+00	 5.124999999999999e+00	 1.001560079769230e+01
0	 8.875000000000000e+00	 5.250000000000000e+00	 1.001571783692306e+01
0	 8.875000000000000e+00	 5.374999999999999e+00	 1.001585301000000e+01
0	 8.875000000000000e+00	 5.499999999999999e+00	 1.001600631692308e+01
0	 8.874999999999998e+00	 5.624999999999999e+00	 1.001617775769230e+01
0	 8.875000000000000e+00	 5.749999999999996e+00	 1.001636733230769e+01
0	 8.875000000000000e+00	 5.874999999999997e+00	 1.001657504076923e+01
0	 8.875000000000002e+00	 5.999999999999996e+00	 1.001680088307692e+01
0	 8.875000000000000e+00	 6.124999999999996e+00	 1.001704485923077e+01
0	 8.874999999999998e+00	 6.250000000000000e+00	 1.001730696923077e+01
0	 9.000000000000000e+00	 4.999999999999999e+00	 1.001163526153845e+01
0	 9.000000000000000e+00	 5.124999999999999e+00	 1.001181003384616e+01
0	 9.000000000000000e+00	 5.250000000000000e+00	 1.001200745846154e+01
0	 8.999999999999998e+00	 5.374999999999999e+00	 1.001222753538462e+01
0	 9.000000000000000e+00	 5.499999999999999e+00	 1.001247026461538e+01
0	 8.999999999999998e+00	 5.624999999999996e+00	 1.001273564615384e+01
0	 9.000000000000000e+00	 5.749999999999998e+00	 1.001302368000000e+01
0	 9.000000000000000e+00	 5.874999999999997e+00	 1.001333436615384e+01
0	 9.000000000000000e+00	 5.999999999999996e+00	 1.001366770461539e+01
0	 9.000000000000000e+00	 6.124999999999996e+00	 1.001402369538463e+01
0	 9.000000000000000e+00	 6.250000000000000e+00	 1.001440233846155e+01
0	 9.125000000000000e+00	 4.999999999999999e+00	 1.000811087692308e+01
0	 9.125000000000000e+00	 5.125000000000000e+00	 1.000836636230769e+01
0	 9.124999999999996e+00	 5.250000000000000e+00	 1.000864901846153e+01
0	 9.124999999999998e+00	 5.374999999999999e+00	 1.000895884538461e+01
0	 9.125000000000000e+00	 5.499999999999999e+00	 1.000929584307692e+01
0	 9.125000000000002e+00	 5.624999999999998e+00	 1.000966001153845e+01
0	 9.125000000000000e+00	 5.749999999999997e+00	 1.001005135076923e+01
0	 9.125000000000000e+00	 5.874999999999996e+00	 1.001046986076923e+01
0	 9.125000000000000e+00	 5.999999999999996e+00	 1.001091554153847e+01
0	 9.124999999999998e+00	 6.124999999999996e+00	 1.001138839307692e+01
0	 9.125000000000000e+00	 6.249999999999999e+00	 1.001188841538462e+01
0	 9.249999999999998e+00	 5.000000000000001e+00	 1.000492873846154e+01
0	 9.249999999999995e+00	 5.124999999999999e+00	 1.000526978307692e+01
0	 9.250000000000000e+00	 5.249999999999999e+00	 1.000564251692308e+01
0	 9.250000000000000e+00	 5.374999999999999e+00	 1.000604694000000e+01
0	 9.249999999999998e+00	 5.499999999999997e+00	 1.000648305230769e+01
0	 9.249999999999998e+00	 5.624999999999999e+00	 1.000695085384616e+01
0	 9.250000000000000e+00	 5.749999999999997e+00	 1.000745034461538e+01
0	 9.249999999999998e+00	 5.874999999999998e+00	 1.000798152461539e+01
0	 9.250000000000000e+00	 5.999999999999997e+00	 1.000854439384616e+01
0	 9.250000000000000e+00	 6.124999999999996e+00	 1.000913895230769e+01
0	 9.249999999999998e+00	 6.250000000000000e+00	 1.000976520000000e+01
0	 9.374999999999998e+00	 5.000000000000000e+00	 1.000208884615384e+01
0	 9.375000000000000e+00	 5.125000000000000e+00	 1.000252029615384e+01
0	 9.374999999999996e+00	 5.249999999999999e+00	 1.000298795384616e+01
0	 9.374999999999998e+00	 5.374999999999999e+00	 1.000349181923076e+01
0	 9.374999999999996e+00	 5.499999999999998e+00	 1.000403189230769e+01
0	 9.374999999999996e+00	 5.624999999999997e+00	 1.000460817307692e+01
0	 9.374999999999998e+00	 5.749999999999997e+00	 1.000522066153845e+01
0	 9.374999999999998e+00	 5.874999999999996e+00	 1.000586935769231e+01
0	 9.374999999999998e+00	 5.999999999999996e+00	 1.000655426153846e+01
0	 9.374999999999996e+00	 6.124999999999996e+00	 1.000727537307693e+01
0	 9.374999999999998e+00	 6.249999999999999e+00	 1.000803269230769e+01
0	 9.499999999999998e+00	 5.000000000000000e+00	 9.999591199999999e+00
0	 9.499999999999996e+00	 5.125000000000000e+00	 1.000011790153846e+01
0	 9.499999999999996e+00	 5.249999999999998e+00	 1.000068532923077e+01
0	 9.499999999999996e+00	 5.374999999999998e+00	 1.000129348307692e+01
0	 9.500000000000000e+00	 5.499999999999998e+00	 1.000194236307692e+01
0	 9.499999999999998e+00	 5.624999999999997e+00	 1.000263196923077e+01
0	 9.499999999999996e+00	 5.749999999999997e+00	 1.000336230153846e+01
0	 9.499999999999996e+00	 5.874999999999996e+00	 1.000413336000000e+01
0	 9.499999999999998e+00	 5.999999999999996e+00	 1.000494514461538e+01
0	 9.499999999999996e+00	 6.124999999999996e+00	 1.000579765538462e+01
0	 9.499999999999998e+00	 6.250000000000000e+00	 1.000669089230770e+01
0	 9.624999999999996e+00	 5.000000000000000e+00	 9.997435799999998e+00
0	 9.624999999999996e+00	 5.125000000000000e+00	 9.998062599230773e+00
0	 9.624999999999998e+00	 5.250000000000000e+00	 9.998734643076922e+00
0	 9.624999999999996e+00	 5.374999999999999e+00	 9.999451931538459e+00
0	 9.624999999999996e+00	 5.499999999999998e+00	 1.000021446461538e+01
0	 9.624999999999998e+00	 5.624999999999997e+00	 1.000102224230770e+01
0	 9.624999999999996e+00	 5.749999999999996e+00	 1.000187526461539e+01
0	 9.624999999999995e+00	 5.874999999999996e+00	 1.000277353153846e+01
0	 9.624999999999996e+00	 5.999999999999996e+00	 1.000371704307693e+01
0	 9.624999999999996e+00	 6.124999999999996e+00	 1.000470579923077e+01
0	 9.624999999999996e+00	 6.250000000000000e+00	 1.000573980000000e+01
0	 9.749999999999996e+00	 5.000000000000000e+00	 9.995622646153857e+00
0	 9.749999999999996e+00	 5.124999999999999e+00	 9.996354389230758e+00
0	 9.749999999999998e+00	 5.250000000000001e+00	 9.997135895384611e+00
0	 9.749999999999996e+00	 5.374999999999998e+00	 9.997967164615389e+00
0	 9.749999999999996e+00	 5.499999999999998e+00	 9.998848196923078e+00
0	 9.749999999999995e+00	 5.624999999999996e+00	 9.999778992307689e+00
0	 9.749999999999996e+00	 5.749999999999998e+00	 1.000075955076923e+01
0	 9.749999999999996e+00	 5.874999999999996e+00	 1.000178987230770e+01
0	 9.749999999999996e+00	 5.999999999999996e+00	 1.000286995692307e+01
0	 9.749999999999996e+00	 6.124999999999996e+00	 1.000399980461538e+01
0	 9.749999999999996e+00	 6.250000000000000e+00	 1.000517941538461e+01
0	 9.874999999999996e+00	 5.000000000000000e+00	 9.994151738461547e+00
0	 9.874999999999998e+00	 5.125000000000001e+00	 9.994993271538469e+00
0	 9.874999999999995e+00	 5.249999999999999e+00	 9.995889086153841e+00
0	 9.874999999999995e+00	 5.374999999999998e+00	 9.996839182307694e+00
0	 9.874999999999998e+00	 5.499999999999999e+00	 9.997843559999998e+00
0	 9.874999999999996e+00	 5.624999999999998e+00	 9.998902219230761e+00
0	 9.874999999999996e+00	 5.749999999999997e+00	 1.000001516000000e+01
0	 9.874999999999996e+00	 5.874999999999996e+00	 1.000118238230769e+01
0	 9.874999999999996e+00	 5.999999999999996e+00	 1.000240388615385e+01
0	 9.874999999999996e+00	 6.124999999999996e+00	 1.000367967153845e+01
0	 9.874999999999996e+00	 6.250000000000000e+00	 1.000500973846154e+01
0	 1.000000000000000e+01	 5.000000000000000e+00	 9.993023076923079e+00
0	 1.000000000000000e+01	 5.125000000000000e+00	 9.993979246153859e+00
0	 1.000000000000000e+01	 5.249999999999999e+00	 9.994994215384624e+00
0	 1.000000000000000e+01	 5.374999999999998e+00	 9.996067984615383e+00
0	 1.000000000000000e+01	 5.499999999999999e+00	 9.997200553846149e+00
0	 1.000000000000000e+01	 5.624999999999997e+00	 9.998391923076928e+00
0	 9.999999999999998e+00	 5.749999999999997e+00	 9.999642092307685e+00
0	 1.000000000000000e+01	 5.874999999999997e+00	 1.000095106153846e+01
0	 1.000000000000000e+01	 5.999999999999996e+00	 1.000231883076922e+01
0	 1.000000000000000e+01	 6.124999999999996e+00	 1.000374540000000e+01
0	 1.000000000000000e+01	 6.250000000000000e+00	 1.000523076923076e+01
0	 8.750000000000000e+00	 6.250000000000000e+00	 1.002060230769230e+01
0	 8.750000000000000e+00	 6.375000000000000e+00	 1.001955103846153e+01
0	 8.750000000000002e+00	 6.500000000000000e+00	 1.001853276923077e+01
0	 8.750000000000000e+00	 6.624999999999998e+00	 1.001754750000000e+01
0	 8.750000000000000e+00	 6.749999999999998e+00	 1.001659523076923e+01
0	 8.750000000000000e+00	 6.874999999999998e+00	 1.001567596153846e+01
0	 8.750000000000000e+00	 6.999999999999997e+00	 1.001478969230769e+01
0	 8.750000000000000e+00	 7.124999999999996e+00	 1.001393642307692e+01
0	 8.750000000000000e+00	 7.249999999999997e+00	 1.001311615384615e+01
0	 8.750000000000000e+00	 7.374999999999996e+00	 1.001232888461538e+01
0	 8.750000000000000e+00	 7.500000000000000e+00	 1.001157461538462e+01
0	 8.874999999999998e+00	 6.250000000000000e+00	 1.001730696923077e+01
0	 8.875000000000000e+00	 6.375000000000000e+00	 1.001648882461539e+01
0	 8.875000000000000e+00	 6.499999999999998e+00	 1.001570040769231e+01
0	 8.875000000000000e+00	 6.624999999999999e+00	 1.001494171846154e+01
0	 8.875000000000000e+00	 6.749999999999999e+00	 1.001421275692308e+01
0	 8.874999999999998e+00	 6.874999999999996e+00	 1.001351352307692e+01
0	 8.875000000000000e+00	 6.999999999999996e+00	 1.001284401692308e+01
0	 8.875000000000000e+00	 7.124999999999996e+00	 1.001220423846154e+01
0	 8.875000000000002e+00	 7.249999999999997e+00	 1.001159418769231e+01
0	 8.875000000000000e+00	 7.374999999999996e+00	 1.001101386461538e+01
0	 8.874999999999998e+00	 7.500000000000000e+00	 1.001046326923075e+01
0	 9.000000000000000e+00	 6.250000000000000e+00	 1.001440233846155e+01
0	 9.000000000000000e+00	 6.374999999999998e+00	 1.001377711692307e+01
0	 9.000000000000000e+00	 6.499999999999999e+00	 1.001317835076923e+01
0	 8.999999999999998e+00	 6.624999999999999e+00	 1.001260604000000e+01
0	 9.000000000000000e+00	 6.749999999999998e+00	 1.001206018461538e+01
0	 8.999999999999998e+00	 6.874999999999998e+00	 1.001154078461538e+01
0	 9.000000000000000e+00	 6.999999999999998e+00	 1.001104784000000e+01
0	 9.000000000000000e+00	 7.124999999999996e+00	 1.001058135076923e+01
0	 9.000000000000000e+00	 7.249999999999996e+00	 1.001014131692308e+01
0	 9.000000000000000e+00	 7.374999999999996e+00	 1.000972773846153e+01
0	 9.000000000000000e+00	 7.500000000000000e+00	 1.000934061538460e+01
0	 9.125000000000000e+00	 6.249999999999999e+00	 1.001188841538462e+01
0	 9.125000000000000e+00	 6.375000000000000e+00	 1.001141591538462e+01
0	 9.124999999999996e+00	 6.499999999999998e+00	 1.001096659846154e+01
0	 9.124999999999998e+00	 6.624999999999997e+00	 1.001054046461538e+01
0	 9.125000000000000e+00	 6.750000000000000e+00	 1.001013751384615e+01
0	 9.125000000000002e+00	 6.874999999999997e+00	 1.000975774615384e+01
0	 9.125000000000000e+00	 6.999999999999997e+00	 1.000940116153846e+01
0	 9.125000000000000e+00	 7.124999999999998e+00	 1.000906776000000e+01
0	 9.125000000000000e+00	 7.249999999999996e+00	 1.000875754153846e+01
0	 9.124999999999998e+00	 7.374999999999996e+00	 1.000847050615384e+01
0	 9.125000000000000e+00	 7.499999999999999e+00	 1.000820665384615e+01
0	 9.249999999999998e+00	 6.250000000000000e+00	 1.000976520000000e+01
0	 9.249999999999995e+00	 6.374999999999999e+00	 1.000940522000000e+01
0	 9.250000000000000e+00	 6.500000000000001e+00	 1.000906515076924e+01
0	 9.250000000000000e+00	 6.624999999999999e+00	 1.000874499230769e+01
0	 9.249999999999998e+00	 6.749999999999997e+00	 1.000844474461538e+01
0	 9.249999999999998e+00	 6.874999999999997e+00	 1.000816440769230e+01
0	 9.250000000000000e+00	 6.999999999999997e+00	 1.000790398153846e+01
0	 9.249999999999998e+00	 7.124999999999997e+00	 1.000766346615383e+01
0	 9.250000000000000e+00	 7.249999999999997e+00	 1.000744286153846e+01
0	 9.250000000000000e+00	 7.374999999999996e+00	 1.000724216769229e+01
0	 9.249999999999998e+00	 7.500000000000001e+00	 1.000706138461537e+01
0	 9.374999999999998e+00	 6.249999999999999e+00	 1.000803269230769e+01
0	 9.375000000000000e+00	 6.375000000000001e+00	 1.000774503076922e+01
0	 9.374999999999996e+00	 6.499999999999999e+00	 1.000747400769231e+01
0	 9.374999999999998e+00	 6.624999999999999e+00	 1.000721962307692e+01
0	 9.374999999999996e+00	 6.749999999999996e+00	 1.000698187692308e+01
0	 9.374999999999996e+00	 6.874999999999998e+00	 1.000676076923077e+01
0	 9.374999999999998e+00	 6.999999999999997e+00	 1.000655629999999e+01
0	 9.374999999999998e+00	 7.124999999999996e+00	 1.000636846923076e+01
0	 9.374999999999998e+00	 7.249999999999996e+00	 1.000619727692307e+01
0	 9.374999999999996e+00	 7.374999999999995e+00	 1.000604272307691e+01
0	 9.374999999999998e+00	 7.500000000000000e+00	 1.000590480769231e+01
0	 9.499999999999998e+00	 6.250000000000000e+00	 1.000669089230770e+01
0	 9.499999999999996e+00	 6.374999999999999e+00	 1.000643534769231e+01
0	 9.499999999999996e+00	 6.499999999999997e+00	 1.000619316923077e+01
0	 9.499999999999996e+00	 6.624999999999998e+00	 1.000596435692308e+01
0	 9.500000000000000e+00	 6.749999999999998e+00	 1.000574891076923e+01
0	 9.499999999999998e+00	 6.874999999999998e+00	 1.000554683076922e+01
0	 9.499999999999996e+00	 6.999999999999997e+00	 1.000535811692307e+01
0	 9.499999999999996e+00	 7.124999999999997e+00	 1.000518276923077e+01
0	 9.499999999999998e+00	 7.249999999999996e+00	 1.000502078769231e+01
0	 9.499999999999996e+00	 7.374999999999995e+00	 1.000487217230769e+01
0	 9.499999999999998e+00	 7.499999999999999e+00	 1.000473692307691e+01
0	 9.624999999999996e+00	 6.250000000000000e+00	 1.000573980000000e+01
0	 9.624999999999996e+00	 6.375000000000000e+00	 1.000547617076923e+01
0	 9.624999999999998e+00	 6.500000000000000e+00	 1.000522263538462e+01
0	 9.624999999999996e+00	 6.624999999999999e+00	 1.000497919384614e+01
0	 9.624999999999996e+00	 6.749999999999997e+00	 1.000474584615383e+01
0	 9.624999999999998e+00	 6.874999999999998e+00	 1.000452259230769e+01
0	 9.624999999999996e+00	 6.999999999999998e+00	 1.000430943230768e+01
0	 9.624999999999995e+00	 7.124999999999996e+00	 1.000410636615383e+01
0	 9.624999999999996e+00	 7.249999999999995e+00	 1.000391339384614e+01
0	 9.624999999999996e+00	 7.374999999999996e+00	 1.000373051538461e+01
0	 9.624999999999996e+00	 7.500000000000000e+00	 1.000355773076923e+01
0	 9.749999999999996e+00	 6.250000000000000e+00	 1.000517941538461e+01
0	 9.749999999999996e+00	 6.375000000000000e+00	 1.000486749999999e+01
0	 9.749999999999998e+00	 6.500000000000000e+00	 1.000456240615384e+01
0	 9.749999999999996e+00	 6.624999999999998e+00	 1.000426413384615e+01
0	 9.749999999999996e+00	 6.749999999999999e+00	 1.000397268307692e+01
0	 9.749999999999995e+00	 6.874999999999996e+00	 1.000368805384615e+01
0	 9.749999999999996e+00	 6.999999999999997e+00	 1.000341024615384e+01
0	 9.749999999999996e+00	 7.124999999999996e+00	 1.000313925999998e+01
0	 9.749999999999996e+00	 7.249999999999996e+00	 1.000287509538461e+01
0	 9.749999999999996e+00	 7.374999999999995e+00	 1.000261775230769e+01
0	 9.749999999999996e+00	 7.500000000000000e+00	 1.000236723076923e+01
0	 9.874999999999996e+00	 6.250000000000000e+00	 1.000500973846154e+01
0	 9.874999999999998e+00	 6.375000000000000e+00	 1.000460933538461e+01
0	 9.874999999999995e+00	 6.499999999999999e+00	 1.000421248153846e+01
0	 9.874999999999995e+00	 6.624999999999998e+00	 1.000381917692308e+01
0	 9.874999999999998e+00	 6.749999999999999e+00	 1.000342942153845e+01
0	 9.874999999999996e+00	 6.874999999999998e+00	 1.000304321538461e+01
0	 9.874999999999996e+00	 6.999999999999998e+00	 1.000266055846154e+01
0	 9.874999999999996e+00	 7.124999999999997e+00	 1.000228145076922e+01
0	 9.874999999999996e+00	 7.249999999999996e+00	 1.000190589230768e+01
0	 9.874999999999996e+00	 7.374999999999996e+00	 1.000153388307692e+01
0	 9.874999999999996e+00	 7.500000000000000e+00	 1.000116542307691e+01
0	 1.000000000000000e+01	 6.250000000000000e+00	 1.000523076923076e+01
0	 1.000000000000000e+01	 6.374999999999999e+00	 1.000470167692306e+01
0	 1.000000000000000e+01	 6.499999999999999e+00	 1.000417286153846e+01
0	 1.000000000000000e+01	 6.624999999999998e+00	 1.000364432307692e+01
0	 1.000000000000000e+01	 6.749999999999998e+00	 1.000311606153845e+01
0	 1.000000000000000e+01	 6.874999999999998e+00	 1.000258807692306e+01
0	 9.999999999999998e+00	 6.999999999999997e+00	 1.000206036923077e+01
0	 1.000000000000000e+01	 7.124999999999997e+00	 1.000153293846152e+01
0	 1.000000000000000e+01	 7.249999999999996e+00	 1.000100578461539e+01
0	 1.000000000000000e+01	 7.374999999999996e+00	 1.000047890769229e+01
0	 1.000000000000000e+01	 7.500000000000000e+00	 9.999952307692308e+00
0	 8.750000000000000e+00	 7.500000000000000e+00	 1.001157461538462e+01
0	 8.750000000000000e+00	 7.625000000000000e+00	 1.001089182307693e+01
0	 8.750000000000002e+00	 7.750000000000000e+00	 1.001016606153846e+01
0	 8.750000000000000e+00	 7.874999999999998e+00	 1.000939733076922e+01
0	 8.750000000000000e+00	 7.999999999999999e+00	 1.000858563076923e+01
0	 8.750000000000000e+00	 8.124999999999998e+00	 1.000773096153847e+01
0	 8.750000000000000e+00	 8.249999999999998e+00	 1.000683332307692e+01
0	 8.750000000000000e+00	 8.374999999999996e+00	 1.000589271538461e+01
0	 8.750000000000000e+00	 8.499999999999996e+00	 1.000490913846154e+01
0	 8.750000000000000e+00	 8.624999999999996e+00	 1.000388259230771e+01
0	 8.750000000000000e+00	 8.750000000000000e+00	 1.000281307692308e+01
0	 8.874999999999998e+00	 7.500000000000000e+00	 1.001046326923075e+01
0	 8.875000000000000e+00	 7.624999999999999e+00	 1.000983182769231e+01
0	 8.875000000000000e+00	 7.749999999999998e+00	 1.000916247076923e+01
0	 8.875000000000000e+00	 7.874999999999997e+00	 1.000845519846153e+01
0	 8.875000000000000e+00	 7.999999999999999e+00	 1.000771001076923e+01
0	 8.874999999999998e+00	 8.124999999999996e+00	 1.000692690769231e+01
0	 8.875000000000000e+00	 8.249999999999998e+00	 1.000610588923077e+01
0	 8.875000000000000e+00	 8.374999999999998e+00	 1.000524695538461e+01
0	 8.875000000000002e+00	 8.499999999999998e+00	 1.000435010615386e+01
0	 8.875000000000000e+00	 8.624999999999996e+00	 1.000341534153847e+01
0	 8.874999999999998e+00	 8.750000000000000e+00	 1.000244266153847e+01
0	 9.000000000000000e+00	 7.500000000000000e+00	 1.000934061538460e+01
0	 9.000000000000000e+00	 7.625000000000000e+00	 1.000875764923076e+01
0	 9.000000000000000e+00	 7.750000000000000e+00	 1.000814182153846e+01
0	 8.999999999999998e+00	 7.874999999999997e+00	 1.000749313230770e+01
0	 9.000000000000000e+00	 7.999999999999998e+00	 1.000681158153846e+01
0	 8.999999999999998e+00	 8.124999999999998e+00	 1.000609716923076e+01
0	 9.000000000000000e+00	 8.250000000000000e+00	 1.000534989538463e+01
0	 9.000000000000000e+00	 8.374999999999995e+00	 1.000456976000000e+01
0	 9.000000000000000e+00	 8.499999999999995e+00	 1.000375676307693e+01
0	 9.000000000000000e+00	 8.624999999999996e+00	 1.000291090461537e+01
0	 9.000000000000000e+00	 8.750000000000000e+00	 1.000203218461539e+01
0	 9.125000000000000e+00	 7.499999999999999e+00	 1.000820665384615e+01
0	 9.125000000000000e+00	 7.625000000000000e+00	 1.000766928769231e+01
0	 9.124999999999996e+00	 7.749999999999999e+00	 1.000710411384615e+01
0	 9.124999999999998e+00	 7.874999999999996e+00	 1.000651113230768e+01
0	 9.125000000000000e+00	 7.999999999999999e+00	 1.000589034307692e+01
0	 9.125000000000002e+00	 8.124999999999998e+00	 1.000524174615385e+01
0	 9.125000000000000e+00	 8.249999999999998e+00	 1.000456534153847e+01
0	 9.125000000000000e+00	 8.374999999999998e+00	 1.000386112923077e+01
0	 9.125000000000000e+00	 8.499999999999996e+00	 1.000312910923077e+01
0	 9.124999999999998e+00	 8.624999999999996e+00	 1.000236928153846e+01
0	 9.125000000000000e+00	 8.749999999999998e+00	 1.000158164615385e+01
0	 9.249999999999998e+00	 7.500000000000001e+00	 1.000706138461537e+01
0	 9.249999999999995e+00	 7.624999999999998e+00	 1.000656674307693e+01
0	 9.250000000000000e+00	 7.750000000000000e+00	 1.000604934769230e+01
0	 9.250000000000000e+00	 7.874999999999999e+00	 1.000550919846153e+01
0	 9.249999999999998e+00	 7.999999999999997e+00	 1.000494629538461e+01
0	 9.249999999999998e+00	 8.124999999999998e+00	 1.000436063846154e+01
0	 9.250000000000000e+00	 8.249999999999998e+00	 1.000375222769231e+01
0	 9.249999999999998e+00	 8.374999999999996e+00	 1.000312106307692e+01
0	 9.250000000000000e+00	 8.499999999999996e+00	 1.000246714461538e+01
0	 9.250000000000000e+00	 8.624999999999996e+00	 1.000179047230771e+01
0	 9.249999999999998e+00	 8.750000000000002e+00	 1.000109104615386e+01
0	 9.374999999999998e+00	 7.500000000000000e+00	 1.000590480769231e+01
0	 9.375000000000000e+00	 7.625000000000001e+00	 1.000545001538461e+01
0	 9.374999999999996e+00	 7.749999999999999e+00	 1.000497752307692e+01
0	 9.374999999999998e+00	 7.874999999999998e+00	 1.000448733076922e+01
0	 9.374999999999996e+00	 7.999999999999997e+00	 1.000397943846154e+01
0	 9.374999999999996e+00	 8.124999999999998e+00	 1.000345384615385e+01
0	 9.374999999999998e+00	 8.249999999999996e+00	 1.000291055384616e+01
0	 9.374999999999998e+00	 8.374999999999996e+00	 1.000234956153846e+01
0	 9.374999999999998e+00	 8.499999999999996e+00	 1.000177086923076e+01
0	 9.374999999999996e+00	 8.624999999999993e+00	 1.000117447692308e+01
0	 9.374999999999998e+00	 8.750000000000000e+00	 1.000056038461539e+01
0	 9.499999999999998e+00	 7.499999999999999e+00	 1.000473692307691e+01
0	 9.499999999999996e+00	 7.625000000000000e+00	 1.000431910461539e+01
0	 9.499999999999996e+00	 7.749999999999997e+00	 1.000388863999999e+01
0	 9.499999999999996e+00	 7.874999999999998e+00	 1.000344552923076e+01
0	 9.500000000000000e+00	 7.999999999999998e+00	 1.000298977230769e+01
0	 9.499999999999998e+00	 8.124999999999998e+00	 1.000252136923077e+01
0	 9.499999999999996e+00	 8.249999999999996e+00	 1.000204032000000e+01
0	 9.499999999999996e+00	 8.374999999999996e+00	 1.000154662461538e+01
0	 9.499999999999998e+00	 8.499999999999996e+00	 1.000104028307691e+01
0	 9.499999999999996e+00	 8.624999999999995e+00	 1.000052129538462e+01
0	 9.499999999999998e+00	 8.750000000000000e+00	 9.999989661538462e+00
0	 9.624999999999996e+00	 7.500000000000000e+00	 1.000355773076923e+01
0	 9.624999999999996e+00	 7.624999999999999e+00	 1.000317401076923e+01
0	 9.624999999999998e+00	 7.750000000000000e+00	 1.000278269846153e+01
0	 9.624999999999996e+00	 7.874999999999998e+00	 1.000238379384615e+01
0	 9.624999999999996e+00	 7.999999999999996e+00	 1.000197729692307e+01
0	 9.624999999999998e+00	 8.124999999999996e+00	 1.000156320769231e+01
0	 9.624999999999996e+00	 8.249999999999998e+00	 1.000114152615384e+01
0	 9.624999999999995e+00	 8.374999999999996e+00	 1.000071225230769e+01
0	 9.624999999999996e+00	 8.499999999999995e+00	 1.000027538615385e+01
0	 9.624999999999996e+00	 8.624999999999996e+00	 9.999830927692310e+00
0	 9.624999999999996e+00	 8.750000000000000e+00	 9.999378876923080e+00
0	 9.749999999999996e+00	 7.500000000000000e+00	 1.000236723076923e+01
0	 9.749999999999996e+00	 7.625000000000000e+00	 1.000201473384615e+01
0	 9.749999999999998e+00	 7.750000000000000e+00	 1.000165969846154e+01
0	 9.749999999999996e+00	 7.874999999999998e+00	 1.000130212461539e+01
0	 9.749999999999996e+00	 7.999999999999998e+00	 1.000094201230769e+01
0	 9.749999999999995e+00	 8.124999999999996e+00	 1.000057936153846e+01
0	 9.749999999999996e+00	 8.249999999999996e+00	 1.000021417230770e+01
0	 9.749999999999996e+00	 8.374999999999996e+00	 9.999846444615390e+00
0	 9.749999999999996e+00	 8.499999999999996e+00	 9.999476178461535e+00
0	 9.749999999999996e+00	 8.624999999999996e+00	 9.999103373846152e+00
0	 9.749999999999996e+00	 8.750000000000000e+00	 9.998728030769238e+00
0	 9.874999999999996e+00	 7.500000000000000e+00	 1.000116542307691e+01
0	 9.874999999999998e+00	 7.625000000000000e+00	 1.000084127384616e+01
0	 9.874999999999995e+00	 7.749999999999999e+00	 1.000051964000000e+01
0	 9.874999999999995e+00	 7.874999999999997e+00	 1.000020052153846e+01
0	 9.874999999999998e+00	 7.999999999999998e+00	 9.999883918461533e+00
0	 9.874999999999996e+00	 8.124999999999998e+00	 9.999569830769227e+00
0	 9.874999999999996e+00	 8.249999999999998e+00	 9.999258258461539e+00
0	 9.874999999999996e+00	 8.374999999999998e+00	 9.998949201538466e+00
0	 9.874999999999996e+00	 8.499999999999996e+00	 9.998642660000002e+00
0	 9.874999999999996e+00	 8.624999999999996e+00	 9.998338633846160e+00
0	 9.874999999999996e+00	 8.750000000000000e+00	 9.998037123076928e+00
0	 1.000000000000000e+01	 7.500000000000000e+00	 9.999952307692308e+00
0	 1.000000000000000e+01	 7.625000000000000e+00	 9.999653630769235e+00
0	 1.000000000000000e+01	 7.749999999999998e+00	 9.999362523076922e+00
0	 1.000000000000000e+01	 7.874999999999999e+00	 9.999078984615366e+00
0	 1.000000000000000e+01	 7.999999999999999e+00	 9.998803015384608e+00
0	 1.000000000000000e+01	 8.124999999999998e+00	 9.998534615384614e+00
0	 9.999999999999998e+00	 8.249999999999998e+00	 9.998273784615380e+00
0	 1.000000000000000e+01	 8.374999999999998e+00	 9.998020523076917e+00
0	 1.000000000000000e+01	 8.499999999999996e+00	 9.997774830769238e+00
0	 1.000000000000000e+01	 8.624999999999996e+00	 9.997536707692319e+00
0	 1.000000000000000e+01	 8.750000000000000e+00	 9.997306153846157e+00
0	 8.750000000000000e+00	 8.750000000000000e+00	 1.000281307692308e+01
0	 8.750000000000000e+00	 8.874999999999998e+00	 1.000263703846154e+01
0	 8.750000000000000e+00	 9.000000000000000e+00	 1.000240307692308e+01
0	 8.749999999999998e+00	 9.124999999999998e+00	 1.000211119230769e+01
0	 8.750000000000000e+00	 9.250000000000000e+00	 1.000176138461538e+01
0	 8.750000000000000e+00	 9.374999999999996e+00	 1.000135365384615e+01
0	 8.750000000000000e+00	 9.499999999999996e+00	 1.000088800000000e+01
0	 8.750000000000000e+00	 9.624999999999996e+00	 1.000036442307693e+01
0	 8.750000000000002e+00	 9.749999999999998e+00	 9.999782923076911e+00
0	 8.750000000000000e+00	 9.874999999999996e+00	 9.999143499999999e+00
0	 8.750000000000000e+00	 1.000000000000000e+01	 9.998446153846142e+00
0	 8.874999999999998e+00	 8.750000000000000e+00	 1.000244266153847e+01
0	 8.875000000000002e+00	 8.875000000000002e+00	 1.000232216846154e+01
0	 8.875000000000000e+00	 8.999999999999998e+00	 1.000214794769232e+01
0	 8.875000000000002e+00	 9.125000000000000e+00	 1.000191999923077e+01
0	 8.875000000000000e+00	 9.249999999999996e+00	 1.000163832307693e+01
0	 8.875000000000002e+00	 9.375000000000000e+00	 1.000130291923076e+01
0	 8.875000000000002e+00	 9.500000000000000e+00	 1.000091378769230e+01
0	 8.875000000000000e+00	 9.624999999999998e+00	 1.000047092846152e+01
0	 8.875000000000000e+00	 9.749999999999995e+00	 9.999974341538469e+00
0	 8.875000000000000e+00	 9.874999999999996e+00	 9.999424026923089e+00
0	 8.875000000000002e+00	 1.000000000000000e+01	 9.998819984615373e+00
0	 9.000000000000000e+00	 8.750000000000000e+00	 1.000203218461539e+01
0	 8.999999999999998e+00	 8.875000000000000e+00	 1.000196493230769e+01
0	 9.000000000000002e+00	 9.000000000000000e+00	 1.000184814769231e+01
0	 8.999999999999998e+00	 9.125000000000000e+00	 1.000168183076923e+01
0	 8.999999999999996e+00	 9.249999999999998e+00	 1.000146598153846e+01
0	 8.999999999999998e+00	 9.374999999999996e+00	 1.000120060000000e+01
0	 9.000000000000002e+00	 9.500000000000000e+00	 1.000088568615386e+01
0	 9.000000000000002e+00	 9.624999999999998e+00	 1.000052124000000e+01
0	 9.000000000000002e+00	 9.750000000000000e+00	 1.000010726153845e+01
0	 9.000000000000000e+00	 9.874999999999996e+00	 9.999643750769224e+00
0	 9.000000000000000e+00	 1.000000000000000e+01	 9.999130707692306e+00
0	 9.125000000000000e+00	 8.749999999999998e+00	 1.000158164615385e+01
0	 9.125000000000000e+00	 8.874999999999998e+00	 1.000156533000000e+01
0	 9.124999999999998e+00	 8.999999999999998e+00	 1.000150367692308e+01
0	 9.125000000000000e+00	 9.125000000000002e+00	 1.000139668692308e+01
0	 9.125000000000000e+00	 9.250000000000000e+00	 1.000124436000001e+01
0	 9.125000000000000e+00	 9.374999999999998e+00	 1.000104669615386e+01
0	 9.125000000000002e+00	 9.499999999999998e+00	 1.000080369538462e+01
0	 9.124999999999998e+00	 9.624999999999998e+00	 1.000051535769231e+01
0	 9.124999999999996e+00	 9.749999999999996e+00	 1.000018168307692e+01
0	 9.125000000000000e+00	 9.874999999999996e+00	 9.999802671538454e+00
0	 9.124999999999998e+00	 9.999999999999998e+00	 9.999378323076922e+00
0	 9.249999999999998e+00	 8.750000000000002e+00	 1.000109104615386e+01
0	 9.249999999999996e+00	 8.875000000000000e+00	 1.000112336153847e+01
0	 9.249999999999998e+00	 8.999999999999998e+00	 1.000111453538461e+01
0	 9.250000000000002e+00	 9.125000000000002e+00	 1.000106456769231e+01
0	 9.250000000000000e+00	 9.250000000000000e+00	 1.000097345846153e+01
0	 9.250000000000000e+00	 9.374999999999998e+00	 1.000084120769231e+01
0	 9.249999999999998e+00	 9.499999999999996e+00	 1.000066781538464e+01
0	 9.250000000000000e+00	 9.624999999999998e+00	 1.000045328153844e+01
0	 9.249999999999998e+00	 9.749999999999995e+00	 1.000019760615383e+01
0	 9.250000000000000e+00	 9.874999999999998e+00	 9.999900789230788e+00
0	 9.250000000000000e+00	 1.000000000000000e+01	 9.999562830769229e+00
0	 9.374999999999998e+00	 8.750000000000000e+00	 1.000056038461539e+01
0	 9.375000000000000e+00	 8.875000000000000e+00	 1.000063902692310e+01
0	 9.374999999999995e+00	 8.999999999999998e+00	 1.000068072307693e+01
0	 9.374999999999996e+00	 9.124999999999996e+00	 1.000068547307692e+01
0	 9.375000000000000e+00	 9.250000000000000e+00	 1.000065327692309e+01
0	 9.374999999999996e+00	 9.374999999999996e+00	 1.000058413461538e+01
0	 9.375000000000000e+00	 9.500000000000000e+00	 1.000047804615385e+01
0	 9.374999999999996e+00	 9.624999999999996e+00	 1.000033501153846e+01
0	 9.374999999999998e+00	 9.749999999999996e+00	 1.000015503076922e+01
0	 9.374999999999996e+00	 9.874999999999996e+00	 9.999938103846162e+00
0	 9.374999999999996e+00	 1.000000000000000e+01	 9.999684230769208e+00
0	 9.499999999999998e+00	 8.750000000000000e+00	 9.999989661538462e+00
0	 9.500000000000000e+00	 8.875000000000000e+00	 1.000011232615386e+01
0	 9.500000000000000e+00	 9.000000000000002e+00	 1.000020223999999e+01
0	 9.499999999999996e+00	 9.125000000000000e+00	 1.000025940307693e+01
0	 9.499999999999996e+00	 9.249999999999996e+00	 1.000028381538463e+01
0	 9.499999999999998e+00	 9.374999999999998e+00	 1.000027547692309e+01
0	 9.499999999999998e+00	 9.499999999999998e+00	 1.000023438769230e+01
0	 9.500000000000000e+00	 9.625000000000000e+00	 1.000016054769230e+01
0	 9.499999999999998e+00	 9.749999999999996e+00	 1.000005395692309e+01
0	 9.499999999999996e+00	 9.874999999999996e+00	 9.999914615384613e+00
0	 9.499999999999996e+00	 1.000000000000000e+01	 9.999742523076918e+00
0	 9.624999999999996e+00	 8.750000000000000e+00	 9.999378876923080e+00
0	 9.624999999999996e+00	 8.874999999999998e+00	 9.999543259230762e+00
0	 9.624999999999998e+00	 9.000000000000000e+00	 9.999679086153842e+00
0	 9.624999999999995e+00	 9.124999999999998e+00	 9.999786357692305e+00
0	 9.624999999999995e+00	 9.249999999999996e+00	 9.999865073846161e+00
0	 9.624999999999995e+00	 9.374999999999998e+00	 9.999915234615390e+00
0	 9.624999999999998e+00	 9.499999999999998e+00	 9.999936840000002e+00
0	 9.624999999999995e+00	 9.624999999999995e+00	 9.999929889999995e+00
0	 9.624999999999996e+00	 9.749999999999996e+00	 9.999894384615395e+00
0	 9.624999999999996e+00	 9.874999999999996e+00	 9.999830323846156e+00
0	 9.624999999999996e+00	 1.000000000000000e+01	 9.999737707692328e+00
0	 9.749999999999996e+00	 8.750000000000000e+00	 9.998728030769238e+00
0	 9.749999999999995e+00	 8.874999999999998e+00	 9.998931826153832e+00
0	 9.749999999999996e+00	 8.999999999999998e+00	 9.999111261538456e+00
0	 9.749999999999996e+00	 9.124999999999998e+00	 9.999266336923078e+00
0	 9.749999999999996e+00	 9.249999999999998e+00	 9.999397052307701e+00
0	 9.749999999999995e+00	 9.374999999999998e+00	 9.999503407692316e+00
0	 9.749999999999996e+00	 9.499999999999996e+00	 9.999585403076912e+00
0	 9.749999999999996e+00	 9.624999999999996e+00	 9.999643038461530e+00
0	 9.749999999999996e+00	 9.749999999999996e+00	 9.999676313846148e+00
0	 9.749999999999996e+00	 9.874999999999996e+00	 9.999685229230781e+00
0	 9.749999999999996e+00	 1.000000000000000e+01	 9.999669784615385e+00
0	 9.874999999999996e+00	 8.750000000000000e+00	 9.998037123076928e+00
0	 9.874999999999996e+00	 8.875000000000000e+00	 9.998278026923078e+00
0	 9.874999999999996e+00	 9.000000000000000e+00	 9.998498766153848e+00
0	 9.874999999999996e+00	 9.125000000000000e+00	 9.998699340769235e+00
0	 9.874999999999996e+00	 9.250000000000000e+00	 9.998879750769234e+00
0	 9.874999999999996e+00	 9.374999999999996e+00	 9.999039996153844e+00
0	 9.874999999999996e+00	 9.499999999999996e+00	 9.999180076923084e+00
0	 9.874999999999996e+00	 9.624999999999996e+00	 9.999299993076930e+00
0	 9.874999999999996e+00	 9.749999999999996e+00	 9.999399744615399e+00
0	 9.874999999999996e+00	 9.874999999999996e+00	 9.999479331538467e+00
0	 9.874999999999996e+00	 1.000000000000000e+01	 9.999538753846151e+00
0	 1.000000000000000e+01	 8.750000000000000e+00	 9.997306153846157e+00
0	 1.000000000000000e+01	 8.875000000000002e+00	 9.997581861538478e+00
0	 1.000000000000000e+01	 9.000000000000000e+00	 9.997841599999997e+00
0	 9.999999999999998e+00	 9.124999999999998e+00	 9.998085369230767e+00
0	 1.000000000000000e+01	 9.250000000000000e+00	 9.998313169230782e+00
0	 1.000000000000000e+01	 9.374999999999996e+00	 9.998524999999994e+00
0	 1.000000000000000e+01	 9.499999999999996e+00	 9.998720861538462e+00
0	 1.000000000000000e+01	 9.624999999999996e+00	 9.998900753846158e+00
0	 1.000000000000000e+01	 9.749999999999996e+00	 9.999064676923087e+00
0	 1.000000000000000e+01	 9.874999999999996e+00	 9.999212630769239e+00
0	 1.000000000000000e+01	 1.000000000000000e+01	 9.999344615384615e+00
1	 1.000000000000000e+00	 0.000000000000000e+00	 2.519751634419901e+01
1	 9.997942136041430e-01	 2.028591802679378e-02	 2.480712318692308e+01
1	 9.991701517322812e-01	 4.073043895732996e-02	 2.437253719368827e+01
1	 9.981179738659461e-01	 6.132242709398375e-02	 2.389317871522230e+01
1	 9.966281528999331e-01	 8.205016480108969e-02	 2.336869055323826e+01
1	 9.946915115410935e-01	 1.029013581149163e-01	 2.279895142105876e+01
1	 9.922992591451227e-01	 1.238631447915628e-01	 2.218408864512751e+01
1	 9.894430288203904e-01	 1.449221048859623e-01	 2.152448995220178e+01
1	 9.861149146151664e-01	 1.660642739430359e-01	 2.082081418490614e+01
1	 9.823075085927058e-01	 1.872751588682954e-01	 2.007400078801389e+01
1	 9.780139375877577e-01	 2.085397565298897e-01	 1.928527790946456e+01
1	 1.014285762337685e+00	 0.000000000000000e+00	 2.428443777576045e+01
1	 1.014077036126061e+00	 2.057571783397239e-02	 2.390107304973867e+01
1	 1.013444059054001e+00	 4.131230433435238e-02	 2.347551389731900e+01
1	 1.012376850023818e+00	 6.219846472164651e-02	 2.300719560844045e+01
1	 1.010865745828442e+00	 8.322231396489504e-02	 2.249579986077909e+01
1	 1.008901438070191e+00	 1.043713824717894e-01	 2.194126923361875e+01
1	 1.006475010523806e+00	 1.256326242515389e-01	 2.134382082532998e+01
1	 1.003577976770334e+00	 1.469924276450039e-01	 2.070395880099515e+01
1	 1.000202317915604e+00	 1.684366287042941e-01	 2.002248569491325e+01
1	 9.963405201949547e-01	 1.899505272900958e-01	 1.930051229297137e+01
1	 9.919856122548429e-01	 2.115189059394628e-01	 1.853946592236036e+01
1	 1.028571613012482e+00	 0.000000000000000e+00	 2.343614513175080e+01
1	 1.028359946966947e+00	 2.086551943237181e-02	 2.305720916701198e+01
1	 1.027718054639657e+00	 4.189417330796975e-02	 2.263826244055999e+01
1	 1.026635814352820e+00	 6.307450776443697e-02	 2.217876377528671e+01
1	 1.025103426796637e+00	 8.439447037447290e-02	 2.167843557050103e+01
1	 1.023111452468066e+00	 1.058414159160936e-01	 2.113727900606291e+01
1	 1.020650849560097e+00	 1.274021146504702e-01	 2.055558824378333e+01
1	 1.017713012125696e+00	 1.490627632031908e-01	 1.993396343941675e+01
1	 1.014289808327531e+00	 1.708089981323072e-01	 1.927332237706851e+01
1	 1.010373618572351e+00	 1.926259122523858e-01	 1.857491053859254e+01
1	 1.005957373317689e+00	 2.144980737680448e-01	 1.784030942374892e+01
1	 1.042857540357000e+00	 0.000000000000000e+00	 2.264638893656704e+01
1	 1.042642934461810e+00	 2.115532258538498e-02	 2.226977354428993e+01
1	 1.041992126831531e+00	 4.247604540310704e-02	 2.185545591514414e+01
1	 1.040894855207496e+00	 6.395055550708173e-02	 2.140292688557292e+01
1	 1.039341184176433e+00	 8.556663307275812e-02	 2.091195151007048e+01
1	 1.037321543129217e+00	 1.073114572475230e-01	 2.038258460171044e+01
1	 1.034826764676397e+00	 1.291716145435108e-01	 1.981518519385905e+01
1	 1.031848123342196e+00	 1.511331098699965e-01	 1.921042972812599e+01
1	 1.028377374345500e+00	 1.731813802898896e-01	 1.856932377239728e+01
1	 1.024406792263879e+00	 1.953013115705125e-01	 1.789321207397415e+01
1	 1.019929209365398e+00	 2.174772575828835e-01	 1.718378675660307e+01
1	 1.057143532703853e+00	 0.000000000000000e+00	 2.190925744893210e+01
1	 1.056925986945660e+00	 2.144512705640483e-02	 2.153331935304880e+01
1	 1.056266263971905e+00	 4.305792014468924e-02	 2.112205527507088e+01
1	 1.055153960942393e+00	 6.482660723430732e-02	 2.067499643860531e+01
1	 1.053579006339744e+00	 8.673880110268559e-02	 2.019195257003610e+01
1	 1.051531698448141e+00	 1.087815052657716e-01	 1.967302743019833e+01
1	 1.049002744295102e+00	 1.309411224858152e-01	 1.911863322077806e+01
1	 1.045983298875552e+00	 1.532034659548943e-01	 1.852950366705515e+01
1	 1.042465004464060e+00	 1.755537732398562e-01	 1.790670557768724e+01
1	 1.038440029808523e+00	 1.979767230598238e-01	 1.725164868377142e+01
1	 1.033901108987072e+00	 2.204564549512274e-01	 1.656609356361021e+01
1	 1.071429578385649e+00	 0.000000000000000e+00	 2.121915415351568e+01
1	 1.071209092753505e+00	 2.173493260882433e-02	 2.084269019292894e+01
1	 1.070540454403061e+00	 4.363979705764136e-02	 2.043329015185237e+01
1	 1.069413119912057e+00	 6.570266223084026e-02	 1.999053391343272e+01
1	 1.067816881658486e+00	 8.791097350719018e-02	 1.951427797138578e+01
1	 1.065741906819336e+00	 1.102515587705330e-01	 1.900467061572677e+01
1	 1.063178776838613e+00	 1.327106370325378e-01	 1.846216597578464e+01
1	 1.060118527181483e+00	 1.552738297673575e-01	 1.788753672342516e+01
1	 1.056552687177763e+00	 1.779261750450211e-01	 1.728188523877274e+01
1	 1.052473319745267e+00	 2.006521445356669e-01	 1.664665304255049e+01
1	 1.047873060771812e+00	 2.234356634403244e-01	 1.598362830364122e+01
1	 1.085715665735001e+00	 0.000000000000000e+00	 2.057077702803952e+01
1	 1.085492240220354e+00	 2.202473900603640e-02	 2.019300098978541e+01
1	 1.084814686467279e+00	 4.422167566688838e-02	 1.978464118307253e+01
1	 1.083672320471032e+00	 6.657871978140713e-02	 1.934533432710126e+01
1	 1.082054798504573e+00	 8.908314932920679e-02	 1.887498585297567e+01
1	 1.079952156637299e+00	 1.117216165615015e-01	 1.837378441412961e+01
1	 1.077354850729328e+00	 1.344801567388329e-01	 1.784221526503812e+01
1	 1.074253796715706e+00	 1.573441996168596e-01	 1.728107231710192e+01
1	 1.070640410981159e+00	 1.802985837681990e-01	 1.669146868023521e+01
1	 1.066506650613095e+00	 2.033275738133893e-01	 1.607484550073967e+01
1	 1.061845053308720e+00	 2.264148806174227e-01	 1.543297891069466e+01
1	 1.100001783084519e+00	 0.000000000000000e+00	 1.995909942459285e+01
1	 1.099775417681215e+00	 2.231454601143399e-02	 1.957962038096806e+01
1	 1.099088948506841e+00	 4.480355549735529e-02	 1.917182371679925e+01
1	 1.097931550973866e+00	 6.745477917073454e-02	 1.873541107302090e+01
1	 1.096292745249919e+00	 9.025532761167027e-02	 1.827033905894222e+01
1	 1.094162436296527e+00	 1.131916774383708e-01	 1.777683276533391e+01
1	 1.091530954389646e+00	 1.362496801598548e-01	 1.725539818470178e+01
1	 1.088389095933940e+00	 1.594145738128738e-01	 1.670683335816809e+01
1	 1.084728164368799e+00	 1.826709974722041e-01	 1.613223806829454e+01
1	 1.080540010950993e+00	 2.060030087083387e-01	 1.553302189939215e+01
1	 1.075817075186898e+00	 2.293941040497704e-01	 1.491091049154070e+01
1	 1.114287918766816e+00	 0.000000000000000e+00	 1.937935242041229e+01
1	 1.114058613471097e+00	 2.260435338841005e-02	 1.899815445447034e+01
1	 1.113363228864028e+00	 4.538543607396710e-02	 1.859077276847704e+01
1	 1.112190799775103e+00	 6.833083968354900e-02	 1.815698192465673e+01
1	 1.110530710266440e+00	 9.142750739751551e-02	 1.769679201849488e+01
1	 1.108372734191518e+00	 1.146617402008348e-01	 1.721046087939837e+01
1	 1.105707076241964e+00	 1.380192058507579e-01	 1.669850524482960e+01
1	 1.102524413291903e+00	 1.614849506648735e-01	 1.616171074235720e+01
1	 1.098815935835233e+00	 1.850434142198511e-01	 1.560114051424536e+01
1	 1.094573389297943e+00	 2.086784470358625e-01	 1.501814232150659e+01
1	 1.089789114995448e+00	 2.323733313046157e-01	 1.441435396892479e+01
1	 1.128574061114501e+00	 0.000000000000000e+00	 1.882700850802501e+01
1	 1.128341815925009e+00	 2.289416090035752e-02	 1.844443172208136e+01
1	 1.127637515881123e+00	 4.596731692164878e-02	 1.803762911941029e+01
1	 1.126450055229290e+00	 6.920690060457710e-02	 1.760645610137116e+01
1	 1.124768681926050e+00	 9.259968772967736e-02	 1.715097862137412e+01
1	 1.122583038716770e+00	 1.161318036485876e-01	 1.667148376462163e+01
1	 1.119883204708684e+00	 1.397887323666966e-01	 1.616848939450665e+01
1	 1.116659737245314e+00	 1.635553284823320e-01	 1.564275271954608e+01
1	 1.112903713875012e+00	 1.874158320739545e-01	 1.509527763516591e+01
1	 1.108606774192931e+00	 2.113538866113081e-01	 1.452732069698654e+01
1	 1.103761161323472e+00	 2.353525599492068e-01	 1.394039558661475e+01
1	 1.142860198460186e+00	 0.000000000000000e+00	 1.829776650765507e+01
1	 1.142625013377961e+00	 2.318396831066934e-02	 1.791448921865162e+01
1	 1.141911797900406e+00	 4.654919756532534e-02	 1.750872645702779e+01
1	 1.140709305690971e+00	 7.008296121854536e-02	 1.708042230355339e+01
1	 1.139006648600664e+00	 9.377186765109072e-02	 1.662970100192410e+01
1	 1.136793338266779e+00	 1.176018665813230e-01	 1.615687561535520e+01
1	 1.134059328212202e+00	 1.415582582628251e-01	 1.566245586944630e+01
1	 1.130795056249892e+00	 1.656257055747228e-01	 1.514715505897253e+01
1	 1.126991486982686e+00	 1.897882490973286e-01	 1.461189589694803e+01
1	 1.122640154174940e+00	 2.140293252500230e-01	 1.405781518660478e+01
1	 1.117733202760072e+00	 2.383317875507917e-01	 1.348626720094029e+01
1	 9.780139375877577e-01	 2.085397565298897e-01	 1.928527790946456e+01
1	 9.732282518626567e-01	 2.298410867697774e-01	 1.845281119649448e+01
1	 9.679444735972303e-01	 2.511647027528097e-01	 1.757486766325975e+01
1	 9.621575490304195e-01	 2.724942383587359e-01	 1.665352196777011e+01
1	 9.558630981313170e-01	 2.938129209596946e-01	 1.569125852401079e+01
1	 9.490574463164518e-01	 3.151036037782406e-01	 1.469097499752862e+01
1	 9.417376544619561e-01	 3.363488008802307e-01	 1.365598302465778e+01
1	 9.339015469729997e-01	 3.575307247119079e-01	 1.259000600810767e+01
1	 9.255477376767898e-01	 3.786313260672552e-01	 1.149717386531638e+01
1	 9.166756533117869e-01	 3.996323363483558e-01	 1.038201463269254e+01
1	 9.072855543946887e-01	 4.205153119584039e-01	 9.249442858364253e+00
1	 9.919856122548429e-01	 2.115189059394628e-01	 1.853946592236036e+01
1	 9.871315593611463e-01	 2.331245419199243e-01	 1.773786407950080e+01
1	 9.817722982959256e-01	 2.547527820123112e-01	 1.689407632912858e+01
1	 9.759027031012107e-01	 2.763870262938928e-01	 1.600997704228551e+01
1	 9.695183311739304e-01	 2.980102625270567e-01	 1.508779599106415e+01
1	 9.626154554363000e-01	 3.196050989795959e-01	 1.413012133547025e+01
1	 9.551910947767374e-01	 3.411537999174934e-01	 1.313990022669327e+01
1	 9.472430425202908e-01	 3.626383236782532e-01	 1.212043690017404e+01
1	 9.387698926915390e-01	 3.840403632092170e-01	 1.107538815206374e+01
1	 9.297710638393701e-01	 4.053413889316473e-01	 1.000875611546718e+01
1	 9.202468202020646e-01	 4.265226937679250e-01	 8.924878278052404e+00
1	 1.005957373317689e+00	 2.144980737680448e-01	 1.784030942374891e+01
1	 1.001034952832426e+00	 2.364080173708703e-01	 1.706811145989199e+01
1	 9.956002085003419e-01	 2.583408834563891e-01	 1.625656416681323e+01
1	 9.896479421661309e-01	 2.802798382979371e-01	 1.540737409315835e+01
1	 9.831736486541901e-01	 3.022076300466622e-01	 1.452255562443630e+01
1	 9.761735483921198e-01	 3.241066220140731e-01	 1.360443346069652e+01
1	 9.686446182803863e-01	 3.459588286647269e-01	 1.265564305198747e+01
1	 9.605846205637468e-01	 3.677459542258090e-01	 1.167912888359010e+01
1	 9.519921294640535e-01	 3.894494337964183e-01	 1.067814052022881e+01
1	 9.428665553405939e-01	 4.110504768153739e-01	 9.656226337881444e+00
1	 9.332081661532802e-01	 4.325301127226065e-01	 8.617224893262421e+00
1	 1.019929209365398e+00	 2.174772575828835e-01	 1.718378675660307e+01
1	 1.014938420921470e+00	 2.396915104413310e-01	 1.643949020794440e+01
1	 1.009428192917151e+00	 2.619290041549622e-01	 1.565827342590091e+01
1	 1.003393254999425e+00	 2.841726711919193e-01	 1.484170636184065e+01
1	 9.968290394198431e-01	 3.064050200908186e-01	 1.399162582580427e+01
1	 9.897317141111275e-01	 3.286081692055633e-01	 1.311013745377614e+01
1	 9.820982139855879e-01	 3.507638831979374e-01	 1.219961592391573e+01
1	 9.739262702075439e-01	 3.728536121834381e-01	 1.126270333033758e+01
1	 9.652144371960356e-01	 3.948585334115306e-01	 1.030230563771497e+01
1	 9.559621171207264e-01	 4.167595953371833e-01	 9.321587156539643e+00
1	 9.461695816632008e-01	 4.385375639164554e-01	 8.323962997153012e+00
1	 1.033901108987072e+00	 2.204564549512274e-01	 1.656609356361022e+01
1	 1.028841952273254e+00	 2.429750184500217e-01	 1.584815673411269e+01
1	 1.023256240253020e+00	 2.655171411779492e-01	 1.509536560389290e+01
1	 1.017138630375336e+00	 2.880655217968899e-01	 1.430918357978802e+01
1	 1.010484492318634e+00	 3.106024292318331e-01	 1.349130634145666e+01
1	 1.003289941520539e+00	 3.331097368779573e-01	 1.264366329630290e+01
1	 9.955518709050284e-01	 3.555689595931317e-01	 1.176841752548348e+01
1	 9.872679805558595e-01	 3.779612933800034e-01	 1.086796414421972e+01
1	 9.784368050891872e-01	 4.002676576372252e-01	 9.944927012263200e+00
1	 9.690577384850337e-01	 4.224687398347229e-01	 9.002153744572951e+00
1	 9.591310561466906e-01	 4.445450424434799e-01	 8.042708987925996e+00
1	 1.047873060771812e+00	 2.234356634403244e-01	 1.598362830364123e+01
1	 1.042745535532752e+00	 2.462585387156576e-01	 1.529047235580780e+01
1	 1.037084339214621e+00	 2.691052915952691e-01	 1.456420683204370e+01
1	 1.030884057068108e+00	 2.919583869338995e-01	 1.380621753764923e+01
1	 1.024139996198312e+00	 3.147998540420133e-01	 1.301809417392331e+01
1	 1.016848219547572e+00	 3.376113213551462e-01	 1.220163127811719e+01
1	 1.009005578051392e+00	 3.603740539263159e-01	 1.135882784861560e+01
1	 1.000609740712870e+00	 3.830689936443673e-01	 1.049188559128422e+01
1	 9.916592223452112e-01	 4.056768020561739e-01	 9.603205733945288e+00
1	 9.821534087387838e-01	 4.281779056456405e-01	 8.695384368305085e+00
1	 9.720925790186141e-01	 4.505525433976866e-01	 7.771206292245587e+00
1	 1.061845053308720e+00	 2.264148806174227e-01	 1.543297891069466e+01
1	 1.056649159344938e+00	 2.495420685569542e-01	 1.476298981845819e+01
1	 1.050912478508621e+00	 2.726934524768401e-01	 1.406135441397893e+01
1	 1.044629523851985e+00	 2.958512634239984e-01	 1.332940879277159e+01
1	 1.037795539906621e+00	 3.189972910936670e-01	 1.256867060490947e+01
1	 1.030406537119441e+00	 3.421129189610210e-01	 1.178083947673955e+01
1	 1.022459324437366e+00	 3.651791622734971e-01	 1.096779626500991e+01
1	 1.013951539782750e+00	 3.881767088053925e-01	 1.013160109019374e+01
1	 1.004881678165811e+00	 4.110859622510484e-01	 9.274490105659595e+00
1	 9.952491171872442e-01	 4.338870881075838e-01	 8.398870970343980e+00
1	 9.850541396938364e-01	 4.565600618730836e-01	 7.507317004626493e+00
1	 1.075817075186898e+00	 2.293941040497704e-01	 1.491091049154070e+01
1	 1.070552812354785e+00	 2.528256052926267e-01	 1.426244086600567e+01
1	 1.064740646841691e+00	 2.762816208925815e-01	 1.358354441238184e+01
1	 1.058375019501212e+00	 2.997441480882371e-01	 1.287553441162543e+01
1	 1.051451112291307e+00	 3.231947369591011e-01	 1.213988922859010e+01
1	 1.043964883163363e+00	 3.466145260194731e-01	 1.137825221162254e+01
1	 1.035913099075635e+00	 3.699842807106812e-01	 1.059243052576286e+01
1	 1.027293366869678e+00	 3.932844346919420e-01	 9.784392875348741e+00
1	 1.018104161752687e+00	 4.164951338045200e-01	 8.956266080969504e+00
1	 1.008344853135681e+00	 4.395962825582002e-01	 8.110330485848682e+00
1	 9.980157275872219e-01	 4.625675929636779e-01	 7.249014177757218e+00
1	 1.089789114995448e+00	 2.323733313046157e-01	 1.441435396892479e+01
1	 1.084456483207269e+00	 2.561091462413904e-01	 1.378572476673362e+01
1	 1.078568832920501e+00	 2.798697939124116e-01	 1.312768018976721e+01
1	 1.072120532790033e+00	 3.036370377476662e-01	 1.244153665434617e+01
1	 1.065106702200117e+00	 3.273921882106234e-01	 1.172876490466564e+01
1	 1.057523246606553e+00	 3.511161388543931e-01	 1.099098938580896e+01
1	 1.049366890978884e+00	 3.747894053138751e-01	 1.022998660648378e+01
1	 1.040635211077830e+00	 3.983921671328784e-01	 9.447682454502585e+00
1	 1.031326662307544e+00	 4.219043122992608e-01	 8.646148436889291e+00
1	 1.021440605889363e+00	 4.453054843351376e-01	 7.827596826228674e+00
1	 1.010977332113635e+00	 4.685751317634770e-01	 6.994374705388744e+00
1	 1.103761161323472e+00	 2.353525599492068e-01	 1.394039558661475e+01
1	 1.098360160547363e+00	 2.593926887219608e-01	 1.332989770984611e+01
1	 1.092397025451718e+00	 2.834579686062492e-01	 1.269082181887200e+01
1	 1.085866052492690e+00	 3.075299292233358e-01	 1.202451251798284e+01
1	 1.078762298480797e+00	 3.315896414205411e-01	 1.133246354974695e+01
1	 1.071081616376229e+00	 3.556177537896724e-01	 1.061631663642898e+01
1	 1.062820689159799e+00	 3.795945321590852e-01	 9.877859323042303e+00
1	 1.053977061511382e+00	 4.034999019570644e-01	 9.119021790528096e+00
1	 1.044549169032083e+00	 4.273134933179419e-01	 8.341872616548262e+00
1	 1.034536364753556e+00	 4.510146887760432e-01	 7.548613471181993e+00
1	 1.023938942687942e+00	 4.745826733664884e-01	 6.741572745325527e+00
1	 1.117733202760072e+00	 2.383317875507917e-01	 1.348626720094030e+01
1	 1.112263833020041e+00	 2.626762300530532e-01	 1.289216299666780e+01
1	 1.106225213142014e+00	 2.870461420440131e-01	 1.227017628663174e+01
1	 1.099611567383429e+00	 3.114228193362967e-01	 1.162170406337554e+01
1	 1.092417889981094e+00	 3.357870931611621e-01	 1.094829269377438e+01
1	 1.084639981399607e+00	 3.601193671492018e-01	 1.025163622331962e+01
1	 1.076274482631064e+00	 3.843996573223178e-01	 9.533573650571274e+00
1	 1.067318907274511e+00	 4.086076349933625e-01	 8.796085144022307e+00
1	 1.057771671128008e+00	 4.327226724432351e-01	 8.041287183165856e+00
1	 1.047632119033529e+00	 4.567238912185653e-01	 7.271426615886437e+00
1	 1.036900548725005e+00	 4.805902128667193e-01	 6.488873635296899e+00
1	 9.072855543946887e-01	 4.205153119584039e-01	 9.249442858364251e+00
1	 8.973778426309759e-01	 4.412631267957646e-01	 8.102042187754193e+00
1	 8.869551416254857e-01	 4.618556531118257e-01	 6.941159354794685e+00
1	 8.760203156838144e-01	 4.822741974000463e-01	 5.769953266228550e+00
1	 8.645771165329884e-01	 5.025000860247010e-01	 4.591652772860360e+00
1	 8.526301882742356e-01	 5.225147171506273e-01	 3.409547413864793e+00
1	 8.401850687269298e-01	 5.422996134099225e-01	 2.226977671803822e+00
1	 8.272481870752481e-01	 5.618364750149920e-01	 1.047324792395230e+00
1	 8.138268577557128e-01	 5.811072330167580e-01	-1.259997716528996e-01
1	 7.999292705517563e-01	 6.000941023989975e-01	-1.289565228708498e+00
1	 7.855644768903997e-01	 6.187796346948449e-01	-2.439932560021463e+00
1	 9.202468202020646e-01	 4.265226937679250e-01	 8.924878278052400e+00
1	 9.101975692236983e-01	 4.475669069570152e-01	 7.825130898362643e+00
1	 8.996259719893256e-01	 4.684536132100533e-01	 6.710058581135657e+00
1	 8.885349337233767e-01	 4.891638519694764e-01	 5.582843840208387e+00
1	 8.769282597492056e-01	 5.096786828324061e-01	 4.446765247326728e+00
1	 8.648106605126151e-01	 5.299792382222528e-01	 3.305187724843007e+00
1	 8.521877529449992e-01	 5.500467768077960e-01	 2.161552125240648e+00
1	 8.390660580763807e-01	 5.698627373749913e-01	 1.019364153153085e+00
1	 8.254529948356356e-01	 5.894087928460177e-01	-1.178173065305943e-01
1	 8.113568700035452e-01	 6.086669041321033e-01	-1.246392383472585e+00
1	 7.967868643137184e-01	 6.276193735016999e-01	-2.362732861839292e+00
1	 9.332081661532802e-01	 4.325301127226065e-01	 8.617224893262422e+00
1	 9.230173750848367e-01	 4.538707260961631e-01	 7.561560577532890e+00
1	 9.122968807007574e-01	 4.750516141051551e-01	 6.489155681988758e+00
1	 9.010496291445451e-01	 4.960535491393559e-01	 5.403178602977602e+00
1	 8.892794793361982e-01	 5.168573240270957e-01	 4.306912294937792e+00
1	 8.769912080664878e-01	 5.374438054487242e-01	 3.203744310344894e+00
1	 8.641905113793015e-01	 5.577939881080805e-01	 2.097155967385015e+00
1	 8.508840021510615e-01	 5.778890493630670e-01	 9.907107018550172e-01
1	 8.370792038036242e-01	 5.977104040055304e-01	-1.119583303930649e-01
1	 8.227845401158297e-01	 6.172397588725924e-01	-1.207161324824140e+00
1	 8.080093211286548e-01	 6.364591669664901e-01	-2.291165489111387e+00
1	 9.461695816632008e-01	 4.385375639164554e-01	 8.323962997153016e+00
1	 9.358372497448788e-01	 4.601745790651598e-01	 7.309119704788821e+00
1	 9.249678574118883e-01	 4.816496504088444e-01	 6.276498462667741e+00
1	 9.135643917270120e-01	 5.029432832831962e-01	 5.229217604539335e+00
1	 9.016307652071653e-01	 5.240360037463283e-01	 4.170521121356241e+00
1	 8.891718209884329e-01	 5.449084127341139e-01	 3.103768642437788e+00
1	 8.761933342276051e-01	 5.655412409840438e-01	 2.032424448640081e+00
1	 8.627020096479817e-01	 5.859154044245705e-01	 9.600455740827312e-01
1	 8.487054751649490e-01	 6.060120597158355e-01	-1.097309360490049e-01
1	 8.342122715560167e-01	 6.258126596194977e-01	-1.173201533626262e+00
1	 8.192318381702112e-01	 6.452990078702501e-01	-2.226610353814059e+00
1	 9.591310561466906e-01	 4.445450424434799e-01	 8.042708987925993e+00
1	 9.486571827343125e-01	 4.664784607159566e-01	 7.065716208262016e+00
1	 9.376388917748257e-01	 4.882477167328359e-01	 6.070240162636422e+00
1	 9.260792112504684e-01	 5.098330487745076e-01	 5.059314860251361e+00
1	 9.139821072753082e-01	 5.312147161276637e-01	 4.036103866631394e+00
1	 9.013524893310293e-01	 5.523730539824955e-01	 3.003890415351058e+00
1	 8.881962116876772e-01	 5.732885291089520e-01	 1.966066518094215e+00
1	 8.745200709158348e-01	 5.939417960048561e-01	 9.261211288835067e-01
1	 8.603317994248791e-01	 6.143137531974732e-01	-1.123725702964209e-01
1	 8.456400549915140e-01	 6.343855993718516e-01	-1.145770684357759e+00
1	 8.304544062733887e-01	 6.541388889940141e-01	-2.170372832085662e+00
1	 9.720925790186141e-01	 4.505525433976866e-01	 7.771206292245587e+00
1	 9.614771635836250e-01	 4.727823659005054e-01	 6.829369497954142e+00
1	 9.503099734416771e-01	 4.948458076888435e-01	 5.868632422609032e+00
1	 9.385940774946075e-01	 5.167228399868020e-01	 4.891912082167201e+00
1	 9.263334954538255e-01	 5.383934553086599e-01	 3.902251938360220e+00
1	 9.135332031468566e-01	 5.598377230979411e-01	 2.902812325957000e+00
1	 9.001991339572849e-01	 5.810358461560730e-01	 1.896859905468973e+00
1	 8.863381763033108e-01	 6.019682175492752e-01	 8.877561956785096e-01
1	 8.719581670886848e-01	 6.226154776709827e-01	-1.210547485531555e-01
1	 8.570678810897280e-01	 6.429585711286867e-01	-1.126059437142535e+00
1	 8.416770162731901e-01	 6.629788031188170e-01	-2.123688738291905e+00
1	 9.850541396938364e-01	 4.565600618730836e-01	 7.507317004626492e+00
1	 9.742971818233045e-01	 4.790862894707577e-01	 6.598203127422806e+00
1	 9.629810920645498e-01	 5.014439178885809e-01	 5.670018806411766e+00
1	 9.511089802391205e-01	 5.236126512935901e-01	 4.725532904854815e+00
1	 9.386849196559177e-01	 5.455722154268761e-01	 3.767630791853458e+00
1	 9.257139524884940e-01	 5.673024139845242e-01	 2.799305265971761e+00
1	 9.122020912341964e-01	 5.887831857986734e-01	 1.823646591007506e+00
1	 8.981563161591034e-01	 6.099946625031818e-01	 8.438316960986070e-01
1	 8.835845686616357e-01	 6.309172263569027e-01	-1.368873975923877e-01
1	 8.684957405180675e-01	 6.515315678890363e-01	-1.115195851778981e+00
1	 8.528996590046160e-01	 6.718187430256928e-01	-2.087728906733003e+00
1	 9.980157275872219e-01	 4.625675929636779e-01	 7.249014177757218e+00
1	 9.871172269838395e-01	 4.853902262786652e-01	 6.370438026809084e+00
1	 9.756522372955513e-01	 5.080420419437623e-01	 5.472828827214775e+00
1	 9.636239092636995e-01	 5.305024770683828e-01	 4.558777560778081e+00
1	 9.510363697947843e-01	 5.527509906198712e-01	 3.630975116703976e+00
1	 9.378947274085201e-01	 5.747671205463175e-01	 2.692203888478453e+00
1	 9.242050737161785e-01	 5.965305417100195e-01	 1.745328628065613e+00
1	 9.099744808319042e-01	 6.180211243119278e-01	 7.932866066929629e-01
1	 8.952109946490014e-01	 6.392189924757736e-01	-1.609228601645645e-01
1	 8.799236239439386e-01	 6.601045826519328e-01	-1.114249458104425e+00
1	 8.641223253026681e-01	 6.806587014956761e-01	-2.063603416630825e+00
1	 1.010977332113635e+00	 4.685751317634770e-01	 6.994374705388744e+00
1	 9.999372885957171e-01	 4.916941711761795e-01	 6.144386255974257e+00
1	 9.883233987867889e-01	 5.146401744661019e-01	 5.275572432907911e+00
1	 9.761388543480359e-01	 5.373923116846914e-01	 4.390317964927408e+00
1	 9.633878357836249e-01	 5.599297750252039e-01	 3.491084393315314e+00
1	 9.500755179595148e-01	 5.822318366873941e-01	 2.580402515207423e+00
1	 9.362080716009995e-01	 6.042779075633790e-01	 1.660864286777570e+00
1	 9.217926606704047e-01	 6.260475964208664e-01	 7.351142319432238e-01
1	 9.068374355560521e-01	 6.475207692481345e-01	-1.941595918242096e-01
1	 8.913515220347494e-01	 6.686776084164091e-01	-1.124235013511656e+00
1	 8.753450060023480e-01	 6.894986713098015e-01	-2.052365492383755e+00
1	 1.023938942687942e+00	 4.745826733664884e-01	 6.741572745325529e+00
1	 1.012757356189425e+00	 4.979981190152524e-01	 5.918445231697196e+00
1	 1.000994566190370e+00	 5.212383100673136e-01	 5.076834909969046e+00
1	 9.886538052718223e-01	 5.442821495160268e-01	 4.218893172467178e+00
1	 9.757393075356403e-01	 5.671085627804335e-01	 3.346818786634953e+00
1	 9.622563141940571e-01	 5.896965563118266e-01	 2.462851354403417e+00
1	 9.482110750864265e-01	 6.120252770320186e-01	 1.569264490370871e+00
1	 9.336108460232977e-01	 6.340740722753503e-01	 6.683587601103487e-01
1	 9.184638818880571e-01	 6.558225498945245e-01	-2.375455772130906e-01
1	 9.027794254579075e-01	 6.772506381814980e-01	-1.146115975316421e+00
1	 8.865676919386577e-01	 6.983386452491029e-01	-2.055015107839898e+00
1	 1.036900548725005e+00	 4.805902128667193e-01	 6.488873635296897e+00
1	 1.025577419295452e+00	 5.043020646478357e-01	 5.691092387485332e+00
1	 1.013665729158402e+00	 5.278364433591113e-01	 4.875272169235673e+00
1	 1.001168751814751e+00	 5.511719849359001e-01	 4.043305176786575e+00
1	 9.880907749640296e-01	 5.742873480231188e-01	 3.197095347611174e+00
1	 9.744371061647262e-01	 5.971612733236881e-01	 2.338553002125246e+00
1	 9.602140743702269e-01	 6.197726437892053e-01	 1.469589518542910e+00
1	 9.454290272392749e-01	 6.421005453207324e-01	 5.921120771858608e-01
1	 9.300903241502864e-01	 6.641243276354837e-01	-2.919814903272702e-01
1	 9.142073248808197e-01	 6.858236649462323e-01	-1.180807712905295e+00
1	 8.977903739465982e-01	 7.071786160946152e-01	-2.072502320466439e+00
1	 7.855644768903997e-01	 6.187796346948449e-01	-2.439932560021463e+00
1	 7.707423701765810e-01	 6.371467715387087e-01	-3.572008892651266e+00
1	 7.554736580333883e-01	 6.551789005581102e-01	-4.680869258431374e+00
1	 7.397698440641727e-01	 6.728598994536507e-01	-5.763374752684501e+00
1	 7.236432017326105e-01	 6.901741818186914e-01	-6.816457653262521e+00
1	 7.071067426773200e-01	 7.071067426773202e-01	-7.837130608314189e+00
1	 6.901741818186911e-01	 7.236432017326108e-01	-8.822495363282940e+00
1	 6.728598994536503e-01	 7.397698440641729e-01	-9.769750972892094e+00
1	 6.551789005581099e-01	 7.554736580333886e-01	-1.067620144901242e+01
1	 6.371467715387082e-01	 7.707423701765813e-01	-1.153926280093443e+01
1	 6.187796346948450e-01	 7.855644768903999e-01	-1.235646943062505e+01
1	 7.967868643137184e-01	 6.276193735016999e-01	-2.362732861839292e+00
1	 7.817530125059616e-01	 6.462488988974351e-01	-3.461850303206215e+00
1	 7.662661751699099e-01	 6.645386306264414e-01	-4.539327042770637e+00
1	 7.503380202466319e-01	 6.824722160700080e-01	-5.592467652686329e+00
1	 7.339809965355638e-01	 7.000338461578212e-01	-6.618702117081874e+00
1	 7.172083015564744e-01	 7.172083015564746e-01	-7.615591657973786e+00
1	 7.000338461578210e-01	 7.339809965355644e-01	-8.580833641248507e+00
1	 6.824722160700076e-01	 7.503380202466323e-01	-9.512265542986803e+00
1	 6.645386306264410e-01	 7.662661751699100e-01	-1.040786796669274e+01
1	 6.462488988974350e-01	 7.817530125059619e-01	-1.126576671225298e+01
1	 6.276193735016997e-01	 7.967868643137183e-01	-1.208423390750183e+01
1	 8.080093211286548e-01	 6.364591669664901e-01	-2.291165489111387e+00
1	 7.927637229176385e-01	 6.553510825365715e-01	-3.359351015141532e+00
1	 7.770587590399142e-01	 6.738984185681055e-01	-4.407960998543697e+00
1	 7.609062617752941e-01	 6.920845921216349e-01	-5.434655212383778e+00
1	 7.443188552600679e-01	 7.098935714617837e-01	-6.437259484594325e+00
1	 7.273099228963158e-01	 7.273099228963160e-01	-7.413768880773720e+00
1	 7.098935714617833e-01	 7.443188552600681e-01	-8.362349616267281e+00
1	 6.920845921216348e-01	 7.609062617752944e-01	-9.281339704783633e+00
1	 6.738984185681052e-01	 7.770587590399144e-01	-1.016924836505834e+01
1	 6.553510825365713e-01	 7.927637229176391e-01	-1.102475422088134e+01
1	 6.364591669664900e-01	 8.080093211286546e-01	-1.184670234292016e+01
1	 8.192318381702112e-01	 6.452990078702501e-01	-2.226610353814059e+00
1	 8.037744924195520e-01	 6.644533150228601e-01	-3.265909635841529e+00
1	 7.878514008294942e-01	 6.832582567394534e-01	-4.288100303876415e+00
1	 7.714745600194860e-01	 7.016970197585825e-01	-5.291112710314192e+00
1	 7.546567694636207e-01	 7.197533496786044e-01	-6.273070707519767e+00
1	 7.374115984472948e-01	 7.374115984472950e-01	-7.232292888947645e+00
1	 7.197533496786042e-01	 7.546567694636210e-01	-8.167292314719807e+00
1	 7.016970197585820e-01	 7.714745600194864e-01	-9.076774748516348e+00
1	 6.832582567394535e-01	 7.878514008294947e-01	-9.959635449693897e+00
1	 6.644533150228599e-01	 8.037744924195523e-01	-1.081495458083596e+01
1	 6.452990078702502e-01	 8.192318381702113e-01	-1.164199130619683e+01
1	 8.304544062733887e-01	 6.541388889940141e-01	-2.170372832085662e+00
1	 8.147853120196392e-01	 6.735555889230431e-01	-3.182849223865514e+00
1	 7.986440917247423e-01	 6.926181374968372e-01	-4.181002339471826e+00
1	 7.820429063485358e-01	 7.113094911309020e-01	-5.162951945606137e+00
1	 7.649947307037208e-01	 7.296131727563099e-01	-6.127025923959142e+00
1	 7.475133199598645e-01	 7.475133199598647e-01	-7.071760255722101e+00
1	 7.296131727563093e-01	 7.649947307037210e-01	-7.995897349408393e+00
1	 7.113094911309018e-01	 7.820429063485362e-01	-8.898382751221096e+00
1	 6.926181374968368e-01	 7.986440917247424e-01	-9.778360295898091e+00
1	 6.735555889230430e-01	 8.147853120196393e-01	-1.063516577371552e+01
1	 6.541388889940140e-01	 8.304544062733888e-01	-1.146831920582333e+01
1	 8.416770162731901e-01	 6.629788031188170e-01	-2.123688738291905e+00
1	 8.257961727258398e-01	 6.826578968038631e-01	-3.111422330717871e+00
1	 8.094368229117508e-01	 7.019780531966077e-01	-4.087857480590462e+00
1	 7.926112921317704e-01	 7.209219983886453e-01	-5.051225475830726e+00
1	 7.753327305378668e-01	 7.394730326429256e-01	-5.999967852337750e+00
1	 7.576150791844760e-01	 7.576150791844760e-01	-6.932735791464838e+00
1	 7.394730326429252e-01	 7.753327305378670e-01	-7.848387821186195e+00
1	 7.209219983886449e-01	 7.926112921317705e-01	-8.745985865469329e+00
1	 7.019780531966074e-01	 8.094368229117511e-01	-9.624789705590112e+00
1	 6.826578968038631e-01	 8.257961727258399e-01	-1.048424993530785e+01
1	 6.629788031188169e-01	 8.416770162731901e-01	-1.132399950866605e+01
1	 8.528996590046160e-01	 6.718187430256928e-01	-2.087728906733003e+00
1	 8.368070655460915e-01	 6.917602312320627e-01	-3.052815644919372e+00
1	 8.202295855766129e-01	 7.113379961951165e-01	-4.009793511033894e+00
1	 8.031797087385171e-01	 7.305345336818637e-01	-4.956930520568116e+00
1	 7.856707605235562e-01	 7.493329212864773e-01	-5.892694917630324e+00
1	 7.677168678715804e-01	 7.677168678715806e-01	-6.815754640289562e+00
1	 7.493329212864771e-01	 7.856707605235564e-01	-7.724975149465275e+00
1	 7.305345336818633e-01	 8.031797087385171e-01	-8.619415664205253e+00
1	 7.113379961951160e-01	 8.202295855766131e-01	-9.498323864818449e+00
1	 6.917602312320622e-01	 8.368070655460919e-01	-1.036112914295271e+01
1	 6.718187430256928e-01	 8.528996590046158e-01	-1.120743449404383e+01
1	 8.641223253026681e-01	 6.806587014956761e-01	-2.063603416630825e+00
1	 8.478179814883333e-01	 7.008625847743832e-01	-3.008154274502640e+00
1	 8.310223709054203e-01	 7.206979588487149e-01	-3.947879693467643e+00
1	 8.137481475381034e-01	 7.401470891606081e-01	-4.881012561051408e+00
1	 7.960088122182878e-01	 7.591928306349918e-01	-5.805964134187778e+00
1	 7.778186777716302e-01	 7.778186777716304e-01	-6.721324213423184e+00
1	 7.591928306349911e-01	 7.960088122182879e-01	-7.625859838063457e+00
1	 7.401470891606079e-01	 8.137481475381038e-01	-8.518512536594503e+00
1	 7.206979588487147e-01	 8.310223709054209e-01	-9.398394183650916e+00
1	 7.008625847743831e-01	 8.478179814883339e-01	-1.026478153089004e+01
1	 6.806587014956762e-01	 8.641223253026682e-01	-1.111710949409665e+01
1	 8.753450060023480e-01	 6.894986713098015e-01	-2.052365492383755e+00
1	 8.588289115605043e-01	 7.099649499975681e-01	-2.978505700355600e+00
1	 8.418151700842661e-01	 7.300579335137545e-01	-3.903130526899440e+00
1	 8.243165998998565e-01	 7.497596569749305e-01	-4.824368663143456e+00
1	 8.063468771795593e-01	 7.690527526364938e-01	-5.740493766989424e+00
1	 7.879205006350769e-01	 7.879205006350771e-01	-6.649925973976996e+00
1	 7.690527526364935e-01	 8.063468771795599e-01	-7.551232182189817e+00
1	 7.497596569749301e-01	 8.243165998998571e-01	-8.443125130307163e+00
1	 7.300579335137545e-01	 8.418151700842664e-01	-9.324461302091022e+00
1	 7.099649499975680e-01	 8.588289115605047e-01	-1.019423770418303e+01
1	 6.894986713098015e-01	 8.753450060023480e-01	-1.105158757684164e+01
1	 8.865676919386577e-01	 6.983386452491029e-01	-2.055015107839898e+00
1	 8.698398467705425e-01	 7.190673194683591e-01	-2.964883429554202e+00
1	 8.526079742992425e-01	 7.394179125465868e-01	-3.876509219010154e+00
1	 8.348850571931041e-01	 7.593722292748818e-01	-4.787850548139373e+00
1	 8.166849469648699e-01	 7.789126792390103e-01	-5.696965790939275e+00
1	 7.980223282123721e-01	 7.980223282123723e-01	-6.602017086274138e+00
1	 7.789126792390099e-01	 8.166849469648703e-01	-7.501272921778215e+00
1	 7.593722292748820e-01	 8.348850571931049e-01	-8.393109836126715e+00
1	 7.394179125465867e-01	 8.526079742992427e-01	-9.276013247322647e+00
1	 7.190673194683589e-01	 8.698398467705428e-01	-1.014857742478220e+01
1	 6.983386452491031e-01	 8.865676919386576e-01	-1.100950463272110e+01
1	 8.977903739465982e-01	 7.071786160946152e-01	-2.072502320466439e+00
1	 8.808507781263871e-01	 7.281696857534988e-01	-2.968250374914910e+00
1	 8.634007747364419e-01	 7.487778883035630e-01	-3.868930898269224e+00
1	 8.454535107871739e-01	 7.689847982105142e-01	-4.772267433444473e+00
1	 8.270230131317176e-01	 7.887726023905666e-01	-5.676028165862848e+00
1	 8.081241522539677e-01	 8.081241522539679e-01	-6.578031941577859e+00
1	 7.887726023905661e-01	 8.270230131317177e-01	-7.476153845861023e+00
1	 7.689847982105142e-01	 8.454535107871741e-01	-8.368330311182412e+00
1	 7.487778883035625e-01	 8.634007747364423e-01	-9.252563729051300e+00
1	 7.281696857534985e-01	 8.808507781263871e-01	-1.012692654593752e+01
1	 7.071786160946154e-01	 8.977903739465983e-01	-1.098956482936641e+01
1	 6.187796346948450e-01	 7.855644768903999e-01	-1.235646943062505e+01
1	 6.000941023989972e-01	 7.999292705517564e-01	-1.312225252787202e+01
1	 5.811072330167577e-01	 8.138268577557130e-01	-1.383372738697117e+01
1	 5.618364750149918e-01	 8.272481870752482e-01	-1.449297648160781e+01
1	 5.422996134099223e-01	 8.401850687269302e-01	-1.510262762155879e+01
1	 5.225147171506268e-01	 8.526301882742356e-01	-1.566581668684056e+01
1	 5.025000860247008e-01	 8.645771165329886e-01	-1.618614725047195e+01
1	 4.822741974000460e-01	 8.760203156838146e-01	-1.666764754607969e+01
1	 4.618556531118254e-01	 8.869551416254861e-01	-1.711472525466694e+01
1	 4.412631267957642e-01	 8.973778426309756e-01	-1.753212059598506e+01
1	 4.205153119584038e-01	 9.072855543946884e-01	-1.792485821412603e+01
1	 6.276193735016997e-01	 7.967868643137183e-01	-1.208423390750183e+01
1	 6.086669041321032e-01	 8.113568700035455e-01	-1.285941793899460e+01
1	 5.894087928460172e-01	 8.254529948356357e-01	-1.358887539365896e+01
1	 5.698627373749912e-01	 8.390660580763810e-01	-1.427343280276982e+01
1	 5.500467768077957e-01	 8.521877529449993e-01	-1.491434187854813e+01
1	 5.299792382222526e-01	 8.648106605126152e-01	-1.551325513302603e+01
1	 5.096786828324057e-01	 8.769282597492060e-01	-1.607219900035533e+01
1	 4.891638519694760e-01	 8.885349337233771e-01	-1.659354477849429e+01
1	 4.684536132100530e-01	 8.996259719893257e-01	-1.707997772226218e+01
1	 4.475669069570151e-01	 9.101975692236984e-01	-1.753446463081476e+01
1	 4.265226937679250e-01	 9.202468202020646e-01	-1.796022027865779e+01
1	 6.364591669664900e-01	 8.080093211286546e-01	-1.184670234292016e+01
1	 6.172397588725922e-01	 8.227845401158298e-01	-1.263236016609217e+01
1	 5.977104040055301e-01	 8.370792038036247e-01	-1.337938803755297e+01
1	 5.778890493630665e-01	 8.508840021510616e-01	-1.408759335015264e+01
1	 5.577939881080803e-01	 8.641905113793019e-01	-1.475710786735675e+01
1	 5.374438054487238e-01	 8.769912080664877e-01	-1.538837399531740e+01
1	 5.168573240270954e-01	 8.892794793361983e-01	-1.598212907815527e+01
1	 4.960535491393556e-01	 9.010496291445454e-01	-1.653938791582588e+01
1	 4.750516141051547e-01	 9.122968807007577e-01	-1.706142371820946e+01
1	 4.538707260961629e-01	 9.230173750848369e-01	-1.754974771998968e+01
1	 4.325301127226065e-01	 9.332081661532802e-01	-1.800608768843278e+01
1	 6.452990078702502e-01	 8.192318381702113e-01	-1.164199130619683e+01
1	 6.258126596194972e-01	 8.342122715560167e-01	-1.243863900710294e+01
1	 6.060120597158354e-01	 8.487054751649494e-01	-1.320241857467522e+01
1	 5.859154044245704e-01	 8.627020096479822e-01	-1.393234464526379e+01
1	 5.655412409840435e-01	 8.761933342276053e-01	-1.462767422774012e+01
1	 5.449084127341138e-01	 8.891718209884333e-01	-1.528790145405311e+01
1	 5.240360037463283e-01	 9.016307652071658e-01	-1.591275077978235e+01
1	 5.029432832831956e-01	 9.135643917270121e-01	-1.650216874072150e+01
1	 4.816496504088442e-01	 9.249678574118884e-01	-1.705631438424446e+01
1	 4.601745790651594e-01	 9.358372497448788e-01	-1.757554850491161e+01
1	 4.385375639164554e-01	 9.461695816632008e-01	-1.806042182241397e+01
1	 6.541388889940140e-01	 8.304544062733888e-01	-1.146831920582333e+01
1	 6.343855993718511e-01	 8.456400549915137e-01	-1.227594618607328e+01
1	 6.143137531974726e-01	 8.603317994248791e-01	-1.305527415176444e+01
1	 5.939417960048556e-01	 8.745200709158348e-01	-1.380474150656207e+01
1	 5.732885291089519e-01	 8.881962116876773e-01	-1.452296533705732e+01
1	 5.523730539824951e-01	 9.013524893310296e-01	-1.520874252080091e+01
1	 5.312147161276634e-01	 9.139821072753086e-01	-1.586104962010586e+01
1	 5.098330487745073e-01	 9.260792112504685e-01	-1.647904159705438e+01
1	 4.882477167328355e-01	 9.376388917748257e-01	-1.706204939653691e+01
1	 4.664784607159561e-01	 9.486571827343124e-01	-1.760957645458051e+01
1	 4.445450424434799e-01	 9.591310561466907e-01	-1.812129419854899e+01
1	 6.629788031188169e-01	 8.416770162731901e-01	-1.132399950866605e+01
1	 6.429585711286866e-01	 8.570678810897284e-01	-1.214209656626967e+01
1	 6.226154776709821e-01	 8.719581670886849e-01	-1.293540555441410e+01
1	 6.019682175492749e-01	 8.863381763033110e-01	-1.370199583620848e+01
1	 5.810358461560727e-01	 9.001991339572852e-01	-1.444006959977924e+01
1	 5.598377230979409e-01	 9.135332031468568e-01	-1.514796725361066e+01
1	 5.383934553086593e-01	 9.263334954538254e-01	-1.582417185428622e+01
1	 5.167228399868015e-01	 9.385940774946077e-01	-1.646731255372781e+01
1	 4.948458076888431e-01	 9.503099734416774e-01	-1.707616706336055e+01
1	 4.727823659005049e-01	 9.614771635836251e-01	-1.764966314268426e+01
1	 4.505525433976866e-01	 9.720925790186141e-01	-1.818687912937676e+01
1	 6.718187430256928e-01	 8.528996590046158e-01	-1.120743449404383e+01
1	 6.515315678890360e-01	 8.684957405180677e-01	-1.203502005641101e+01
1	 6.309172263569022e-01	 8.835845686616357e-01	-1.284039776388766e+01
1	 6.099946625031814e-01	 8.981563161591033e-01	-1.362146629133012e+01
1	 5.887831857986729e-01	 9.122020912341966e-01	-1.437622866073156e+01
1	 5.673024139845239e-01	 9.257139524884941e-01	-1.510279990186258e+01
1	 5.455722154268757e-01	 9.386849196559177e-01	-1.579941390455683e+01
1	 5.236126512935897e-01	 9.511089802391208e-01	-1.646442942325082e+01
1	 5.014439178885804e-01	 9.629810920645500e-01	-1.709633520386902e+01
1	 4.790862894707573e-01	 9.742971818233048e-01	-1.769375421275855e+01
1	 4.565600618730836e-01	 9.850541396938363e-01	-1.825544695696833e+01
1	 6.806587014956762e-01	 8.641223253026682e-01	-1.111710949409665e+01
1	 6.601045826519327e-01	 8.799236239439389e-01	-1.195275414706001e+01
1	 6.392189924757733e-01	 8.952109946490019e-01	-1.276796124915771e+01
1	 6.180211243119271e-01	 9.099744808319040e-01	-1.356064875945272e+01
1	 5.965305417100188e-01	 9.242050737161785e-01	-1.432882745816864e+01
1	 5.747671205463171e-01	 9.378947274085204e-01	-1.507060889626676e+01
1	 5.527509906198709e-01	 9.510363697947847e-01	-1.578421261020782e+01
1	 5.305024770683824e-01	 9.636239092636996e-01	-1.646797255743966e+01
1	 5.080420419437620e-01	 9.756522372955512e-01	-1.712034273702515e+01
1	 4.853902262786647e-01	 9.871172269838395e-01	-1.773990196891981e+01
1	 4.625675929636779e-01	 9.980157275872220e-01	-1.832535781457675e+01
1	 6.894986713098015e-01	 8.753450060023480e-01	-1.105158757684164e+01
1	 6.686776084164091e-01	 8.913515220347497e-01	-1.189343702067008e+01
1	 6.475207692481341e-01	 9.068374355560523e-01	-1.271592392823866e+01
1	 6.260475964208662e-01	 9.217926606704049e-01	-1.351716756599365e+01
1	 6.042779075633788e-01	 9.362080716009999e-01	-1.429538504136804e+01
1	 5.822318366873939e-01	 9.500755179595155e-01	-1.504889760823465e+01
1	 5.599297750252037e-01	 9.633878357836254e-01	-1.577613622695859e+01
1	 5.373923116846910e-01	 9.761388543480363e-01	-1.647564635056353e+01
1	 5.146401744661016e-01	 9.883233987867890e-01	-1.714609191700747e+01
1	 4.916941711761791e-01	 9.999372885957171e-01	-1.778625853607320e+01
1	 4.685751317634771e-01	 1.010977332113636e+00	-1.839505586776609e+01
1	 6.983386452491031e-01	 8.865676919386576e-01	-1.100950463272110e+01
1	 6.772506381814979e-01	 9.027794254579073e-01	-1.185530118449598e+01
1	 6.558225498945240e-01	 9.184638818880573e-01	-1.268222373955931e+01
1	 6.340740722753500e-01	 9.336108460232978e-01	-1.348876734899964e+01
1	 6.120252770320183e-01	 9.482110750864269e-01	-1.427354608505995e+01
1	 5.896965563118265e-01	 9.622563141940575e-01	-1.503529581050181e+01
1	 5.671085627804331e-01	 9.757393075356404e-01	-1.577287610936872e+01
1	 5.442821495160265e-01	 9.886538052718229e-01	-1.648527138729850e+01
1	 5.212383100673131e-01	 1.000994566190370e+00	-1.717159115785311e+01
1	 4.979981190152521e-01	 1.012757356189425e+00	-1.783106953917897e+01
1	 4.745826733664884e-01	 1.023938942687942e+00	-1.846306399256971e+01
1	 7.071786160946154e-01	 8.977903739465983e-01	-1.098956482936641e+01
1	 6.858236649462317e-01	 9.142073248808196e-01	-1.183666758065683e+01
1	 6.641243276354835e-01	 9.300903241502866e-01	-1.266490177003776e+01
1	 6.421005453207319e-01	 9.454290272392751e-01	-1.347330554279410e+01
1	 6.197726437892049e-01	 9.602140743702273e-01	-1.426107303976632e+01
1	 5.971612733236877e-01	 9.744371061647262e-01	-1.502755177769311e+01
1	 5.742873480231185e-01	 9.880907749640297e-01	-1.577223901656936e+01
1	 5.511719849358999e-01	 1.001168751814751e+00	-1.649477717911428e+01
1	 5.278364433591108e-01	 1.013665729158402e+00	-1.719494839582448e+01
1	 5.043020646478351e-01	 1.025577419295452e+00	-1.787266825619412e+01
1	 4.805902128667193e-01	 1.036900548725006e+00	-1.852797885246628e+01
1	 4.205153119584038e-01	 9.072855543946884e-01	-1.792485821412604e+01
1	 3.996323363483559e-01	 9.166756533117867e-01	-1.829615757931900e+01
1	 3.786313260672554e-01	 9.255477376767897e-01	-1.864516740830292e+01
1	 3.575307247119081e-01	 9.339015469729992e-01	-1.897104085395052e+01
1	 3.363488008802308e-01	 9.417376544619560e-01	-1.927310721890782e+01
1	 3.151036037782408e-01	 9.490574463164519e-01	-1.955087298049402e+01
1	 2.938129209596947e-01	 9.558630981313170e-01	-1.980402151824554e+01
1	 2.724942383587361e-01	 9.621575490304196e-01	-2.003241159376432e+01
1	 2.511647027528098e-01	 9.679444735972303e-01	-2.023607464357174e+01
1	 2.298410867697775e-01	 9.732282518626566e-01	-2.041521095539394e+01
1	 2.085397565298897e-01	 9.780139375877577e-01	-2.057018480664251e+01
1	 4.265226937679250e-01	 9.202468202020646e-01	-1.796022027865779e+01
1	 4.053413889316475e-01	 9.297710638393700e-01	-1.835883038963803e+01
1	 3.840403632092172e-01	 9.387698926915389e-01	-1.872966481041470e+01
1	 3.626383236782533e-01	 9.472430425202908e-01	-1.907284756705309e+01
1	 3.411537999174936e-01	 9.551910947767371e-01	-1.938870293715097e+01
1	 3.196050989795961e-01	 9.626154554363000e-01	-1.967774766168942e+01
1	 2.980102625270569e-01	 9.695183311739305e-01	-1.994068209419044e+01
1	 2.763870262938931e-01	 9.759027031012107e-01	-2.017838040499268e+01
1	 2.547527820123113e-01	 9.817722982959253e-01	-2.039187996292886e+01
1	 2.331245419199244e-01	 9.871315593611459e-01	-2.058237001938536e+01
1	 2.115189059394629e-01	 9.919856122548431e-01	-2.075117982071083e+01
1	 4.325301127226065e-01	 9.332081661532802e-01	-1.800608768843279e+01
1	 4.110504768153741e-01	 9.428665553405938e-01	-1.843090354107997e+01
1	 3.894494337964184e-01	 9.519921294640534e-01	-1.882390390561979e+01
1	 3.677459542258094e-01	 9.605846205637468e-01	-1.918591686778421e+01
1	 3.459588286647271e-01	 9.686446182803863e-01	-1.951798747378923e+01
1	 3.241066220140734e-01	 9.761735483921200e-01	-1.982136340723666e+01
1	 3.022076300466623e-01	 9.831736486541902e-01	-2.009747978873492e+01
1	 2.802798382979372e-01	 9.896479421661311e-01	-2.034794326627106e+01
1	 2.583408834563892e-01	 9.956002085003419e-01	-2.057451556382442e+01
1	 2.364080173708705e-01	 1.001034952832426e+00	-2.077909665309828e+01
1	 2.144980737680448e-01	 1.005957373317689e+00	-2.096370770867858e+01
1	 4.385375639164554e-01	 9.461695816632008e-01	-1.806042182241396e+01
1	 4.167595953371834e-01	 9.559621171207261e-01	-1.851069434768448e+01
1	 3.948585334115307e-01	 9.652144371960353e-01	-1.892646539794730e+01
1	 3.728536121834383e-01	 9.739262702075441e-01	-1.930901180313089e+01
1	 3.507638831979376e-01	 9.820982139855879e-01	-1.965983679934087e+01
1	 3.286081692055634e-01	 9.897317141111275e-01	-1.998065139424007e+01
1	 3.064050200908187e-01	 9.968290394198429e-01	-2.027335499266014e+01
1	 2.841726711919194e-01	 1.003393254999424e+00	-2.054001548310655e+01
1	 2.619290041549625e-01	 1.009428192917151e+00	-2.078284898182343e+01
1	 2.396915104413312e-01	 1.014938420921471e+00	-2.100419942481347e+01
1	 2.174772575828835e-01	 1.019929209365398e+00	-2.120651818986611e+01
1	 4.445450424434799e-01	 9.591310561466907e-01	-1.812129419854899e+01
1	 4.224687398347230e-01	 9.690577384850336e-01	-1.859661102721920e+01
1	 4.002676576372253e-01	 9.784368050891873e-01	-1.903600666636413e+01
1	 3.779612933800036e-01	 9.872679805558595e-01	-1.944096225037025e+01
1	 3.555689595931318e-01	 9.955518709050283e-01	-1.981318762475999e+01
1	 3.331097368779574e-01	 1.003289941520539e+00	-2.015460057176637e+01
1	 3.106024292318333e-01	 1.010484492318635e+00	-2.046730538702409e+01
1	 2.880655217968901e-01	 1.017138630375336e+00	-2.075357102341576e+01
1	 2.655171411779494e-01	 1.023256240253020e+00	-2.101580901219019e+01
1	 2.429750184500218e-01	 1.028841952273254e+00	-2.125655136317076e+01
1	 2.204564549512274e-01	 1.033901108987071e+00	-2.147842863548589e+01
1	 4.505525433976866e-01	 9.720925790186141e-01	-1.818687912937676e+01
1	 4.281779056456406e-01	 9.821534087387839e-01	-1.868714663885932e+01
1	 4.056768020561741e-01	 9.916592223452112e-01	-1.915125665121219e+01
1	 3.830689936443673e-01	 1.000609740712869e+00	-1.958066046035934e+01
1	 3.603740539263162e-01	 1.009005578051392e+00	-1.997703335154315e+01
1	 3.376113213551464e-01	 1.016848219547572e+00	-2.034225380987116e+01
1	 3.147998540420135e-01	 1.024139996198311e+00	-2.067838212542873e+01
1	 2.919583869338996e-01	 1.030884057068108e+00	-2.098763860946306e+01
1	 2.691052915952692e-01	 1.037084339214621e+00	-2.127238162975177e+01
1	 2.462585387156577e-01	 1.042745535532752e+00	-2.153508566457409e+01
1	 2.234356634403244e-01	 1.047873060771812e+00	-2.177831956395480e+01
1	 4.565600618730836e-01	 9.850541396938363e-01	-1.825544695696832e+01
1	 4.338870881075840e-01	 9.952491171872442e-01	-1.878087349906734e+01
1	 4.110859622510485e-01	 1.004881678165811e+00	-1.927101114400886e+01
1	 3.881767088053927e-01	 1.013951539782750e+00	-1.972705695237379e+01
1	 3.651791622734972e-01	 1.022459324437367e+00	-2.015042034129528e+01
1	 3.421129189610211e-01	 1.030406537119440e+00	-2.054270435239239e+01
1	 3.189972910936670e-01	 1.037795539906620e+00	-2.090568631743374e+01
1	 2.958512634239985e-01	 1.044629523851985e+00	-2.124129811807220e+01
1	 2.726934524768403e-01	 1.050912478508621e+00	-2.155160623060758e+01
1	 2.495420685569543e-01	 1.056649159344938e+00	-2.183879173920237e+01
1	 2.264148806174227e-01	 1.061845053308720e+00	-2.210513049154357e+01
1	 4.625675929636779e-01	 9.980157275872220e-01	-1.832535781457674e+01
1	 4.395962825582002e-01	 1.008344853135681e+00	-1.887643803223781e+01
1	 4.164951338045202e-01	 1.018104161752687e+00	-1.939412844397094e+01
1	 3.932844346919422e-01	 1.027293366869678e+00	-1.987915672856526e+01
1	 3.699842807106814e-01	 1.035913099075635e+00	-2.033244447573654e+01
1	 3.466145260194732e-01	 1.043964883163362e+00	-2.075509254592246e+01
1	 3.231947369591013e-01	 1.051451112291306e+00	-2.114836578576317e+01
1	 2.997441480882373e-01	 1.058375019501212e+00	-2.151367726110774e+01
1	 2.762816208925816e-01	 1.064740646841691e+00	-2.185257216644952e+01
1	 2.528256052926268e-01	 1.070552812354785e+00	-2.216671156486860e+01
1	 2.293941040497705e-01	 1.075817075186899e+00	-2.245785610608325e+01
1	 4.685751317634771e-01	 1.010977332113636e+00	-1.839505586776609e+01
1	 4.453054843351376e-01	 1.021440605889363e+00	-1.897255601712127e+01
1	 4.219043122992610e-01	 1.031326662307544e+00	-1.951952534837766e+01
1	 3.983921671328786e-01	 1.040635211077830e+00	-2.003601577937405e+01
1	 3.747894053138752e-01	 1.049366890978884e+00	-2.052224798110772e+01
1	 3.511161388543932e-01	 1.057523246606553e+00	-2.097860282019028e+01
1	 3.273921882106235e-01	 1.065106702200117e+00	-2.140561207275337e+01
1	 3.036370377476663e-01	 1.072120532790032e+00	-2.180394852109605e+01
1	 2.798697939124116e-01	 1.078568832920500e+00	-2.217441554525660e+01
1	 2.561091462413906e-01	 1.084456483207268e+00	-2.251793632112249e+01
1	 2.323733313046157e-01	 1.089789114995448e+00	-2.283554273476320e+01
1	 4.745826733664884e-01	 1.023938942687942e+00	-1.846306399256971e+01
1	 4.510146887760434e-01	 1.034536364753556e+00	-1.906800819398741e+01
1	 4.273134933179420e-01	 1.044549169032083e+00	-1.964617344721724e+01
1	 4.034999019570645e-01	 1.053977061511382e+00	-2.019673785413941e+01
1	 3.795945321590853e-01	 1.062820689159798e+00	-2.071901649356557e+01
1	 3.556177537896725e-01	 1.071081616376229e+00	-2.121246089759592e+01
1	 3.315896414205414e-01	 1.078762298480797e+00	-2.167665767397621e+01
1	 3.075299292233359e-01	 1.085866052492690e+00	-2.211132631939575e+01
1	 2.834579686062493e-01	 1.092397025451718e+00	-2.251631627477770e+01
1	 2.593926887219610e-01	 1.098360160547363e+00	-2.289160327878508e+01
1	 2.353525599492068e-01	 1.103761161323472e+00	-2.323728507998101e+01
1	 4.805902128667193e-01	 1.036900548725006e+00	-1.852797885246629e+01
1	 4.567238912185655e-01	 1.047632119033528e+00	-1.916163620098636e+01
1	 4.327226724432352e-01	 1.057771671128007e+00	-1.977309569551165e+01
1	 4.086076349933627e-01	 1.067318907274511e+00	-2.036047147371947e+01
1	 3.843996573223180e-01	 1.076274482631064e+00	-2.092197634449601e+01
1	 3.601193671492018e-01	 1.084639981399606e+00	-2.145593121186442e+01
1	 3.357870931611622e-01	 1.092417889981094e+00	-2.196077347917461e+01
1	 3.114228193362970e-01	 1.099611567383429e+00	-2.243506439658708e+01
1	 2.870461420440134e-01	 1.106225213142014e+00	-2.287749532757771e+01
1	 2.626762300530535e-01	 1.112263833020041e+00	-2.328689292258258e+01
1	 2.383317875507918e-01	 1.117733202760072e+00	-2.366222319980964e+01
1	 2.085397565298897e-01	 9.780139375877577e-01	-2.057018480664251e+01
1	 1.872751588682954e-01	 9.823075085927059e-01	-2.070281275012692e+01
1	 1.660642739430359e-01	 9.861149146151665e-01	-2.081590447869433e+01
1	 1.449221048859622e-01	 9.894430288203904e-01	-2.091146525439406e+01
1	 1.238631447915627e-01	 9.922992591451227e-01	-2.099149276689905e+01
1	 1.029013581149162e-01	 9.946915115410935e-01	-2.105796556480642e+01
1	 8.205016480108950e-02	 9.966281528999332e-01	-2.111283228185811e+01
1	 6.132242709398352e-02	 9.981179738659459e-01	-2.115800169617631e+01
1	 4.073043895732970e-02	 9.991701517322813e-01	-2.119533364979312e+01
1	 2.028591802679350e-02	 9.997942136041430e-01	-2.122663084545287e+01
1	 0.000000000000000e+00	 1.000000000000000e+00	-2.125363152794258e+01
1	 2.115189059394629e-01	 9.919856122548431e-01	-2.075117982071083e+01
1	 1.899505272900958e-01	 9.963405201949547e-01	-2.090041599446278e+01
1	 1.684366287042940e-01	 1.000202317915604e+00	-2.103185901646969e+01
1	 1.469924276450038e-01	 1.003577976770333e+00	-2.114650731452279e+01
1	 1.256326242515388e-01	 1.006475010523806e+00	-2.124539058304424e+01
1	 1.043713824717892e-01	 1.008901438070191e+00	-2.132956317153268e+01
1	 8.322231396489484e-02	 1.010865745828442e+00	-2.140009767859760e+01
1	 6.219846472164627e-02	 1.012376850023818e+00	-2.145807878831720e+01
1	 4.131230433435212e-02	 1.013444059054000e+00	-2.150459738092118e+01
1	 2.057571783397211e-02	 1.014077036126061e+00	-2.154074494503540e+01
1	 0.000000000000000e+00	 1.014285762337685e+00	-2.156760831401704e+01
1	 2.144980737680448e-01	 1.005957373317689e+00	-2.096370770867857e+01
1	 1.926259122523858e-01	 1.010373618572351e+00	-2.113060789557976e+01
1	 1.708089981323071e-01	 1.014289808327531e+00	-2.128073218265065e+01
1	 1.490627632031907e-01	 1.017713012125696e+00	-2.141428266013832e+01
1	 1.274021146504700e-01	 1.020650849560097e+00	-2.153152576650022e+01
1	 1.058414159160934e-01	 1.023111452468066e+00	-2.163278954192401e+01
1	 8.439447037447267e-02	 1.025103426796637e+00	-2.171846060724840e+01
1	 6.307450776443674e-02	 1.026635814352820e+00	-2.178898090527407e+01
1	 4.189417330796949e-02	 1.027718054639657e+00	-2.184484424154012e+01
1	 2.086551943237152e-02	 1.028359946966948e+00	-2.188659266131554e+01
1	 0.000000000000000e+00	 1.028571613012482e+00	-2.191481269880568e+01
1	 2.174772575828835e-01	 1.019929209365398e+00	-2.120651818986611e+01
1	 1.953013115705126e-01	 1.024406792263879e+00	-2.139208722177895e+01
1	 1.731813802898896e-01	 1.028377374345500e+00	-2.156117430176118e+01
1	 1.511331098699964e-01	 1.031848123342196e+00	-2.171338722815495e+01
1	 1.291716145435107e-01	 1.034826764676397e+00	-2.184842569908980e+01
1	 1.073114572475229e-01	 1.037321543129217e+00	-2.196608136369994e+01
1	 8.556663307275791e-02	 1.039341184176433e+00	-2.206623722515029e+01
1	 6.395055550708149e-02	 1.040894855207496e+00	-2.214886643427739e+01
1	 4.247604540310677e-02	 1.041992126831532e+00	-2.221403051638982e+01
1	 2.115532258538469e-02	 1.042642934461811e+00	-2.226187707674796e+01
1	 0.000000000000000e+00	 1.042857540357000e+00	-2.229263703246051e+01
1	 2.204564549512274e-01	 1.033901108987071e+00	-2.147842863548588e+01
1	 1.979767230598238e-01	 1.038440029808523e+00	-2.168362315452317e+01
1	 1.755537732398562e-01	 1.042465004464060e+00	-2.187190873420935e+01
1	 1.532034659548942e-01	 1.045983298875552e+00	-2.204249293293909e+01
1	 1.309411224858151e-01	 1.049002744295103e+00	-2.219469744558962e+01
1	 1.087815052657713e-01	 1.051531698448141e+00	-2.232795990841781e+01
1	 8.673880110268536e-02	 1.053579006339744e+00	-2.244183478634319e+01
1	 6.482660723430707e-02	 1.055153960942393e+00	-2.253599338479548e+01
1	 4.305792014468898e-02	 1.056266263971905e+00	-2.261022303452823e+01
1	 2.144512705640454e-02	 1.056925986945661e+00	-2.266442550299135e+01
1	 0.000000000000000e+00	 1.057143532703853e+00	-2.269861469003542e+01
1	 2.234356634403244e-01	 1.047873060771812e+00	-2.177831956395480e+01
1	 2.006521445356669e-01	 1.052473319745267e+00	-2.200405060004664e+01
1	 1.779261750450211e-01	 1.056552687177763e+00	-2.221172701317483e+01
1	 1.552738297673574e-01	 1.060118527181483e+00	-2.240034260703360e+01
1	 1.327106370325377e-01	 1.063178776838613e+00	-2.256902244724122e+01
1	 1.102515587705329e-01	 1.065741906819336e+00	-2.271702539801353e+01
1	 8.791097350718997e-02	 1.067816881658486e+00	-2.284374557366897e+01
1	 6.570266223083999e-02	 1.069413119912057e+00	-2.294871275206816e+01
1	 4.363979705764108e-02	 1.070540454403061e+00	-2.303159180463298e+01
1	 2.173493260882402e-02	 1.071209092753505e+00	-2.309218120394316e+01
1	 0.000000000000000e+00	 1.071429578385649e+00	-2.313041067506474e+01
1	 2.264148806174227e-01	 1.061845053308720e+00	-2.210513049154357e+01
1	 2.033275738133893e-01	 1.066506650613095e+00	-2.235226587078759e+01
1	 1.802985837681989e-01	 1.070640410981159e+00	-2.257948436510631e+01
1	 1.573441996168595e-01	 1.074253796715706e+00	-2.278574534096677e+01
1	 1.344801567388328e-01	 1.077354850729328e+00	-2.297015163384628e+01
1	 1.117216165615013e-01	 1.079952156637298e+00	-2.313195181571791e+01
1	 8.908314932920657e-02	 1.082054798504573e+00	-2.327054130951667e+01
1	 6.657871978140689e-02	 1.083672320471033e+00	-2.338546240413405e+01
1	 4.422167566688809e-02	 1.084814686467279e+00	-2.347640323123807e+01
1	 2.202473900603610e-02	 1.085492240220354e+00	-2.354319577166958e+01
1	 0.000000000000000e+00	 1.085715665735001e+00	-2.358581296434262e+01
1	 2.293941040497705e-01	 1.075817075186899e+00	-2.245785610608325e+01
1	 2.060030087083387e-01	 1.080540010950993e+00	-2.272722270305667e+01
1	 1.826709974722041e-01	 1.084728164368799e+00	-2.297409557898171e+01
1	 1.594145738128737e-01	 1.088389095933940e+00	-2.319757218589243e+01
1	 1.362496801598547e-01	 1.091530954389646e+00	-2.339690091642028e+01
1	 1.131916774383706e-01	 1.094162436296527e+00	-2.357148212098225e+01
1	 9.025532761167007e-02	 1.096292745249919e+00	-2.372086800173324e+01
1	 6.745477917073431e-02	 1.097931550973866e+00	-2.384476144479884e+01
1	 4.480355549735500e-02	 1.099088948506841e+00	-2.394301385913946e+01
1	 2.231454601143368e-02	 1.099775417681214e+00	-2.401562209592861e+01
1	 0.000000000000000e+00	 1.100001783084519e+00	-2.406272452657722e+01
1	 2.323733313046157e-01	 1.089789114995448e+00	-2.283554273476320e+01
1	 2.086784470358625e-01	 1.094573389297943e+00	-2.312792858078812e+01
1	 1.850434142198511e-01	 1.098815935835233e+00	-2.339453119305938e+01
1	 1.614849506648734e-01	 1.102524413291903e+00	-2.363475218652587e+01
1	 1.380192058507578e-01	 1.105707076241965e+00	-2.384814702628428e+01
1	 1.146617402008347e-01	 1.108372734191518e+00	-2.403442383218657e+01
1	 9.142750739751529e-02	 1.110530710266440e+00	-2.419344118568024e+01
1	 6.833083968354876e-02	 1.112190799775103e+00	-2.432520500986804e+01
1	 4.538543607396681e-02	 1.113363228864028e+00	-2.442986459860646e+01
1	 2.260435338840974e-02	 1.114058613471097e+00	-2.450770787405627e+01
1	 0.000000000000000e+00	 1.114287918766816e+00	-2.455915595449254e+01
1	 2.353525599492068e-01	 1.103761161323472e+00	-2.323728507998101e+01
1	 2.113538866113081e-01	 1.108606774192931e+00	-2.355344133827424e+01
1	 1.874158320739543e-01	 1.112903713875012e+00	-2.383981397100919e+01
1	 1.635553284823320e-01	 1.116659737245314e+00	-2.409626871513433e+01
1	 1.397887323666964e-01	 1.119883204708684e+00	-2.432282366991972e+01
1	 1.161318036485874e-01	 1.122583038716770e+00	-2.451964494456829e+01
1	 9.259968772967715e-02	 1.124768681926050e+00	-2.468704152736148e+01
1	 6.920690060457686e-02	 1.126450055229290e+00	-2.482545945828332e+01
1	 4.596731692164848e-02	 1.127637515881123e+00	-2.493547538883125e+01
1	 2.289416090035721e-02	 1.128341815925009e+00	-2.501778961337670e+01
1	 0.000000000000000e+00	 1.128574061114501e+00	-2.507321865606685e+01
1	 2.383317875507918e-01	 1.117733202760072e+00	-2.366222319980963e+01
1	 2.140293252500230e-01	 1.122640154174940e+00	-2.400286601749448e+01
1	 1.897882490973285e-01	 1.126991486982686e+00	-2.430901564212452e+01
1	 1.656257055747226e-01	 1.130795056249892e+00	-2.458115608025960e+01
1	 1.415582582628250e-01	 1.134059328212202e+00	-2.481991797198046e+01
1	 1.176018665813229e-01	 1.136793338266780e+00	-2.502607015406293e+01
1	 9.377186765109050e-02	 1.139006648600664e+00	-2.520051075605439e+01
1	 7.008296121854513e-02	 1.140709305690971e+00	-2.534425792363811e+01
1	 4.654919756532504e-02	 1.141911797900406e+00	-2.545844026130250e+01
1	 2.318396831066902e-02	 1.142625013377961e+00	-2.554428708307310e+01
1	 0.000000000000000e+00	 1.142860198460186e+00	-2.560311855602176e+01
1	 1.142860198460186e+00	 0.000000000000000e+00	 1.829776650765507e+01
1	 1.142625013377961e+00	 2.318396831066934e-02	 1.791448921865162e+01
1	 1.141911797900406e+00	 4.654919756532534e-02	 1.750872645702779e+01
1	 1.140709305690971e+00	 7.008296121854536e-02	 1.708042230355339e+01
1	 1.139006648600664e+00	 9.377186765109072e-02	 1.662970100192410e+01
1	 1.136793338266779e+00	 1.176018665813230e-01	 1.615687561535520e+01
1	 1.134059328212202e+00	 1.415582582628251e-01	 1.566245586944630e+01
1	 1.130795056249892e+00	 1.656257055747228e-01	 1.514715505897253e+01
1	 1.126991486982686e+00	 1.897882490973286e-01	 1.461189589694804e+01
1	 1.122640154174940e+00	 2.140293252500230e-01	 1.405781518660478e+01
1	 1.117733202760072e+00	 2.383317875507917e-01	 1.348626720094030e+01
1	 1.157145321350848e+00	 0.000000000000000e+00	 1.778296635526123e+01
1	 1.156907196584657e+00	 2.347375514173351e-02	 1.740041687365338e+01
1	 1.156185066306537e+00	 4.713103688965983e-02	 1.699689957871736e+01
1	 1.154967543606921e+00	 7.095895962352061e-02	 1.657243900556674e+01
1	 1.153243604240946e+00	 9.494396433618384e-02	 1.612720980553375e+01
1	 1.151002628747150e+00	 1.190718251251996e-01	 1.566154354728338e+01
1	 1.148234445072978e+00	 1.433276585053856e-01	 1.517593482631768e+01
1	 1.144929371509318e+00	 1.676959356502721e-01	 1.467104658392645e+01
1	 1.141078259721515e+00	 1.921604976561825e-01	 1.414771453753117e+01
1	 1.136672537650634e+00	 2.167045739068282e-01	 1.360695062657948e+01
1	 1.131704252046085e+00	 2.413108035985782e-01	 1.304994538175992e+01
1	 1.171430429241259e+00	 0.000000000000000e+00	 1.727615647143093e+01
1	 1.171189364794196e+00	 2.376354166844703e-02	 1.689604022012416e+01
1	 1.170458319724889e+00	 4.771287560295061e-02	 1.649630747624775e+01
1	 1.169225766550903e+00	 7.183495710857876e-02	 1.607703946116413e+01
1	 1.167480544931648e+00	 9.611605979047652e-02	 1.563844335800453e+01
1	 1.165211904307037e+00	 1.205417821255611e-01	 1.518085768405855e+01
1	 1.162409547049214e+00	 1.450970568900730e-01	 1.470475707284582e+01
1	 1.159063671927114e+00	 1.697661635521416e-01	 1.421075638534789e+01
1	 1.155165017668707e+00	 1.945327437243049e-01	 1.369961407087196e+01
1	 1.150704906391885e+00	 2.193798197548161e-01	 1.317223470010043e+01
1	 1.145675286662146e+00	 2.442898165186466e-01	 1.262967059611824e+01
1	 1.185715523798227e+00	 0.000000000000000e+00	 1.677664463263256e+01
1	 1.185471519673041e+00	 2.405332792465459e-02	 1.640029716422643e+01
1	 1.184731559820883e+00	 4.829471377313913e-02	 1.600556817556280e+01
1	 1.183483976186579e+00	 7.271095377599275e-02	 1.559257247066119e+01
1	 1.181717472333943e+00	 9.728815415079030e-02	 1.516153239810590e+01
1	 1.179421166604382e+00	 1.220117377539762e-01	 1.471278221206418e+01
1	 1.176584635794853e+00	 1.468664536233805e-01	 1.424677192385445e+01
1	 1.173197959152453e+00	 1.718363895219076e-01	 1.376407057707733e+01
1	 1.169251762467883e+00	 1.969049875784915e-01	 1.326536888032326e+01
1	 1.164737262035952e+00	 2.220550631061160e-01	 1.275148113338550e+01
1	 1.159646308238343e+00	 2.472688266585502e-01	 1.222334638579295e+01
1	 1.200000606688556e+00	 0.000000000000000e+00	 1.628377159099495e+01
1	 1.199753662887650e+00	 2.434311394420089e-02	 1.591217619969759e+01
1	 1.199004788259937e+00	 4.887655146816672e-02	 1.552336552167050e+01
1	 1.197742174177614e+00	 7.358694972803567e-02	 1.511746547287184e+01
1	 1.195954388109006e+00	 9.846024755394681e-02	 1.469469668623298e+01
1	 1.193630417297124e+00	 1.234816921820130e-01	 1.425537826970489e+01
1	 1.190759712963843e+00	 1.486358489118020e-01	 1.379993111568123e+01
1	 1.187332234834512e+00	 1.739066138011468e-01	 1.332888070354766e+01
1	 1.183338495762656e+00	 1.992772294955378e-01	 1.284285933801890e+01
1	 1.178769606220092e+00	 2.247303042728567e-01	 1.234260776763667e+01
1	 1.173617318404766e+00	 2.502478343658425e-01	 1.182897613035532e+01
1	 1.214285679579051e+00	 0.000000000000000e+00	 1.579690913507055e+01
1	 1.214035796104490e+00	 2.463289976093064e-02	 1.543071343259667e+01
1	 1.213278006707471e+00	 4.945838875597484e-02	 1.504844530739731e+01
1	 1.212000362187669e+00	 7.446294506698058e-02	 1.465021991975536e+01
1	 1.210191293918011e+00	 9.963234013676772e-02	 1.423623976825919e+01
1	 1.207839658043205e+00	 1.249516455812401e-01	 1.380679824474381e+01
1	 1.204934780210126e+00	 1.504052429618308e-01	 1.336228278176007e+01
1	 1.201466500622466e+00	 1.759768366314353e-01	 1.290317753834267e+01
1	 1.197425219196647e+00	 2.016494697522397e-01	 1.243006557057910e+01
1	 1.192801940581567e+00	 2.274055435671674e-01	 1.194363043495048e+01
1	 1.187588318791500e+00	 2.532268399880767e-01	 1.144465717466107e+01
1	 1.228570744136519e+00	 0.000000000000000e+00	 1.531545828591024e+01
1	 1.228317920990019e+00	 2.492268540868854e-02	 1.495498981365160e+01
1	 1.227551216828906e+00	 5.004022570450483e-02	 1.457961167226142e+01
1	 1.226258541880407e+00	 7.533893989510042e-02	 1.418940697380103e+01
1	 1.224428191422134e+00	 1.008044320360747e-01	 1.378454410474502e+01
1	 1.222048890500565e+00	 1.264215981232256e-01	 1.336528046954760e+01
1	 1.219109839187650e+00	 1.521746359799606e-01	 1.293196584856151e+01
1	 1.215600758165490e+00	 1.780470582543500e-01	 1.248504531546563e+01
1	 1.211511934413471e+00	 2.040217086253930e-01	 1.202506165981831e+01
1	 1.206834266757633e+00	 2.300807813011770e-01	 1.155265726154132e+01
1	 1.201559311028636e+00	 2.562058438728060e-01	 1.106857536609977e+01
1	 1.242855802027764e+00	 0.000000000000000e+00	 1.483884761756144e+01
1	 1.242600039210701e+00	 2.521247092131928e-02	 1.448412856150155e+01
1	 1.241824420289660e+00	 5.062206238169809e-02	 1.411572374972885e+01
1	 1.240516714919490e+00	 7.621493431466822e-02	 1.373366350217952e+01
1	 1.238665082282548e+00	 1.019765233886893e-01	 1.333806653610258e+01
1	 1.236258116327144e+00	 1.278915499795382e-01	 1.292914428221927e+01
1	 1.233284891550360e+00	 1.539440281726847e-01	 1.250720481806535e+01
1	 1.229735009112759e+00	 1.801172789114669e-01	 1.207265635849802e+01
1	 1.225598643056746e+00	 2.063939463917933e-01	 1.162601024345113e+01
1	 1.220866586385550e+00	 2.327560177870144e-01	 1.116788336389188e+01
1	 1.215530296746261e+00	 2.591848463675837e-01	 1.069899996862996e+01
1	 1.257140854919592e+00	 0.000000000000000e+00	 1.436653169209087e+01
1	 1.256882152432996e+00	 2.550225633266756e-02	 1.401729276164752e+01
1	 1.256097618755154e+00	 5.120389885549600e-02	 1.365569254309204e+01
1	 1.254774882968583e+00	 7.709092842795702e-02	 1.328168834405209e+01
1	 1.252901968160429e+00	 1.031486143314331e-01	 1.289533405698952e+01
1	 1.250467337180882e+00	 1.293615013217461e-01	 1.249678542451107e+01
1	 1.247459938952200e+00	 1.557134197464967e-01	 1.208630490601485e+01
1	 1.243869255113450e+00	 1.821874988443626e-01	 1.166426607599445e+01
1	 1.239685346770091e+00	 2.087661833282363e-01	 1.123115748397467e+01
1	 1.234898901102576e+00	 2.354312533368090e-01	 1.078758590657171e+01
1	 1.229501277574464e+00	 2.621638478199633e-01	 1.033427892362463e+01
1	 1.271425904478810e+00	 0.000000000000000e+00	 1.389798960012368e+01
1	 1.271164262323368e+00	 2.579204167657809e-02	 1.355368312729014e+01
1	 1.270370813890807e+00	 5.178573519383996e-02	 1.319847801198768e+01
1	 1.269033047691344e+00	 7.796692233723983e-02	 1.283223882955063e+01
1	 1.267138850716951e+00	 1.043207050011279e-01	 1.245493987560790e+01
1	 1.264676554719722e+00	 1.308314523214177e-01	 1.206667175002599e+01
1	 1.261634983047117e+00	 1.574828109078902e-01	 1.166764750796690e+01
1	 1.258003497816736e+00	 1.842577182946137e-01	 1.125820829430531e+01
1	 1.253772047197120e+00	 2.111384197115177e-01	 1.083882837676604e+01
1	 1.248931212545972e+00	 2.381064882626895e-01	 1.041011949327459e+01
1	 1.243472255143333e+00	 2.651428485774981e-01	 9.972834430246996e+00
1	 1.285710952372222e+00	 0.000000000000000e+00	 1.343272359869077e+01
1	 1.285446370548278e+00	 2.608182698689557e-02	 1.309253590946174e+01
1	 1.284644007362039e+00	 5.236757146467139e-02	 1.274308635316859e+01
1	 1.283291210751439e+00	 7.884291614478972e-02	 1.238412753085203e+01
1	 1.281375731613288e+00	 1.054927955345953e-01	 1.201553973574615e+01
1	 1.278885770601601e+00	 1.323014031501213e-01	 1.163733921857163e+01
1	 1.275810025489054e+00	 1.592522018633586e-01	 1.124968596763950e+01
1	 1.272137738871795e+00	 1.863279375037966e-01	 1.085289090157990e+01
1	 1.267858745981453e+00	 2.135106558184332e-01	 1.044742237100895e+01
1	 1.262963522352994e+00	 2.407817228767851e-01	 1.003391186515507e+01
1	 1.257443231082956e+00	 2.681218489877413e-01	 9.613158820501306e+00
1	 1.117733202760072e+00	 2.383317875507917e-01	 1.348626720094029e+01
1	 1.112263833020041e+00	 2.626762300530532e-01	 1.289216299666780e+01
1	 1.106225213142014e+00	 2.870461420440131e-01	 1.227017628663174e+01
1	 1.099611567383429e+00	 3.114228193362967e-01	 1.162170406337554e+01
1	 1.092417889981094e+00	 3.357870931611621e-01	 1.094829269377438e+01
1	 1.084639981399607e+00	 3.601193671492018e-01	 1.025163622331963e+01
1	 1.076274482631064e+00	 3.843996573223178e-01	 9.533573650571277e+00
1	 1.067318907274511e+00	 4.086076349933625e-01	 8.796085144022307e+00
1	 1.057771671128008e+00	 4.327226724432351e-01	 8.041287183165856e+00
1	 1.047632119033529e+00	 4.567238912185653e-01	 7.271426615886436e+00
1	 1.036900548725005e+00	 4.805902128667193e-01	 6.488873635296896e+00
1	 1.131704252046085e+00	 2.413108035985782e-01	 1.304994538175992e+01
1	 1.126166518197095e+00	 2.659595382211787e-01	 1.247124499832542e+01
1	 1.120052418896942e+00	 2.906340606870188e-01	 1.186532333853874e+01
1	 1.113356106209475e+00	 3.153154330166911e-01	 1.123362963876768e+01
1	 1.106072511802234e+00	 3.399842468424100e-01	 1.057776385099401e+01
1	 1.098197383647950e+00	 3.646206608509515e-01	 9.899474445352670e+00
1	 1.089727320752985e+00	 3.892044412755066e-01	 9.200655144011584e+00
1	 1.080659805637753e+00	 4.137150053315430e-01	 8.483340561763406e+00
1	 1.070993234298678e+00	 4.381314674648408e-01	 7.749700738856879e+00
1	 1.060726943388633e+00	 4.624326882528711e-01	 7.002034562519726e+00
1	 1.049861234363075e+00	 4.865973257739606e-01	 6.242762085195182e+00
1	 1.145675286662146e+00	 2.442898165186466e-01	 1.262967059611824e+01
1	 1.140069188776074e+00	 2.692428429421195e-01	 1.206622597986409e+01
1	 1.133879610133148e+00	 2.942219755630260e-01	 1.147626258795274e+01
1	 1.127100630603702e+00	 3.192080426101740e-01	 1.086125856433521e+01
1	 1.119727119286068e+00	 3.441813961169891e-01	 1.022284103903211e+01
1	 1.111754771661164e+00	 3.691219498266913e-01	 9.562783504503424e+00
1	 1.103180144749660e+00	 3.940092201840262e-01	 8.883002112292703e+00
1	 1.094000689993370e+00	 4.188223703073470e-01	 8.185550868887402e+00
1	 1.084214783587100e+00	 4.435402568075890e-01	 7.472615720206755e+00
1	 1.073821753994628e+00	 4.681414792933418e-01	 6.746507525330660e+00
1	 1.062821906392927e+00	 4.926044323741732e-01	 6.009653931893073e+00
1	 1.159646308238343e+00	 2.472688266585502e-01	 1.222334638579295e+01
1	 1.153971846379076e+00	 2.725261445989176e-01	 1.167511574801817e+01
1	 1.147706788463904e+00	 2.978098870906049e-01	 1.110109358953304e+01
1	 1.140845142169716e+00	 3.231006485708565e-01	 1.050276448887435e+01
1	 1.133381714025693e+00	 3.483785414745347e-01	 9.881757287834080e+00
1	 1.125312147020986e+00	 3.736232346015354e-01	 9.239842115788091e+00
1	 1.116632956190610e+00	 3.988139946083936e-01	 8.578926350478653e+00
1	 1.107341561897807e+00	 4.239297305165887e-01	 7.901049498198695e+00
1	 1.097436320535780e+00	 4.489490411024549e-01	 7.208376986815173e+00
1	 1.086916552379217e+00	 4.738502650059465e-01	 6.503192876241054e+00
1	 1.075782566326606e+00	 4.986115333681203e-01	 5.787891502686838e+00
1	 1.173617318404766e+00	 2.502478343658425e-01	 1.182897613035532e+01
1	 1.167874492628195e+00	 2.758094435746150e-01	 1.129601888681367e+01
1	 1.161533955502484e+00	 3.013977956883258e-01	 1.073800640118933e+01
1	 1.154589642511129e+00	 3.269932513528491e-01	 1.015640803575703e+01
1	 1.147036297614210e+00	 3.525756834046819e-01	 9.552829773827511e+00
1	 1.138869511309155e+00	 3.781245157005969e-01	 8.929010964784565e+00
1	 1.130085756645355e+00	 4.036187651091258e-01	 8.286820048511123e+00
1	 1.120682422907506e+00	 4.290370865550829e-01	 7.628249246584149e+00
1	 1.110657846687221e+00	 4.543578209804138e-01	 6.955408217843424e+00
1	 1.100011340070105e+00	 4.795590460566533e-01	 6.270516686773826e+00
1	 1.088743215676155e+00	 5.046186294565644e-01	 5.575896064454471e+00
1	 1.187588318791500e+00	 2.532268399880767e-01	 1.144465717466106e+01
1	 1.181777129145528e+00	 2.790927402522532e-01	 1.092712918271520e+01
1	 1.175361112862159e+00	 3.049857017747593e-01	 1.038527626062131e+01
1	 1.168334133231548e+00	 3.308858514102632e-01	 9.820531687017885e+00
1	 1.160690871644718e+00	 3.567728223970656e-01	 9.234454870346498e+00
1	 1.152426866107410e+00	 3.826257936489898e-01	 8.628727886033284e+00
1	 1.143538547683417e+00	 4.084235322467395e-01	 8.005151062281783e+00
1	 1.134023274578911e+00	 4.341444390186439e-01	 7.365637606709263e+00
1	 1.123879363583928e+00	 4.597665970724412e-01	 6.712207275735766e+00
1	 1.113106118594998e+00	 4.852678231114311e-01	 6.046979098833072e+00
1	 1.101703855953616e+00	 5.106257213402688e-01	 5.372163180330293e+00
1	 1.201559311028636e+00	 2.562058438728060e-01	 1.106857536609977e+01
1	 1.195679757553171e+00	 2.823760350148740e-01	 1.056672443876221e+01
1	 1.189188262156201e+00	 3.085736057684754e-01	 1.004125863330640e+01
1	 1.182078615934583e+00	 3.347784491972097e-01	 9.493555024407540e+00
1	 1.174345437710318e+00	 3.609699589413216e-01	 8.925103543416373e+00
1	 1.165984212997487e+00	 3.871270689718281e-01	 8.337503377868552e+00
1	 1.156991330874316e+00	 4.132282965817519e-01	 7.732458514669062e+00
1	 1.147364118468464e+00	 4.392517885030855e-01	 7.111772424448576e+00
1	 1.137100872768407e+00	 4.651753700095123e-01	 6.477341893440536e+00
1	 1.126200889481598e+00	 4.909765968362484e-01	 5.831150018491195e+00
1	 1.114664488671034e+00	 5.166328097199970e-01	 5.175258390371111e+00
1	 1.215530296746261e+00	 2.591848463675837e-01	 1.069899996862996e+01
1	 1.209582379473220e+00	 2.856593282455194e-01	 1.021316164639304e+01
1	 1.203015404997883e+00	 3.121615080880448e-01	 9.704384602045767e+00
1	 1.195823092223842e+00	 3.386710451677993e-01	 9.173970298687779e+00
1	 1.187999997404107e+00	 3.651670935270845e-01	 8.623317065107669e+00
1	 1.179541553561126e+00	 3.916283421942254e-01	 8.053916426608337e+00
1	 1.170444107787571e+00	 4.180330586746797e-01	 7.467348699987214e+00
1	 1.160704956132611e+00	 4.443591356042226e-01	 6.865277855838755e+00
1	 1.150322375783163e+00	 4.705841404226023e-01	 6.249445659099142e+00
1	 1.139295654257610e+00	 4.966853678970743e-01	 5.621665106791209e+00
1	 1.127625115340454e+00	 5.226398952965117e-01	 4.983813190142313e+00
1	 1.229501277574464e+00	 2.621638478199633e-01	 1.033427892362463e+01
1	 1.223484996527770e+00	 2.889426203272313e-01	 9.864872486500827e+00
1	 1.216842543000477e+00	 3.157494091520374e-01	 9.373156570895716e+00
1	 1.209567563702936e+00	 3.425636397761434e-01	 8.860338301055208e+00
1	 1.201654552319188e+00	 3.693642266439899e-01	 8.327703019195328e+00
1	 1.193098889380065e+00	 3.961296138412951e-01	 7.776610615491147e+00
1	 1.183896879992705e+00	 4.228378190860399e-01	 7.208491267709875e+00
1	 1.174045789127792e+00	 4.494664809178695e-01	 6.624840599725848e+00
1	 1.163543874170699e+00	 4.759929089426868e-01	 6.027214274538114e+00
1	 1.152390414450741e+00	 5.023941369598771e-01	 5.417222043934947e+00
1	 1.140585737473918e+00	 5.286469787705758e-01	 4.796521283523087e+00
1	 1.243472255143333e+00	 2.651428485774981e-01	 9.972834430246994e+00
1	 1.237387610338918e+00	 2.922259116430513e-01	 9.520359133823884e+00
1	 1.230669677777256e+00	 3.193373093790241e-01	 9.046144258755080e+00
1	 1.223312031975472e+00	 3.464562334763527e-01	 8.551284512927767e+00
1	 1.215309104048657e+00	 3.735613587816728e-01	 8.036931576130208e+00
1	 1.206656222036041e+00	 4.006308844381515e-01	 7.504290495962082e+00
1	 1.197349649059237e+00	 4.276425783763493e-01	 6.954615663500178e+00
1	 1.187386619010453e+00	 4.545738250398405e-01	 6.389206384420719e+00
1	 1.176765369473521e+00	 4.814016762007408e-01	 5.809402066026402e+00
1	 1.165485171588693e+00	 5.081029046906257e-01	 5.216577045352805e+00
1	 1.153546356583469e+00	 5.346540608429523e-01	 4.612135088160504e+00
1	 1.257443231082956e+00	 2.681218489877413e-01	 9.613158820501306e+00
1	 1.251290222528759e+00	 2.955092025760216e-01	 9.178190341075043e+00
1	 1.244496810941490e+00	 3.229252091875747e-01	 8.721980960076969e+00
1	 1.237056498645061e+00	 3.503488267225385e-01	 8.245495512441337e+00
1	 1.228963654185617e+00	 3.777584904297682e-01	 7.749732016373912e+00
1	 1.220213553110794e+00	 4.051321545099082e-01	 7.235718200900409e+00
1	 1.210802416556687e+00	 4.324473371061250e-01	 6.704507807532531e+00
1	 1.200727447337036e+00	 4.596811685659496e-01	 6.157176688603732e+00
1	 1.189986863234135e+00	 4.868104428277399e-01	 5.594818727675379e+00
1	 1.178579927199173e+00	 5.138116717552889e-01	 5.018541610061742e+00
1	 1.166506974181152e+00	 5.406611422144046e-01	 4.429462473919711e+00
1	 1.036900548725005e+00	 4.805902128667193e-01	 6.488873635296898e+00
1	 1.025577419295452e+00	 5.043020646478357e-01	 5.691092387485333e+00
1	 1.013665729158402e+00	 5.278364433591113e-01	 4.875272169235675e+00
1	 1.001168751814751e+00	 5.511719849359001e-01	 4.043305176786577e+00
1	 9.880907749640296e-01	 5.742873480231188e-01	 3.197095347611174e+00
1	 9.744371061647262e-01	 5.971612733236881e-01	 2.338553002125245e+00
1	 9.602140743702269e-01	 6.197726437892053e-01	 1.469589518542908e+00
1	 9.454290272392749e-01	 6.421005453207324e-01	 5.921120771858639e-01
1	 9.300903241502864e-01	 6.641243276354837e-01	-2.919814903272717e-01
1	 9.142073248808197e-01	 6.858236649462323e-01	-1.180807712905296e+00
1	 8.977903739465982e-01	 7.071786160946152e-01	-2.072502320466439e+00
1	 1.049861234363075e+00	 4.865973257739606e-01	 6.242762085195180e+00
1	 1.038396572053436e+00	 5.106055626397865e-01	 5.469038064522250e+00
1	 1.026335992351761e+00	 5.344341081201812e-01	 4.677563247510436e+00
1	 1.013682809675893e+00	 5.580613311114565e-01	 3.869987502686373e+00
1	 1.000441365319234e+00	 5.814656235033427e-01	 3.047937909531445e+00
1	 9.866170331818169e-01	 6.046254602692555e-01	 2.213014513777173e+00
1	 9.722162213254484e-01	 6.275194604093164e-01	 1.366786421611163e+00
1	 9.572463692505458e-01	 6.501264484098677e-01	 5.107882645199234e-01
1	 9.417159408231383e-01	 6.724255158709614e-01	-3.534829380242792e-01
1	 9.256344128128366e-01	 6.943960829442236e-01	-1.224570495791373e+00
1	 9.090122590360994e-01	 7.160179592177930e-01	-2.101060328026521e+00
1	 1.062821906392927e+00	 4.926044323741732e-01	 6.009653931893070e+00
1	 1.051215711351843e+00	 5.169090540135580e-01	 5.258800978211868e+00
1	 1.039006242241894e+00	 5.410317659542637e-01	 4.490124963381831e+00
1	 1.026196854397831e+00	 5.649506700538356e-01	 3.705090866932943e+00
1	 1.012791942706873e+00	 5.886438914470942e-01	 2.905114513443737e+00
1	 9.987969474105339e-01	 6.120896393782246e-01	 2.091559143942283e+00
1	 9.842183556789587e-01	 6.352662688961455e-01	 1.265732561029611e+00
1	 9.690636988541473e-01	 6.581523430727501e-01	 4.288848764061968e-01
1	 9.533415452896359e-01	 6.807266953911941e-01	-4.177931178320569e-01
1	 9.370614887469668e-01	 7.029684919422192e-01	-1.273170940530350e+00
1	 9.202341323432031e-01	 7.248572930607246e-01	-2.136178769941315e+00
1	 1.075782566326606e+00	 4.986115333681203e-01	 5.787891502686840e+00
1	 1.064034838686197e+00	 5.232125395044800e-01	 5.058737754441526e+00
1	 1.051676480306948e+00	 5.476294176309935e-01	 4.311372368911541e+00
1	 1.038710887440483e+00	 5.718400025666855e-01	 3.547130945817810e+00
1	 1.025142508567791e+00	 5.958221526917139e-01	 2.767281525793033e+00
1	 1.010976850271808e+00	 6.195538115212763e-01	 1.973021686135602e+00
1	 9.962204788309452e-01	 6.430130701533314e-01	 1.165476375505124e+00
1	 9.808810174287035e-01	 6.661782302455649e-01	 3.456965147042010e-01
1	 9.649671389060314e-01	 6.890278671644737e-01	-4.853416185854973e-01
1	 9.484885540162959e-01	 7.115408929401473e-01	-1.326736212989748e+00
1	 9.314559951770458e-01	 7.336966186544741e-01	-2.177658956482747e+00
1	 1.088743215676155e+00	 5.046186294565644e-01	 5.575896064454469e+00
1	 1.076853955552018e+00	 5.295160198478809e-01	 4.867283277711972e+00
1	 1.064346708025067e+00	 5.542270639200044e-01	 4.139795992685698e+00
1	 1.051224910263766e+00	 5.787293294536553e-01	 3.394694100800118e+00
1	 1.037493064342832e+00	 6.030004080745422e-01	 2.633159299063918e+00
1	 1.023156743186568e+00	 6.270179775690913e-01	 1.856292423880308e+00
1	 1.008222592181596e+00	 6.507598650845137e-01	 1.065111620719172e+00
1	 9.926983263528391e-01	 6.742041108644978e-01	 2.605513767470964e-01
1	 9.765927230285766e-01	 6.973290321590903e-01	-5.565375669091597e-01
1	 9.599156099539082e-01	 7.201132869379340e-01	-1.385387417499283e+00
1	 9.426778488467652e-01	 7.425359370301068e-01	-2.225311653041950e+00
1	 1.101703855953616e+00	 5.106257213402688e-01	 5.372163180330293e+00
1	 1.089673063444831e+00	 5.358194957790912e-01	 4.682946087890234e+00
1	 1.077016926874399e+00	 5.608247055909321e-01	 3.973957400249913e+00
1	 1.063738924327598e+00	 5.856186515183933e-01	 3.246433220822496e+00
1	 1.049843611472838e+00	 6.101786584329199e-01	 2.501528408203116e+00
1	 1.035336627575747e+00	 6.344821383923496e-01	 1.740313866938406e+00
1	 1.020224697131097e+00	 6.585066545933308e-01	 9.637747040123926e-01
1	 1.004515627005178e+00	 6.822299858657340e-01	 1.728092795614093e-01
1	 9.882182990135243e-01	 7.056301913433348e-01	-6.317708304264245e-01
1	 9.713426578928895e-01	 7.286856749355066e-01	-1.449239952946937e+00
1	 9.538996946614974e-01	 7.513752492186879e-01	-2.278956523482554e+00
1	 1.114664488671034e+00	 5.166328097199970e-01	 5.175258390371109e+00
1	 1.102492163860158e+00	 5.421229680334391e-01	 4.504304098157540e+00
1	 1.089687138333090e+00	 5.674223434134106e-01	 3.812485064318062e+00
1	 1.076252931091896e+00	 5.925079695645479e-01	 3.101063854732225e+00
1	 1.062194151398654e+00	 6.173569046041871e-01	 2.371226149648320e+00
1	 1.047516504860274e+00	 6.419462948617327e-01	 1.624077715273395e+00
1	 1.032226795079638e+00	 6.662534395834214e-01	 8.606422050432722e-01
1	 1.016332920764344e+00	 6.902558561854591e-01	 8.185982194795449e-02
1	 9.998438682171271e-01	 7.139313456854990e-01	-7.114131370132726e-01
1	 9.827696991663241e-01	 7.372580579327912e-01	-1.518403844028219e+00
1	 9.651215339303795e-01	 7.602145562512814e-01	-2.338421612334247e+00
1	 1.127625115340454e+00	 5.226398952965117e-01	 4.983813190142313e+00
1	 1.115311258293522e+00	 5.484264373462548e-01	 4.330000608305502e+00
1	 1.102357343879284e+00	 5.740199781570746e-01	 3.654070519827829e+00
1	 1.088766932016580e+00	 5.993972843957679e-01	 2.957360610463404e+00
1	 1.074544685561123e+00	 6.245351474256848e-01	 2.241143281831702e+00
1	 1.059696376461081e+00	 6.494104478479209e-01	 1.506622032419277e+00
1	 1.044228887427404e+00	 6.740002209584247e-01	 7.549285674560686e-01
1	 1.028150209008962e+00	 6.982817227598582e-01	-1.287932666899283e-02
1	 1.011469431995637e+00	 7.222324961538733e-01	-7.958191168536604e-01
1	 9.941967351072980e-01	 7.458304369297156e-01	-1.592984049647815e+00
1	 9.763433679625483e-01	 7.690538591589523e-01	-2.403542862701469e+00
1	 1.140585737473918e+00	 5.286469787705758e-01	 4.796521283523087e+00
1	 1.128130348240445e+00	 5.547299044528674e-01	 4.158740589884720e+00
1	 1.115027544991130e+00	 5.806176105915594e-01	 3.497464781181702e+00
1	 1.101280928561567e+00	 6.062865968157012e-01	 2.814153799757672e+00
1	 1.086895215401089e+00	 6.317133877347538e-01	 2.110220987947370e+00
1	 1.071876243799097e+00	 6.568745982215950e-01	 1.387028611596681e+00
1	 1.056230975574584e+00	 6.817469996219793e-01	 6.458839479534189e-01
1	 1.039967493117655e+00	 7.063075865251172e-01	-1.119640207098225e-01
1	 1.023094991705307e+00	 7.305336437167493e-01	-8.853272734369819e-01
1	 1.005623767048896e+00	 7.544028129262060e-01	-1.673080750291625e+00
1	 9.875651980671412e-01	 7.778931589727657e-01	-2.474163667045673e+00
1	 1.153546356583469e+00	 5.346540608429523e-01	 4.612135088160503e+00
1	 1.140949435196451e+00	 5.610333700886062e-01	 3.989287221821609e+00
1	 1.127697743146772e+00	 5.872152414864988e-01	 3.341475001050197e+00
1	 1.113794922186774e+00	 6.131759076279970e-01	 2.670326309109620e+00
1	 1.099245742359396e+00	 6.388916263687342e-01	 1.977448043499803e+00
1	 1.084056108295254e+00	 6.643387468534362e-01	 1.264420519414819e+00
1	 1.068233060921365e+00	 6.894937764777240e-01	 5.327922103914134e-01
1	 1.051784774469049e+00	 7.143334484174210e-01	-2.159251254032009e-01
1	 1.034720548702388e+00	 7.388347893424174e-01	-9.802608890879873e-01
1	 1.017050796324203e+00	 7.629751869221899e-01	-1.758789616023036e+00
1	 9.987870255532937e-01	 7.867324567237854e-01	-2.550134448255469e+00
1	 1.166506974181152e+00	 5.406611422144046e-01	 4.429462473919710e+00
1	 1.153768520657062e+00	 5.673368349888009e-01	 3.820458657020042e+00
1	 1.140367939824356e+00	 5.938128716115278e-01	 3.184961351946640e+00
1	 1.126308914352119e+00	 6.200652176363033e-01	 2.524810679339514e+00
1	 1.111596267876887e+00	 6.460698641649667e-01	 1.841858172703670e+00
1	 1.096235971370482e+00	 6.718028946141243e-01	 1.137959803344842e+00
1	 1.080235144867935e+00	 6.972405524292983e-01	 4.149690536172889e-01
1	 1.063602054441766e+00	 7.223593093729551e-01	-3.252699046075257e-01
1	 1.046346104343134e+00	 7.471359339991690e-01	-1.080928870120705e+00
1	 1.028477824266305e+00	 7.715475599175938e-01	-1.850202056610837e+00
1	 1.010008851730144e+00	 7.955717534430776e-01	-2.631312268648780e+00
1	 8.977903739465982e-01	 7.071786160946152e-01	-2.072502320466439e+00
1	 8.808507781263871e-01	 7.281696857534988e-01	-2.968250374914909e+00
1	 8.634007747364419e-01	 7.487778883035630e-01	-3.868930898269224e+00
1	 8.454535107871739e-01	 7.689847982105142e-01	-4.772267433444471e+00
1	 8.270230131317176e-01	 7.887726023905666e-01	-5.676028165862847e+00
1	 8.081241522539677e-01	 8.081241522539679e-01	-6.578031941577857e+00
1	 7.887726023905661e-01	 8.270230131317177e-01	-7.476153845861023e+00
1	 7.689847982105142e-01	 8.454535107871741e-01	-8.368330311182412e+00
1	 7.487778883035625e-01	 8.634007747364423e-01	-9.252563729051300e+00
1	 7.281696857534985e-01	 8.808507781263871e-01	-1.012692654593753e+01
1	 7.071786160946154e-01	 8.977903739465983e-01	-1.098956482936641e+01
1	 9.090122590360994e-01	 7.160179592177930e-01	-2.101060328026521e+00
1	 8.918609276001876e-01	 7.372714056836830e-01	-2.984454413440994e+00
1	 8.741928087810674e-01	 7.581371994127891e-01	-3.875523787053590e+00
1	 8.560212139195389e-01	 7.785966845617895e-01	-4.771779438588182e+00
1	 8.373603451966737e-01	 7.986318253931607e-01	-5.670723577942815e+00
1	 8.182252589692260e-01	 8.182252589692263e-01	-6.569858048641748e+00
1	 7.986318253931602e-01	 8.373603451966736e-01	-7.466692726272267e+00
1	 7.785966845617891e-01	 8.560212139195389e-01	-8.358753844089232e+00
1	 7.581371994127888e-01	 8.741928087810675e-01	-9.243592188811647e+00
1	 7.372714056836827e-01	 8.918609276001878e-01	-1.011879111113010e+01
1	 7.160179592177931e-01	 9.090122590360992e-01	-1.098197429756869e+01
1	 9.202341323432031e-01	 7.248572930607246e-01	-2.136178769941315e+00
1	 9.028710655139545e-01	 7.463731160581214e-01	-3.008387375467005e+00
1	 8.849848314947354e-01	 7.674965006957747e-01	-3.890345830512121e+00
1	 8.665889059565564e-01	 7.882085608215773e-01	-4.779456010466272e+00
1	 8.476976664082401e-01	 8.084910380445101e-01	-5.673072625502066e+00
1	 8.283263550791978e-01	 8.283263550791981e-01	-6.568513127111105e+00
1	 8.084910380445095e-01	 8.476976664082403e-01	-7.463067904852472e+00
1	 7.882085608215771e-01	 8.665889059565568e-01	-8.354010698244045e+00
1	 7.674965006957744e-01	 8.849848314947356e-01	-9.238609146174158e+00
1	 7.463731160581211e-01	 9.028710655139547e-01	-1.011413539460622e+01
1	 7.248572930607247e-01	 9.202341323432032e-01	-1.097787668271252e+01
1	 9.314559951770458e-01	 7.336966186544741e-01	-2.177658956482747e+00
1	 9.138811931521120e-01	 7.554748179384909e-01	-3.039557923935879e+00
1	 8.957768441364098e-01	 7.768557932442529e-01	-3.912698219996672e+00
1	 8.771565881310048e-01	 7.978204281110890e-01	-4.794472035205319e+00
1	 8.580349779723025e-01	 8.183502414946923e-01	-5.682200681553558e+00
1	 8.384274417621956e-01	 8.384274417621959e-01	-6.573145108798764e+00
1	 8.183502414946922e-01	 8.580349779723029e-01	-7.464516899183683e+00
1	 7.978204281110886e-01	 8.771565881310051e-01	-8.353489657559638e+00
1	 7.768557932442528e-01	 8.957768441364100e-01	-9.237210709256415e+00
1	 7.554748179384908e-01	 9.138811931521124e-01	-1.011281301446746e+01
1	 7.336966186544741e-01	 9.314559951770459e-01	-1.097742720549719e+01
1	 9.426778488467652e-01	 7.425359370301068e-01	-2.225311653041950e+00
1	 9.248913117990835e-01	 7.645765123864678e-01	-3.077498112510451e+00
1	 9.065688479650544e-01	 7.862150781499597e-01	-3.941915417554278e+00
1	 8.877242616756615e-01	 8.074322875515353e-01	-4.816041684841434e+00
1	 8.683722810947471e-01	 8.282094368937868e-01	-5.697274763703517e+00
1	 8.485285201965314e-01	 8.485285201965317e-01	-6.582942496962867e+00
1	 8.282094368937866e-01	 8.683722810947477e-01	-7.470313533467393e+00
1	 8.074322875515352e-01	 8.877242616756618e-01	-8.356608610569209e+00
1	 7.862150781499594e-01	 9.065688479650545e-01	-9.239012219278326e+00
1	 7.645765123864676e-01	 9.248913117990837e-01	-1.011468456040707e+01
1	 7.425359370301071e-01	 9.426778488467653e-01	-1.098077369675955e+01
1	 9.538996946614974e-01	 7.513752492186879e-01	-2.278956523482554e+00
1	 9.359014227392927e-01	 7.736782004637299e-01	-3.121762009205979e+00
1	 9.173608442396334e-01	 7.955743565046290e-01	-3.977363198422381e+00
1	 8.982919278233042e-01	 8.170441402641271e-01	-4.843416106029615e+00
1	 8.787095769814606e-01	 8.380686253918720e-01	-5.717501084174929e+00
1	 8.586295915605159e-01	 8.586295915605164e-01	-6.597131979519271e+00
1	 8.380686253918719e-01	 8.787095769814610e-01	-7.479765802670779e+00
1	 8.170441402641268e-01	 8.982919278233045e-01	-8.362812838272843e+00
1	 7.955743565046286e-01	 9.173608442396336e-01	-9.243647119125708e+00
1	 7.736782004637297e-01	 9.359014227392930e-01	-1.011961718355786e+01
1	 7.513752492186877e-01	 9.538996946614970e-01	-1.098805703210504e+01
1	 9.651215339303795e-01	 7.602145562512814e-01	-2.338421612334247e+00
1	 9.469115272571633e-01	 7.827798832319531e-01	-3.171924416059899e+00
1	 9.281528342191102e-01	 8.049336293999959e-01	-4.018436830110319e+00
1	 9.088595878067111e-01	 8.266559873700755e-01	-4.875881270025608e+00
1	 8.890468668383286e-01	 8.479278081390260e-01	-5.742122770778825e+00
1	 8.687306570324631e-01	 8.687306570324635e-01	-6.614976208793744e+00
1	 8.479278081390258e-01	 8.890468668383289e-01	-7.492213885702973e+00
1	 8.266559873700748e-01	 9.088595878067113e-01	-8.371573421450858e+00
1	 8.049336293999955e-01	 9.281528342191108e-01	-9.250765900861193e+00
1	 7.827798832319527e-01	 9.469115272571639e-01	-1.012748421495946e+01
1	 7.602145562512813e-01	 9.651215339303794e-01	-1.099941153621254e+01
1	 9.763433679625483e-01	 7.690538591589523e-01	-2.403542862701469e+00
1	 9.579216266371187e-01	 7.918815617528144e-01	-3.227579677110560e+00
1	 9.389448191624499e-01	 8.142928979277946e-01	-4.064559377076422e+00
1	 9.194272428586596e-01	 8.362678299905909e-01	-4.912755970962318e+00
1	 8.993841518712374e-01	 8.577869862853280e-01	-5.770417745079571e+00
1	 8.788317177906830e-01	 8.788317177906835e-01	-6.635771734412906e+00
1	 8.577869862853276e-01	 8.993841518712375e-01	-7.507028295629991e+00
1	 8.362678299905906e-01	 9.194272428586597e-01	-8.382385757830265e+00
1	 8.142928979277942e-01	 9.389448191624503e-01	-9.260035125828468e+00
1	 7.918815617528140e-01	 9.579216266371190e-01	-1.013816481034082e+01
1	 7.690538591589523e-01	 9.763433679625483e-01	-1.101496535925249e+01
1	 9.875651980671412e-01	 7.778931589727657e-01	-2.474163667045673e+00
1	 9.689317221635829e-01	 8.009832370879902e-01	-3.288340567659628e+00
1	 9.497368003286156e-01	 8.236521631797603e-01	-4.115180121008302e+00
1	 9.299948942119269e-01	 8.458796692468847e-01	-4.953389960622879e+00
1	 9.097214332860737e-01	 8.676461609808563e-01	-5.801696745246557e+00
1	 8.889327750134892e-01	 8.889327750134896e-01	-6.658847077150192e+00
1	 8.676461609808558e-01	 9.097214332860740e-01	-7.523608156026235e+00
1	 8.458796692468844e-01	 9.299948942119275e-01	-8.394768180365539e+00
1	 8.236521631797599e-01	 9.497368003286158e-01	-9.271136511575834e+00
1	 8.009832370879897e-01	 9.689317221635830e-01	-1.015154361912488e+01
1	 7.778931589727656e-01	 9.875651980671409e-01	-1.103484082763713e+01
1	 9.987870255532937e-01	 7.867324567237854e-01	-2.550134448255469e+00
1	 9.799418151209793e-01	 8.100849102991579e-01	-3.353837258424085e+00
1	 9.605287789765713e-01	 8.330114262476276e-01	-4.169773087613749e+00
1	 9.405625430992914e-01	 8.554915062601673e-01	-4.997162208974101e+00
1	 9.200587122887236e-01	 8.775053333756896e-01	-5.835301482212443e+00
1	 8.990338298791927e-01	 8.990338298791930e-01	-6.683560932640375e+00
1	 8.775053333756889e-01	 9.200587122887238e-01	-7.541379593540016e+00
1	 8.554915062601672e-01	 9.405625430992921e-01	-8.408260668679425e+00
1	 8.330114262476271e-01	 9.605287789765714e-01	-9.283766080342225e+00
1	 8.100849102991573e-01	 9.799418151209796e-01	-1.016751047575038e+01
1	 7.867324567237856e-01	 9.987870255532937e-01	-1.105915477112197e+01
1	 1.010008851730144e+00	 7.955717534430776e-01	-2.631312268648780e+00
1	 9.909519067937320e-01	 8.191865824479939e-01	-3.423716348752874e+00
1	 9.713207563652808e-01	 8.423706882231309e-01	-4.227835671636362e+00
1	 9.511301907535311e-01	 8.651033421516505e-01	-5.043479280677309e+00
1	 9.303959900850729e-01	 8.873645046199061e-01	-5.870602918768493e+00
1	 9.091348835661056e-01	 9.091348835661061e-01	-6.709300494859882e+00
1	 8.873645046199057e-01	 9.303959900850729e-01	-7.559794237633739e+00
1	 8.651033421516500e-01	 9.511301907535311e-01	-8.422423646417535e+00
1	 8.423706882231307e-01	 9.713207563652815e-01	-9.297633364317512e+00
1	 8.191865824479935e-01	 9.909519067937324e-01	-1.018596011157429e+01
1	 7.955717534430776e-01	 1.010008851730144e+00	-1.108801882809845e+01
1	 7.071786160946154e-01	 8.977903739465983e-01	-1.098956482936641e+01
1	 6.858236649462317e-01	 9.142073248808196e-01	-1.183666758065683e+01
1	 6.641243276354835e-01	 9.300903241502866e-01	-1.266490177003775e+01
1	 6.421005453207319e-01	 9.454290272392751e-01	-1.347330554279410e+01
1	 6.197726437892049e-01	 9.602140743702273e-01	-1.426107303976632e+01
1	 5.971612733236877e-01	 9.744371061647262e-01	-1.502755177769311e+01
1	 5.742873480231185e-01	 9.880907749640297e-01	-1.577223901656935e+01
1	 5.511719849358999e-01	 1.001168751814751e+00	-1.649477717911428e+01
1	 5.278364433591108e-01	 1.013665729158402e+00	-1.719494839582448e+01
1	 5.043020646478351e-01	 1.025577419295452e+00	-1.787266825619412e+01
1	 4.805902128667193e-01	 1.036900548725006e+00	-1.852797885246628e+01
1	 7.160179592177931e-01	 9.090122590360992e-01	-1.098197429756869e+01
1	 6.943960829442232e-01	 9.256344128128371e-01	-1.182926459902893e+01
1	 6.724255158709611e-01	 9.417159408231384e-01	-1.265794463357355e+01
1	 6.501264484098671e-01	 9.572463692505462e-01	-1.346756053284999e+01
1	 6.275194604093159e-01	 9.722162213254483e-01	-1.425785041049743e+01
1	 6.046254602692551e-01	 9.866170331818170e-01	-1.502873657101212e+01
1	 5.814656235033423e-01	 1.000441365319234e+00	-1.578031653271910e+01
1	 5.580613311114559e-01	 1.013682809675893e+00	-1.651285298496602e+01
1	 5.344341081201810e-01	 1.026335992351761e+00	-1.722676280813643e+01
1	 5.106055626397861e-01	 1.038396572053436e+00	-1.792260529153283e+01
1	 4.865973257739606e-01	 1.049861234363075e+00	-1.860106968857228e+01
1	 7.248572930607247e-01	 9.202341323432032e-01	-1.097787668271252e+01
1	 7.029684919422190e-01	 9.370614887469674e-01	-1.182618538921633e+01
1	 6.807266953911937e-01	 9.533415452896362e-01	-1.265698632768684e+01
1	 6.581523430727497e-01	 9.690636988541473e-01	-1.347010679026035e+01
1	 6.352662688961452e-01	 9.842183556789591e-01	-1.426558478063765e+01
1	 6.120896393782242e-01	 9.987969474105339e-01	-1.504365828140438e+01
1	 5.886438914470936e-01	 1.012791942706873e+00	-1.580475324474383e+01
1	 5.649506700538351e-01	 1.026196854397832e+00	-1.654947045803006e+01
1	 5.410317659542635e-01	 1.039006242241895e+00	-1.727857144425683e+01
1	 5.169090540135576e-01	 1.051215711351843e+00	-1.799296356326650e+01
1	 4.926044323741732e-01	 1.062821906392927e+00	-1.869368448327830e+01
1	 7.336966186544741e-01	 9.314559951770459e-01	-1.097742720549719e+01
1	 7.115408929401470e-01	 9.484885540162963e-01	-1.182784737228934e+01
1	 6.890278671644734e-01	 9.649671389060314e-01	-1.266259331874637e+01
1	 6.661782302455646e-01	 9.808810174287038e-01	-1.348155536539442e+01
1	 6.430130701533312e-01	 9.962204788309453e-01	-1.428483641051996e+01
1	 6.195538115212760e-01	 1.010976850271808e+00	-1.507274043937538e+01
1	 5.958221526917136e-01	 1.025142508567791e+00	-1.584575974681856e+01
1	 5.718400025666852e-01	 1.038710887440483e+00	-1.660456103300938e+01
1	 5.476294176309930e-01	 1.051676480306948e+00	-1.734997054012641e+01
1	 5.232125395044795e-01	 1.064034838686197e+00	-1.808295840384026e+01
1	 4.986115333681203e-01	 1.075782566326606e+00	-1.880462239647492e+01
1	 7.425359370301071e-01	 9.426778488467653e-01	-1.098077369675955e+01
1	 7.201132869379336e-01	 9.599156099539083e-01	-1.183464809377437e+01
1	 6.973290321590896e-01	 9.765927230285767e-01	-1.267530509963057e+01
1	 6.742041108644973e-01	 9.926983263528394e-01	-1.350248821106052e+01
1	 6.507598650845134e-01	 1.008222592181596e+00	-1.431613888013456e+01
1	 6.270179775690907e-01	 1.023156743186568e+00	-1.511638640449329e+01
1	 6.030004080745418e-01	 1.037493064342832e+00	-1.590353660043944e+01
1	 5.787293294536551e-01	 1.051224910263766e+00	-1.667805940380280e+01
1	 5.542270639200043e-01	 1.064346708025068e+00	-1.744057555159376e+01
1	 5.295160198478805e-01	 1.076853955552018e+00	-1.819184250320358e+01
1	 5.046186294565644e-01	 1.088743215676154e+00	-1.893273976327149e+01
1	 7.513752492186877e-01	 9.538996946614970e-01	-1.098805703210504e+01
1	 7.286856749355062e-01	 9.713426578928899e-01	-1.184696639269777e+01
1	 7.056301913433345e-01	 9.882182990135246e-01	-1.269563577623318e+01
1	 6.822299858657339e-01	 1.004515627005178e+00	-1.353345989387623e+01
1	 6.585066545933304e-01	 1.020224697131098e+00	-1.436000065822219e+01
1	 6.344821383923491e-01	 1.035336627575747e+00	-1.517498055149189e+01
1	 6.101786584329194e-01	 1.049843611472838e+00	-1.597827492408780e+01
1	 5.856186515183930e-01	 1.063738924327598e+00	-1.676990333124695e+01
1	 5.608247055909317e-01	 1.077016926874399e+00	-1.755002002327911e+01
1	 5.358194957790905e-01	 1.089673063444831e+00	-1.831890371078930e+01
1	 5.106257213402690e-01	 1.101703855953616e+00	-1.907694673031828e+01
1	 7.602145562512813e-01	 9.651215339303794e-01	-1.099941153621254e+01
1	 7.372580579327910e-01	 9.827696991663243e-01	-1.186516348905789e+01
1	 7.139313456854985e-01	 9.998438682171275e-01	-1.272407554326894e+01
1	 6.902558561854589e-01	 1.016332920764344e+00	-1.357499918622679e+01
1	 6.662534395834212e-01	 1.032226795079638e+00	-1.441690656188397e+01
1	 6.419462948617320e-01	 1.047516504860274e+00	-1.524888937361292e+01
1	 6.173569046041869e-01	 1.062194151398654e+00	-1.607015694174912e+01
1	 5.925079695645477e-01	 1.076252931091897e+00	-1.688003346427170e+01
1	 5.674223434134104e-01	 1.089687138333090e+00	-1.767795453636276e+01
1	 5.421229680334386e-01	 1.102492163860158e+00	-1.846346299086160e+01
1	 5.166328097199971e-01	 1.114664488671035e+00	-1.923620412683183e+01
1	 7.690538591589523e-01	 9.763433679625483e-01	-1.101496535925249e+01
1	 7.458304369297151e-01	 9.941967351072982e-01	-1.188958399629140e+01
1	 7.222324961538731e-01	 1.011469431995637e+00	-1.276109205828803e+01
1	 6.982817227598579e-01	 1.028150209008962e+00	-1.362761054842066e+01
1	 6.740002209584242e-01	 1.044228887427404e+00	-1.448731911551543e+01
1	 6.494104478479207e-01	 1.059696376461081e+00	-1.533846250984615e+01
1	 6.245351474256845e-01	 1.074544685561123e+00	-1.617935649359976e+01
1	 5.993972843957676e-01	 1.088766932016580e+00	-1.700839317339286e+01
1	 5.740199781570746e-01	 1.102357343879285e+00	-1.782404572894952e+01
1	 5.484264373462544e-01	 1.115311258293522e+00	-1.862487251889056e+01
1	 5.226398952965116e-01	 1.127625115340454e+00	-1.940952055143658e+01
1	 7.778931589727656e-01	 9.875651980671409e-01	-1.103484082763713e+01
1	 7.544028129262057e-01	 1.005623767048896e+00	-1.192055686469902e+01
1	 7.305336437167487e-01	 1.023094991705307e+00	-1.280713172199667e+01
1	 7.063075865251167e-01	 1.039967493117656e+00	-1.369177550977631e+01
1	 6.817469996219788e-01	 1.056230975574584e+00	-1.457167981707636e+01
1	 6.568745982215948e-01	 1.071876243799097e+00	-1.544403370212285e+01
1	 6.317133877347535e-01	 1.086895215401090e+00	-1.630603951186893e+01
1	 6.062865968157010e-01	 1.101280928561567e+00	-1.715492839555722e+01
1	 5.806176105915590e-01	 1.115027544991130e+00	-1.798797538323355e+01
1	 5.547299044528670e-01	 1.128130348240445e+00	-1.880251390773501e+01
1	 5.286469787705758e-01	 1.140585737473918e+00	-1.959594965765491e+01
1	 7.867324567237856e-01	 9.987870255532937e-01	-1.105915477112197e+01
1	 7.629751869221895e-01	 1.017050796324203e+00	-1.195839626126235e+01
1	 7.388347893424171e-01	 1.034720548702388e+00	-1.286262087225420e+01
1	 7.143334484174205e-01	 1.051784774469049e+00	-1.376795395659270e+01
1	 6.894937764777238e-01	 1.068233060921365e+00	-1.467041031898334e+01
1	 6.643387468534357e-01	 1.084056108295254e+00	-1.556592168797179e+01
1	 6.388916263687338e-01	 1.099245742359396e+00	-1.645036446461755e+01
1	 6.131759076279966e-01	 1.113794922186774e+00	-1.731958748944998e+01
1	 5.872152414864982e-01	 1.127697743146772e+00	-1.816943957420986e+01
1	 5.610333700886059e-01	 1.140949435196451e+00	-1.899579655342148e+01
1	 5.346540608429523e-01	 1.153546356583469e+00	-1.979458762241774e+01
1	 7.955717534430776e-01	 1.010008851730144e+00	-1.108801882809845e+01
1	 7.715475599175932e-01	 1.028477824266305e+00	-1.200340239079967e+01
1	 7.471359339991688e-01	 1.046346104343135e+00	-1.292796689846087e+01
1	 7.223593093729547e-01	 1.063602054441766e+00	-1.385658533424434e+01
1	 6.972405524292978e-01	 1.080235144867935e+00	-1.478391353026809e+01
1	 6.718028946141240e-01	 1.096235971370482e+00	-1.570443103365782e+01
1	 6.460698641649665e-01	 1.111596267876887e+00	-1.661248276992767e+01
1	 6.200652176363031e-01	 1.126308914352119e+00	-1.750232110044893e+01
1	 5.938128716115273e-01	 1.140367939824357e+00	-1.836814787514509e+01
1	 5.673368349888005e-01	 1.153768520657062e+00	-1.920415609121815e+01
1	 5.406611422144048e-01	 1.166506974181152e+00	-2.000457078336084e+01
1	 4.805902128667193e-01	 1.036900548725006e+00	-1.852797885246629e+01
1	 4.567238912185655e-01	 1.047632119033528e+00	-1.916163620098637e+01
1	 4.327226724432352e-01	 1.057771671128007e+00	-1.977309569551165e+01
1	 4.086076349933627e-01	 1.067318907274511e+00	-2.036047147371947e+01
1	 3.843996573223180e-01	 1.076274482631064e+00	-2.092197634449601e+01
1	 3.601193671492018e-01	 1.084639981399606e+00	-2.145593121186442e+01
1	 3.357870931611622e-01	 1.092417889981094e+00	-2.196077347917462e+01
1	 3.114228193362970e-01	 1.099611567383429e+00	-2.243506439658708e+01
1	 2.870461420440134e-01	 1.106225213142014e+00	-2.287749532757771e+01
1	 2.626762300530535e-01	 1.112263833020041e+00	-2.328689292258258e+01
1	 2.383317875507918e-01	 1.117733202760072e+00	-2.366222319980964e+01
1	 4.865973257739606e-01	 1.049861234363075e+00	-1.860106968857228e+01
1	 4.624326882528714e-01	 1.060726943388633e+00	-1.926297664736670e+01
1	 4.381314674648409e-01	 1.070993234298677e+00	-1.990676925601199e+01
1	 4.137150053315431e-01	 1.080659805637752e+00	-2.052955446416595e+01
1	 3.892044412755069e-01	 1.089727320752985e+00	-2.112850180642520e+01
1	 3.646206608509516e-01	 1.098197383647950e+00	-2.170086239776758e+01
1	 3.399842468424103e-01	 1.106072511802235e+00	-2.224398674339873e+01
1	 3.153154330166913e-01	 1.113356106209476e+00	-2.275534124725451e+01
1	 2.906340606870190e-01	 1.120052418896942e+00	-2.323252332252789e+01
1	 2.659595382211789e-01	 1.126166518197095e+00	-2.367327502699350e+01
1	 2.413108035985782e-01	 1.131704252046085e+00	-2.407549516529091e+01
1	 4.926044323741732e-01	 1.062821906392927e+00	-1.869368448327830e+01
1	 4.681414792933423e-01	 1.073821753994628e+00	-1.938123252819516e+01
1	 4.435402568075893e-01	 1.084214783587100e+00	-2.005303854783270e+01
1	 4.188223703073470e-01	 1.094000689993370e+00	-2.070549318278534e+01
1	 3.940092201840263e-01	 1.103180144749659e+00	-2.133502434691771e+01
1	 3.691219498266916e-01	 1.111754771661164e+00	-2.193812319164618e+01
1	 3.441813961169894e-01	 1.119727119286067e+00	-2.251136875752697e+01
1	 3.192080426101743e-01	 1.127100630603701e+00	-2.305145114001140e+01
1	 2.942219755630262e-01	 1.133879610133147e+00	-2.355519302010126e+01
1	 2.692428429421198e-01	 1.140069188776074e+00	-2.401956943522495e+01
1	 2.442898165186467e-01	 1.145675286662146e+00	-2.444172569055914e+01
1	 4.986115333681203e-01	 1.075782566326606e+00	-1.880462239647492e+01
1	 4.738502650059467e-01	 1.086916552379217e+00	-1.951482813968827e+01
1	 4.489490411024551e-01	 1.097436320535780e+00	-2.021005664590169e+01
1	 4.239297305165890e-01	 1.107341561897807e+00	-2.088626215654665e+01
1	 3.988139946083938e-01	 1.116632956190609e+00	-2.153942145997049e+01
1	 3.736232346015355e-01	 1.125312147020986e+00	-2.216556427607832e+01
1	 3.483785414745348e-01	 1.133381714025693e+00	-2.276080223896759e+01
1	 3.231006485708565e-01	 1.140845142169716e+00	-2.332135626805005e+01
1	 2.978098870906050e-01	 1.147706788463904e+00	-2.384358214513546e+01
1	 2.725261445989179e-01	 1.153971846379076e+00	-2.432399414292934e+01
1	 2.472688266585503e-01	 1.159646308238343e+00	-2.475928657888640e+01
1	 5.046186294565644e-01	 1.088743215676154e+00	-1.893273976327149e+01
1	 4.795590460566536e-01	 1.100011340070106e+00	-1.966226280480369e+01
1	 4.543578209804141e-01	 1.110657846687220e+00	-2.037606456900316e+01
1	 4.290370865550832e-01	 1.120682422907506e+00	-2.106993236116594e+01
1	 4.036187651091259e-01	 1.130085756645355e+00	-2.173967171218853e+01
1	 3.781245157005970e-01	 1.138869511309155e+00	-2.238113868670117e+01
1	 3.525756834046820e-01	 1.147036297614210e+00	-2.299027073674601e+01
1	 3.269932513528492e-01	 1.154589642511129e+00	-2.356311587578770e+01
1	 3.013977956883261e-01	 1.161533955502484e+00	-2.409585997633156e+01
1	 2.758094435746151e-01	 1.167874492628195e+00	-2.458485202401592e+01
1	 2.502478343658426e-01	 1.173617318404765e+00	-2.502662719123122e+01
1	 5.106257213402690e-01	 1.101703855953616e+00	-1.907694673031827e+01
1	 4.852678231114312e-01	 1.113106118594997e+00	-1.982210645962851e+01
1	 4.597665970724414e-01	 1.123879363583928e+00	-2.054938610654832e+01
1	 4.341444390186440e-01	 1.134023274578911e+00	-2.125466554785096e+01
1	 4.084235322467397e-01	 1.143538547683417e+00	-2.193384879783358e+01
1	 3.826257936489901e-01	 1.152426866107410e+00	-2.258289579226020e+01
1	 3.567728223970658e-01	 1.160690871644718e+00	-2.319785270138460e+01
1	 3.308858514102634e-01	 1.168334133231548e+00	-2.377488055145878e+01
1	 3.049857017747594e-01	 1.175361112862159e+00	-2.431028196254645e+01
1	 2.790927402522533e-01	 1.181777129145528e+00	-2.480052583993011e+01
1	 2.532268399880767e-01	 1.187588318791500e+00	-2.524226988641134e+01
1	 5.166328097199971e-01	 1.114664488671035e+00	-1.923620412683183e+01
1	 4.909765968362486e-01	 1.126200889481598e+00	-1.999299554773070e+01
1	 4.651753700095125e-01	 1.137100872768407e+00	-2.072842300631268e+01
1	 4.392517885030857e-01	 1.147364118468464e+00	-2.143870896590023e+01
1	 4.132282965817521e-01	 1.156991330874316e+00	-2.212011600868592e+01
1	 3.871270689718284e-01	 1.165984212997487e+00	-2.276897569470479e+01
1	 3.609699589413218e-01	 1.174345437710318e+00	-2.338171596856186e+01
1	 3.347784491972099e-01	 1.182078615934583e+00	-2.395488691794576e+01
1	 3.085736057684756e-01	 1.189188262156202e+00	-2.448518471473810e+01
1	 2.823760350148741e-01	 1.195679757553171e+00	-2.496947359716461e+01
1	 2.562058438728059e-01	 1.201559311028636e+00	-2.540480577944184e+01
1	 5.226398952965116e-01	 1.127625115340454e+00	-1.940952055143659e+01
1	 4.966853678970744e-01	 1.139295654257610e+00	-2.017362919769136e+01
1	 4.705841404226027e-01	 1.150322375783162e+00	-2.091165049409211e+01
1	 4.443591356042228e-01	 1.160704956132610e+00	-2.162039044930373e+01
1	 4.180330586746799e-01	 1.170444107787572e+00	-2.229672108533981e+01
1	 3.916283421942255e-01	 1.179541553561126e+00	-2.293760401552909e+01
1	 3.651670935270849e-01	 1.187999997404108e+00	-2.354011262325286e+01
1	 3.386710451677995e-01	 1.195823092223842e+00	-2.410145268980332e+01
1	 3.121615080880449e-01	 1.203015404997883e+00	-2.461898134333346e+01
1	 2.856593282455197e-01	 1.209582379473220e+00	-2.509022422497981e+01
1	 2.591848463675838e-01	 1.215530296746261e+00	-2.551289079243519e+01
1	 5.286469787705758e-01	 1.140585737473918e+00	-1.959594965765491e+01
1	 5.023941369598772e-01	 1.152390414450741e+00	-2.036276566129078e+01
1	 4.759929089426871e-01	 1.163543874170699e+00	-2.109761309887265e+01
1	 4.494664809178697e-01	 1.174045789127792e+00	-2.179811383838715e+01
1	 4.228378190860402e-01	 1.183896879992705e+00	-2.246199141958754e+01
1	 3.961296138412954e-01	 1.193098889380064e+00	-2.308708703763190e+01
1	 3.693642266439901e-01	 1.201654552319188e+00	-2.367137421408289e+01
1	 3.425636397761436e-01	 1.209567563702935e+00	-2.421297206734098e+01
1	 3.157494091520378e-01	 1.216842543000477e+00	-2.471015711354077e+01
1	 2.889426203272316e-01	 1.223484996527770e+00	-2.516137354785787e+01
1	 2.621638478199633e-01	 1.229501277574464e+00	-2.556524197478970e+01
1	 5.346540608429523e-01	 1.153546356583469e+00	-1.979458762241774e+01
1	 5.081029046906258e-01	 1.165485171588693e+00	-2.055921899184357e+01
1	 4.814016762007410e-01	 1.176765369473521e+00	-2.128492075948144e+01
1	 4.545738250398405e-01	 1.187386619010453e+00	-2.197035471014490e+01
1	 4.276425783763496e-01	 1.197349649059237e+00	-2.261432958027578e+01
1	 4.006308844381519e-01	 1.206656222036041e+00	-2.321580717472819e+01
1	 3.735613587816729e-01	 1.215309104048657e+00	-2.377390729034559e+01
1	 3.464562334763529e-01	 1.223312031975472e+00	-2.428791144125459e+01
1	 3.193373093790243e-01	 1.230669677777255e+00	-2.475726539359507e+01
1	 2.922259116430516e-01	 1.237387610338918e+00	-2.518158052950962e+01
1	 2.651428485774981e-01	 1.243472255143333e+00	-2.556063407148391e+01
1	 5.406611422144048e-01	 1.166506974181152e+00	-2.000457078336084e+01
1	 5.138116717552891e-01	 1.178579927199173e+00	-2.076185594400373e+01
1	 4.868104428277401e-01	 1.189986863234134e+00	-2.147224519082387e+01
1	 4.596811685659499e-01	 1.200727447337036e+00	-2.213565639324893e+01
1	 4.324473371061253e-01	 1.210802416556687e+00	-2.275220913747138e+01
1	 4.051321545099085e-01	 1.220213553110794e+00	-2.332221874283399e+01
1	 3.777584904297684e-01	 1.228963654185617e+00	-2.384618923658731e+01
1	 3.503488267225386e-01	 1.237056498645061e+00	-2.432480538364640e+01
1	 3.229252091875749e-01	 1.244496810941490e+00	-2.475892387315145e+01
1	 2.955092025760218e-01	 1.251290222528759e+00	-2.514956376730815e+01
1	 2.681218489877413e-01	 1.257443231082956e+00	-2.549789632017660e+01
1	 2.383317875507918e-01	 1.117733202760072e+00	-2.366222319980964e+01
1	 2.140293252500230e-01	 1.122640154174940e+00	-2.400286601749448e+01
1	 1.897882490973285e-01	 1.126991486982686e+00	-2.430901564212453e+01
1	 1.656257055747226e-01	 1.130795056249892e+00	-2.458115608025960e+01
1	 1.415582582628250e-01	 1.134059328212202e+00	-2.481991797198046e+01
1	 1.176018665813229e-01	 1.136793338266780e+00	-2.502607015406293e+01
1	 9.377186765109050e-02	 1.139006648600664e+00	-2.520051075605439e+01
1	 7.008296121854513e-02	 1.140709305690971e+00	-2.534425792363812e+01
1	 4.654919756532504e-02	 1.141911797900406e+00	-2.545844026130250e+01
1	 2.318396831066902e-02	 1.142625013377961e+00	-2.554428708307309e+01
1	 0.000000000000000e+00	 1.142860198460186e+00	-2.560311855602176e+01
1	 2.413108035985782e-01	 1.131704252046085e+00	-2.407549516529091e+01
1	 2.167045739068282e-01	 1.136672537650634e+00	-2.443796765797677e+01
1	 1.921604976561824e-01	 1.141078259721515e+00	-2.476141684955540e+01
1	 1.676959356502720e-01	 1.144929371509319e+00	-2.504696782510515e+01
1	 1.433276585053855e-01	 1.148234445072978e+00	-2.529588415087269e+01
1	 1.190718251251994e-01	 1.151002628747150e+00	-2.550955525186585e+01
1	 9.494396433618364e-02	 1.153243604240947e+00	-2.568948365843365e+01
1	 7.095895962352035e-02	 1.154967543606920e+00	-2.583727222791388e+01
1	 4.713103688965951e-02	 1.156185066306537e+00	-2.595461144073745e+01
1	 2.347375514173319e-02	 1.156907196584657e+00	-2.604326686302299e+01
1	 0.000000000000000e+00	 1.157145321350848e+00	-2.610506685983437e+01
1	 2.442898165186467e-01	 1.145675286662146e+00	-2.444172569055914e+01
1	 2.193798197548161e-01	 1.150704906391885e+00	-2.482012354367014e+01
1	 1.945327437243048e-01	 1.155165017668707e+00	-2.515601833145545e+01
1	 1.697661635521415e-01	 1.159063671927113e+00	-2.545107413512984e+01
1	 1.450970568900728e-01	 1.162409547049214e+00	-2.570708463235155e+01
1	 1.205417821255609e-01	 1.165211904307037e+00	-2.592595699320539e+01
1	 9.611605979047631e-02	 1.167480544931648e+00	-2.610969594044371e+01
1	 7.183495710857847e-02	 1.169225766550903e+00	-2.626038808884261e+01
1	 4.771287560295031e-02	 1.170458319724889e+00	-2.638018666814034e+01
1	 2.376354166844671e-02	 1.171189364794196e+00	-2.647129672319659e+01
1	 0.000000000000000e+00	 1.171430429241259e+00	-2.653596087391703e+01
1	 2.472688266585503e-01	 1.159646308238343e+00	-2.475928657888640e+01
1	 2.220550631061160e-01	 1.164737262035951e+00	-2.514784956749916e+01
1	 1.969049875784914e-01	 1.169251762467882e+00	-2.549145700829488e+01
1	 1.718363895219076e-01	 1.173197959152453e+00	-2.579221368676536e+01
1	 1.468664536233803e-01	 1.176584635794853e+00	-2.605234433189451e+01
1	 1.220117377539760e-01	 1.179421166604382e+00	-2.627417472052924e+01
1	 9.728815415079008e-02	 1.181717472333943e+00	-2.646011320141007e+01
1	 7.271095377599250e-02	 1.183483976186580e+00	-2.661263275960671e+01
1	 4.829471377313882e-02	 1.184731559820883e+00	-2.673425372864958e+01
1	 2.405332792465427e-02	 1.185471519673041e+00	-2.682752724394097e+01
1	 0.000000000000000e+00	 1.185715523798227e+00	-2.689501951728895e+01
1	 2.502478343658426e-01	 1.173617318404765e+00	-2.502662719123121e+01
1	 2.247303042728567e-01	 1.178769606220092e+00	-2.541973232175425e+01
1	 1.992772294955377e-01	 1.183338495762656e+00	-2.576643473924893e+01
1	 1.739066138011467e-01	 1.187332234834512e+00	-2.606918525169072e+01
1	 1.486358489118018e-01	 1.190759712963842e+00	-2.633054415521862e+01
1	 1.234816921820129e-01	 1.193630417297124e+00	-2.655316022359028e+01
1	 9.846024755394656e-02	 1.195954388109006e+00	-2.673975033371692e+01
1	 7.358694972803545e-02	 1.197742174177615e+00	-2.689307985107250e+01
1	 4.887655146816643e-02	 1.199004788259937e+00	-2.701594388285874e+01
1	 2.434311394420056e-02	 1.199753662887651e+00	-2.711114949082016e+01
1	 0.000000000000000e+00	 1.200000606688556e+00	-2.718149893977865e+01
1	 2.532268399880767e-01	 1.187588318791500e+00	-2.524226988641134e+01
1	 2.274055435671674e-01	 1.192801940581567e+00	-2.563442494192336e+01
1	 2.016494697522397e-01	 1.197425219196647e+00	-2.597971450508144e+01
1	 1.759768366314353e-01	 1.201466500622466e+00	-2.628084416477510e+01
1	 1.504052429618307e-01	 1.204934780210126e+00	-2.654061770781218e+01
1	 1.249516455812398e-01	 1.207839658043205e+00	-2.676191465747285e+01
1	 9.963234013676746e-02	 1.210191293918011e+00	-2.694766862643763e+01
1	 7.446294506698030e-02	 1.212000362187670e+00	-2.710084660812579e+01
1	 4.945838875597452e-02	 1.213278006707471e+00	-2.722442931271131e+01
1	 2.463289976093031e-02	 1.214035796104490e+00	-2.732139263640528e+01
1	 0.000000000000000e+00	 1.214285679579051e+00	-2.739469033523597e+01
1	 2.562058438728059e-01	 1.201559311028636e+00	-2.540480577944185e+01
1	 2.300807813011770e-01	 1.206834266757633e+00	-2.579064324052446e+01
1	 2.040217086253929e-01	 1.211511934413471e+00	-2.613011685737000e+01
1	 1.780470582543499e-01	 1.215600758165490e+00	-2.642609903847368e+01
1	 1.521746359799605e-01	 1.219109839187650e+00	-2.668154823406088e+01
1	 1.264215981232255e-01	 1.222048890500565e+00	-2.689948567566511e+01
1	 1.008044320360744e-01	 1.224428191422134e+00	-2.708297307106037e+01
1	 7.533893989510013e-02	 1.226258541880407e+00	-2.723509137605226e+01
1	 5.004022570450450e-02	 1.227551216828906e+00	-2.735892074560885e+01
1	 2.492268540868820e-02	 1.228317920990019e+00	-2.745752174800587e+01
1	 0.000000000000000e+00	 1.228570744136519e+00	-2.753391790732860e+01
1	 2.591848463675838e-01	 1.215530296746261e+00	-2.551289079243520e+01
1	 2.327560177870145e-01	 1.220866586385550e+00	-2.588716210760067e+01
1	 2.063939463917933e-01	 1.225598643056747e+00	-2.621651661264051e+01
1	 1.801172789114668e-01	 1.229735009112759e+00	-2.650390870384218e+01
1	 1.539440281726846e-01	 1.233284891550360e+00	-2.675236576749324e+01
1	 1.278915499795380e-01	 1.236258116327144e+00	-2.696496476087487e+01
1	 1.019765233886890e-01	 1.238665082282548e+00	-2.714480985304772e+01
1	 7.621493431466794e-02	 1.240516714919491e+00	-2.729501124167126e+01
1	 5.062206238169776e-02	 1.241824420289660e+00	-2.741866524239384e+01
1	 2.521247092131893e-02	 1.242600039210701e+00	-2.751883572798905e+01
1	 0.000000000000000e+00	 1.242855802027764e+00	-2.759853697564520e+01
1	 2.621638478199633e-01	 1.229501277574464e+00	-2.556524197478970e+01
1	 2.354312533368090e-01	 1.234898901102576e+00	-2.592281215666509e+01
1	 2.087661833282362e-01	 1.239685346770091e+00	-2.623783977192794e+01
1	 1.821874988443625e-01	 1.243869255113449e+00	-2.651327936014297e+01
1	 1.557134197464966e-01	 1.247459938952200e+00	-2.675214447535043e+01
1	 1.293615013217458e-01	 1.250467337180882e+00	-2.695748473785521e+01
1	 1.031486143314329e-01	 1.252901968160429e+00	-2.713236401444644e+01
1	 7.709092842795674e-02	 1.254774882968582e+00	-2.727983983531999e+01
1	 5.120389885549568e-02	 1.256097618755154e+00	-2.740294413616893e+01
1	 2.550225633266721e-02	 1.256882152432997e+00	-2.750466539454890e+01
1	 0.000000000000000e+00	 1.257140854919592e+00	-2.758793221094221e+01
1	 2.651428485774981e-01	 1.243472255143333e+00	-2.556063407148391e+01
1	 2.381064882626895e-01	 1.248931212545972e+00	-2.589647659678717e+01
1	 2.111384197115176e-01	 1.253772047197120e+00	-2.619306064803137e+01
1	 1.842577182946136e-01	 1.258003497816736e+00	-2.645326191663562e+01
1	 1.574828109078901e-01	 1.261634983047117e+00	-2.668000018219398e+01
1	 1.308314523214175e-01	 1.264676554719722e+00	-2.687621745392457e+01
1	 1.043207050011277e-01	 1.267138850716951e+00	-2.704485727409145e+01
1	 7.796692233723956e-02	 1.269033047691344e+00	-2.718884528103401e+01
1	 5.178573519383965e-02	 1.270370813890807e+00	-2.731107111008774e+01
1	 2.579204167657773e-02	 1.271164262323368e+00	-2.741437169187493e+01
1	 0.000000000000000e+00	 1.271425904478810e+00	-2.750151598937711e+01
1	 2.681218489877413e-01	 1.257443231082956e+00	-2.549789632017660e+01
1	 2.407817228767851e-01	 1.262963522352994e+00	-2.580708831323061e+01
1	 2.135106558184331e-01	 1.267858745981453e+00	-2.608119918430587e+01
1	 1.863279375037964e-01	 1.272137738871794e+00	-2.632294951159945e+01
1	 1.592522018633585e-01	 1.275810025489055e+00	-2.653508805862495e+01
1	 1.323014031501211e-01	 1.278885770601601e+00	-2.672037161413564e+01
1	 1.054927955345951e-01	 1.281375731613288e+00	-2.688154599314636e+01
1	 7.884291614478943e-02	 1.283291210751440e+00	-2.702132828340024e+01
1	 5.236757146467105e-02	 1.284644007362039e+00	-2.714239040330821e+01
1	 2.608182698689521e-02	 1.285446370548278e+00	-2.724734401965810e+01
1	 0.000000000000000e+00	 1.285710952372222e+00	-2.733872685647126e+01
1	 1.285710952372222e+00	 0.000000000000000e+00	 1.343272359869077e+01
1	 1.285446370548278e+00	 2.608182698689557e-02	 1.309253590946174e+01
1	 1.284644007362039e+00	 5.236757146467139e-02	 1.274308635316859e+01
1	 1.283291210751439e+00	 7.884291614478972e-02	 1.238412753085204e+01
1	 1.281375731613288e+00	 1.054927955345953e-01	 1.201553973574615e+01
1	 1.278885770601601e+00	 1.323014031501213e-01	 1.163733921857163e+01
1	 1.275810025489054e+00	 1.592522018633586e-01	 1.124968596763950e+01
1	 1.272137738871795e+00	 1.863279375037966e-01	 1.085289090157990e+01
1	 1.267858745981453e+00	 2.135106558184332e-01	 1.044742237100895e+01
1	 1.262963522352994e+00	 2.407817228767851e-01	 1.003391186515507e+01
1	 1.257443231082956e+00	 2.681218489877413e-01	 9.613158820501305e+00
1	 1.299996999436575e+00	 0.000000000000000e+00	 1.297744949792911e+01
1	 1.299729477738514e+00	 2.637163256653116e-02	 1.264030111534266e+01
1	 1.298918199175054e+00	 5.294944843254041e-02	 1.229563698636080e+01
1	 1.297550371102010e+00	 7.971897122437951e-02	 1.194310987857196e+01
1	 1.295613608311512e+00	 1.066649680506882e-01	 1.158251696748698e+01
1	 1.293095980350323e+00	 1.337714567953443e-01	 1.121380963819784e+01
1	 1.289986059407558e+00	 1.610217165797057e-01	 1.083710275018730e+01
1	 1.286272968549540e+00	 1.883983015152832e-01	 1.045268324595658e+01
1	 1.281946430063098e+00	 2.158830578522009e-01	 1.006101798209258e+01
1	 1.276996813653051e+00	 2.434571446109328e-01	 9.662760660749852e+00
1	 1.271415184225567e+00	 2.711010577649079e-01	 9.258757740410900e+00
1	 1.314283043168385e+00	 0.000000000000000e+00	 1.253823019831417e+01
1	 1.314012581596891e+00	 2.666143807874816e-02	 1.220319899579170e+01
1	 1.313192387658288e+00	 5.353132526498397e-02	 1.186238159952721e+01
1	 1.311809528126306e+00	 8.059502609999267e-02	 1.151537327491989e+01
1	 1.309851481688423e+00	 1.078371402937551e-01	 1.116192324055823e+01
1	 1.307306186784182e+00	 1.352415100980420e-01	 1.080194536606339e+01
1	 1.304162090019159e+00	 1.627912308836290e-01	 1.043552830042607e+01
1	 1.300408194929890e+00	 1.904686650441013e-01	 1.006294490115605e+01
1	 1.296034110858418e+00	 2.182554593327631e-01	 9.684660832209694e+00
1	 1.291030101679448e+00	 2.461325657211033e-01	 9.301342197824514e+00
1	 1.285387134108794e+00	 2.740802658471492e-01	 8.913862080215747e+00
1	 1.328569080234105e+00	 0.000000000000000e+00	 1.211355804171720e+01
1	 1.328295678790551e+00	 2.695124345587626e-02	 1.178008803953514e+01
1	 1.327466569480965e+00	 5.411320182614768e-02	 1.144249007783306e+01
1	 1.326068678497057e+00	 8.147108056711237e-02	 1.110034294267238e+01
1	 1.324089348421717e+00	 1.090093119901755e-01	 1.075338190677277e+01
1	 1.321516386587330e+00	 1.367115627150887e-01	 1.040150969556611e+01
1	 1.318338114015990e+00	 1.645607443621364e-01	 1.004480686980623e+01
1	 1.314543414714499e+00	 1.925390276070737e-01	 9.683541491396932e+00
1	 1.310121785080170e+00	 2.206278597064844e-01	 9.318177936673809e+00
1	 1.305063383157637e+00	 2.488079855829751e-01	 8.949384720509485e+00
1	 1.299359077472413e+00	 2.770594725392778e-01	 8.578041195458315e+00
1	 1.342855107300192e+00	 0.000000000000000e+00	 1.170198951481773e+01
1	 1.342578765986636e+00	 2.724104863024519e-02	 1.136987529940569e+01
1	 1.341740741312307e+00	 5.469507798017722e-02	 1.103516761956411e+01
1	 1.340327818886993e+00	 8.234713442122177e-02	 1.069746855219072e+01
1	 1.338327205189094e+00	 1.101814828663293e-01	 1.035653233441521e+01
1	 1.335726576443923e+00	 1.381816143033586e-01	 1.001227598157704e+01
1	 1.332514128090181e+00	 1.663302566022357e-01	 9.664789326268405e+00
1	 1.328678624605023e+00	 1.946093887210235e-01	 9.314344348040159e+00
1	 1.324209449441108e+00	 2.230002584197293e-01	 8.961403661095821e+00
1	 1.319096654813073e+00	 2.514834035722265e-01	 8.606628026562303e+00
1	 1.313331011056197e+00	 2.800386771461065e-01	 8.250882756875182e+00
1	 1.357141121033102e+00	 0.000000000000000e+00	 1.130214187290890e+01
1	 1.356861839852286e+00	 2.753085353418463e-02	 1.097151383623009e+01
1	 1.356014899821536e+00	 5.527695359121823e-02	 1.063965287746511e+01
1	 1.354586945968846e+00	 8.322318745780412e-02	 1.030622293464861e+01
1	 1.352565048668249e+00	 1.113536526485962e-01	 9.971029065222345e+00
1	 1.349936753038114e+00	 1.396516645197259e-01	 9.634027110843810e+00
1	 1.346690128933866e+00	 1.680997671909346e-01	 9.295332805957196e+00
1	 1.342813821303118e+00	 1.966797479027739e-01	 8.955230209153061e+00
1	 1.338297100653986e+00	 2.253726549188626e-01	 8.614179334450167e+00
1	 1.333129913371210e+00	 2.541588190645365e-01	 8.272822859183306e+00
1	 1.327302931599920e+00	 2.830178789724484e-01	 7.931991786310092e+00
1	 1.371427118099289e+00	 0.000000000000000e+00	 1.091268997465770e+01
1	 1.371144897054645e+00	 2.782065810002433e-02	 1.058400032243026e+01
1	 1.370289041677873e+00	 5.585882852341631e-02	 1.025521621621327e+01
1	 1.368846056415343e+00	 8.409923947234267e-02	 9.926100875661602e+00
1	 1.366802875536880e+00	 1.125258210633557e-01	 9.596541024037673e+00
1	 1.364146913054058e+00	 1.411217130210649e-01	 9.266555005484602e+00
1	 1.360866113239175e+00	 1.698692757152409e-01	 8.936300386697010e+00
1	 1.356949001510443e+00	 1.987501046691477e-01	 8.606080937845473e+00
1	 1.352384735431563e+00	 2.277450486502488e-01	 8.276352886317889e+00
1	 1.347163155557500e+00	 2.568342314355833e-01	 7.947730336832571e+00
1	 1.341274835843357e+00	 2.859970773231161e-01	 7.620989752866011e+00
1	 1.385713095165209e+00	 0.000000000000000e+00	 1.053236331260069e+01
1	 1.385427934260852e+00	 2.811046226009398e-02	 1.020637279381545e+01
1	 1.384563163550541e+00	 5.644070264091715e-02	 9.881158077647697e+00
1	 1.383105146899215e+00	 8.497529026032054e-02	 9.556617983517047e+00
1	 1.381040682472682e+00	 1.136979878369877e-01	 9.232750777340344e+00
1	 1.378357053175909e+00	 1.425917594642498e-01	 8.909660157185625e+00
1	 1.375042077698239e+00	 1.716387817621623e-01	 8.587560781659624e+00
1	 1.371084161928650e+00	 2.008204585369682e-01	 8.266783258023802e+00
1	 1.366472350486590e+00	 2.301174390602525e-01	 7.947778506562052e+00
1	 1.361196378097397e+00	 2.595096400610455e-01	 7.631121418306352e+00
1	 1.355246720526281e+00	 2.889762715029223e-01	 7.317513724950468e+00
1	 1.399999048897318e+00	 0.000000000000000e+00	 1.015994322539755e+01
1	 1.399710948138050e+00	 2.840026594672332e-02	 9.837708538983341e+00
1	 1.398837262108762e+00	 5.702257580786636e-02	 9.516807446060282e+00
1	 1.397364214093191e+00	 8.585133961722100e-02	 9.197309626677844e+00
1	 1.395278466153354e+00	 1.148701526958717e-01	 8.879353837158037e+00
1	 1.392567170087822e+00	 1.440618035061548e-01	 8.563151189909556e+00
1	 1.389218019003189e+00	 1.734082849187067e-01	 8.248988051781952e+00
1	 1.385219299259398e+00	 2.028908090230583e-01	 7.937228506318943e+00
1	 1.380559942531825e+00	 2.324898255952382e-01	 7.628316325833953e+00
1	 1.375229577716355e+00	 2.621850443166021e-01	 7.322776400555258e+00
1	 1.369218582388467e+00	 2.919554608166800e-01	 7.021215574222483e+00
1	 1.414284975962072e+00	 0.000000000000000e+00	 9.794260278994747e+00
1	 1.413993935353380e+00	 2.869006909224202e-02	 9.477122116602278e+00
1	 1.413111334021757e+00	 5.760444788840961e-02	 9.161520406474828e+00
1	 1.411623254670002e+00	 8.672738733852720e-02	 8.847729935662844e+00
1	 1.409516223256593e+00	 1.160423153663875e-01	 8.536058007155940e+00
1	 1.406777260473951e+00	 1.455318448036542e-01	 8.226844449099428e+00
1	 1.403393933846157e+00	 1.751777847718817e-01	 7.920461335608326e+00
1	 1.399354410204343e+00	 2.049611556442411e-01	 7.617312399044939e+00
1	 1.394647508280022e+00	 2.348622077015706e-01	 7.317832115437359e+00
1	 1.389262751139827e+00	 2.648604435779312e-01	 7.022484446929586e+00
1	 1.383190418169687e+00	 2.949346445692019e-01	 6.731761227772543e+00
1	 1.428570873025926e+00	 0.000000000000000e+00	 9.434191804878152e+00
1	 1.428276892573984e+00	 2.897987162897983e-02	 9.123763491625791e+00
1	 1.427385375958749e+00	 5.818631874669251e-02	 8.814678789406816e+00
1	 1.425882265302377e+00	 8.760343321972237e-02	 8.507450864798782e+00
1	 1.423753950460095e+00	 1.172144755749147e-01	 8.202582767950048e+00
1	 1.420987321018450e+00	 1.470018830136220e-01	 7.900563615523805e+00
1	 1.417569818919275e+00	 1.769472809086952e-01	 7.601864595337979e+00
1	 1.413489491465139e+00	 2.070314979173397e-01	 7.306934813136433e+00
1	 1.408735044443936e+00	 2.372345848256141e-01	 7.016197005196164e+00
1	 1.403295895093266e+00	 2.675358372207115e-01	 6.730043143722613e+00
1	 1.397162224609719e+00	 2.979138220653008e-01	 6.448829965160009e+00
1	 1.257443231082956e+00	 2.681218489877413e-01	 9.613158820501306e+00
1	 1.251290222528759e+00	 2.955092025760216e-01	 9.178190341075043e+00
1	 1.244496810941490e+00	 3.229252091875747e-01	 8.721980960076969e+00
1	 1.237056498645061e+00	 3.503488267225385e-01	 8.245495512441336e+00
1	 1.228963654185617e+00	 3.777584904297682e-01	 7.749732016373912e+00
1	 1.220213553110794e+00	 4.051321545099082e-01	 7.235718200900410e+00
1	 1.210802416556687e+00	 4.324473371061250e-01	 6.704507807532531e+00
1	 1.200727447337036e+00	 4.596811685659496e-01	 6.157176688603734e+00
1	 1.189986863234135e+00	 4.868104428277399e-01	 5.594818727675380e+00
1	 1.178579927199173e+00	 5.138116717552889e-01	 5.018541610061743e+00
1	 1.166506974181152e+00	 5.406611422144046e-01	 4.429462473919710e+00
1	 1.271415184225567e+00	 2.711010577649079e-01	 9.258757740410900e+00
1	 1.265193807139827e+00	 2.987927231594999e-01	 8.841535665925923e+00
1	 1.258324911247501e+00	 3.265133599524971e-01	 8.403449572808622e+00
1	 1.250801926674242e+00	 3.542416922368836e-01	 7.945332588432203e+00
1	 1.242619159392876e+00	 3.819559156469745e-01	 7.468029569402964e+00
1	 1.233771832455774e+00	 4.096337394237550e-01	 6.972393859412916e+00
1	 1.224256125010580e+00	 4.372524319055254e-01	 6.459284001551212e+00
1	 1.214069208790389e+00	 4.647888693259974e-01	 5.929560432993453e+00
1	 1.203209281774577e+00	 4.922195877717347e-01	 5.384082191029122e+00
1	 1.191675598724702e+00	 5.195208381204919e-01	 4.823703660073178e+00
1	 1.179468498311525e+00	 5.466686437519975e-01	 4.249271389610620e+00
1	 1.285387134108794e+00	 2.740802658471492e-01	 8.913862080215747e+00
1	 1.279097388507421e+00	 3.020762429769924e-01	 8.514121455454925e+00
1	 1.272153008327603e+00	 3.301015098803087e-01	 8.093755521037640e+00
1	 1.264547351496750e+00	 3.581345568429810e-01	 7.653478743694708e+00
1	 1.256274661414386e+00	 3.861533398848383e-01	 7.194002934776076e+00
1	 1.247330108637632e+00	 4.141353232872624e-01	 6.716034368914158e+00
1	 1.237709830325688e+00	 4.420575255837422e-01	 6.220270986004154e+00
1	 1.227410967131020e+00	 4.698965688942291e-01	 5.707399706469275e+00
1	 1.216431697230087e+00	 4.976287314535489e-01	 5.178093889453582e+00
1	 1.204771267194819e+00	 5.252300031534775e-01	 4.633010962814923e+00
1	 1.192430019417744e+00	 5.526761438877230e-01	 4.072790252564795e+00
1	 1.299359077472413e+00	 2.770594725392778e-01	 8.578041195458317e+00
1	 1.293000963387279e+00	 3.053597612623208e-01	 8.195347645833554e+00
1	 1.285981098955156e+00	 3.336896581337637e-01	 7.792167935076079e+00
1	 1.278292769905249e+00	 3.620274196324957e-01	 7.369110394077164e+00
1	 1.269930157063807e+00	 3.903507621639695e-01	 6.926773223675289e+00
1	 1.260888378492727e+00	 4.186369050500763e-01	 6.465742102087928e+00
1	 1.251163529362787e+00	 4.468626170196096e-01	 5.986587953903849e+00
1	 1.240752719245839e+00	 4.750042660788752e-01	 5.489864909388378e+00
1	 1.229654106515436e+00	 5.030378726110815e-01	 4.976108481596265e+00
1	 1.217866929553885e+00	 5.309391655221452e-01	 4.445833987058541e+00
1	 1.205391534475478e+00	 5.586836412198746e-01	 3.899535233613374e+00
1	 1.313331011056197e+00	 2.800386771461065e-01	 8.250882756875182e+00
1	 1.306904528535139e+00	 3.086432772493075e-01	 7.884639698069581e+00
1	 1.299809179903525e+00	 3.372778038756168e-01	 7.497987036478921e+00
1	 1.292038178692406e+00	 3.659202796970923e-01	 7.091438992070333e+00
1	 1.283585643154801e+00	 3.945481815049779e-01	 6.665498937342024e+00
1	 1.274446638857422e+00	 4.231384836618436e-01	 6.220657619040553e+00
1	 1.264617218982655e+00	 4.516677050919606e-01	 5.757391569899732e+00
1	 1.254094462021758e+00	 4.801119596881671e-01	 5.276161734724183e+00
1	 1.242876506545394e+00	 5.084470099822318e-01	 4.777412333378308e+00
1	 1.230962582746256e+00	 5.366483238943943e-01	 4.261569981045214e+00
1	 1.218353040460395e+00	 5.646911343467459e-01	 3.729043083504027e+00
1	 1.327302931599920e+00	 2.830178789724484e-01	 7.931991786310093e+00
1	 1.320808080706736e+00	 3.119267901717745e-01	 7.581447254429604e+00
1	 1.313637247946070e+00	 3.408659462686223e-01	 7.210542501461833e+00
1	 1.305783574650884e+00	 3.698131361284366e-01	 6.819709182537048e+00
1	 1.297241116501029e+00	 3.987455969284732e-01	 6.409373998908611e+00
1	 1.288004886568078e+00	 4.276400580722102e-01	 5.979957657135143e+00
1	 1.278070896046066e+00	 4.564727886796287e-01	 5.531873997760001e+00
1	 1.267436192345687e+00	 4.852196485303354e-01	 5.065529310216229e+00
1	 1.256098894234734e+00	 5.138561423048991e-01	 4.581321848840398e+00
1	 1.244058223716290e+00	 5.423574769381242e-01	 4.079641562698670e+00
1	 1.231314534348166e+00	 5.706986218666309e-01	 3.560870049433949e+00
1	 1.341274835843357e+00	 2.859970773231161e-01	 7.620989752866008e+00
1	 1.334711616657808e+00	 3.152102992635437e-01	 7.285242878812321e+00
1	 1.327465299856153e+00	 3.444540844755349e-01	 6.929191926577512e+00
1	 1.319528954573350e+00	 3.737059880181925e-01	 6.553197073677342e+00
1	 1.310896573916152e+00	 4.029430074550651e-01	 6.157625908206859e+00
1	 1.301563118461056e+00	 4.321416272308228e-01	 5.742853246427092e+00
1	 1.291524557413797e+00	 4.612778666614478e-01	 5.309261051102446e+00
1	 1.280777907104539e+00	 4.903273314136110e-01	 4.857238456604184e+00
1	 1.269321266498228e+00	 5.192652683169821e-01	 4.387181905282736e+00
1	 1.257153849408346e+00	 5.480666233212343e-01	 3.899495397925846e+00
1	 1.244276013114461e+00	 5.767061023778234e-01	 3.394590859281275e+00
1	 1.355246720526281e+00	 2.889762715029223e-01	 7.317513724950468e+00
1	 1.348615133144092e+00	 3.184938037584375e-01	 6.995520875016018e+00
1	 1.341293332407137e+00	 3.480422176591090e-01	 6.653319389273246e+00
1	 1.333274315252469e+00	 3.775988344580257e-01	 6.291208614915549e+00
1	 1.324552012213832e+00	 4.071404121053632e-01	 5.909514010681725e+00
1	 1.315121331372720e+00	 4.366431900873275e-01	 5.508587941639291e+00
1	 1.304978199946625e+00	 4.660829379162514e-01	 5.088810458482178e+00
1	 1.294119603185224e+00	 4.954350071462250e-01	 4.650590053570903e+00
1	 1.282543620250645e+00	 5.246743867563800e-01	 4.194364385174300e+00
1	 1.270249456766781e+00	 5.537757617116242e-01	 3.720600960650462e+00
1	 1.257237473734949e+00	 5.827135744786170e-01	 3.229797768650576e+00
1	 1.369218582388467e+00	 2.919554608166800e-01	 7.021215574222481e+00
1	 1.362518626921326e+00	 3.217773028902779e-01	 6.711796177337725e+00
1	 1.355121342372383e+00	 3.516303449820993e-01	 6.382334096554116e+00
1	 1.347019653480905e+00	 3.814916745396009e-01	 6.033078074074002e+00
1	 1.338207428207729e+00	 4.113378098999778e-01	 5.664327872261448e+00
1	 1.328679522139431e+00	 4.411447455913710e-01	 5.276436162354990e+00
1	 1.318431820505326e+00	 4.708880013228729e-01	 4.869810234670381e+00
1	 1.307461277474655e+00	 5.005426745364082e-01	 4.444913505703324e+00
1	 1.295765952406758e+00	 5.300834963609923e-01	 4.002266797921377e+00
1	 1.283345042735955e+00	 5.594848907771932e-01	 3.542449368742331e+00
1	 1.270198913185301e+00	 5.887210367673057e-01	 3.066099666246941e+00
1	 1.383190418169687e+00	 2.949346445692019e-01	 6.731761227772544e+00
1	 1.376422094745246e+00	 3.250607958928871e-01	 6.433603308391143e+00
1	 1.368949326525253e+00	 3.552184656072601e-01	 6.115669115523882e+00
1	 1.360764966051325e+00	 3.853845073545832e-01	 5.778166606814930e+00
1	 1.351862818711506e+00	 4.155351998595181e-01	 5.421385752694648e+00
1	 1.342237687597551e+00	 4.456462926925998e-01	 5.045701633778547e+00
1	 1.331885415950674e+00	 4.756930557601458e-01	 4.651577150617406e+00
1	 1.320802926859741e+00	 5.056503323923917e-01	 4.239565301400881e+00
1	 1.308988259881339e+00	 5.354925958687178e-01	 3.810310985143322e+00
1	 1.296440604260223e+00	 5.651940091858410e-01	 3.364552290478139e+00
1	 1.283160328441186e+00	 5.947284878421828e-01	 2.903121233455696e+00
1	 1.397162224609719e+00	 2.979138220653008e-01	 6.448829965160009e+00
1	 1.390325533371589e+00	 3.283442820000868e-01	 6.160495399439109e+00
1	 1.382777281639109e+00	 3.588065786973459e-01	 5.852780180073525e+00
1	 1.374510249756393e+00	 3.892773319946374e-01	 5.525860911893536e+00
1	 1.365518180538822e+00	 4.197325810045940e-01	 5.180033170463323e+00
1	 1.355795824583439e+00	 4.501478303406597e-01	 4.815715921026149e+00
1	 1.345338983143448e+00	 4.804981001069037e-01	 4.433455295194188e+00
1	 1.334144548227396e+00	 5.107579795224063e-01	 4.033927658226915e+00
1	 1.322210539589158e+00	 5.409016840174555e-01	 3.617941903611477e+00
1	 1.309536138283946e+00	 5.709031156054665e-01	 3.186440916597308e+00
1	 1.296121716478273e+00	 6.007359263015425e-01	 2.740502154334019e+00
1	 1.166506974181152e+00	 5.406611422144046e-01	 4.429462473919710e+00
1	 1.153768520657062e+00	 5.673368349888009e-01	 3.820458657020042e+00
1	 1.140367939824356e+00	 5.938128716115278e-01	 3.184961351946638e+00
1	 1.126308914352119e+00	 6.200652176363033e-01	 2.524810679339515e+00
1	 1.111596267876887e+00	 6.460698641649667e-01	 1.841858172703669e+00
1	 1.096235971370482e+00	 6.718028946141243e-01	 1.137959803344842e+00
1	 1.080235144867935e+00	 6.972405524292983e-01	 4.149690536172874e-01
1	 1.063602054441766e+00	 7.223593093729551e-01	-3.252699046075257e-01
1	 1.046346104343134e+00	 7.471359339991690e-01	-1.080928870120705e+00
1	 1.028477824266305e+00	 7.715475599175938e-01	-1.850202056610838e+00
1	 1.010008851730144e+00	 7.955717534430776e-01	-2.631312268648780e+00
1	 1.179468498311525e+00	 5.466686437519975e-01	 4.249271389610620e+00
1	 1.166588502750832e+00	 5.736407407856797e-01	 3.653457187500205e+00
1	 1.153039022721013e+00	 6.004109632086184e-01	 3.029790415083083e+00
1	 1.138823781810755e+00	 6.269550095182069e-01	 2.380310487115953e+00
1	 1.123947657253940e+00	 6.532486040438356e-01	 1.707098804343515e+00
1	 1.108416686368234e+00	 6.792675644554069e-01	 1.012270460152777e+00
1	 1.092238068302214e+00	 7.049878702298854e-01	 2.979657215771961e-01
1	 1.075420160976023e+00	 7.303857316980992e-01	-4.336586502779154e-01
1	 1.057972473135199e+00	 7.554376592802553e-01	-1.180438172754896e+00
1	 1.039905651473637e+00	 7.801205325084171e-01	-1.940209437732945e+00
1	 1.021231462819311e+00	 8.044116684278025e-01	-2.710818861037509e+00
1	 1.192430019417744e+00	 5.526761438877230e-01	 4.072790252564793e+00
1	 1.179408481853434e+00	 5.799446451114831e-01	 3.490029910482350e+00
1	 1.165710102661214e+00	 6.070090532659372e-01	 2.878403726077311e+00
1	 1.151338646349358e+00	 6.338447997922180e-01	 2.240082602201226e+00
1	 1.136299043749081e+00	 6.604273422473320e-01	 1.577299809146427e+00
1	 1.120597398523876e+00	 6.867322325545433e-01	 8.923417449472160e-01
1	 1.104240988935844e+00	 7.127351862223222e-01	 1.875382859749131e-01
1	 1.087238264752729e+00	 7.384121521499232e-01	-5.347472008788758e-01
1	 1.069598839214424e+00	 7.637393826237479e-01	-1.272128108312973e+00
1	 1.051333476014421e+00	 7.886935030983319e-01	-2.022205020953932e+00
1	 1.032454071289771e+00	 8.132515813493250e-01	-2.782576246858845e+00
1	 1.205391534475478e+00	 5.586836412198746e-01	 3.899535233613373e+00
1	 1.192228454973575e+00	 5.862485464953506e-01	 3.329827744953143e+00
1	 1.178381176688414e+00	 6.136071402439868e-01	 2.730537667516872e+00
1	 1.163853505047840e+00	 6.407345868507840e-01	 2.103901785767384e+00
1	 1.148650424480370e+00	 6.676060771004909e-01	 1.452229666098725e+00
1	 1.132778104995295e+00	 6.941968971698589e-01	 7.778938360844003e-01
1	 1.116243903968200e+00	 7.204824985989908e-01	 8.331945835754240e-02
1	 1.099056363014386e+00	 7.464385688556906e-01	-6.290264252696236e-01
1	 1.081225199868051e+00	 7.720411020926786e-01	-1.356645997821023e+00
1	 1.062761295222229e+00	 7.972664696870837e-01	-2.097022032575177e+00
1	 1.043676674522985e+00	 8.220914901451046e-01	-2.847629429073005e+00
1	 1.218353040460395e+00	 5.646911343467459e-01	 3.729043083504028e+00
1	 1.205048419119958e+00	 5.925524434664220e-01	 3.172516456737951e+00
1	 1.191052241846069e+00	 6.202052226032716e-01	 2.585939833312845e+00
1	 1.176368354986110e+00	 6.476243690863536e-01	 1.971552378673050e+00
1	 1.161001796565867e+00	 6.747848069283466e-01	 1.331666702854877e+00
1	 1.144958802940378e+00	 7.016615565596794e-01	 6.686588176356858e-01
1	 1.128246810598658e+00	 7.282298055522725e-01	-1.504242039903692e-02
1	 1.110874453003497e+00	 7.544649799426657e-01	-7.169663028352791e-01
1	 1.092851552383325e+00	 7.803428157500798e-01	-1.434611614252819e+00
1	 1.074189106430633e+00	 8.058394302744172e-01	-2.165458239468461e+00
1	 1.054899269900412e+00	 8.309313927526036e-01	-2.906978939615039e+00
1	 1.231314534348166e+00	 5.706986218666309e-01	 3.560870049433949e+00
1	 1.217868371301289e+00	 5.988563345538357e-01	 3.017775876821070e+00
1	 1.203723295177632e+00	 6.268032988042951e-01	 2.444368438421296e+00
1	 1.188883193244080e+00	 6.545141448913745e-01	 1.842827797126535e+00
1	 1.173353157123633e+00	 6.819635300559350e-01	 1.215398577312437e+00
1	 1.157139489517013e+00	 7.091262089823308e-01	 5.643800527630621e-01
1	 1.140249706026590e+00	 7.359771052745493e-01	-1.078842026377774e-01
1	 1.122692531962562e+00	 7.624913835381123e-01	-7.990170228436487e-01
1	 1.104477894047487e+00	 7.886445216589838e-01	-1.506618632321832e+00
1	 1.085616906973206e+00	 8.144123828600778e-01	-2.228277815270830e+00
1	 1.066121854803511e+00	 8.397712871092807e-01	-2.961583179939406e+00
1	 1.244276013114461e+00	 5.767061023778234e-01	 3.394590859281274e+00
1	 1.230688308526272e+00	 6.051602182867322e-01	 2.865299168507587e+00
1	 1.216394333726560e+00	 6.334013673075607e-01	 2.305591765446896e+00
1	 1.201398016901661e+00	 6.614039126582948e-01	 1.717530059861635e+00
1	 1.185704503271726e+00	 6.891422448082904e-01	 1.103221791580232e+00
1	 1.169320161883087e+00	 7.165908526961383e-01	 4.648115962480248e-01
1	 1.152252587451375e+00	 7.437243959582033e-01	-1.955287050724596e-01
1	 1.134510597134084e+00	 7.705177777692943e-01	-8.756100151107997e-01
1	 1.116104222147779e+00	 7.969462178824213e-01	-1.573235987684957e+00
1	 1.097044694183519e+00	 8.229853254438096e-01	-2.286213089974003e+00
1	 1.077344426613743e+00	 8.486111711525988e-01	-3.012360615320284e+00
1	 1.257237473734949e+00	 5.827135744786170e-01	 3.229797768650577e+00
1	 1.243508227803614e+00	 6.114640931942510e-01	 2.714792139903269e+00
1	 1.229065354536308e+00	 6.399994265735724e-01	 2.169387645468386e+00
1	 1.213912823038762e+00	 6.682936707795627e-01	 1.595469344552135e+00
1	 1.198055832128207e+00	 6.963209495104473e-01	 9.949412360018809e-01
1	 1.181500817196487e+00	 7.240554859594283e-01	 3.697176433492120e-01
1	 1.164255452072385e+00	 7.514716757956159e-01	-2.782854322527377e-01
1	 1.146328645760561e+00	 7.785441607634755e-01	-9.471589169313409e-01
1	 1.127730533971447e+00	 8.052479024834258e-01	-1.635009152094912e+00
1	 1.108472465395146e+00	 8.315582560253585e-01	-2.339966191320594e+00
1	 1.088566982712566e+00	 8.574510428200165e-01	-3.060191833458183e+00
1	 1.270198913185301e+00	 5.887210367673057e-01	 3.066099666246941e+00
1	 1.256328126142018e+00	 6.177679578055311e-01	 2.565972598476252e+00
1	 1.241736354650330e+00	 6.465974750628333e-01	 2.035542970641390e+00
1	 1.226427608735296e+00	 6.751834176476261e-01	 1.476463571377715e+00
1	 1.210407140811137e+00	 7.034996424874411e-01	 8.903697610891035e-01
1	 1.193681452615102e+00	 7.315201070305257e-01	 2.788720123944464e-01
1	 1.176258297088996e+00	 7.592189429791690e-01	-3.564512557468940e-01
1	 1.158146675084499e+00	 7.865705306479199e-01	-1.014060480824461e+00
1	 1.139356826805732e+00	 8.135495735250283e-01	-1.692461330502707e+00
1	 1.119900217941657e+00	 8.401311726044689e-01	-2.390210585733493e+00
1	 1.099789520481441e+00	 8.662909000489963e-01	-3.105921477083116e+00
1	 1.283160328441186e+00	 5.947284878421828e-01	 2.903121233455696e+00
1	 1.269148000550189e+00	 6.240718106497122e-01	 2.418569744725971e+00
1	 1.254407331112081e+00	 6.531955112358475e-01	 1.903853236333098e+00
1	 1.238942371071173e+00	 6.820731516549332e-01	 1.360338011821370e+00
1	 1.222758426438575e+00	 7.106783220643063e-01	 7.893277753915077e-01
1	 1.205862065296819e+00	 7.389847141677566e-01	 1.920576587225161e-01
1	 1.188261119700584e+00	 7.669661957012448e-01	-4.303110521728148e-01
1	 1.169964682348398e+00	 7.945968855498918e-01	-1.076695427279558e+00
1	 1.150983097937877e+00	 8.218512290702613e-01	-1.746094585627221e+00
1	 1.131327949156626e+00	 8.487040731808860e-01	-2.437592525880134e+00
1	 1.111012037301826e+00	 8.751307407769980e-01	-3.150360059460786e+00
1	 1.296121716478273e+00	 6.007359263015425e-01	 2.740502154334019e+00
1	 1.281967848036833e+00	 6.303756502559339e-01	 2.272323602222486e+00
1	 1.267078280965017e+00	 6.597935335531179e-01	 1.774122110721217e+00
1	 1.251457107126304e+00	 6.889628711939321e-01	 1.246924920932915e+00
1	 1.235109686128581e+00	 7.178569865660782e-01	 6.916428674878168e-01
1	 1.218042652399525e+00	 7.464493056294462e-01	 1.090662177810203e-01
1	 1.200263917106523e+00	 7.747134321542246e-01	-5.001383029573154e-01
1	 1.181782664794757e+00	 8.026232235966543e-01	-1.135429246350448e+00
1	 1.162609344655126e+00	 8.301528671821563e-01	-1.796390895068427e+00
1	 1.142755656373624e+00	 8.572769557543545e-01	-2.482732411405317e+00
1	 1.122234530555182e+00	 8.839705629414819e-01	-3.194285670996909e+00
1	 1.010008851730144e+00	 7.955717534430776e-01	-2.631312268648780e+00
1	 9.909519067937320e-01	 8.191865824479939e-01	-3.423716348752876e+00
1	 9.713207563652808e-01	 8.423706882231309e-01	-4.227835671636363e+00
1	 9.511301907535311e-01	 8.651033421516505e-01	-5.043479280677309e+00
1	 9.303959900850729e-01	 8.873645046199061e-01	-5.870602918768489e+00
1	 9.091348835661056e-01	 9.091348835661061e-01	-6.709300494859882e+00
1	 8.873645046199057e-01	 9.303959900850729e-01	-7.559794237633738e+00
1	 8.651033421516500e-01	 9.511301907535311e-01	-8.422423646417535e+00
1	 8.423706882231307e-01	 9.713207563652815e-01	-9.297633364317516e+00
1	 8.191865824479935e-01	 9.909519067937324e-01	-1.018596011157429e+01
1	 7.955717534430776e-01	 1.010008851730144e+00	-1.108801882809845e+01
1	 1.021231462819311e+00	 8.044116684278025e-01	-2.710818861037509e+00
1	 1.001962768568945e+00	 8.282888912141637e-01	-3.491871894835215e+00
1	 9.821134886003536e-01	 8.517306048331553e-01	-4.284520620430022e+00
1	 9.616985775632909e-01	 8.747158503440156e-01	-5.089110473108144e+00
1	 9.407339909236229e-01	 8.972243654649650e-01	-5.906199594654538e+00
1	 9.192366437724240e-01	 9.192366437724245e-01	-6.736545548154028e+00
1	 8.972243654649645e-01	 9.407339909236231e-01	-7.581090173873920e+00
1	 8.747158503440153e-01	 9.616985775632912e-01	-8.440942746087897e+00
1	 8.517306048331549e-01	 9.821134886003540e-01	-9.317361611596887e+00
1	 8.282888912141635e-01	 1.001962768568945e+00	-1.021173450897809e+01
1	 8.044116684278024e-01	 1.021231462819310e+00	-1.112555778293024e+01
1	 1.032454071289771e+00	 8.132515813493250e-01	-2.782576246858845e+00
1	 1.012973627774809e+00	 8.373911978559143e-01	-3.553253014658064e+00
1	 9.929062183169185e-01	 8.610905192586760e-01	-4.336180672834325e+00
1	 9.722669619068304e-01	 8.843283562929767e-01	-5.132065889677601e+00
1	 9.510719893496478e-01	 9.070842240089515e-01	-5.941873745778259e+00
1	 9.293384016212816e-01	 9.293384016212820e-01	-6.766811165169108e+00
1	 9.070842240089511e-01	 9.510719893496479e-01	-7.608308102874779e+00
1	 8.843283562929766e-01	 9.722669619068307e-01	-8.467996683305667e+00
1	 8.610905192586757e-01	 9.929062183169186e-01	-9.347688509105216e+00
1	 8.373911978559138e-01	 1.012973627774809e+00	-1.024935038206437e+01
1	 8.132515813493250e-01	 1.032454071289771e+00	-1.117507869618472e+01
1	 1.043676674522985e+00	 8.220914901451046e-01	-2.847629429073005e+00
1	 1.023984481842198e+00	 8.464935002494818e-01	-3.609075265539010e+00
1	 1.003698942996750e+00	 8.704504293158198e-01	-4.384099687241894e+00
1	 9.828353413182764e-01	 8.939408577557190e-01	-5.173601181112165e+00
1	 9.614099829510372e-01	 9.169440779513309e-01	-5.978762492132855e+00
1	 9.394401547556949e-01	 9.394401547556951e-01	-6.801032211812067e+00
1	 9.169440779513307e-01	 9.614099829510375e-01	-7.642103897047194e+00
1	 8.939408577557187e-01	 9.828353413182769e-01	-8.503892933460060e+00
1	 8.704504293158194e-01	 1.003698942996750e+00	-9.388511385001088e+00
1	 8.464935002494810e-01	 1.023984481842198e+00	-1.029824109586394e+01
1	 8.220914901451046e-01	 1.043676674522985e+00	-1.123550533111125e+01
1	 1.054899269900412e+00	 8.309313927526036e-01	-2.906978939615039e+00
1	 1.034995328201983e+00	 8.555957962711013e-01	-3.660502477196877e+00
1	 1.014491660121622e+00	 8.798103328207122e-01	-4.429506889895743e+00
1	 9.934037133317563e-01	 9.035533524894270e-01	-5.214918568786511e+00
1	 9.717479693156805e-01	 9.268039249915691e-01	-6.017954571033770e+00
1	 9.495419008186826e-01	 9.495419008186831e-01	-6.840103780746314e+00
1	 9.268039249915688e-01	 9.717479693156811e-01	-7.683105530265562e+00
1	 9.035533524894268e-01	 9.934037133317566e-01	-8.548925900898574e+00
1	 8.798103328207117e-01	 1.014491660121623e+00	-9.439731950673799e+00
1	 8.555957962711011e-01	 1.034995328201983e+00	-1.035786414170661e+01
1	 8.309313927526035e-01	 1.054899269900412e+00	-1.130580726079023e+01
1	 1.066121854803511e+00	 8.397712871092807e-01	-2.961583179939406e+00
1	 1.046006164285036e+00	 8.646980837970097e-01	-3.708649474317014e+00
1	 1.025284367173309e+00	 8.891702275894792e-01	-4.473579750449625e+00
1	 1.003972075481396e+00	 9.131658382512866e-01	-5.257169657119269e+00
1	 9.820859460314676e-01	 9.366637628291313e-01	-6.060492884044909e+00
1	 9.596436374532621e-01	 9.596436374532625e-01	-6.884883285325541e+00
1	 9.366637628291312e-01	 9.820859460314681e-01	-7.731914546927065e+00
1	 9.131658382512862e-01	 1.003972075481397e+00	-8.603377607660642e+00
1	 8.891702275894789e-01	 1.025284367173310e+00	-9.501256070842301e+00
1	 8.646980837970095e-01	 1.046006164285037e+00	-1.042769986814574e+01
1	 8.397712871092808e-01	 1.066121854803511e+00	-1.138499745765957e+01
1	 1.077344426613743e+00	 8.486111711525988e-01	-3.012360615320284e+00
1	 1.057016987522231e+00	 8.738003607034422e-01	-3.754584629002459e+00
1	 1.036077061633586e+00	 8.985301114382472e-01	-4.517446677854505e+00
1	 1.014540425301325e+00	 9.227783127984828e-01	-5.301458070242099e+00
1	 9.924239106862870e-01	 9.465235891634832e-01	-6.107376884765524e+00
1	 9.697453623024501e-01	 9.697453623024505e-01	-6.936192422691817e+00
1	 9.465235891634829e-01	 9.924239106862874e-01	-7.789107439219574e+00
1	 9.227783127984824e-01	 1.014540425301325e+00	-8.667518339177803e+00
1	 8.985301114382468e-01	 1.036077061633587e+00	-9.572993548019163e+00
1	 8.738003607034417e-01	 1.057016987522231e+00	-1.050725029117975e+01
1	 8.486111711525989e-01	 1.077344426613743e+00	-1.147213003365603e+01
1	 1.088566982712566e+00	 8.574510428200165e-01	-3.060191833458183e+00
1	 1.068027795344438e+00	 8.829026248666350e-01	-3.799332255383810e+00
1	 1.046869740984227e+00	 9.078899821831418e-01	-4.562189549534023e+00
1	 1.025108760325667e+00	 9.323907738882006e-01	-5.348841925619352e+00
1	 1.002761860868029e+00	 9.563834016940903e-01	-6.159564818958710e+00
1	 9.798470730092648e-01	 9.798470730092651e-01	-6.994819015477741e+00
1	 9.563834016940901e-01	 1.002761860868029e+00	-7.855236939220933e+00
1	 9.323907738881999e-01	 1.025108760325668e+00	-8.741607250043790e+00
1	 9.078899821831412e-01	 1.046869740984227e+00	-9.654857920303145e+00
1	 8.829026248666343e-01	 1.068027795344438e+00	-1.059603797804726e+01
1	 8.574510428200167e-01	 1.088566982712566e+00	-1.156629812010331e+01
1	 1.099789520481441e+00	 8.662909000489963e-01	-3.105921477083116e+00
1	 1.079038585182531e+00	 8.920048741628237e-01	-3.843874857659005e+00
1	 1.057662402707005e+00	 9.172498376402886e-01	-4.608846085753556e+00
1	 1.035677078088552e+00	 9.420032192776239e-01	-5.400336156262064e+00
1	 1.013099794164582e+00	 9.662431981204184e-01	-6.217975827565150e+00
1	 9.899487672167233e-01	 9.899487672167239e-01	-7.061518740781247e+00
1	 9.662431981204176e-01	 1.013099794164582e+00	-7.930833231910544e+00
1	 9.420032192776238e-01	 1.035677078088552e+00	-8.825892932706882e+00
1	 9.172498376402882e-01	 1.057662402707005e+00	-9.746766271548454e+00
1	 8.920048741628231e-01	 1.079038585182531e+00	-1.069360499934413e+01
1	 8.662909000489962e-01	 1.099789520481441e+00	-1.166663187736918e+01
1	 1.111012037301826e+00	 8.751307407769980e-01	-3.150360059460786e+00
1	 1.090049354467381e+00	 9.011071064682441e-01	-3.889155241924688e+00
1	 1.068455044283696e+00	 9.266096756258143e-01	-4.658412080125779e+00
1	 1.046245376124105e+00	 9.516156467239397e-01	-5.456914692238369e+00
1	 1.023437708163836e+00	 9.761029761419320e-01	-6.283491922295482e+00
1	 1.000050442567844e+00	 1.000050442567844e+00	-7.137016754381627e+00
1	 9.761029761419314e-01	 1.023437708163836e+00	-8.016405094685192e+00
1	 9.516156467239396e-01	 1.046245376124105e+00	-8.920613951705041e+00
1	 9.266096756258143e-01	 1.068455044283696e+00	-9.848639053036230e+00
1	 9.011071064682435e-01	 1.090049354467381e+00	-1.079951194463138e+01
1	 8.751307407769979e-01	 1.111012037301826e+00	-1.177229662511730e+01
1	 1.122234530555182e+00	 8.839705629414819e-01	-3.194285670996909e+00
1	 1.101060100629861e+00	 9.102093196591319e-01	-3.936078501329821e+00
1	 1.079247663196073e+00	 9.359694939558444e-01	-4.711843496321145e+00
1	 1.056813651966454e+00	 9.612280539843321e-01	-5.519512511327766e+00
1	 1.033775600453680e+00	 9.859627334580974e-01	-6.356959842717635e+00
1	 1.010152096705643e+00	 1.010152096705644e+00	-7.222009217527956e+00
1	 9.859627334580970e-01	 1.033775600453680e+00	-8.112440968521254e+00
1	 9.612280539843319e-01	 1.056813651966455e+00	-9.025999345855450e+00
1	 9.359694939558441e-01	 1.079247663196073e+00	-9.960399915842634e+00
1	 9.102093196591318e-01	 1.101060100629861e+00	-1.091333699709152e+01
1	 8.839705629414819e-01	 1.122234530555182e+00	-1.188249108471502e+01
1	 7.955717534430776e-01	 1.010008851730144e+00	-1.108801882809845e+01
1	 7.715475599175932e-01	 1.028477824266305e+00	-1.200340239079967e+01
1	 7.471359339991688e-01	 1.046346104343135e+00	-1.292796689846088e+01
1	 7.223593093729547e-01	 1.063602054441766e+00	-1.385658533424434e+01
1	 6.972405524292978e-01	 1.080235144867935e+00	-1.478391353026808e+01
1	 6.718028946141240e-01	 1.096235971370482e+00	-1.570443103365782e+01
1	 6.460698641649665e-01	 1.111596267876887e+00	-1.661248276992767e+01
1	 6.200652176363031e-01	 1.126308914352119e+00	-1.750232110044893e+01
1	 5.938128716115273e-01	 1.140367939824357e+00	-1.836814787514509e+01
1	 5.673368349888005e-01	 1.153768520657062e+00	-1.920415609121815e+01
1	 5.406611422144048e-01	 1.166506974181152e+00	-2.000457078336084e+01
1	 8.044116684278024e-01	 1.021231462819310e+00	-1.112555778293024e+01
1	 7.801205325084165e-01	 1.039905651473637e+00	-1.205786528520904e+01
1	 7.554376592802551e-01	 1.057972473135200e+00	-1.300261681970534e+01
1	 7.303857316980990e-01	 1.075420160976023e+00	-1.395349544220288e+01
1	 7.049878702298847e-01	 1.092238068302214e+00	-1.490386509384062e+01
1	 6.792675644554065e-01	 1.108416686368235e+00	-1.584682441477845e+01
1	 6.532486040438353e-01	 1.123947657253940e+00	-1.677526185405632e+01
1	 6.269550095182067e-01	 1.138823781810756e+00	-1.768191153241971e+01
1	 6.004109632086180e-01	 1.153039022721013e+00	-1.855940931845240e+01
1	 5.736407407856794e-01	 1.166588502750832e+00	-1.940034858916994e+01
1	 5.466686437519976e-01	 1.179468498311525e+00	-2.019733516390010e+01
1	 8.132515813493250e-01	 1.032454071289771e+00	-1.117507869618472e+01
1	 7.886935030983315e-01	 1.051333476014421e+00	-1.212281753402108e+01
1	 7.637393826237476e-01	 1.069598839214425e+00	-1.308446627230695e+01
1	 7.384121521499227e-01	 1.087238264752729e+00	-1.405279995748641e+01
1	 7.127351862223218e-01	 1.104240988935844e+00	-1.502019592273026e+01
1	 6.867322325545427e-01	 1.120597398523877e+00	-1.597869779831601e+01
1	 6.604273422473316e-01	 1.136299043749081e+00	-1.692008120366130e+01
1	 6.338447997922178e-01	 1.151338646349359e+00	-1.783592046712402e+01
1	 6.070090532659367e-01	 1.165710102661214e+00	-1.871765572269584e+01
1	 5.799446451114828e-01	 1.179408481853434e+00	-1.955665974452880e+01
1	 5.526761438877230e-01	 1.192430019417744e+00	-2.034430390038084e+01
1	 8.220914901451046e-01	 1.043676674522985e+00	-1.123550533111125e+01
1	 7.972664696870834e-01	 1.062761295222229e+00	-1.219672455625048e+01
1	 7.720411020926780e-01	 1.081225199868052e+00	-1.317165866651870e+01
1	 7.464385688556904e-01	 1.099056363014387e+00	-1.415244684171301e+01
1	 7.204824985989899e-01	 1.116243903968200e+00	-1.513077484364014e+01
1	 6.941968971698584e-01	 1.132778104995295e+00	-1.609794652508135e+01
1	 6.676060771004905e-01	 1.148650424480371e+00	-1.704495729425249e+01
1	 6.407345868507837e-01	 1.163853505047840e+00	-1.796256879906468e+01
1	 6.136071402439864e-01	 1.178381176688415e+00	-1.884138409821179e+01
1	 5.862485464953503e-01	 1.192228454973575e+00	-1.967192259876834e+01
1	 5.586836412198745e-01	 1.205391534475477e+00	-2.044469406207402e+01
1	 8.309313927526035e-01	 1.054899269900412e+00	-1.130580726079023e+01
1	 8.058394302744167e-01	 1.074189106430634e+00	-1.227811708111670e+01
1	 7.803428157500795e-01	 1.092851552383325e+00	-1.326241641975039e+01
1	 7.544649799426653e-01	 1.110874453003498e+00	-1.425047137349009e+01
1	 7.282298055522719e-01	 1.128246810598657e+00	-1.523356135935311e+01
1	 7.016615565596791e-01	 1.144958802940378e+00	-1.620255547451602e+01
1	 6.747848069283462e-01	 1.161001796565867e+00	-1.714799097568383e+01
1	 6.476243690863530e-01	 1.176368354986110e+00	-1.806015308878772e+01
1	 6.202052226032713e-01	 1.191052241846069e+00	-1.892915536258810e+01
1	 5.925524434664214e-01	 1.205048419119958e+00	-1.974501979312600e+01
1	 5.646911343467459e-01	 1.218353040460394e+00	-2.049775596946656e+01
1	 8.397712871092808e-01	 1.066121854803511e+00	-1.138499745765957e+01
1	 8.144123828600772e-01	 1.085616906973206e+00	-1.236558771097408e+01
1	 7.886445216589832e-01	 1.104477894047487e+00	-1.335503679825771e+01
1	 7.624913835381121e-01	 1.122692531962563e+00	-1.434499155232601e+01
1	 7.359771052745488e-01	 1.140249706026591e+00	-1.532660087538074e+01
1	 7.091262089823306e-01	 1.157139489517013e+00	-1.629059435070797e+01
1	 6.819635300559345e-01	 1.173353157123633e+00	-1.722736302946728e+01
1	 6.545141448913742e-01	 1.188883193244081e+00	-1.812704157803407e+01
1	 6.268032988042945e-01	 1.203723295177632e+00	-1.897959097424400e+01
1	 5.988563345538354e-01	 1.217868371301289e+00	-1.977488095481358e+01
1	 5.706986218666309e-01	 1.231314534348166e+00	-2.050277144061261e+01
1	 8.486111711525989e-01	 1.077344426613743e+00	-1.147213003365603e+01
1	 8.229853254438093e-01	 1.097044694183519e+00	-1.245778769899989e+01
1	 7.969462178824207e-01	 1.116104222147780e+00	-1.344788801865520e+01
1	 7.705177777692939e-01	 1.134510597134084e+00	-1.443420378971904e+01
1	 7.437243959582027e-01	 1.152252587451375e+00	-1.540802022486545e+01
1	 7.165908526961383e-01	 1.169320161883087e+00	-1.636021326295171e+01
1	 6.891422448082899e-01	 1.185704503271726e+00	-1.728133000367805e+01
1	 6.614039126582941e-01	 1.201398016901660e+00	-1.816167045387700e+01
1	 6.334013673075602e-01	 1.216394333726560e+00	-1.899136977635362e+01
1	 6.051602182867317e-01	 1.230688308526273e+00	-1.976048024654515e+01
1	 5.767061023778234e-01	 1.244276013114461e+00	-2.045905214705740e+01
1	 8.574510428200167e-01	 1.088566982712566e+00	-1.156629812010331e+01
1	 8.315582560253580e-01	 1.108472465395146e+00	-1.255342392614784e+01
1	 8.052479024834253e-01	 1.127730533971447e+00	-1.353940559050797e+01
1	 7.785441607634748e-01	 1.146328645760561e+00	-1.451637886670554e+01
1	 7.514716757956155e-01	 1.164255452072385e+00	-1.547602347021874e+01
1	 7.240554859594279e-01	 1.181500817196488e+00	-1.640963857960238e+01
1	 6.963209495104469e-01	 1.198055832128208e+00	-1.730822030542662e+01
1	 6.682936707795624e-01	 1.213912823038763e+00	-1.816254034388141e+01
1	 6.399994265735720e-01	 1.229065354536308e+00	-1.896322503593849e+01
1	 6.114640931942503e-01	 1.243508227803614e+00	-1.970083406759991e+01
1	 5.827135744786168e-01	 1.257237473734950e+00	-2.036593807142943e+01
1	 8.662909000489962e-01	 1.099789520481441e+00	-1.166663187736918e+01
1	 8.401311726044686e-01	 1.119900217941657e+00	-1.265125606313680e+01
1	 8.135495735250280e-01	 1.139356826805732e+00	-1.362808888278725e+01
1	 7.865705306479197e-01	 1.158146675084499e+00	-1.458985813883919e+01
1	 7.592189429791690e-01	 1.176258297088997e+00	-1.552888796173344e+01
1	 7.315201070305251e-01	 1.193681452615102e+00	-1.643716903570777e+01
1	 7.034996424874408e-01	 1.210407140811137e+00	-1.730643053250267e+01
1	 6.751834176476257e-01	 1.226427608735297e+00	-1.812821302578824e+01
1	 6.465974750628329e-01	 1.241736354650330e+00	-1.889394166419209e+01
1	 6.177679578055304e-01	 1.256328126142018e+00	-1.959499889559824e+01
1	 5.887210367673058e-01	 1.270198913185302e+00	-2.022279605944045e+01
1	 8.751307407769979e-01	 1.111012037301826e+00	-1.177229662511730e+01
1	 8.487040731808854e-01	 1.131327949156626e+00	-1.275009390439486e+01
1	 8.218512290702609e-01	 1.150983097937878e+00	-1.371249789836452e+01
1	 7.945968855498914e-01	 1.169964682348398e+00	-1.465304997111155e+01
1	 7.669661957012445e-01	 1.188261119700584e+00	-1.556496063500554e+01
1	 7.389847141677560e-01	 1.205862065296819e+00	-1.644117207647981e+01
1	 7.106783220643060e-01	 1.222758426438575e+00	-1.727442202728526e+01
1	 6.820731516549328e-01	 1.238942371071174e+00	-1.805730833655917e+01
1	 6.531955112358470e-01	 1.254407331112081e+00	-1.878235360522415e+01
1	 6.240718106497117e-01	 1.269148000550190e+00	-1.944206925904491e+01
1	 5.947284878421829e-01	 1.283160328441185e+00	-2.002901845961922e+01
1	 8.839705629414819e-01	 1.122234530555182e+00	-1.188249108471502e+01
1	 8.572769557543541e-01	 1.142755656373625e+00	-1.284879486192547e+01
1	 8.301528671821561e-01	 1.162609344655126e+00	-1.379125024198597e+01
1	 8.026232235966541e-01	 1.181782664794758e+00	-1.470442638672110e+01
1	 7.747134321542239e-01	 1.200263917106523e+00	-1.558265453045231e+01
1	 7.464493056294456e-01	 1.218042652399525e+00	-1.642008042010017e+01
1	 7.178569865660778e-01	 1.235109686128581e+00	-1.721071763736474e+01
1	 6.889628711939315e-01	 1.251457107126304e+00	-1.794850126683039e+01
1	 6.597935335531173e-01	 1.267078280965017e+00	-1.862734138144008e+01
1	 6.303756502559335e-01	 1.281967848036833e+00	-1.924117583148762e+01
1	 6.007359263015425e-01	 1.296121716478273e+00	-1.978402184464010e+01
1	 5.406611422144048e-01	 1.166506974181152e+00	-2.000457078336084e+01
1	 5.138116717552891e-01	 1.178579927199173e+00	-2.076185594400373e+01
1	 4.868104428277401e-01	 1.189986863234134e+00	-2.147224519082387e+01
1	 4.596811685659499e-01	 1.200727447337036e+00	-2.213565639324894e+01
1	 4.324473371061253e-01	 1.210802416556687e+00	-2.275220913747138e+01
1	 4.051321545099085e-01	 1.220213553110794e+00	-2.332221874283399e+01
1	 3.777584904297684e-01	 1.228963654185617e+00	-2.384618923658731e+01
1	 3.503488267225386e-01	 1.237056498645061e+00	-2.432480538364639e+01
1	 3.229252091875749e-01	 1.244496810941490e+00	-2.475892387315145e+01
1	 2.955092025760218e-01	 1.251290222528759e+00	-2.514956376730816e+01
1	 2.681218489877413e-01	 1.257443231082956e+00	-2.549789632017659e+01
1	 5.466686437519976e-01	 1.179468498311525e+00	-2.019733516390010e+01
1	 5.195208381204921e-01	 1.191675598724702e+00	-2.094228699738185e+01
1	 4.922195877717349e-01	 1.203209281774577e+00	-2.163279358007123e+01
1	 4.647888693259978e-01	 1.214069208790389e+00	-2.227004983679171e+01
1	 4.372524319055254e-01	 1.224256125010579e+00	-2.285550651513212e+01
1	 4.096337394237552e-01	 1.233771832455774e+00	-2.339085181358275e+01
1	 3.819559156469748e-01	 1.242619159392876e+00	-2.387799213695156e+01
1	 3.542416922368837e-01	 1.250801926674242e+00	-2.431903217944238e+01
1	 3.265133599524975e-01	 1.258324911247501e+00	-2.471625453301904e+01
1	 2.987927231595001e-01	 1.265193807139827e+00	-2.507209901359341e+01
1	 2.711010577649079e-01	 1.271415184225567e+00	-2.538914189037202e+01
1	 5.526761438877230e-01	 1.192430019417744e+00	-2.034430390038085e+01
1	 5.252300031534778e-01	 1.204771267194820e+00	-2.107253544191812e+01
1	 4.976287314535490e-01	 1.216431697230087e+00	-2.174051192787505e+01
1	 4.698965688942295e-01	 1.227410967131020e+00	-2.235054010495901e+01
1	 4.420575255837426e-01	 1.237709830325687e+00	-2.290522604435158e+01
1	 4.141353232872625e-01	 1.247330108637632e+00	-2.340744599436347e+01
1	 3.861533398848386e-01	 1.256274661414386e+00	-2.386031653235487e+01
1	 3.581345568429812e-01	 1.264547351496750e+00	-2.426716430561582e+01
1	 3.301015098803090e-01	 1.272153008327602e+00	-2.463149564102211e+01
1	 3.020762429769927e-01	 1.279097388507421e+00	-2.495696629038034e+01
1	 2.740802658471492e-01	 1.285387134108794e+00	-2.524735156283309e+01
1	 5.586836412198745e-01	 1.205391534475477e+00	-2.044469406207402e+01
1	 5.309391655221455e-01	 1.217866929553885e+00	-2.115218206666749e+01
1	 5.030378726110818e-01	 1.229654106515435e+00	-2.179526804549995e+01
1	 4.750042660788756e-01	 1.240752719245839e+00	-2.237721128335999e+01
1	 4.468626170196098e-01	 1.251163529362787e+00	-2.290160346084955e+01
1	 4.186369050500766e-01	 1.260888378492727e+00	-2.337233031269132e+01
1	 3.903507621639697e-01	 1.269930157063807e+00	-2.379353276055391e+01
1	 3.620274196324958e-01	 1.278292769905249e+00	-2.416956788519774e+01
1	 3.336896581337639e-01	 1.285981098955156e+00	-2.450497008653783e+01
1	 3.053597612623210e-01	 1.293000963387279e+00	-2.480441276043439e+01
1	 2.770594725392778e-01	 1.299359077472413e+00	-2.507267079816984e+01
1	 5.646911343467459e-01	 1.218353040460394e+00	-2.049775596946656e+01
1	 5.366483238943944e-01	 1.230962582746256e+00	-2.118082542931661e+01
1	 5.084470099822319e-01	 1.242876506545394e+00	-2.179693529581656e+01
1	 4.801119596881672e-01	 1.254094462021757e+00	-2.235014380441194e+01
1	 4.516677050919607e-01	 1.264617218982655e+00	-2.284486439384114e+01
1	 4.231384836618437e-01	 1.274446638857421e+00	-2.328581972093855e+01
1	 3.945481815049780e-01	 1.283585643154801e+00	-2.367799532866256e+01
1	 3.659202796970926e-01	 1.292038178692406e+00	-2.402659339327286e+01
1	 3.372778038756170e-01	 1.299809179903525e+00	-2.433698695483897e+01
1	 3.086432772493077e-01	 1.306904528535139e+00	-2.461467500949993e+01
1	 2.800386771461065e-01	 1.313331011056197e+00	-2.486523881275228e+01
1	 5.706986218666309e-01	 1.231314534348166e+00	-2.050277144061261e+01
1	 5.423574769381242e-01	 1.244058223716290e+00	-2.115808091720091e+01
1	 5.138561423048991e-01	 1.256098894234734e+00	-2.174539229720978e+01
1	 4.852196485303356e-01	 1.267436192345687e+00	-2.226941463569109e+01
1	 4.564727886796288e-01	 1.278070896046066e+00	-2.273522489409219e+01
1	 4.276400580722104e-01	 1.288004886568077e+00	-2.314821583339004e+01
1	 3.987455969284734e-01	 1.297241116501029e+00	-2.351404374278289e+01
1	 3.698131361284367e-01	 1.305783574650884e+00	-2.383857647722165e+01
1	 3.408659462686225e-01	 1.313637247946070e+00	-2.412784225055185e+01
1	 3.119267901717747e-01	 1.320808080706736e+00	-2.438797960019216e+01
1	 2.830178789724484e-01	 1.327302931599920e+00	-2.462518890485120e+01
1	 5.767061023778234e-01	 1.244276013114461e+00	-2.045905214705740e+01
1	 5.480666233212343e-01	 1.257153849408346e+00	-2.108357986699147e+01
1	 5.192652683169823e-01	 1.269321266498228e+00	-2.164052264598808e+01
1	 4.903273314136112e-01	 1.280777907104539e+00	-2.213509745651313e+01
1	 4.612778666614481e-01	 1.291524557413797e+00	-2.257289192897938e+01
1	 4.321416272308229e-01	 1.301563118461056e+00	-2.295980761724507e+01
1	 4.029430074550653e-01	 1.310896573916152e+00	-2.330200328579844e+01
1	 3.737059880181927e-01	 1.319528954573350e+00	-2.360583872571124e+01
1	 3.444540844755351e-01	 1.327465299856153e+00	-2.387781957590921e+01
1	 3.152102992635440e-01	 1.334711616657808e+00	-2.412454359128013e+01
1	 2.859970773231161e-01	 1.341274835843357e+00	-2.435264876040169e+01
1	 5.827135744786168e-01	 1.257237473734950e+00	-2.036593807142943e+01
1	 5.537757617116243e-01	 1.270249456766782e+00	-2.095696873881998e+01
1	 5.246743867563802e-01	 1.282543620250645e+00	-2.148221465595810e+01
1	 4.954350071462251e-01	 1.294119603185224e+00	-2.194726282359531e+01
1	 4.660829379162515e-01	 1.304978199946625e+00	-2.235806384693686e+01
1	 4.366431900873278e-01	 1.315121331372720e+00	-2.272087204088735e+01
1	 4.071404121053634e-01	 1.324552012213832e+00	-2.304218574706953e+01
1	 3.775988344580258e-01	 1.333274315252468e+00	-2.332868839013163e+01
1	 3.480422176591093e-01	 1.341293332407137e+00	-2.358719076706113e+01
1	 3.184938037584378e-01	 1.348615133144092e+00	-2.382457502485729e+01
1	 2.889762715029223e-01	 1.355246720526281e+00	-2.404774073985650e+01
1	 5.887210367673058e-01	 1.270198913185302e+00	-2.022279605944045e+01
1	 5.594848907771935e-01	 1.283345042735955e+00	-2.077790834095302e+01
1	 5.300834963609925e-01	 1.295765952406758e+00	-2.127036111393966e+01
1	 5.005426745364085e-01	 1.307461277474654e+00	-2.170597832657737e+01
1	 4.708880013228732e-01	 1.318431820505326e+00	-2.209093081347324e+01
1	 4.411447455913715e-01	 1.328679522139431e+00	-2.243167468247644e+01
1	 4.113378098999779e-01	 1.338207428207729e+00	-2.273489010746362e+01
1	 3.814916745396011e-01	 1.347019653480905e+00	-2.300742106187444e+01
1	 3.516303449820996e-01	 1.355121342372383e+00	-2.325621649143758e+01
1	 3.217773028902782e-01	 1.362518626921326e+00	-2.348827338369328e+01
1	 2.919554608166801e-01	 1.369218582388467e+00	-2.371058214748324e+01
1	 5.947284878421829e-01	 1.283160328441185e+00	-2.002901845961922e+01
1	 5.651940091858411e-01	 1.296440604260224e+00	-2.054607310144418e+01
1	 5.354925958687180e-01	 1.308988259881339e+00	-2.100485905009293e+01
1	 5.056503323923919e-01	 1.320802926859741e+00	-2.141130873411921e+01
1	 4.756930557601460e-01	 1.331885415950674e+00	-2.177167522077133e+01
1	 4.456462926925999e-01	 1.342237687597550e+00	-2.209247030166308e+01
1	 4.155351998595183e-01	 1.351862818711506e+00	-2.238040318288137e+01
1	 3.853845073545833e-01	 1.360764966051325e+00	-2.264232030857486e+01
1	 3.552184656072604e-01	 1.368949326525253e+00	-2.288514680891692e+01
1	 3.250607958928872e-01	 1.376422094745246e+00	-2.311583002087428e+01
1	 2.949346445692019e-01	 1.383190418169688e+00	-2.334128548434346e+01
1	 6.007359263015425e-01	 1.296121716478273e+00	-1.978402184464010e+01
1	 5.709031156054668e-01	 1.309536138283946e+00	-2.026115038347380e+01
1	 5.409016840174559e-01	 1.322210539589158e+00	-2.068560952202274e+01
1	 5.107579795224065e-01	 1.334144548227396e+00	-2.106331613123526e+01
1	 4.804981001069039e-01	 1.345338983143447e+00	-2.140047207271703e+01
1	 4.501478303406600e-01	 1.355795824583440e+00	-2.170350337701037e+01
1	 4.197325810045943e-01	 1.365518180538823e+00	-2.197900022917852e+01
1	 3.892773319946376e-01	 1.374510249756393e+00	-2.223365827218827e+01
1	 3.588065786973464e-01	 1.382777281639109e+00	-2.247422169933260e+01
1	 3.283442820000870e-01	 1.390325533371589e+00	-2.270742856367137e+01
1	 2.979138220653007e-01	 1.397162224609720e+00	-2.293995868609704e+01
1	 2.681218489877413e-01	 1.257443231082956e+00	-2.549789632017659e+01
1	 2.407817228767851e-01	 1.262963522352994e+00	-2.580708831323061e+01
1	 2.135106558184331e-01	 1.267858745981453e+00	-2.608119918430587e+01
1	 1.863279375037964e-01	 1.272137738871794e+00	-2.632294951159945e+01
1	 1.592522018633585e-01	 1.275810025489055e+00	-2.653508805862495e+01
1	 1.323014031501211e-01	 1.278885770601601e+00	-2.672037161413564e+01
1	 1.054927955345951e-01	 1.281375731613288e+00	-2.688154599314636e+01
1	 7.884291614478943e-02	 1.283291210751440e+00	-2.702132828340024e+01
1	 5.236757146467105e-02	 1.284644007362039e+00	-2.714239040330821e+01
1	 2.608182698689521e-02	 1.285446370548278e+00	-2.724734401965810e+01
1	 0.000000000000000e+00	 1.285710952372222e+00	-2.733872685647126e+01
1	 2.711010577649079e-01	 1.271415184225567e+00	-2.538914189037203e+01
1	 2.434571446109329e-01	 1.276996813653051e+00	-2.567158242773199e+01
1	 2.158830578522008e-01	 1.281946430063098e+00	-2.592342499518316e+01
1	 1.883983015152831e-01	 1.286272968549541e+00	-2.614712814731636e+01
1	 1.610217165797056e-01	 1.289986059407557e+00	-2.634516489048708e+01
1	 1.337714567953441e-01	 1.293095980350324e+00	-2.652000489243206e+01
1	 1.066649680506879e-01	 1.295613608311512e+00	-2.667409779365634e+01
1	 7.971897122437922e-02	 1.297550371102009e+00	-2.680985768999284e+01
1	 5.294944843254006e-02	 1.298918199175053e+00	-2.692964883915344e+01
1	 2.637163256653081e-02	 1.299729477738514e+00	-2.703577262813568e+01
1	 0.000000000000000e+00	 1.299996999436575e+00	-2.713045582319366e+01
1	 2.740802658471492e-01	 1.285387134108794e+00	-2.524735156283309e+01
1	 2.461325657211033e-01	 1.291030101679448e+00	-2.550762211311515e+01
1	 2.182554593327630e-01	 1.296034110858418e+00	-2.574150957270469e+01
1	 1.904686650441012e-01	 1.300408194929889e+00	-2.595107406899432e+01
1	 1.627912308836288e-01	 1.304162090019158e+00	-2.613838169826525e+01
1	 1.352415100980418e-01	 1.307306186784182e+00	-2.630548983665225e+01
1	 1.078371402937548e-01	 1.309851481688423e+00	-2.645443341153302e+01
1	 8.059502609999235e-02	 1.311809528126306e+00	-2.658721218709132e+01
1	 5.353132526498362e-02	 1.313192387658288e+00	-2.670577910385332e+01
1	 2.666143807874780e-02	 1.314012581596891e+00	-2.681202969862839e+01
1	 0.000000000000000e+00	 1.314283043168385e+00	-2.690779261864101e+01
1	 2.770594725392778e-01	 1.299359077472413e+00	-2.507267079816985e+01
1	 2.488079855829751e-01	 1.305063383157637e+00	-2.531524130034984e+01
1	 2.206278597064843e-01	 1.310121785080170e+00	-2.553538016932703e+01
1	 1.925390276070735e-01	 1.314543414714498e+00	-2.573461688534094e+01
1	 1.645607443621362e-01	 1.318338114015989e+00	-2.591448354425011e+01
1	 1.367115627150885e-01	 1.321516386587330e+00	-2.607650398965659e+01
1	 1.090093119901753e-01	 1.324089348421717e+00	-2.622218368338077e+01
1	 8.147108056711205e-02	 1.326068678497057e+00	-2.635300035168929e+01
1	 5.411320182614732e-02	 1.327466569480965e+00	-2.647039543422931e+01
1	 2.695124345587590e-02	 1.328295678790551e+00	-2.657576635265093e+01
1	 0.000000000000000e+00	 1.328569080234105e+00	-2.667045960650139e+01
1	 2.800386771461065e-01	 1.313331011056197e+00	-2.486523881275228e+01
1	 2.514834035722265e-01	 1.319096654813073e+00	-2.509447242726850e+01
1	 2.230002584197293e-01	 1.324209449441108e+00	-2.530496708892868e+01
1	 1.946093887210234e-01	 1.328678624605022e+00	-2.549759341624856e+01
1	 1.663302566022356e-01	 1.332514128090182e+00	-2.567322630378965e+01
1	 1.381816143033584e-01	 1.335726576443923e+00	-2.583273858391303e+01
1	 1.101814828663291e-01	 1.338327205189094e+00	-2.597699512532484e+01
1	 8.234713442122146e-02	 1.340327818886994e+00	-2.610684738877126e+01
1	 5.469507798017686e-02	 1.341740741312307e+00	-2.622312845416272e+01
1	 2.724104863024481e-02	 1.342578765986636e+00	-2.632664852762230e+01
1	 0.000000000000000e+00	 1.342855107300192e+00	-2.641819093152984e+01
1	 2.830178789724484e-01	 1.327302931599920e+00	-2.462518890485120e+01
1	 2.541588190645365e-01	 1.333129913371210e+00	-2.484534651493605e+01
1	 2.253726549188625e-01	 1.338297100653986e+00	-2.505020352426747e+01
1	 1.966797479027737e-01	 1.342813821303118e+00	-2.523984731156827e+01
1	 1.680997671909344e-01	 1.346690128933866e+00	-2.541437609470787e+01
1	 1.396516645197257e-01	 1.349936753038114e+00	-2.557389781969501e+01
1	 1.113536526485959e-01	 1.352565048668249e+00	-2.571852910660203e+01
1	 8.322318745780383e-02	 1.354586945968846e+00	-2.584839425504962e+01
1	 5.527695359121787e-02	 1.356014899821536e+00	-2.596362431101159e+01
1	 2.753085353418426e-02	 1.356861839852286e+00	-2.606435619590048e+01
1	 0.000000000000000e+00	 1.357141121033102e+00	-2.615073189815707e+01
1	 2.859970773231161e-01	 1.341274835843357e+00	-2.435264876040169e+01
1	 2.568342314355833e-01	 1.347163155557500e+00	-2.456789323924919e+01
1	 2.277450486502487e-01	 1.352384735431563e+00	-2.477102540459451e+01
1	 1.987501046691476e-01	 1.356949001510443e+00	-2.496122869370344e+01
1	 1.698692757152408e-01	 1.360866113239175e+00	-2.513770874237631e+01
1	 1.411217130210647e-01	 1.364146913054058e+00	-2.529969818837900e+01
1	 1.125258210633554e-01	 1.366802875536879e+00	-2.544646107478762e+01
1	 8.409923947234235e-02	 1.368846056415343e+00	-2.557729683745318e+01
1	 5.585882852341595e-02	 1.370289041677874e+00	-2.569154386598654e+01
1	 2.782065810002395e-02	 1.371144897054644e+00	-2.578858263261445e+01
1	 0.000000000000000e+00	 1.371427118099289e+00	-2.586783838792394e+01
1	 2.889762715029223e-01	 1.355246720526281e+00	-2.404774073985650e+01
1	 2.595096400610456e-01	 1.361196378097397e+00	-2.426214099810765e+01
1	 2.301174390602524e-01	 1.366472350486590e+00	-2.446737125269106e+01
1	 2.008204585369680e-01	 1.371084161928650e+00	-2.466159382230517e+01
1	 1.716387817621622e-01	 1.375042077698238e+00	-2.484300927786362e+01
1	 1.425917594642496e-01	 1.378357053175909e+00	-2.500986783758957e+01
1	 1.136979878369874e-01	 1.381040682472682e+00	-2.516047982893324e+01
1	 8.497529026032022e-02	 1.383105146899215e+00	-2.529322518241742e+01
1	 5.644070264091678e-02	 1.384563163550541e+00	-2.540656193459400e+01
1	 2.811046226009360e-02	 1.385427934260852e+00	-2.549903372877256e+01
1	 0.000000000000000e+00	 1.385713095165209e+00	-2.556927631294171e+01
1	 2.919554608166801e-01	 1.369218582388467e+00	-2.371058214748324e+01
1	 2.621850443166021e-01	 1.375229577716355e+00	-2.392811697447253e+01
1	 2.324898255952381e-01	 1.380559942531825e+00	-2.413918205065565e+01
1	 2.028908090230582e-01	 1.385219299259399e+00	-2.434080477949035e+01
1	 1.734082849187065e-01	 1.389218019003189e+00	-2.453007146680356e+01
1	 1.440618035061546e-01	 1.392567170087822e+00	-2.470414597520194e+01
1	 1.148701526958714e-01	 1.395278466153354e+00	-2.486028683719525e+01
1	 8.585133961722070e-02	 1.397364214093191e+00	-2.499586277234746e+01
1	 5.702257580786600e-02	 1.398837262108762e+00	-2.510836657356869e+01
1	 2.840026594672293e-02	 1.399710948138050e+00	-2.519542734641388e+01
1	 0.000000000000000e+00	 1.399999048897318e+00	-2.525482110280424e+01
1	 2.949346445692019e-01	 1.383190418169688e+00	-2.334128548434346e+01
1	 2.648604435779311e-01	 1.389262751139826e+00	-2.356584719560567e+01
1	 2.348622077015705e-01	 1.394647508280022e+00	-2.378640111382290e+01
1	 2.049611556442410e-01	 1.399354410204343e+00	-2.399872917413301e+01
1	 1.751777847718815e-01	 1.403393933846157e+00	-2.419869736680787e+01
1	 1.455318448036539e-01	 1.406777260473951e+00	-2.438228230945686e+01
1	 1.160423153663872e-01	 1.409516223256593e+00	-2.454559559580747e+01
1	 8.672738733852689e-02	 1.411623254670002e+00	-2.468490584592119e+01
1	 5.760444788840924e-02	 1.413111334021757e+00	-2.479665841101241e+01
1	 2.869006909224163e-02	 1.413993935353380e+00	-2.487749271283142e+01
1	 0.000000000000000e+00	 1.414284975962072e+00	-2.492425722258869e+01
1	 2.979138220653007e-01	 1.397162224609720e+00	-2.293995868609705e+01
1	 2.675358372207115e-01	 1.403295895093266e+00	-2.317535658875385e+01
1	 2.372345848256142e-01	 1.408735044443937e+00	-2.340897397224589e+01
1	 2.070314979173397e-01	 1.413489491465140e+00	-2.363523986389268e+01
1	 1.769472809086950e-01	 1.417569818919275e+00	-2.384869691142814e+01
1	 1.470018830136218e-01	 1.420987321018450e+00	-2.404403652265805e+01
1	 1.172144755749144e-01	 1.423753950460095e+00	-2.421613102650518e+01
1	 8.760343321972207e-02	 1.425882265302377e+00	-2.436006275916297e+01
1	 5.818631874669211e-02	 1.427385375958748e+00	-2.447115001671341e+01
1	 2.897987162897944e-02	 1.428276892573984e+00	-2.454496985113190e+01
1	 0.000000000000000e+00	 1.428570873025926e+00	-2.457737771976801e+01
1	 1.428570873025926e+00	 0.000000000000000e+00	 9.434191804878152e+00
1	 1.428276892573984e+00	 2.897987162897983e-02	 9.123763491625791e+00
1	 1.427385375958749e+00	 5.818631874669251e-02	 8.814678789406816e+00
1	 1.425882265302377e+00	 8.760343321972237e-02	 8.507450864798782e+00
1	 1.423753950460095e+00	 1.172144755749147e-01	 8.202582767950048e+00
1	 1.420987321018450e+00	 1.470018830136220e-01	 7.900563615523805e+00
1	 1.417569818919275e+00	 1.769472809086952e-01	 7.601864595337979e+00
1	 1.413489491465139e+00	 2.070314979173397e-01	 7.306934813136433e+00
1	 1.408735044443936e+00	 2.372345848256141e-01	 7.016197005196164e+00
1	 1.403295895093266e+00	 2.675358372207115e-01	 6.730043143722613e+00
1	 1.397162224609719e+00	 2.979138220653008e-01	 6.448829965160009e+00
1	 1.442856738422074e+00	 0.000000000000000e+00	 9.081758384909113e+00
1	 1.442559818133399e+00	 2.926967352309299e-02	 8.779389816679274e+00
1	 1.441659386254313e+00	 5.876818831477279e-02	 8.477943765857137e+00
1	 1.440141244326646e+00	 8.847947715852847e-02	 8.178157691661372e+00
1	 1.437991646102674e+00	 1.183866331846208e-01	 7.880715377377523e+00
1	 1.435197350063360e+00	 1.484719179644717e-01	 7.586239326221525e+00
1	 1.431745672568570e+00	 1.787167731226271e-01	 7.295283099616279e+00
1	 1.427624541392580e+00	 2.091018356007429e-01	 7.008323659276755e+00
1	 1.422822549379909e+00	 2.396069566905304e-01	 6.725753779137459e+00
1	 1.417329007939364e+00	 2.702112249327637e-01	 6.447874597336289e+00
1	 1.411134000078413e+00	 3.008929929573673e-01	 6.174888382088509e+00
1	 1.457142577150667e+00	 0.000000000000000e+00	 8.739632626706308e+00
1	 1.456842717030744e+00	 2.955947487604390e-02	 8.446085483008424e+00
1	 1.455933369904449e+00	 5.935005679635650e-02	 8.153030117203544e+00
1	 1.454400196733541e+00	 8.935551946162226e-02	 7.861368690346127e+00
1	 1.452229315167604e+00	 1.195587886058234e-01	 7.571910210675465e+00
1	 1.449407352582267e+00	 1.499419501707724e-01	 7.285359763014789e+00
1	 1.445921499755661e+00	 1.804862620330460e-01	 7.002307805587090e+00
1	 1.441759564933990e+00	 2.111721694191012e-01	 6.723219631426911e+00
1	 1.436910028018618e+00	 2.419793241266670e-01	 6.448425097190526e+00
1	 1.431362094589756e+00	 2.728866076504773e-01	 6.178108726940035e+00
1	 1.425105749465931e+00	 3.038721582881034e-01	 5.912300302246846e+00
1	 1.471428395878593e+00	 0.000000000000000e+00	 8.407706810595467e+00
1	 1.471125595931537e+00	 2.984927582312151e-02	 8.123526533436356e+00
1	 1.470207333570505e+00	 5.993192446306174e-02	 7.839433758249386e+00
1	 1.468659129177392e+00	 9.023156053791931e-02	 7.556437542322682e+00
1	 1.466466964299278e+00	 1.207309423856280e-01	 7.275418310242406e+00
1	 1.463617335206642e+00	 1.514119803186326e-01	 6.997114526419152e+00
1	 1.460097307096061e+00	 1.822557484657932e-01	 6.722109564254158e+00
1	 1.455894568685836e+00	 2.132425003386314e-01	 6.450818899807384e+00
1	 1.450997486934333e+00	 2.443516882411687e-01	 6.183477764063962e+00
1	 1.445395161593315e+00	 2.755619866223831e-01	 5.920129392921494e+00
1	 1.439077479292515e+00	 3.068513194477887e-01	 5.660614017654630e+00
1	 1.485714201272741e+00	 0.000000000000000e+00	 8.085877369474094e+00
1	 1.485408461501291e+00	 3.013907649961475e-02	 7.811401481726827e+00
1	 1.484481283913834e+00	 6.051379158650658e-02	 7.536670003567666e+00
1	 1.482918048312531e+00	 9.110760079633509e-02	 7.262742799587789e+00
1	 1.480704600142087e+00	 1.219030950711400e-01	 6.990519536444815e+00
1	 1.477827304567958e+00	 1.528820090941604e-01	 6.720724397507482e+00
1	 1.474273101205284e+00	 1.840252332467092e-01	 6.453891127516045e+00
1	 1.470029559244577e+00	 2.153128293255499e-01	 6.190348560779308e+00
1	 1.465084932701314e+00	 2.467240501411799e-01	 5.930206792902271e+00
1	 1.459428215498915e+00	 2.782373630970129e-01	 5.673344160986140e+00
1	 1.453049196078406e+00	 3.098304778267026e-01	 5.419395200454288e+00
1	 1.500000000000000e+00	 0.000000000000000e+00	 7.774044690668021e+00
1	 1.499691320405524e+00	 3.042887704081255e-02	 7.509410718336329e+00
1	 1.498755227595788e+00	 6.109565843830920e-02	 7.244272643296252e+00
1	 1.497176960793287e+00	 9.198364064578519e-02	 6.979686699921814e+00
1	 1.494942229340423e+00	 1.230752472094650e-01	 6.716521194867383e+00
1	 1.492037267297686e+00	 1.543520371834642e-01	 6.455439852622769e+00
1	 1.488448888698843e+00	 1.857947172016354e-01	 6.196885628549932e+00
1	 1.484164543206676e+00	 2.173831573460732e-01	 5.941065163628672e+00
1	 1.479172371893830e+00	 2.490964109338453e-01	 5.687934061483555e+00
1	 1.473461262855428e+00	 2.809127383228979e-01	 5.437183172806694e+00
1	 1.467020906343844e+00	 3.128096348151254e-01	 5.188226074799262e+00
1	 1.514285798727260e+00	 0.000000000000000e+00	 7.472112929013186e+00
1	 1.513974179309750e+00	 3.071867758200388e-02	 7.217265949831683e+00
1	 1.513029171277717e+00	 6.167752529008763e-02	 6.961793071291211e+00
1	 1.511435873273994e+00	 9.285968049518506e-02	 6.706694049263576e+00
1	 1.509179858538677e+00	 1.242473993477081e-01	 6.452756741332440e+00
1	 1.506247230027299e+00	 1.558220652726523e-01	 6.200539662235737e+00
1	 1.502624676192253e+00	 1.875642011564123e-01	 5.950355148284965e+00
1	 1.498299527168598e+00	 2.194534853664177e-01	 5.702253320811490e+00
1	 1.493259811086144e+00	 2.514687717263093e-01	 5.456007044546483e+00
1	 1.487494310211727e+00	 2.835881135485694e-01	 5.211098080652770e+00
1	 1.480992616609070e+00	 3.157887918033364e-01	 4.966704635656456e+00
1	 1.528571604121408e+00	 0.000000000000000e+00	 7.179989830427650e+00
1	 1.528257044879485e+00	 3.100847825847763e-02	 6.934689669768683e+00
1	 1.527303121620974e+00	 6.225939241346007e-02	 6.688799462210084e+00
1	 1.525694792408982e+00	 9.373572075345028e-02	 6.443211166808679e+00
1	 1.523417494381241e+00	 1.254195520329751e-01	 6.198584559596432e+00
1	 1.520457199388268e+00	 1.572920940478329e-01	 5.955329568437605e+00
1	 1.516800470301028e+00	 1.893336859368810e-01	 5.713589362328165e+00
1	 1.512434517726803e+00	 2.215238143527999e-01	 5.473224396195038e+00
1	 1.507347256852522e+00	 2.538411336257166e-01	 5.233797617261819e+00
1	 1.501527364116686e+00	 2.862634900225589e-01	 4.994561041811446e+00
1	 1.494964333394326e+00	 3.187679501816155e-01	 4.754443911451226e+00
1	 1.542857422849333e+00	 0.000000000000000e+00	 6.897586565293331e+00
1	 1.542539923780245e+00	 3.129827920552281e-02	 6.661414658990955e+00
1	 1.541577085286909e+00	 6.284126008004454e-02	 6.424875994351018e+00
1	 1.539953724852582e+00	 9.461176182949638e-02	 6.188704888762514e+00
1	 1.537655143512507e+00	 1.265917058123711e-01	 5.953386807009188e+00
1	 1.534667182012065e+00	 1.587621241951145e-01	 5.719141035967063e+00
1	 1.530976277640682e+00	 1.911031723688825e-01	 5.485904263124313e+00
1	 1.526569521477754e+00	 2.235941452714363e-01	 5.253315266235569e+00
1	 1.521434715767229e+00	 2.562134977392117e-01	 5.020700925233550e+00
1	 1.515560431119178e+00	 2.889388689933976e-01	 4.787063768920155e+00
1	 1.508936063219851e+00	 3.217471113402418e-01	 4.551071267710904e+00
1	 1.557143261577926e+00	 0.000000000000000e+00	 6.624817571016946e+00
1	 1.556822822677546e+00	 3.158808055842829e-02	 6.397183513458184e+00
1	 1.555851068936875e+00	 6.342312856145918e-02	 6.169622115306968e+00
1	 1.554212677259125e+00	 9.548780413223884e-02	 5.942661626978391e+00
1	 1.551892812576865e+00	 1.277638612330018e-01	 5.716568323767625e+00
1	 1.548877184530161e+00	 1.602321564006051e-01	 5.491330072045203e+00
1	 1.545152104826728e+00	 1.928726612782576e-01	 5.266640952513935e+00
1	 1.540704545017914e+00	 2.256644790885435e-01	 5.041887149404973e+00
1	 1.535522194404530e+00	 2.585858651739392e-01	 4.816134316753450e+00
1	 1.529593517768076e+00	 2.916142517096169e-01	 4.588116632618298e+00
1	 1.522907812605887e+00	 3.247262766694958e-01	 4.356227749071654e+00
1	 1.571429126974074e+00	 0.000000000000000e+00	 6.361600403185599e+00
1	 1.571105748236902e+00	 3.187788245248305e-02	 6.141748197850241e+00
1	 1.570125079232222e+00	 6.400499812932213e-02	 5.922651847708075e+00
1	 1.568471656282942e+00	 9.636384807059326e-02	 5.704586478984511e+00
1	 1.566130508218708e+00	 1.289360188419724e-01	 5.487555601713610e+00
1	 1.563087213574030e+00	 1.617021913504133e-01	 5.271276110636024e+00
1	 1.559327958474683e+00	 1.946421534908473e-01	 5.055164500206088e+00
1	 1.554839594943744e+00	 2.277348167703377e-01	 4.838324499519171e+00
1	 1.549609699338691e+00	 2.609582370370436e-01	 4.619536333344182e+00
1	 1.543626630612252e+00	 2.942896394197481e-01	 4.397247813185398e+00
1	 1.536879588072675e+00	 3.277054475596566e-01	 4.169567457205481e+00
1	 1.397162224609719e+00	 2.979138220653008e-01	 6.448829965160009e+00
1	 1.390325533371589e+00	 3.283442820000868e-01	 6.160495399439109e+00
1	 1.382777281639109e+00	 3.588065786973459e-01	 5.852780180073525e+00
1	 1.374510249756393e+00	 3.892773319946374e-01	 5.525860911893536e+00
1	 1.365518180538822e+00	 4.197325810045940e-01	 5.180033170463323e+00
1	 1.355795824583439e+00	 4.501478303406597e-01	 4.815715921026149e+00
1	 1.345338983143448e+00	 4.804981001069037e-01	 4.433455295194188e+00
1	 1.334144548227396e+00	 5.107579795224063e-01	 4.033927658226915e+00
1	 1.322210539589158e+00	 5.409016840174555e-01	 3.617941903611477e+00
1	 1.309536138283946e+00	 5.709031156054665e-01	 3.186440916597308e+00
1	 1.296121716478273e+00	 6.007359263015425e-01	 2.740502154334019e+00
1	 1.411134000078413e+00	 3.008929929573673e-01	 6.174888382088508e+00
1	 1.404228941178191e+00	 3.316277608287755e-01	 5.894979708747203e+00
1	 1.396605206100602e+00	 3.623946838337244e-01	 5.596241568408210e+00
1	 1.388255502992416e+00	 3.931701480055892e-01	 5.278830411280303e+00
1	 1.379173512096488e+00	 4.239299528455067e-01	 4.943058564714510e+00
1	 1.369353931515263e+00	 4.546493580103738e-01	 4.589399881627125e+00
1	 1.358792520514022e+00	 4.853031338025658e-01	 4.218494487417452e+00
1	 1.347486140021065e+00	 5.158656153305728e-01	 3.831152536100136e+00
1	 1.335432789987597e+00	 5.463107601761635e-01	 3.428356892269274e+00
1	 1.322631643279300e+00	 5.766122093700307e-01	 3.011264662872293e+00
1	 1.309083075784400e+00	 6.067433514445451e-01	 2.581207511568801e+00
1	 1.425105749465931e+00	 3.038721582881034e-01	 5.912300302246846e+00
1	 1.418132323031283e+00	 3.349112335281558e-01	 5.639660592222928e+00
1	 1.410433104749542e+00	 3.659827822722144e-01	 5.348883617144605e+00
1	 1.402000730570267e+00	 3.970629567499074e-01	 5.040118667502192e+00
1	 1.392828818163903e+00	 4.281273168513230e-01	 4.713701909994506e+00
1	 1.382912013138390e+00	 4.591508772772685e-01	 4.370162973199752e+00
1	 1.372246032771167e+00	 4.901081585288932e-01	 4.010230407869948e+00
1	 1.360827706910340e+00	 5.209732416045713e-01	 3.634835914596593e+00
1	 1.348655015704478e+00	 5.517198262380337e-01	 3.245117239299897e+00
1	 1.335727123829745e+00	 5.823212924777389e-01	 2.842419646488903e+00
1	 1.322044410896074e+00	 6.127507653738173e-01	 2.428295891486221e+00
1	 1.439077479292515e+00	 3.068513194477887e-01	 5.660614017654630e+00
1	 1.432035685419194e+00	 3.381947016305061e-01	 5.394258613683029e+00
1	 1.424260984039027e+00	 3.695708756872476e-01	 5.110566661986857e+00
1	 1.415745938904460e+00	 4.009557600442207e-01	 4.809692966251263e+00
1	 1.406484105113612e+00	 4.323246749808002e-01	 4.492004420893087e+00
1	 1.396470075779993e+00	 4.636523902420470e-01	 4.158087246905763e+00
1	 1.385699526193253e+00	 4.949131765282328e-01	 3.808752913276507e+00
1	 1.374169255121346e+00	 5.260808607279711e-01	 3.445042622841655e+00
1	 1.361877222910231e+00	 5.571288847273165e-01	 3.068230250739660e+00
1	 1.348822586046562e+00	 5.880303675928577e-01	 2.679823634968381e+00
1	 1.335005727861969e+00	 6.187581708928535e-01	 2.281564131899910e+00
1	 1.453049196078406e+00	 3.098304778267026e-01	 5.419395200454288e+00
1	 1.445939034830253e+00	 3.414781666681055e-01	 5.158505090446990e+00
1	 1.438088850422154e+00	 3.731589657532558e-01	 4.881156415622019e+00
1	 1.429491134409508e+00	 4.048485597051586e-01	 4.587521856131985e+00
1	 1.420139379318163e+00	 4.365220291926967e-01	 4.278005730929113e+00
1	 1.410028125767245e+00	 4.681538990054123e-01	 3.953251601668641e+00
1	 1.399153007058650e+00	 4.997181900429310e-01	 3.614148407416156e+00
1	 1.387510790880210e+00	 5.311884750843423e-01	 3.261834999173101e+00
1	 1.375099417775286e+00	 5.625379381682628e-01	 2.897702953903475e+00
1	 1.361918036041029e+00	 5.937394373796537e-01	 2.523397560664257e+00
1	 1.347967032730759e+00	 6.247655708051465e-01	 2.140816886546445e+00
1	 1.467020906343844e+00	 3.128096348151254e-01	 5.188226074799264e+00
1	 1.459842377752788e+00	 3.447616301732324e-01	 4.932141580827029e+00
1	 1.451916710352021e+00	 3.767470541446709e-01	 4.660523711278424e+00
1	 1.443236323499923e+00	 4.087413575493496e-01	 4.373575088164637e+00
1	 1.433794647150103e+00	 4.407193814457703e-01	 4.071743967510783e+00
1	 1.423586169427317e+00	 4.726554056680671e-01	 3.755731933972485e+00
1	 1.412606481645731e+00	 5.045232013153349e-01	 3.426500005253819e+00
1	 1.400852320413059e+00	 5.362960870572544e-01	 3.085273009462994e+00
1	 1.388321606470075e+00	 5.679469890851228e-01	 2.733542110373237e+00
1	 1.375013479924427e+00	 5.994485045023932e-01	 2.373065369774174e+00
1	 1.360928331551120e+00	 6.307729679141900e-01	 2.005866252621534e+00
1	 1.480992616609070e+00	 3.157887918033364e-01	 4.966704635656456e+00
1	 1.473745720675130e+00	 3.480450936781657e-01	 4.714919400652876e+00
1	 1.465744570281727e+00	 3.803351425359247e-01	 4.448544260811925e+00
1	 1.456981512590223e+00	 4.126341553934235e-01	 4.167823558715899e+00
1	 1.447449914981977e+00	 4.449167336987789e-01	 3.873255822649317e+00
1	 1.437144213087383e+00	 4.771569123307148e-01	 3.565601279174372e+00
1	 1.426059956232863e+00	 5.093282125877910e-01	 3.245887687773589e+00
1	 1.414193849946018e+00	 5.414036990302772e-01	 2.915414358736283e+00
1	 1.401543795165028e+00	 5.733560400021475e-01	 2.575754228250459e+00
1	 1.388108923808035e+00	 6.051575716253428e-01	 2.228753879905373e+00
1	 1.373889630371724e+00	 6.367803650234781e-01	 1.876531419417169e+00
1	 1.494964333394326e+00	 3.187679501816155e-01	 4.754443911451226e+00
1	 1.487649070085608e+00	 3.513285587151836e-01	 4.506599166930222e+00
1	 1.479572436664370e+00	 3.839232326014490e-01	 4.245098426368992e+00
1	 1.470726708094918e+00	 4.165269550540093e-01	 3.970239255632337e+00
1	 1.461105189186332e+00	 4.491140879104804e-01	 3.682576619703884e+00
1	 1.450702263074612e+00	 4.816584210940578e-01	 3.382929944885987e+00
1	 1.439513437098418e+00	 5.141332261026461e-01	 3.072388448122363e+00
1	 1.427535385705215e+00	 5.465113133869804e-01	 2.752314596525120e+00
1	 1.414765990030577e+00	 5.787650934435867e-01	 2.424345573721226e+00
1	 1.401204373803133e+00	 6.108666414127690e-01	 2.090392645634053e+00
1	 1.386850935241248e+00	 6.427877649365041e-01	 1.752638336677929e+00
1	 1.508936063219851e+00	 3.217471113402418e-01	 4.551071267710903e+00
1	 1.501552432472550e+00	 3.546120268165655e-01	 4.306950366872721e+00
1	 1.493400315953049e+00	 3.875113260156757e-01	 4.050071004745691e+00
1	 1.484471916428524e+00	 4.204197583477359e-01	 3.780795207368967e+00
1	 1.474760476135717e+00	 4.533114460396327e-01	 3.499740376415424e+00
1	 1.464260325716179e+00	 4.861599340587995e-01	 3.207785636938888e+00
1	 1.452966930520765e+00	 5.189382441022472e-01	 2.906076429627629e+00
1	 1.440876933916774e+00	 5.516189325109339e-01	 2.596027216365296e+00
1	 1.427988197237152e+00	 5.841741519336919e-01	 2.279322181978102e+00
1	 1.414299836021000e+00	 6.165757165289386e-01	 1.957913831539816e+00
1	 1.399812252208365e+00	 6.487951704567616e-01	 1.634019401397485e+00
1	 1.522907812605887e+00	 3.247262766694958e-01	 4.356227749071654e+00
1	 1.515455814324286e+00	 3.578954995145896e-01	 4.115750950676717e+00
1	 1.507228214600859e+00	 3.910994244530367e-01	 3.863351023626686e+00
1	 1.498217144005554e+00	 4.243125670912325e-01	 3.599465434920281e+00
1	 1.488415782202676e+00	 4.575088100449939e-01	 3.324779864467778e+00
1	 1.477818407339255e+00	 4.906614533256427e-01	 3.040233578410128e+00
1	 1.466420442778276e+00	 5.237432688289406e-01	 2.747023056211512e+00
1	 1.454218500806824e+00	 5.567265587857070e-01	 2.446603749811137e+00
1	 1.441210422955184e+00	 5.895832179967133e-01	 2.140689867540361e+00
1	 1.427395316572917e+00	 6.222847996381182e-01	 1.831252092234930e+00
1	 1.412773587321749e+00	 6.548025843877445e-01	 1.520513161869949e+00
1	 1.536879588072675e+00	 3.277054475596566e-01	 4.169567457205481e+00
1	 1.529359222129145e+00	 3.611789783415347e-01	 3.932786946526513e+00
1	 1.521056139060902e+00	 3.946875295879635e-01	 3.684831548947699e+00
1	 1.511962397240521e+00	 4.282053831011283e-01	 3.426224906375543e+00
1	 1.502071113759757e+00	 4.617061818853215e-01	 3.157726665797375e+00
1	 1.491376514271011e+00	 4.951629809952903e-01	 2.880336622150202e+00
1	 1.479873980149320e+00	 5.285483025250732e-01	 2.595297155685558e+00
1	 1.467560092601489e+00	 5.618341945948696e-01	 2.304093855318163e+00
1	 1.454432673355103e+00	 5.949922941569014e-01	 2.008454234010771e+00
1	 1.440490821570163e+00	 6.279938934045739e-01	 1.710344458942806e+00
1	 1.425734946630075e+00	 6.608100095329462e-01	 1.411964037897251e+00
1	 1.296121716478273e+00	 6.007359263015425e-01	 2.740502154334019e+00
1	 1.281967848036833e+00	 6.303756502559339e-01	 2.272323602222486e+00
1	 1.267078280965017e+00	 6.597935335531179e-01	 1.774122110721217e+00
1	 1.251457107126304e+00	 6.889628711939321e-01	 1.246924920932915e+00
1	 1.235109686128581e+00	 7.178569865660782e-01	 6.916428674878168e-01
1	 1.218042652399525e+00	 7.464493056294462e-01	 1.090662177810203e-01
1	 1.200263917106523e+00	 7.747134321542246e-01	-5.001383029573154e-01
1	 1.181782664794757e+00	 8.026232235966543e-01	-1.135429246350448e+00
1	 1.162609344655126e+00	 8.301528671821563e-01	-1.796390895068427e+00
1	 1.142755656373624e+00	 8.572769557543545e-01	-2.482732411405317e+00
1	 1.122234530555182e+00	 8.839705629414819e-01	-3.194285670996909e+00
1	 1.309083075784400e+00	 6.067433514445451e-01	 2.581207511568801e+00
1	 1.294787667106306e+00	 6.366794758887820e-01	 2.129826384068140e+00
1	 1.279749202730872e+00	 6.663915412449152e-01	 1.648386923822265e+00
1	 1.263971815440652e+00	 6.958525754608674e-01	 1.137571408242468e+00
1	 1.247460918440193e+00	 7.250356351552959e-01	 5.978921158324799e-01
1	 1.230223212502171e+00	 7.539138805447811e-01	 2.968906077824529e-02
1	 1.212266687906508e+00	 7.824606514343239e-01	-5.668705990202531e-01
1	 1.193600621044838e+00	 8.106495438518657e-01	-1.191791435239957e+00
1	 1.174235565601107e+00	 8.384544868922558e-01	-1.845246878559958e+00
1	 1.154183338259446e+00	 8.658498193247729e-01	-2.527574600029812e+00
1	 1.133456998932246e+00	 8.928103655112042e-01	-3.239270161808163e+00
1	 1.322044410896074e+00	 6.127507653738173e-01	 2.428295891486221e+00
1	 1.307607462245575e+00	 6.429832897546267e-01	 1.993619419092581e+00
1	 1.292420100844492e+00	 6.729895366205751e-01	 1.528541284503655e+00
1	 1.276486500394384e+00	 7.027422668671673e-01	 1.033437694700570e+00
1	 1.259812127696359e+00	 7.322142703445174e-01	 5.084700976478673e-01
1	 1.242403749867965e+00	 7.613784415263900e-01	-4.641534289770954e-02
1	 1.224269436301516e+00	 7.902078562530934e-01	-6.314861858157559e-01
1	 1.205418555234924e+00	 8.186758491247561e-01	-1.247220028102019e+00
1	 1.185861764844993e+00	 8.467560911061389e-01	-1.894298686287678e+00
1	 1.165610998813772e+00	 8.744226668926508e-01	-2.573600258674338e+00
1	 1.144679446360872e+00	 9.016501515800983e-01	-3.286189109742391e+00
1	 1.335005727861969e+00	 6.187581708928535e-01	 2.281564131899908e+00
1	 1.320427239437255e+00	 6.492870947952859e-01	 1.863383766958488e+00
1	 1.305090981219005e+00	 6.795875227591991e-01	 1.414190991670697e+00
1	 1.289001167827722e+00	 7.096319486280581e-01	 9.340936373489037e-01
1	 1.272163319661003e+00	 7.393928954838045e-01	 4.229486665280257e-01
1	 1.254584270181177e+00	 7.688429920577627e-01	-1.196367644551354e-01
1	 1.236272167892840e+00	 7.979550502259156e-01	-6.943018159099081e-01
1	 1.217236472880059e+00	 8.267021431609495e-01	-1.301926021006347e+00
1	 1.197487947812345e+00	 8.550576836978963e-01	-1.943620889747845e+00
1	 1.177038643369505e+00	 8.829955024586523e-01	-2.620719092807535e+00
1	 1.155901878078191e+00	 9.104899252733928e-01	-3.334761287818176e+00
1	 1.347967032730759e+00	 6.247655708051465e-01	 2.140816886546445e+00
1	 1.333247004663966e+00	 6.555908939525751e-01	 1.738812756436021e+00
1	 1.317761849767537e+00	 6.861855027398904e-01	 1.304957008360972e+00
1	 1.301515823580887e+00	 7.165216239587651e-01	 8.391256402630342e-01
1	 1.284514500098049e+00	 7.465715139232197e-01	 3.409161468975888e-01
1	 1.266764779126081e+00	 7.763075356223882e-01	-1.903499796835676e-01
1	 1.248274888281778e+00	 8.057022369681759e-01	-7.556220544438983e-01
1	 1.229054379495284e+00	 8.347284297060696e-01	-1.356112290010413e+00
1	 1.209114119928721e+00	 8.633592685416175e-01	-1.993285187793265e+00
1	 1.188466277259546e+00	 8.915683300234398e-01	-2.668844277099962e+00
1	 1.167124299321332e+00	 9.193296907163157e-01	-3.384716283404071e+00
1	 1.360928331551120e+00	 6.307729679141900e-01	 2.005866252621534e+00
1	 1.346066763908323e+00	 6.618946901683121e-01	 1.619611400904081e+00
1	 1.330432712403213e+00	 6.927834796417507e-01	 1.200474739433035e+00
1	 1.314030473494097e+00	 7.234112960745130e-01	 7.481358664544444e-01
1	 1.296865674771423e+00	 7.537501290128256e-01	 2.619765496228329e-01
1	 1.278945282386943e+00	 7.837720757037558e-01	-2.589154829970080e-01
1	 1.260277603069626e+00	 8.134494200952568e-01	-8.157398593750864e-01
1	 1.240872280595642e+00	 8.427547125057406e-01	-1.409973977634208e+00
1	 1.220740286619681e+00	 8.716608495113923e-01	-2.043360543171707e+00
1	 1.199893905816797e+00	 9.001411535876770e-01	-2.717892289937082e+00
1	 1.178346715327428e+00	 9.281694520340954e-01	-3.435793982970365e+00
1	 1.373889630371724e+00	 6.367803650234781e-01	 1.876531419417169e+00
1	 1.358886523152945e+00	 6.681984863843136e-01	 1.505495846964531e+00
1	 1.343103575039161e+00	 6.993814565438822e-01	 1.100393350175423e+00
1	 1.326545123407574e+00	 7.303009681905276e-01	 6.607414944200500e-01
1	 1.309216849445051e+00	 7.609287441026844e-01	 1.857488320599060e-01
1	 1.291125785648038e+00	 7.912366157853546e-01	-3.256801610251373e-01
1	 1.272280317857678e+00	 8.211966032225428e-01	-8.749371288458434e-01
1	 1.252690181696174e+00	 8.507809953055863e-01	-1.463698857440420e+00
1	 1.232366453310785e+00	 8.799624304813104e-01	-2.093913311329392e+00
1	 1.211321534374162e+00	 9.087139771520272e-01	-2.767782757307742e+00
1	 1.189569131333609e+00	 9.370092133519605e-01	-3.487744086030471e+00
1	 1.386850935241248e+00	 6.427877649365041e-01	 1.752638336677929e+00
1	 1.371706288380448e+00	 6.745022855423962e-01	 1.396192854001563e+00
1	 1.355774443588506e+00	 7.059794365253866e-01	 1.004375123157151e+00
1	 1.339059779161538e+00	 7.371906435220346e-01	 5.765740164156290e-01
1	 1.321568029882856e+00	 7.681073625428583e-01	 1.118661996308599e-01
1	 1.303306294593635e+00	 7.987011593506748e-01	-3.909779284008359e-01
1	 1.284283038247231e+00	 8.289437899654170e-01	-9.334852178332498e-01
1	 1.264508088311923e+00	 8.588072818512308e-01	-1.517467678153727e+00
1	 1.243992625427591e+00	 8.882640153254620e-01	-2.145007361985773e+00
1	 1.222749168264542e+00	 9.172868047171535e-01	-2.818438305453778e+00
1	 1.200791552577006e+00	 9.458489787951391e-01	-3.540325646361155e+00
1	 1.399812252208365e+00	 6.487951704567616e-01	 1.634019401397485e+00
1	 1.384526065573450e+00	 6.808060905843768e-01	 1.291439302678562e+00
1	 1.368445323964375e+00	 7.125774226653668e-01	 9.120948508384668e-01
1	 1.351574446596209e+00	 7.440803252842588e-01	 4.952785757469199e-01
1	 1.333919221848763e+00	 7.752859876834094e-01	 3.997544623369520e-02
1	 1.315486814908005e+00	 8.061657098832048e-01	-4.551303281968752e-01
1	 1.296285769839580e+00	 8.366909839392637e-01	-9.916454260716067e-01
1	 1.276326005957931e+00	 8.668335758882978e-01	-1.571454488646302e+00
1	 1.255618808395660e+00	 8.965656079179360e-01	-2.196704193948225e+00
1	 1.234176812820839e+00	 9.258596402837190e-01	-2.869784421712805e+00
1	 1.212013984294751e+00	 9.546887524888598e-01	-3.593306638732009e+00
1	 1.412773587321749e+00	 6.548025843877445e-01	 1.520513161869949e+00
1	 1.397345860714569e+00	 6.871099044520724e-01	 1.190981730512766e+00
1	 1.381116222079894e+00	 7.191754180429248e-01	 8.232392616437257e-01
1	 1.364089131551809e+00	 7.509700166924258e-01	 4.165133405704352e-01
1	 1.346270431106699e+00	 7.824646228744004e-01	-3.026366900997757e-02
1	 1.327667352275420e+00	 8.136302708664346e-01	-5.184470992833062e-01
1	 1.308288518236020e+00	 8.444381887594662e-01	-1.049669459094809e+00
1	 1.288143940149242e+00	 8.748598811624115e-01	-1.625826945019168e+00
1	 1.267245007640550e+00	 9.048672121328237e-01	-2.249063043601879e+00
1	 1.245604473375955e+00	 9.344324878523876e-01	-2.921749323027330e+00
1	 1.223236431723973e+00	 9.635285385583509e-01	-3.646463549504329e+00
1	 1.425734946630075e+00	 6.608100095329462e-01	 1.411964037897251e+00
1	 1.410165679786421e+00	 6.934137300872995e-01	 1.094575892803130e+00
1	 1.393787143848190e+00	 7.257734257371631e-01	 7.375064773653272e-01
1	 1.376603839868557e+00	 7.578597209617606e-01	 3.399489118786423e-01
1	 1.358621663420585e+00	 7.896432714658930e-01	-9.917901098346427e-02
1	 1.339847912380150e+00	 8.210948457838531e-01	-5.812267127128689e-01
1	 1.320291289037849e+00	 8.521854080414092e-01	-1.107799864109991e+00
1	 1.299961896400895e+00	 8.828862014191952e-01	-1.680746600920201e+00
1	 1.278871228587822e+00	 9.131688318442138e-01	-2.302140987476539e+00
1	 1.257032155262793e+00	 9.430053514238217e-01	-2.974263831632114e+00
1	 1.234458900101805e+00	 9.723683411288404e-01	-3.699580989579655e+00
1	 1.122234530555182e+00	 8.839705629414819e-01	-3.194285670996909e+00
1	 1.101060100629861e+00	 9.102093196591319e-01	-3.936078501329821e+00
1	 1.079247663196073e+00	 9.359694939558444e-01	-4.711843496321145e+00
1	 1.056813651966454e+00	 9.612280539843321e-01	-5.519512511327766e+00
1	 1.033775600453680e+00	 9.859627334580974e-01	-6.356959842717635e+00
1	 1.010152096705643e+00	 1.010152096705644e+00	-7.222009217527956e+00
1	 9.859627334580970e-01	 1.033775600453680e+00	-8.112440968521254e+00
1	 9.612280539843319e-01	 1.056813651966455e+00	-9.025999345855450e+00
1	 9.359694939558441e-01	 1.079247663196073e+00	-9.960399915842634e+00
1	 9.102093196591318e-01	 1.101060100629861e+00	-1.091333699709152e+01
1	 8.839705629414819e-01	 1.122234530555182e+00	-1.188249108471502e+01
1	 1.133456998932246e+00	 8.928103655112042e-01	-3.239270161808163e+00
1	 1.112070822385416e+00	 9.193115126736295e-01	-3.985319552296266e+00
1	 1.090040258185034e+00	 9.453292915384648e-01	-4.768428153307075e+00
1	 1.067381904382676e+00	 9.708404399374153e-01	-5.585654050497442e+00
1	 1.044113469828073e+00	 9.958224689186665e-01	-6.433892683683686e+00
1	 1.020253728451648e+00	 1.020253728451648e+00	-7.309891693710219e+00
1	 9.958224689186663e-01	 1.044113469828074e+00	-8.210266799133189e+00
1	 9.708404399374146e-01	 1.067381904382677e+00	-9.131518571762289e+00
1	 9.453292915384641e-01	 1.090040258185035e+00	-1.007004997018102e+01
1	 9.193115126736290e-01	 1.112070822385416e+00	-1.102218448228162e+01
1	 8.928103655112043e-01	 1.133456998932246e+00	-1.198418472173023e+01
1	 1.144679446360872e+00	 9.016501515800983e-01	-3.286189109742391e+00
1	 1.123081523587785e+00	 9.284136886975023e-01	-4.036654478981891e+00
1	 1.100832833027974e+00	 9.546890716495984e-01	-4.826438648863975e+00
1	 1.077950137071642e+00	 9.804528079475135e-01	-5.651813652399990e+00
1	 1.054451319905255e+00	 1.005682185974534e+00	-6.508795063929607e+00
1	 1.030355341341413e+00	 1.030355341341414e+00	-7.393164008115390e+00
1	 1.005682185974534e+00	 1.054451319905255e+00	-8.300490956635921e+00
1	 9.804528079475129e-01	 1.077950137071642e+00	-9.226161106597141e+00
1	 9.546890716495977e-01	 1.100832833027974e+00	-1.016540111651465e+01
1	 9.284136886975021e-01	 1.123081523587786e+00	-1.111330696054953e+01
1	 9.016501515800985e-01	 1.144679446360873e+00	-1.206487264975672e+01
1	 1.155901878078191e+00	 9.104899252733928e-01	-3.334761287818176e+00
1	 1.134092209375281e+00	 9.375158519784222e-01	-4.089626671731566e+00
1	 1.111625392761407e+00	 9.640488386571276e-01	-4.885296786387597e+00
1	 1.088518354965175e+00	 9.900651625003817e-01	-5.717342576127311e+00
1	 1.064789155509534e+00	 1.015541889226881e+00	-6.580995759267529e+00
1	 1.040456940089006e+00	 1.040456940089006e+00	-7.471177317125344e+00
1	 1.015541889226881e+00	 1.064789155509535e+00	-8.382528443499513e+00
1	 9.900651625003815e-01	 1.088518354965175e+00	-9.309443680642726e+00
1	 9.640488386571272e-01	 1.111625392761407e+00	-1.024610594226693e+01
1	 9.375158519784218e-01	 1.134092209375281e+00	-1.118652310267887e+01
1	 9.104899252733929e-01	 1.155901878078191e+00	-1.212456581410331e+01
1	 1.167124299321332e+00	 9.193296907163157e-01	-3.384716283404071e+00
1	 1.145102884886215e+00	 9.466180067640608e-01	-4.143797083191158e+00
1	 1.122417942421851e+00	 9.734085969289363e-01	-4.944446611265030e+00
1	 1.099086562995096e+00	 9.996775080817737e-01	-5.781617039965525e+00
1	 1.075126981465220e+00	 1.025401583276890e+00	-6.649849373964221e+00
1	 1.050558529408490e+00	 1.050558529408490e+00	-7.543307749711409e+00
1	 1.025401583276890e+00	 1.075126981465220e+00	-8.455816784329823e+00
1	 9.996775080817734e-01	 1.099086562995096e+00	-9.380901638930125e+00
1	 9.734085969289358e-01	 1.122417942421852e+00	-1.031183042941434e+01
1	 9.466180067640603e-01	 1.145102884886215e+00	-1.124165859091306e+01
1	 9.193296907163158e-01	 1.167124299321332e+00	-1.216327478052177e+01
1	 1.178346715327428e+00	 9.281694520340954e-01	-3.435793982970365e+00
1	 1.156113555258898e+00	 9.557201573020899e-01	-4.198743391799455e+00
1	 1.133210487045824e+00	 9.827683508329064e-01	-5.003353351668959e+00
1	 1.109654766093226e+00	 1.009289849177444e+00	-5.844037033008038e+00
1	 1.085464802596620e+00	 1.035261272725742e+00	-6.714735111223175e+00
1	 1.060660114013930e+00	 1.060660114013931e+00	-7.608955218975543e+00
1	 1.035261272725741e+00	 1.085464802596620e+00	-8.519814954429396e+00
1	 1.009289849177443e+00	 1.109654766093227e+00	-9.440088056210875e+00
1	 9.827683508329058e-01	 1.133210487045824e+00	-1.036225331838267e+01
1	 9.557201573020896e-01	 1.156113555258899e+00	-1.127854578713361e+01
1	 9.281694520340955e-01	 1.178346715327428e+00	-1.218100975562893e+01
1	 1.189569131333609e+00	 9.370092133519605e-01	-3.487744086030471e+00
1	 1.167124225631645e+00	 9.648223078401814e-01	-4.254059212669783e+00
1	 1.144003031669840e+00	 9.921281047369207e-01	-5.061502419358183e+00
1	 1.120222969191389e+00	 1.018902190273145e+00	-5.904025194092733e+00
1	 1.095802623728044e+00	 1.045120962174616e+00	-6.775055613321130e+00
1	 1.070761698619392e+00	 1.070761698619392e+00	-7.667542301019941e+00
1	 1.045120962174616e+00	 1.095802623728045e+00	-8.574002369057544e+00
1	 1.018902190273145e+00	 1.120222969191389e+00	-9.486572902067641e+00
1	 9.921281047369205e-01	 1.144003031669840e+00	-1.039706550797933e+01
1	 9.648223078401810e-01	 1.167124225631645e+00	-1.129702341983658e+01
1	 9.370092133519605e-01	 1.189569131333609e+00	-1.217778060617090e+01
1	 1.200791552577006e+00	 9.458489787951391e-01	-3.540325646361155e+00
1	 1.178134901142766e+00	 9.739244626260072e-01	-4.309353352758969e+00
1	 1.154795581330418e+00	 1.001487863008863e+00	-5.118398466555622e+00
1	 1.130791177221405e+00	 1.028514535854631e+00	-5.961025753656136e+00
1	 1.106140449683802e+00	 1.054980656224697e+00	-6.830235866839003e+00
1	 1.080863287938940e+00	 1.080863287938940e+00	-7.718513176737139e+00
1	 1.054980656224697e+00	 1.106140449683802e+00	-8.617877929415565e+00
1	 1.028514535854631e+00	 1.130791177221405e+00	-9.519942252880625e+00
1	 1.001487863008862e+00	 1.154795581330418e+00	-1.041596948900290e+01
1	 9.739244626260068e-01	 1.178134901142766e+00	-1.129693628867614e+01
1	 9.458489787951390e-01	 1.200791552577005e+00	-1.215359687720649e+01
1	 1.212013984294751e+00	 9.546887524888598e-01	-3.593306638732009e+00
1	 1.189145586930573e+00	 9.830266259072385e-01	-4.364249107450379e+00
1	 1.165588141064074e+00	 1.010847630016615e+00	-5.173564495265617e+00
1	 1.141359395115096e+00	 1.038126890407658e+00	-6.014503534422319e+00
1	 1.116478285288201e+00	 1.064840359477164e+00	-6.879722168763968e+00
1	 1.090964886686639e+00	 1.090964886686639e+00	-7.761332632438664e+00
1	 1.064840359477164e+00	 1.116478285288201e+00	-8.650959121676447e+00
1	 1.038126890407658e+00	 1.141359395115096e+00	-9.539797547610048e+00
1	 1.010847630016614e+00	 1.165588141064074e+00	-1.041867880934491e+01
1	 9.830266259072381e-01	 1.189145586930573e+00	-1.127813498543594e+01
1	 9.546887524888599e-01	 1.212013984294750e+00	-1.210846780927881e+01
1	 1.223236431723973e+00	 9.635285385583509e-01	-3.646463549504329e+00
1	 1.200156288133378e+00	 9.921288019315477e-01	-4.418383595889285e+00
1	 1.176380715907324e+00	 1.020207410128059e+00	-5.226541015660636e+00
1	 1.151927627804283e+00	 1.047739258417978e+00	-6.063943007145940e+00
1	 1.126816135365550e+00	 1.074700076533199e+00	-6.922981149550745e+00
1	 1.101066499576554e+00	 1.101066499576555e+00	-7.795485115540384e+00
1	 1.074700076533199e+00	 1.126816135365550e+00	-8.672781165651012e+00
1	 1.047739258417978e+00	 1.151927627804284e+00	-9.545754884578436e+00
1	 1.020207410128059e+00	 1.176380715907324e+00	-1.040491756855964e+01
1	 9.921288019315472e-01	 1.200156288133379e+00	-1.124047563037260e+01
1	 9.635285385583509e-01	 1.223236431723973e+00	-1.204240235464078e+01
1	 1.234458900101805e+00	 9.723683411288404e-01	-3.699580989579655e+00
1	 1.211167009889495e+00	 1.001230994946606e+00	-4.471407132602813e+00
1	 1.187173310896686e+00	 1.029567207711080e+00	-5.276885250411836e+00
1	 1.162495880220790e+00	 1.057351644371346e+00	-6.108847397902065e+00
1	 1.137154004740159e+00	 1.084559811993984e+00	-6.959498849514328e+00
1	 1.111168131322751e+00	 1.111168131322752e+00	-7.820473841798519e+00
1	 1.084559811993984e+00	 1.137154004740160e+00	-8.682896209928122e+00
1	 1.057351644371345e+00	 1.162495880220790e+00	-9.537444356641883e+00
1	 1.029567207711079e+00	 1.187173310896686e+00	-1.037441994002548e+01
1	 1.001230994946606e+00	 1.211167009889495e+00	-1.118381962295143e+01
1	 9.723683411288406e-01	 1.234458900101806e+00	-1.195540919259433e+01
1	 8.839705629414819e-01	 1.122234530555182e+00	-1.188249108471502e+01
1	 8.572769557543541e-01	 1.142755656373625e+00	-1.284879486192547e+01
1	 8.301528671821561e-01	 1.162609344655126e+00	-1.379125024198597e+01
1	 8.026232235966541e-01	 1.181782664794758e+00	-1.470442638672110e+01
1	 7.747134321542239e-01	 1.200263917106523e+00	-1.558265453045231e+01
1	 7.464493056294456e-01	 1.218042652399525e+00	-1.642008042010017e+01
1	 7.178569865660778e-01	 1.235109686128581e+00	-1.721071763736474e+01
1	 6.889628711939315e-01	 1.251457107126304e+00	-1.794850126683039e+01
1	 6.597935335531173e-01	 1.267078280965017e+00	-1.862734138144008e+01
1	 6.303756502559335e-01	 1.281967848036833e+00	-1.924117583148762e+01
1	 6.007359263015425e-01	 1.296121716478273e+00	-1.978402184464010e+01
1	 8.928103655112043e-01	 1.133456998932246e+00	-1.198418472173023e+01
1	 8.658498193247725e-01	 1.154183338259446e+00	-1.293515025328728e+01
1	 8.384544868922551e-01	 1.174235565601107e+00	-1.385390495151183e+01
1	 8.106495438518655e-01	 1.193600621044838e+00	-1.473613542576068e+01
1	 7.824606514343235e-01	 1.212266687906508e+00	-1.557739000496828e+01
1	 7.539138805447808e-01	 1.230223212502172e+00	-1.637312006076213e+01
1	 7.250356351552953e-01	 1.247460918440193e+00	-1.711872171871931e+01
1	 6.958525754608671e-01	 1.263971815440653e+00	-1.780957754117294e+01
1	 6.663915412449148e-01	 1.279749202730872e+00	-1.844109777396766e+01
1	 6.366794758887817e-01	 1.294787667106307e+00	-1.900876076397871e+01
1	 6.067433514445451e-01	 1.309083075784400e+00	-1.950815217365302e+01
1	 9.016501515800985e-01	 1.144679446360873e+00	-1.206487264975672e+01
1	 8.744226668926504e-01	 1.165610998813773e+00	-1.299782607698270e+01
1	 8.467560911061386e-01	 1.185861764844994e+00	-1.389115611435216e+01
1	 8.186758491247558e-01	 1.205418555234924e+00	-1.474163738786538e+01
1	 7.902078562530926e-01	 1.224269436301516e+00	-1.554599954291758e+01
1	 7.613784415263897e-01	 1.242403749867965e+00	-1.630095774292523e+01
1	 7.322142703445168e-01	 1.259812127696359e+00	-1.700324310083812e+01
1	 7.027422668671670e-01	 1.276486500394385e+00	-1.764963274285097e+01
1	 6.729895366205746e-01	 1.292420100844493e+00	-1.823697921371063e+01
1	 6.429832897546265e-01	 1.307607462245575e+00	-1.876223894689685e+01
1	 6.127507653738173e-01	 1.322044410896074e+00	-1.922249954031202e+01
1	 9.104899252733929e-01	 1.155901878078191e+00	-1.212456581410331e+01
1	 8.829955024586520e-01	 1.177038643369505e+00	-1.303702014993244e+01
1	 8.550576836978958e-01	 1.197487947812345e+00	-1.390335488341563e+01
1	 8.267021431609489e-01	 1.217236472880060e+00	-1.472140439203427e+01
1	 7.979550502259154e-01	 1.236272167892840e+00	-1.548904514782324e+01
1	 7.688429920577622e-01	 1.254584270181178e+00	-1.620421567661054e+01
1	 7.393928954838040e-01	 1.272163319661003e+00	-1.686493603297230e+01
1	 7.096319486280576e-01	 1.289001167827722e+00	-1.746932660253571e+01
1	 6.795875227591985e-01	 1.305090981219005e+00	-1.801562605414225e+01
1	 6.492870947952851e-01	 1.320427239437256e+00	-1.850220827750085e+01
1	 6.187581708928535e-01	 1.335005727861969e+00	-1.892759815704535e+01
1	 9.193296907163158e-01	 1.167124299321332e+00	-1.216327478052177e+01
1	 8.915683300234393e-01	 1.188466277259546e+00	-1.305292272555338e+01
1	 8.633592685416168e-01	 1.209114119928721e+00	-1.389083895319537e+01
1	 8.347284297060690e-01	 1.229054379495284e+00	-1.467589044807001e+01
1	 8.057022369681752e-01	 1.248274888281779e+00	-1.540706725774750e+01
1	 7.763075356223875e-01	 1.266764779126081e+00	-1.608349219059427e+01
1	 7.465715139232193e-01	 1.284514500098049e+00	-1.670442964967139e+01
1	 7.165216239587646e-01	 1.301515823580887e+00	-1.726929352312493e+01
1	 6.861855027398900e-01	 1.317761849767538e+00	-1.777765406289195e+01
1	 6.555908939525746e-01	 1.333247004663966e+00	-1.822924369566597e+01
1	 6.247655708051463e-01	 1.347967032730759e+00	-1.862396172270493e+01
1	 9.281694520340955e-01	 1.178346715327428e+00	-1.218100975562893e+01
1	 9.001411535876764e-01	 1.199893905816797e+00	-1.304571685649754e+01
1	 8.716608495113920e-01	 1.220740286619682e+00	-1.385393320335763e+01
1	 8.427547125057401e-01	 1.240872280595642e+00	-1.460553232168816e+01
1	 8.134494200952562e-01	 1.260277603069626e+00	-1.530058577495861e+01
1	 7.837720757037553e-01	 1.278945282386944e+00	-1.593936287224266e+01
1	 7.537501290128253e-01	 1.296865674771424e+00	-1.652232916916928e+01
1	 7.234112960745126e-01	 1.314030473494097e+00	-1.705014378801740e+01
1	 6.927834796417501e-01	 1.330432712403214e+00	-1.752365559436184e+01
1	 6.618946901683117e-01	 1.346066763908323e+00	-1.794389827856340e+01
1	 6.307729679141899e-01	 1.360928331551119e+00	-1.831208440042332e+01
1	 9.370092133519605e-01	 1.189569131333609e+00	-1.217778060617090e+01
1	 9.087139771520266e-01	 1.211321534374162e+00	-1.301557873684101e+01
1	 8.799624304813101e-01	 1.232366453310785e+00	-1.379295030586949e+01
1	 8.507809953055858e-01	 1.252690181696174e+00	-1.451075035061647e+01
1	 8.211966032225422e-01	 1.272280317857678e+00	-1.517010103726373e+01
1	 7.912366157853544e-01	 1.291125785648038e+00	-1.577238164277191e+01
1	 7.609287441026841e-01	 1.309216849445050e+00	-1.631921702387882e+01
1	 7.303009681905274e-01	 1.326545123407575e+00	-1.681246470093609e+01
1	 6.993814565438816e-01	 1.343103575039162e+00	-1.725420069591284e+01
1	 6.681984863843131e-01	 1.358886523152945e+00	-1.764670427332359e+01
1	 6.367803650234780e-01	 1.373889630371725e+00	-1.799244174007259e+01
1	 9.458489787951390e-01	 1.200791552577005e+00	-1.215359687720649e+01
1	 9.172868047171532e-01	 1.222749168264542e+00	-1.296267802506778e+01
1	 8.882640153254612e-01	 1.243992625427591e+00	-1.370819129805230e+01
1	 8.588072818512302e-01	 1.264508088311923e+00	-1.439194921489190e+01
1	 8.289437899654166e-01	 1.284283038247231e+00	-1.501609473482879e+01
1	 7.987011593506743e-01	 1.303306294593636e+00	-1.558308177216207e+01
1	 7.681073625428576e-01	 1.321568029882856e+00	-1.609565392744056e+01
1	 7.371906435220340e-01	 1.339059779161539e+00	-1.655682166178054e+01
1	 7.059794365253862e-01	 1.355774443588507e+00	-1.696983815196823e+01
1	 6.745022855423957e-01	 1.371706288380448e+00	-1.733817407174436e+01
1	 6.427877649365041e-01	 1.386850935241248e+00	-1.766549154895207e+01
1	 9.546887524888599e-01	 1.212013984294750e+00	-1.210846780927881e+01
1	 9.258596402837188e-01	 1.234176812820839e+00	-1.288717814909501e+01
1	 8.965656079179358e-01	 1.255618808395660e+00	-1.359994612377248e+01
1	 8.668335758882972e-01	 1.276326005957932e+00	-1.424951866432727e+01
1	 8.366909839392632e-01	 1.296285769839580e+00	-1.483903077602011e+01
1	 8.061657098832041e-01	 1.315486814908005e+00	-1.537197683763889e+01
1	 7.752859876834088e-01	 1.333919221848763e+00	-1.585217988244001e+01
1	 7.440803252842582e-01	 1.351574446596210e+00	-1.628375918266032e+01
1	 7.125774226653666e-01	 1.368445323964376e+00	-1.667109647006230e+01
1	 6.808060905843761e-01	 1.384526065573451e+00	-1.701880113080199e+01
1	 6.487951704567616e-01	 1.399812252208365e+00	-1.733167471406440e+01
1	 9.635285385583509e-01	 1.223236431723973e+00	-1.204240235464078e+01
1	 9.344324878523871e-01	 1.245604473375955e+00	-1.278923659449322e+01
1	 9.048672121328234e-01	 1.267245007640551e+00	-1.346849414481629e+01
1	 8.748598811624111e-01	 1.288143940149242e+00	-1.408383420590051e+01
1	 8.444381887594662e-01	 1.308288518236021e+00	-1.463935610554548e+01
1	 8.136302708664341e-01	 1.327667352275421e+00	-1.513956162935093e+01
1	 7.824646228744000e-01	 1.346270431106699e+00	-1.558931513260867e+01
1	 7.509700166924256e-01	 1.364089131551809e+00	-1.599380184795216e+01
1	 7.191754180429246e-01	 1.381116222079895e+00	-1.635848481256642e+01
1	 6.871099044520719e-01	 1.397345860714569e+00	-1.668906084245056e+01
1	 6.548025843877445e-01	 1.412773587321749e+00	-1.699141597909053e+01
1	 9.723683411288406e-01	 1.234458900101806e+00	-1.195540919259433e+01
1	 9.430053514238215e-01	 1.257032155262794e+00	-1.266900517697242e+01
1	 9.131688318442132e-01	 1.278871228587822e+00	-1.331410462434815e+01
1	 8.828862014191952e-01	 1.299961896400895e+00	-1.389525775361793e+01
1	 8.521854080414087e-01	 1.320291289037849e+00	-1.441750147793181e+01
1	 8.210948457838527e-01	 1.339847912380151e+00	-1.488631300660519e+01
1	 7.896432714658925e-01	 1.358621663420585e+00	-1.530756106304292e+01
1	 7.578597209617604e-01	 1.376603839868557e+00	-1.568745522194758e+01
1	 7.257734257371627e-01	 1.393787143848190e+00	-1.603249387755030e+01
1	 6.934137300872991e-01	 1.410165679786422e+00	-1.634941135593707e+01
1	 6.608100095329461e-01	 1.425734946630075e+00	-1.664512467894857e+01
1	 6.007359263015425e-01	 1.296121716478273e+00	-1.978402184464010e+01
1	 5.709031156054668e-01	 1.309536138283946e+00	-2.026115038347380e+01
1	 5.409016840174559e-01	 1.322210539589158e+00	-2.068560952202274e+01
1	 5.107579795224065e-01	 1.334144548227396e+00	-2.106331613123526e+01
1	 4.804981001069039e-01	 1.345338983143447e+00	-2.140047207271703e+01
1	 4.501478303406600e-01	 1.355795824583440e+00	-2.170350337701037e+01
1	 4.197325810045943e-01	 1.365518180538823e+00	-2.197900022917852e+01
1	 3.892773319946376e-01	 1.374510249756393e+00	-2.223365827218827e+01
1	 3.588065786973464e-01	 1.382777281639109e+00	-2.247422169933260e+01
1	 3.283442820000870e-01	 1.390325533371589e+00	-2.270742856367137e+01
1	 2.979138220653007e-01	 1.397162224609720e+00	-2.293995868609704e+01
1	 6.067433514445451e-01	 1.309083075784400e+00	-1.950815217365303e+01
1	 5.766122093700309e-01	 1.322631643279299e+00	-1.994684695492736e+01
1	 5.463107601761639e-01	 1.335432789987598e+00	-2.033905588767523e+01
1	 5.158656153305731e-01	 1.347486140021065e+00	-2.069054337378907e+01
1	 4.853031338025660e-01	 1.358792520514021e+00	-2.100731886409465e+01
1	 4.546493580103738e-01	 1.369353931515262e+00	-2.129557839856669e+01
1	 4.239299528455069e-01	 1.379173512096489e+00	-2.156164713081091e+01
1	 3.931701480055894e-01	 1.388255502992416e+00	-2.181192331851937e+01
1	 3.623946838337248e-01	 1.396605206100602e+00	-2.205282422213261e+01
1	 3.316277608287758e-01	 1.404228941178191e+00	-2.229073431083555e+01
1	 3.008929929573673e-01	 1.411134000078413e+00	-2.253195612914927e+01
1	 6.127507653738173e-01	 1.322044410896074e+00	-1.922249954031202e+01
1	 5.823212924777392e-01	 1.335727123829746e+00	-1.962738309933424e+01
1	 5.517198262380341e-01	 1.348655015704478e+00	-1.999195338198609e+01
1	 5.209732416045715e-01	 1.360827706910340e+00	-2.032167255054716e+01
1	 4.901081585288934e-01	 1.372246032771167e+00	-2.062220858206270e+01
1	 4.591508772772688e-01	 1.382912013138390e+00	-2.089938031864334e+01
1	 4.281273168513232e-01	 1.392828818163903e+00	-2.115910362327509e+01
1	 3.970629567499076e-01	 1.402000730570267e+00	-2.140733908635378e+01
1	 3.659827822722146e-01	 1.410433104749542e+00	-2.165004168951751e+01
1	 3.349112335281559e-01	 1.418132323031283e+00	-2.189311279147454e+01
1	 3.038721582881034e-01	 1.425105749465931e+00	-2.214235475627176e+01
1	 6.187581708928535e-01	 1.335005727861969e+00	-1.892759815704535e+01
1	 5.880303675928579e-01	 1.348822586046562e+00	-1.930321218361197e+01
1	 5.571288847273168e-01	 1.361877222910231e+00	-1.964466296153958e+01
1	 5.260808607279712e-01	 1.374169255121346e+00	-1.995696483507990e+01
1	 4.949131765282329e-01	 1.385699526193252e+00	-2.024529940504197e+01
1	 4.636523902420471e-01	 1.396470075779993e+00	-2.051496521987678e+01
1	 4.323246749808004e-01	 1.406484105113612e+00	-2.077132863865420e+01
1	 4.009557600442210e-01	 1.415745938904460e+00	-2.101977626704899e+01
1	 3.695708756872477e-01	 1.424260984039027e+00	-2.126566933067162e+01
1	 3.381947016305064e-01	 1.432035685419194e+00	-2.151430031051304e+01
1	 3.068513194477885e-01	 1.439077479292515e+00	-2.177085212369497e+01
1	 6.247655708051463e-01	 1.347967032730759e+00	-1.862396172270493e+01
1	 5.937394373796542e-01	 1.361918036041030e+00	-1.897477016383191e+01
1	 5.625379381682628e-01	 1.375099417775286e+00	-1.929753171881887e+01
1	 5.311884750843425e-01	 1.387510790880210e+00	-1.959667136679902e+01
1	 4.997181900429311e-01	 1.399153007058650e+00	-1.987674343083620e+01
1	 4.681538990054125e-01	 1.410028125767245e+00	-2.014238702371195e+01
1	 4.365220291926969e-01	 1.420139379318163e+00	-2.039828267795473e+01
1	 4.048485597051587e-01	 1.429491134409507e+00	-2.064911050961171e+01
1	 3.731589657532560e-01	 1.438088850422154e+00	-2.089951023136851e+01
1	 3.414781666681058e-01	 1.445939034830253e+00	-2.115404329440977e+01
1	 3.098304778267026e-01	 1.453049196078406e+00	-2.141715740059320e+01
1	 6.307729679141899e-01	 1.360928331551119e+00	-1.831208440042332e+01
1	 5.994485045023934e-01	 1.375013479924427e+00	-1.864247641483260e+01
1	 5.679469890851232e-01	 1.388321606470075e+00	-1.895089354241457e+01
1	 5.362960870572546e-01	 1.400852320413059e+00	-1.924103372828074e+01
1	 5.045232013153351e-01	 1.412606481645730e+00	-1.951668696520779e+01
1	 4.726554056680674e-01	 1.423586169427317e+00	-1.978169759190027e+01
1	 4.407193814457706e-01	 1.433794647150102e+00	-2.003992773460645e+01
1	 4.087413575493499e-01	 1.443236323499923e+00	-2.029522218254414e+01
1	 3.767470541446711e-01	 1.451916710352021e+00	-2.055137495758764e+01
1	 3.447616301732327e-01	 1.459842377752788e+00	-2.081209780685973e+01
1	 3.128096348151254e-01	 1.467020906343844e+00	-2.108099081384766e+01
1	 6.367803650234780e-01	 1.373889630371725e+00	-1.799244174007259e+01
1	 6.051575716253430e-01	 1.388108923808035e+00	-1.830673451283325e+01
1	 5.733560400021477e-01	 1.401543795165028e+00	-1.860506973983197e+01
1	 5.414036990302774e-01	 1.414193849946018e+00	-1.889028439554714e+01
1	 5.093282125877912e-01	 1.426059956232863e+00	-1.916527079410494e+01
1	 4.771569123307149e-01	 1.437144213087382e+00	-1.943294682224763e+01
1	 4.449167336987791e-01	 1.447449914981977e+00	-1.969622722229783e+01
1	 4.126341553934238e-01	 1.456981512590223e+00	-1.995799614918031e+01
1	 3.803351425359250e-01	 1.465744570281728e+00	-2.022108120045540e+01
1	 3.480450936781660e-01	 1.473745720675131e+00	-2.048822909193325e+01
1	 3.157887918033364e-01	 1.480992616609070e+00	-2.076208312426398e+01
1	 6.427877649365041e-01	 1.386850935241248e+00	-1.766549154895207e+01
1	 6.108666414127693e-01	 1.401204373803133e+00	-1.796793297412591e+01
1	 5.787650934435871e-01	 1.414765990030577e+00	-1.826036962534377e+01
1	 5.465113133869809e-01	 1.427535385705215e+00	-1.854464716307695e+01
1	 5.141332261026464e-01	 1.439513437098417e+00	-1.882263044061062e+01
1	 4.816584210940583e-01	 1.450702263074612e+00	-1.909618273898892e+01
1	 4.491140879104806e-01	 1.461105189186332e+00	-1.936714590686018e+01
1	 4.165269550540095e-01	 1.470726708094918e+00	-1.963732155563269e+01
1	 3.839232326014494e-01	 1.479572436664371e+00	-1.990845344111164e+01
1	 3.513285587151840e-01	 1.487649070085608e+00	-2.018221114285502e+01
1	 3.187679501816154e-01	 1.494964333394326e+00	-2.046017513218661e+01
1	 6.487951704567616e-01	 1.399812252208365e+00	-1.733167471406440e+01
1	 6.165757165289388e-01	 1.414299836021000e+00	-1.762644595269295e+01
1	 5.841741519336923e-01	 1.427988197237152e+00	-1.791709107515740e+01
1	 5.516189325109340e-01	 1.440876933916775e+00	-1.820433754518394e+01
1	 5.189382441022474e-01	 1.452966930520765e+00	-1.848889640760534e+01
1	 4.861599340587998e-01	 1.464260325716178e+00	-1.877145157813736e+01
1	 4.533114460396329e-01	 1.474760476135716e+00	-1.905264984194041e+01
1	 4.204197583477361e-01	 1.484471916428524e+00	-1.933309163052864e+01
1	 3.875113260156759e-01	 1.493400315953048e+00	-1.961332263421119e+01
1	 3.546120268165657e-01	 1.501552432472550e+00	-1.989382629476021e+01
1	 3.217471113402418e-01	 1.508936063219851e+00	-2.017501721060221e+01
1	 6.548025843877445e-01	 1.412773587321749e+00	-1.699141597909053e+01
1	 6.222847996381184e-01	 1.427395316572917e+00	-1.728263389939319e+01
1	 5.895832179967134e-01	 1.441210422955183e+00	-1.757552105199709e+01
1	 5.567265587857072e-01	 1.454218500806824e+00	-1.786956315528411e+01
1	 5.237432688289408e-01	 1.466420442778276e+00	-1.816419440705994e+01
1	 4.906614533256430e-01	 1.477818407339254e+00	-1.845879786813222e+01
1	 4.575088100449941e-01	 1.488415782202676e+00	-1.875270630821717e+01
1	 4.243125670912327e-01	 1.498217144005554e+00	-1.904520349578044e+01
1	 3.910994244530369e-01	 1.507228214600860e+00	-1.933552590886226e+01
1	 3.578954995145898e-01	 1.515455814324286e+00	-1.962286483988676e+01
1	 3.247262766694958e-01	 1.522907812605887e+00	-1.990636886396472e+01
1	 6.608100095329461e-01	 1.425734946630075e+00	-1.664512467894856e+01
1	 6.279938934045742e-01	 1.440490821570162e+00	-1.693684418516127e+01
1	 5.949922941569017e-01	 1.454432673355103e+00	-1.723593610104852e+01
1	 5.618341945948699e-01	 1.467560092601490e+00	-1.754052406445688e+01
1	 5.285483025250735e-01	 1.479873980149320e+00	-1.784864557681227e+01
1	 4.951629809952906e-01	 1.491376514271011e+00	-1.815826450608363e+01
1	 4.617061818853219e-01	 1.502071113759757e+00	-1.846728375593536e+01
1	 4.282053831011286e-01	 1.511962397240521e+00	-1.877355798768504e+01
1	 3.946875295879637e-01	 1.521056139060901e+00	-1.907490628589024e+01
1	 3.611789783415348e-01	 1.529359222129144e+00	-1.936912466377420e+01
1	 3.277054475596566e-01	 1.536879588072675e+00	-1.965399831110514e+01
1	 2.979138220653007e-01	 1.397162224609720e+00	-2.293995868609705e+01
1	 2.675358372207115e-01	 1.403295895093266e+00	-2.317535658875385e+01
1	 2.372345848256142e-01	 1.408735044443937e+00	-2.340897397224589e+01
1	 2.070314979173397e-01	 1.413489491465140e+00	-2.363523986389268e+01
1	 1.769472809086950e-01	 1.417569818919275e+00	-2.384869691142814e+01
1	 1.470018830136218e-01	 1.420987321018450e+00	-2.404403652265805e+01
1	 1.172144755749144e-01	 1.423753950460095e+00	-2.421613102650518e+01
1	 8.760343321972207e-02	 1.425882265302377e+00	-2.436006275916297e+01
1	 5.818631874669211e-02	 1.427385375958748e+00	-2.447115001671341e+01
1	 2.897987162897944e-02	 1.428276892573984e+00	-2.454496985113190e+01
1	 0.000000000000000e+00	 1.428570873025926e+00	-2.457737771976801e+01
1	 3.008929929573673e-01	 1.411134000078413e+00	-2.253195612914927e+01
1	 2.702112249327637e-01	 1.417329007939364e+00	-2.277916587155813e+01
1	 2.396069566905304e-01	 1.422822549379909e+00	-2.302629632985788e+01
1	 2.091018356007427e-01	 1.427624541392580e+00	-2.326657597919967e+01
1	 1.787167731226268e-01	 1.431745672568571e+00	-2.349337528292165e+01
1	 1.484719179644715e-01	 1.435197350063360e+00	-2.370024947732765e+01
1	 1.183866331846205e-01	 1.437991646102674e+00	-2.388097768720075e+01
1	 8.847947715852815e-02	 1.440141244326646e+00	-2.402959825787245e+01
1	 5.876818831477241e-02	 1.441659386254313e+00	-2.414044023573270e+01
1	 2.926967352309260e-02	 1.442559818133399e+00	-2.420815097255648e+01
1	 0.000000000000000e+00	 1.442856738422074e+00	-2.422771986952824e+01
1	 3.038721582881034e-01	 1.425105749465931e+00	-2.214235475627176e+01
1	 2.728866076504773e-01	 1.431362094589756e+00	-2.239956704001636e+01
1	 2.419793241266670e-01	 1.436910028018619e+00	-2.265760399564481e+01
1	 2.111721694191012e-01	 1.441759564933991e+00	-2.290889571188185e+01
1	 1.804862620330458e-01	 1.445921499755662e+00	-2.314603601583590e+01
1	 1.499419501707722e-01	 1.449407352582267e+00	-2.336183044116929e+01
1	 1.195587886058231e-01	 1.452229315167604e+00	-2.354934003571223e+01
1	 8.935551946162196e-02	 1.454400196733541e+00	-2.370192088352066e+01
1	 5.935005679635611e-02	 1.455933369904449e+00	-2.381325926832015e+01
1	 2.955947487604350e-02	 1.456842717030745e+00	-2.387740245427171e+01
1	 0.000000000000000e+00	 1.457142577150667e+00	-2.388878510557792e+01
1	 3.068513194477885e-01	 1.439077479292515e+00	-2.177085212369497e+01
1	 2.755619866223831e-01	 1.445395161593315e+00	-2.203625042465469e+01
1	 2.443516882411685e-01	 1.450997486934333e+00	-2.230261276977189e+01
1	 2.132425003386314e-01	 1.455894568685836e+00	-2.256196141709273e+01
1	 1.822557484657930e-01	 1.460097307096061e+00	-2.280649768746446e+01
1	 1.514119803186323e-01	 1.463617335206642e+00	-2.302865269355522e+01
1	 1.207309423856277e-01	 1.466466964299278e+00	-2.322113361325125e+01
1	 9.023156053791902e-02	 1.468659129177393e+00	-2.337696537860894e+01
1	 5.993192446306135e-02	 1.470207333570505e+00	-2.348952770683757e+01
1	 2.984927582312111e-02	 1.471125595931537e+00	-2.355258745189818e+01
1	 0.000000000000000e+00	 1.471428395878593e+00	-2.356032630372939e+01
1	 3.098304778267026e-01	 1.453049196078406e+00	-2.141715740059320e+01
1	 2.782373630970130e-01	 1.459428215498915e+00	-2.168891825052444e+01
1	 2.467240501411798e-01	 1.465084932701314e+00	-2.196104937288593e+01
1	 2.153128293255497e-01	 1.470029559244577e+00	-2.222554458642277e+01
1	 1.840252332467091e-01	 1.474273101205284e+00	-2.247458585575377e+01
1	 1.528820090941602e-01	 1.477827304567958e+00	-2.270059439638420e+01
1	 1.219030950711398e-01	 1.480704600142087e+00	-2.289627722223987e+01
1	 9.110760079633477e-02	 1.482918048312530e+00	-2.305466900999190e+01
1	 6.051379158650618e-02	 1.484481283913834e+00	-2.316916921061576e+01
1	 3.013907649961434e-02	 1.485408461501292e+00	-2.323357439148493e+01
1	 0.000000000000000e+00	 1.485714201272741e+00	-2.324210584137445e+01
1	 3.128096348151254e-01	 1.467020906343844e+00	-2.108099081384766e+01
1	 2.809127383228978e-01	 1.473461262855427e+00	-2.135728406878128e+01
1	 2.490964109338452e-01	 1.479172371893830e+00	-2.163265092440668e+01
1	 2.173831573460730e-01	 1.484164543206676e+00	-2.189942541152689e+01
1	 1.857947172016352e-01	 1.488448888698843e+00	-2.215013272597084e+01
1	 1.543520371834640e-01	 1.492037267297686e+00	-2.237753836099688e+01
1	 1.230752472094646e-01	 1.494942229340423e+00	-2.257469277067147e+01
1	 9.198364064578483e-02	 1.497176960793287e+00	-2.273497144842560e+01
1	 6.109565843830880e-02	 1.498755227595788e+00	-2.285211035957590e+01
1	 3.042887704081213e-02	 1.499691320405524e+00	-2.292023671788733e+01
1	 0.000000000000000e+00	 1.500000000000000e+00	-2.293389514379311e+01
1	 3.157887918033364e-01	 1.480992616609070e+00	-2.076208312426398e+01
1	 2.835881135485694e-01	 1.487494310211727e+00	-2.104107222046641e+01
1	 2.514687717263093e-01	 1.493259811086144e+00	-2.131716445037389e+01
1	 2.194534853664175e-01	 1.498299527168598e+00	-2.158339237247401e+01
1	 1.875642011564121e-01	 1.502624676192253e+00	-2.183297683625581e+01
1	 1.558220652726521e-01	 1.506247230027299e+00	-2.205937182829514e+01
1	 1.242473993477078e-01	 1.509179858538677e+00	-2.225630512528953e+01
1	 9.285968049518474e-02	 1.511435873273994e+00	-2.241781465493949e+01
1	 6.167752529008724e-02	 1.513029171277717e+00	-2.253828051614343e+01
1	 3.071867758200346e-02	 1.513974179309750e+00	-2.261245265739996e+01
1	 0.000000000000000e+00	 1.514285798727260e+00	-2.263547425616492e+01
1	 3.187679501816154e-01	 1.494964333394326e+00	-2.046017513218661e+01
1	 2.862634900225589e-01	 1.501527364116686e+00	-2.074001733038205e+01
1	 2.538411336257165e-01	 1.507347256852522e+00	-2.101434641891551e+01
1	 2.215238143527998e-01	 1.512434517726803e+00	-2.127724184919905e+01
1	 1.893336859368808e-01	 1.516800470301028e+00	-2.152296276082102e+01
1	 1.572920940478327e-01	 1.520457199388267e+00	-2.174598626120212e+01
1	 1.254195520329748e-01	 1.523417494381241e+00	-2.194104197300588e+01
1	 9.373572075344996e-02	 1.525694792408982e+00	-2.210314277358551e+01
1	 6.225939241345967e-02	 1.527303121620974e+00	-2.222761169491131e+01
1	 3.100847825847722e-02	 1.528257044879485e+00	-2.231010499371063e+01
1	 0.000000000000000e+00	 1.528571604121408e+00	-2.234663143960042e+01
1	 3.217471113402418e-01	 1.508936063219851e+00	-2.017501721060221e+01
1	 2.889388689933977e-01	 1.515560431119178e+00	-2.045386382910823e+01
1	 2.562134977392116e-01	 1.521434715767229e+00	-2.072396230154503e+01
1	 2.235941452714363e-01	 1.526569521477754e+00	-2.098077775455879e+01
1	 1.911031723688823e-01	 1.530976277640682e+00	-2.121994082965337e+01
1	 1.587621241951142e-01	 1.534667182012064e+00	-2.143727714866217e+01
1	 1.265917058123708e-01	 1.537655143512507e+00	-2.162883369002413e+01
1	 9.461176182949604e-02	 1.539953724852582e+00	-2.179090203014986e+01
1	 6.284126008004413e-02	 1.541577085286909e+00	-2.192003843955082e+01
1	 3.129827920552237e-02	 1.542539923780245e+00	-2.201308085631208e+01
1	 0.000000000000000e+00	 1.542857422849333e+00	-2.206716278963389e+01
1	 3.247262766694958e-01	 1.522907812605887e+00	-1.990636886396473e+01
1	 2.916142517096169e-01	 1.529593517768076e+00	-2.018236550135328e+01
1	 2.585858651739391e-01	 1.535522194404530e+00	-2.044578615862745e+01
1	 2.256644790885433e-01	 1.540704545017914e+00	-2.069381118760408e+01
1	 1.928726612782574e-01	 1.545152104826729e+00	-2.092376686365885e+01
1	 1.602321564006049e-01	 1.548877184530161e+00	-2.113314382043798e+01
1	 1.277638612330015e-01	 1.551892812576865e+00	-2.131961321817382e+01
1	 9.548780413223854e-02	 1.554212677259125e+00	-2.148104063644574e+01
1	 6.342312856145879e-02	 1.555851068936875e+00	-2.161549770650278e+01
1	 3.158808055842786e-02	 1.556822822677546e+00	-2.172127152057060e+01
1	 0.000000000000000e+00	 1.557143261577926e+00	-2.179687187573398e+01
1	 3.277054475596566e-01	 1.536879588072675e+00	-1.965399831110514e+01
1	 2.942896394197481e-01	 1.543626630612252e+00	-1.992528505895969e+01
1	 2.609582370370435e-01	 1.549609699338690e+00	-2.017960024747534e+01
1	 2.277348167703377e-01	 1.554839594943745e+00	-2.041616010577948e+01
1	 1.946421534908471e-01	 1.559327958474682e+00	-2.063430192426508e+01
1	 1.617021913504131e-01	 1.563087213574030e+00	-2.083348927201839e+01
1	 1.289360188419721e-01	 1.566130508218708e+00	-2.101331594799466e+01
1	 9.636384807059289e-02	 1.568471656282942e+00	-2.117350869982969e+01
1	 6.400499812932171e-02	 1.570125079232223e+00	-2.131392875501861e+01
1	 3.187788245248261e-02	 1.571105748236902e+00	-2.143457221870839e+01
1	 0.000000000000000e+00	 1.571429126974074e+00	-2.153556940049393e+01
1	 1.571429126974074e+00	 0.000000000000000e+00	 6.361600403185599e+00
1	 1.571105748236902e+00	 3.187788245248305e-02	 6.141748197850241e+00
1	 1.570125079232222e+00	 6.400499812932213e-02	 5.922651847708075e+00
1	 1.568471656282942e+00	 9.636384807059326e-02	 5.704586478984511e+00
1	 1.566130508218708e+00	 1.289360188419724e-01	 5.487555601713610e+00
1	 1.563087213574030e+00	 1.617021913504133e-01	 5.271276110636024e+00
1	 1.559327958474683e+00	 1.946421534908473e-01	 5.055164500206088e+00
1	 1.554839594943744e+00	 2.277348167703377e-01	 4.838324499519171e+00
1	 1.549609699338691e+00	 2.609582370370436e-01	 4.619536333344182e+00
1	 1.543626630612252e+00	 2.942896394197481e-01	 4.397247813185398e+00
1	 1.536879588072675e+00	 3.277054475596566e-01	 4.169567457205481e+00
1	 1.585715024037928e+00	 0.000000000000000e+00	 6.106882619190896e+00
1	 1.585388705457436e+00	 3.216768498914990e-02	 5.894615742359971e+00
1	 1.584399121168951e+00	 6.458686898734099e-02	 5.683792148694105e+00
1	 1.582730666914771e+00	 9.723989395123972e-02	 5.474430639839180e+00
1	 1.580368235421320e+00	 1.301081790496063e-01	 5.266272578573390e+00
1	 1.577297274117268e+00	 1.631722295591160e-01	 5.058768552503999e+00
1	 1.573503843546176e+00	 1.964116496260304e-01	 4.851066392906944e+00
1	 1.568974676202594e+00	 2.298051590414821e-01	 4.642000748436837e+00
1	 1.563697235500412e+00	 2.633306141588864e-01	 4.430084411891199e+00
1	 1.557659774563367e+00	 2.969650330601948e-01	 4.213501593978986e+00
1	 1.550851394510401e+00	 3.306846250534405e-01	 3.990103330948118e+00
1	 1.600000951102682e+00	 0.000000000000000e+00	 5.859600984568656e+00
1	 1.599671692672685e+00	 3.245748813458729e-02	 5.655345434438772e+00
1	 1.598673193081649e+00	 6.516874106758157e-02	 5.452977979711489e+00
1	 1.596989707490964e+00	 9.811594167191688e-02	 5.252300100371738e+00
1	 1.594605992523555e+00	 1.312803417190980e-01	 5.052834160884729e+00
1	 1.591507364501976e+00	 1.646422708551649e-01	 4.853811656079687e+00
1	 1.587679758387314e+00	 1.981811494773362e-01	 4.654162917747371e+00
1	 1.583109787145346e+00	 2.318755056604247e-01	 4.452508474163242e+00
1	 1.577784801246143e+00	 2.657029962626958e-01	 4.247152251571542e+00
1	 1.571692947984227e+00	 2.996404323188487e-01	 4.036076800783153e+00
1	 1.564823230289037e+00	 3.336638088033086e-01	 3.816940723301294e+00
1	 1.614286904834791e+00	 0.000000000000000e+00	 5.619661674251494e+00
1	 1.613954706549798e+00	 3.274729182112748e-02	 5.423778715521893e+00
1	 1.612947291639554e+00	 6.575061423419915e-02	 5.230001566322574e+00
1	 1.611248774684285e+00	 9.899199102812814e-02	 5.037952269063339e+00
1	 1.608843776203160e+00	 1.324525065768599e-01	 4.846976144251919e+00
1	 1.605717481412379e+00	 1.661123148954807e-01	 4.656131539295739e+00
1	 1.601855699690321e+00	 1.999506526318325e-01	 4.464181108619175e+00
1	 1.597244924473770e+00	 2.339458561440600e-01	 4.269584808376480e+00
1	 1.591872393288765e+00	 2.680753827949168e-01	 4.070494784514912e+00
1	 1.585726147600425e+00	 3.023158365714738e-01	 3.864752325729429e+00
1	 1.578795092148498e+00	 3.366429981141584e-01	 3.649887042825321e+00
1	 1.628572881900711e+00	 0.000000000000000e+00	 5.386974148728207e+00
1	 1.628237743755919e+00	 3.303709598110283e-02	 5.199762584999575e+00
1	 1.627221413511901e+00	 6.633248835134901e-02	 5.014662419673446e+00
1	 1.625507865167491e+00	 9.986804181537659e-02	 4.831153062127825e+00
1	 1.623081583137882e+00	 1.336246733493043e-01	 4.648443590634002e+00
1	 1.619927621532703e+00	 1.675823613369837e-01	 4.465463926103784e+00
1	 1.616031664147422e+00	 2.017201586765867e-01	 4.280857573259327e+00
1	 1.611380084889633e+00	 2.360162100092826e-01	 4.092976102176829e+00
1	 1.605960008341164e+00	 2.704477732019947e-01	 3.899875537557534e+00
1	 1.599759370137554e+00	 3.049912451938342e-01	 3.699314814852496e+00
1	 1.592766976828704e+00	 3.396221922908876e-01	 3.488756451406850e+00
1	 1.642858878966899e+00	 0.000000000000000e+00	 5.161451011246074e+00
1	 1.642520800958195e+00	 3.332690054684562e-02	 4.983149358666534e+00
1	 1.641495555367929e+00	 6.691436328318649e-02	 4.806767019859087e+00
1	 1.639766975613346e+00	 1.007440938291657e-01	 4.631676533755001e+00
1	 1.637319410005468e+00	 1.347968417628436e-01	 4.456990425607334e+00
1	 1.634137781547173e+00	 1.690524098365947e-01	 4.281553728961931e+00
1	 1.630207648450840e+00	 2.034896671986659e-01	 4.103938077122650e+00
1	 1.625515265094705e+00	 2.380865667729873e-01	 3.922437525351826e+00
1	 1.620047643116225e+00	 2.728201669303749e-01	 3.735066258651487e+00
1	 1.613792612321206e+00	 3.076666575616935e-01	 3.539558331042194e+00
1	 1.606738881069569e+00	 3.426013906383932e-01	 3.333369570707642e+00
1	 1.657144892699808e+00	 0.000000000000000e+00	 4.943007872395168e+00
1	 1.656803874823768e+00	 3.361670545068816e-02	 4.773796439658416e+00
1	 1.655769713876872e+00	 6.749623889386683e-02	 4.606128515657074e+00
1	 1.654026102694607e+00	 1.016201468649986e-01	 4.439304525468719e+00
1	 1.651557253483665e+00	 1.359690115438903e-01	 4.272379056447701e+00
1	 1.648347958140016e+00	 1.705224600512339e-01	 4.104154652905734e+00
1	 1.644383649292800e+00	 2.052591777851378e-01	 3.933177148766331e+00
1	 1.639650461790754e+00	 2.401569259520683e-01	 3.757732686357516e+00
1	 1.634135294326828e+00	 2.751925634265019e-01	 3.575846562586744e+00
1	 1.627825870876976e+00	 3.103420730508160e-01	 3.385284034419350e+00
1	 1.620710801611011e+00	 3.455805924615732e-01	 3.183553203788627e+00
1	 1.671430919765895e+00	 0.000000000000000e+00	 4.731563221633150e+00
1	 1.671086962019786e+00	 3.390651062496277e-02	 4.571566101128584e+00
1	 1.670043885707968e+00	 6.807811504754545e-02	 4.412566439650931e+00
1	 1.668285243084035e+00	 1.024962007183786e-01	 4.253826333456609e+00
1	 1.665795110250220e+00	 1.371411824188566e-01	 4.094380009787165e+00
1	 1.662558147995456e+00	 1.719925116378220e-01	 3.933028819912013e+00
1	 1.658559663365526e+00	 2.070286900230698e-01	 3.768337705459911e+00
1	 1.653785671679549e+00	 2.422272870634203e-01	 3.598633271776976e+00
1	 1.648222958685861e+00	 2.775649621368212e-01	 3.422003594871395e+00
1	 1.641859142530455e+00	 3.130174910369654e-01	 3.236299879093506e+00
1	 1.634682735192946e+00	 3.485597970653249e-01	 3.039140071001603e+00
1	 1.685716956831615e+00	 0.000000000000000e+00	 4.527038305339161e+00
1	 1.685370059213394e+00	 3.419631600200176e-02	 4.376325279969157e+00
1	 1.684318067530453e+00	 6.865999160837752e-02	 4.225906437830918e+00
1	 1.682544393454392e+00	 1.033722551848091e-01	 4.075038392805947e+00
1	 1.680032976982881e+00	 1.383133541141549e-01	 3.922771587685055e+00
1	 1.676768347797721e+00	 1.734625642532795e-01	 3.767946412352265e+00
1	 1.672735687361242e+00	 2.087982034995292e-01	 3.609190697821597e+00
1	 1.667920891462859e+00	 2.442976496239379e-01	 3.444918704101483e+00
1	 1.662310632906206e+00	 2.799373625077780e-01	 3.273331712693293e+00
1	 1.655892424007237e+00	 3.156929108959058e-01	 3.092420325331229e+00
1	 1.648654678555294e+00	 3.515390037545457e-01	 2.899968559302968e+00
1	 1.700003000563425e+00	 0.000000000000000e+00	 4.329357011012805e+00
1	 1.699653163071738e+00	 3.448612151413742e-02	 4.187945380927048e+00
1	 1.698592256013564e+00	 6.924186844051838e-02	 4.045980012820849e+00
1	 1.696803550478436e+00	 1.042483100597932e-01	 3.902743977651791e+00
1	 1.694270850359394e+00	 1.394855263561977e-01	 3.757339541030409e+00
1	 1.690978554231035e+00	 1.749326175545268e-01	 3.608685334413491e+00
1	 1.686911717972173e+00	 2.105677178015834e-01	 3.455514772362393e+00
1	 1.682056117842452e+00	 2.463680131505156e-01	 3.296375816756956e+00
1	 1.676398313700747e+00	 2.823097639858172e-01	 3.129632181958862e+00
1	 1.669925712032915e+00	 3.183683320034011e-01	 2.953466066229148e+00
1	 1.662626628437969e+00	 3.545182118341332e-01	 2.765882484200104e+00
1	 1.714289047627778e+00	 0.000000000000000e+00	 4.138445757260120e+00
1	 1.713936270261961e+00	 3.477592709370207e-02	 4.006302090508872e+00
1	 1.712866447826537e+00	 6.982374540812339e-02	 3.872624279936722e+00
1	 1.711062710828929e+00	 1.051243651388343e-01	 3.736752916309535e+00
1	 1.708508727057505e+00	 1.406576988713972e-01	 3.597876759265602e+00
1	 1.705188763979623e+00	 1.764026711984846e-01	 3.455030890438885e+00
1	 1.701087751890541e+00	 2.123372325163000e-01	 3.307095950893855e+00
1	 1.696191347520097e+00	 2.484383771600481e-01	 3.152798545370411e+00
1	 1.690485997782368e+00	 2.846821660173839e-01	 2.990712889471881e+00
1	 1.683959003333080e+00	 3.210437537352151e-01	 2.819263768045897e+00
1	 1.676598581580888e+00	 3.574974206089848e-01	 2.636730863594066e+00
1	 1.536879588072675e+00	 3.277054475596566e-01	 4.169567457205481e+00
1	 1.529359222129145e+00	 3.611789783415347e-01	 3.932786946526513e+00
1	 1.521056139060902e+00	 3.946875295879635e-01	 3.684831548947699e+00
1	 1.511962397240521e+00	 4.282053831011283e-01	 3.426224906375543e+00
1	 1.502071113759757e+00	 4.617061818853215e-01	 3.157726665797375e+00
1	 1.491376514271011e+00	 4.951629809952903e-01	 2.880336622150202e+00
1	 1.479873980149320e+00	 5.285483025250732e-01	 2.595297155685558e+00
1	 1.467560092601489e+00	 5.618341945948696e-01	 2.304093855318163e+00
1	 1.454432673355103e+00	 5.949922941569014e-01	 2.008454234010771e+00
1	 1.440490821570163e+00	 6.279938934045739e-01	 1.710344458942806e+00
1	 1.425734946630075e+00	 6.608100095329462e-01	 1.411964037897251e+00
1	 1.550851394510401e+00	 3.306846250534405e-01	 3.990103330948118e+00
1	 1.543262660753379e+00	 3.644624644466162e-01	 3.757143154812724e+00
1	 1.534884094173004e+00	 3.982756426762859e-01	 3.513735106660849e+00
1	 1.525707680944315e+00	 4.320982077398996e-01	 3.260479658862101e+00
1	 1.515726475586372e+00	 4.659035630296869e-01	 2.998197081500892e+00
1	 1.504934651256828e+00	 4.996645186432699e-01	 2.727930286688442e+00
1	 1.493327547342673e+00	 5.333533468724031e-01	 2.450946038104984e+00
1	 1.480901713970360e+00	 5.669418417260944e-01	 2.168734432359127e+00
1	 1.467654953064725e+00	 6.004013823074373e-01	 1.883006573200216e+00
1	 1.453586355596186e+00	 6.337029998264971e-01	 1.595690375989173e+00
1	 1.438696334669837e+00	 6.668174479949772e-01	 1.308924457975920e+00
1	 1.564823230289037e+00	 3.336638088033086e-01	 3.816940723301294e+00
1	 1.557166128574940e+00	 3.677459574467969e-01	 3.587928350904910e+00
1	 1.548712078323922e+00	 4.018637632994254e-01	 3.349249025328006e+00
1	 1.539452993513331e+00	 4.359910405534110e-01	 3.101551302439323e+00
1	 1.529381866089396e+00	 4.701009529884128e-01	 2.845684347655429e+00
1	 1.518492816714911e+00	 5.041660657444060e-01	 2.582699597705992e+00
1	 1.506781142788726e+00	 5.381584013103312e-01	 2.313850886961429e+00
1	 1.494243363356876e+00	 5.720494995834654e-01	 2.040592960116647e+00
1	 1.480877260541402e+00	 6.058104818172241e-01	 1.764578307038228e+00
1	 1.466681917123116e+00	 6.394121182377791e-01	 1.487652271290733e+00
1	 1.451657749928804e+00	 6.728248990729171e-01	 1.211846401109092e+00
1	 1.578795092148498e+00	 3.366429981141584e-01	 3.649887042825321e+00
1	 1.571069622349703e+00	 3.710294565759766e-01	 3.424974931231847e+00
1	 1.562540088287140e+00	 4.054518906202006e-01	 3.191220653425890e+00
1	 1.553198331740336e+00	 4.398838806333745e-01	 2.949292854921833e+00
1	 1.543037282082569e+00	 4.742983507821346e-01	 2.700038671762839e+00
1	 1.532051007481672e+00	 5.086676212483482e-01	 2.444484323946857e+00
1	 1.520234763348278e+00	 5.429634647176710e-01	 2.183834300983087e+00
1	 1.507585037647940e+00	 5.771571669751688e-01	 1.919469076687512e+00
1	 1.494099592699866e+00	 6.112195914240948e-01	 1.652941303588767e+00
1	 1.479777503095249e+00	 6.451212473062344e-01	 1.385970452030197e+00
1	 1.464619189382567e+00	 6.788323613649613e-01	 1.120435875071265e+00
1	 1.592766976828704e+00	 3.396221922908876e-01	 3.488756451406850e+00
1	 1.584973138833540e+00	 3.743129610680547e-01	 3.268121168955192e+00
1	 1.576368120836146e+00	 4.090400238014308e-01	 3.039502691889308e+00
1	 1.566943692418100e+00	 4.437767270715023e-01	 2.803562488171064e+00
1	 1.556692720379632e+00	 4.784957554314885e-01	 2.561115514611957e+00
1	 1.545609220393526e+00	 5.131691841047462e-01	 2.313129854427956e+00
1	 1.533688405882126e+00	 5.477685359732344e-01	 2.060725102379411e+00
1	 1.520926733730455e+00	 5.822648427093915e-01	 1.805169450028560e+00
1	 1.507321946454855e+00	 6.166287098658830e-01	 1.547875435845564e+00
1	 1.492873110456881e+00	 6.508303856996788e-01	 1.290394338287578e+00
1	 1.477580650006715e+00	 6.848398334693059e-01	 1.034409204418312e+00
1	 1.606738881069569e+00	 3.426013906383932e-01	 3.333369570707642e+00
1	 1.598876674782327e+00	 3.775964701569309e-01	 3.117210958533878e+00
1	 1.590196172744423e+00	 4.126281620059348e-01	 2.893952961480578e+00
1	 1.580689072339393e+00	 4.476695789595059e-01	 2.664223304107718e+00
1	 1.570348177794325e+00	 4.826931659571098e-01	 2.428775361996781e+00
1	 1.559167452286884e+00	 5.176707532632487e-01	 2.188486954223778e+00
1	 1.547142067251067e+00	 5.525736139558342e-01	 1.944358066421443e+00
1	 1.534268448491324e+00	 5.873725255943198e-01	 1.697507472496294e+00
1	 1.520544318721103e+00	 6.220378358804218e-01	 1.449168233891260e+00
1	 1.505968736152310e+00	 6.565395320859273e-01	 1.200682067032417e+00
1	 1.490542128776837e+00	 6.908473139841474e-01	 9.534925821313852e-01
1	 1.620710801611011e+00	 3.455805924615732e-01	 3.183553203788627e+00
1	 1.612780226951937e+00	 3.808799830765046e-01	 2.972093573493231e+00
1	 1.604024240785459e+00	 4.162163043965318e-01	 2.754434182184802e+00
1	 1.594434468296982e+00	 4.515624353890975e-01	 2.531143122303261e+00
1	 1.584003651140387e+00	 4.868905813796344e-01	 2.302883508235698e+00
1	 1.572725699998159e+00	 5.221723276735052e-01	 2.070411532875891e+00
1	 1.560595744315899e+00	 5.573786975442835e-01	 1.834573665001597e+00
1	 1.547610178817450e+00	 5.924802144381413e-01	 1.596302971177408e+00
1	 1.533766706413343e+00	 6.274469682055448e-01	 1.356614555038200e+00
1	 1.519064377125835e+00	 6.622486851327958e-01	 1.116600116587678e+00
1	 1.503503622668521e+00	 6.968548015076813e-01	 8.774216444385404e-01
1	 1.634682735192946e+00	 3.485597970653249e-01	 3.039140071001603e+00
1	 1.626683792098246e+00	 3.841634990606757e-01	 2.832623436609390e+00
1	 1.617852321732738e+00	 4.198044501360408e-01	 2.620813763911955e+00
1	 1.608179877083639e+00	 4.554552954519889e-01	 2.404194278458199e+00
1	 1.597659137231561e+00	 4.910880007196983e-01	 2.183309850786147e+00
1	 1.586283960363763e+00	 5.266739062851653e-01	 1.958764424672275e+00
1	 1.574049433937420e+00	 5.621837856173943e-01	 1.731217823336870e+00
1	 1.560951921595736e+00	 5.975879080490416e-01	 1.501381933065946e+00
1	 1.546989106446313e+00	 6.328561055790852e-01	 1.270016270875860e+00
1	 1.532160030321749e+00	 6.679578435080992e-01	 1.037922950341343e+00
1	 1.516465128657361e+00	 7.028622946381038e-01	 8.059410674285213e-01
1	 1.648654678555294e+00	 3.515390037545457e-01	 2.899968559302968e+00
1	 1.640587366977126e+00	 3.874470173433434e-01	 2.698659901772770e+00
1	 1.631680412359747e+00	 4.233925983872808e-01	 2.492963607835410e+00
1	 1.621925295492131e+00	 4.593481582398919e-01	 2.283253433121510e+00
1	 1.611314632881585e+00	 4.952854229979368e-01	 2.069928695296901e+00
1	 1.599842230220112e+00	 5.311754880478783e-01	 1.853411180092734e+00
1	 1.587503132976426e+00	 5.669888770539796e-01	 1.634141689036399e+00
1	 1.574293673713085e+00	 6.026956052352079e-01	 1.412576244206807e+00
1	 1.560211515734747e+00	 6.382652467388765e-01	 1.189181970222301e+00
1	 1.545255692684351e+00	 6.736670058796529e-01	 9.644326785643474e-01
1	 1.529426643718942e+00	 7.088697919736108e-01	 7.388041841643593e-01
1	 1.662626628437969e+00	 3.545182118341332e-01	 2.765882484200104e+00
1	 1.654490948344454e+00	 3.907305371584074e-01	 2.570067046844078e+00
1	 1.645508509439972e+00	 4.269807483130709e-01	 2.370759917741514e+00
1	 1.635670720315228e+00	 4.632410228445187e-01	 2.168201390049320e+00
1	 1.624970134904200e+00	 4.994828472349860e-01	 1.962618570484291e+00
1	 1.613400506403614e+00	 5.356770719112931e-01	 1.754221867764007e+00
1	 1.600956838293715e+00	 5.717939707328521e-01	 1.543201412806256e+00
1	 1.587635432056398e+00	 6.078033048048268e-01	 1.329723441984594e+00
1	 1.573433931193380e+00	 6.436743904227519e-01	 1.113926677044796e+00
1	 1.558351361157939e+00	 6.793761709152729e-01	 8.959187372705646e-01
1	 1.542388164828857e+00	 7.148772921123988e-01	 6.757726210917511e-01
1	 1.676598581580888e+00	 3.574974206089848e-01	 2.636730863594067e+00
1	 1.668394532956103e+00	 3.940140577397678e-01	 2.446713476861907e+00
1	 1.659336609746896e+00	 4.305688990762300e-01	 2.254083020806676e+00
1	 1.649416148345699e+00	 4.671338883575807e-01	 2.058922923640665e+00
1	 1.638625640113148e+00	 5.036802724514817e-01	 1.861262052259589e+00
1	 1.626958785750686e+00	 5.401786568250593e-01	 1.661070886311758e+00
1	 1.614410546750085e+00	 5.765990655328240e-01	 1.458257940113156e+00
1	 1.600977193512580e+00	 6.129110055660848e-01	 1.252666479791294e+00
1	 1.586656349736946e+00	 6.490835353685447e-01	 1.044071582476793e+00
1	 1.571447032686810e+00	 6.850853372827735e-01	 8.321775831250549e-01
1	 1.555349688962692e+00	 7.208847936526629e-01	 6.166159526171988e-01
1	 1.425734946630075e+00	 6.608100095329462e-01	 1.411964037897251e+00
1	 1.410165679786421e+00	 6.934137300872995e-01	 1.094575892803130e+00
1	 1.393787143848190e+00	 7.257734257371631e-01	 7.375064773653272e-01
1	 1.376603839868557e+00	 7.578597209617606e-01	 3.399489118786423e-01
1	 1.358621663420585e+00	 7.896432714658930e-01	-9.917901098346427e-02
1	 1.339847912380150e+00	 8.210948457838531e-01	-5.812267127128689e-01
1	 1.320291289037849e+00	 8.521854080414092e-01	-1.107799864109991e+00
1	 1.299961896400895e+00	 8.828862014191952e-01	-1.680746600920201e+00
1	 1.278871228587822e+00	 9.131688318442138e-01	-2.302140987476539e+00
1	 1.257032155262793e+00	 9.430053514238217e-01	-2.974263831632114e+00
1	 1.234458900101805e+00	 9.723683411288404e-01	-3.699580989579655e+00
1	 1.438696334669837e+00	 6.668174479949772e-01	 1.308924457975920e+00
1	 1.422985527275958e+00	 6.997175696964119e-01	 1.002791749301028e+00
1	 1.406458093704091e+00	 7.323714480573985e-01	 6.554778190127108e-01
1	 1.389118575926604e+00	 7.647494405036754e-01	 2.661781943497131e-01
1	 1.370972923113356e+00	 7.968219359704288e-01	-1.661604835342538e-01
1	 1.352028499485387e+00	 8.285594372480739e-01	-6.428319602615711e-01
1	 1.332294086446027e+00	 8.599326444966284e-01	-1.165359218468784e+00
1	 1.311779878849165e+00	 8.909125394678691e-01	-1.735480716714522e+00
1	 1.290497475306639e+00	 9.214704699576771e-01	-2.355134089623828e+00
1	 1.268459862481026e+00	 9.515782339985250e-01	-3.026437415291525e+00
1	 1.245681393356093e+00	 9.812081632942572e-01	-3.751668188866754e+00
1	 1.451657749928804e+00	 6.728248990729171e-01	 1.211846401109091e+00
1	 1.435805401687458e+00	 7.060214225439064e-01	 9.161392297896443e-01
1	 1.419129070169253e+00	 7.389694842338115e-01	 5.777086019576981e-01
1	 1.401633338265831e+00	 7.716391745143251e-01	 1.957955360730618e-01
1	 1.383324208743967e+00	 8.040006155504626e-01	-2.305758267887030e-01
1	 1.364209112170008e+00	 8.360240443882061e-01	-7.025896039988422e-01
1	 1.344296909060183e+00	 8.676798972212709e-01	-1.221627154770336e+00
1	 1.323597886115254e+00	 8.989388943720311e-01	-1.789253710614089e+00
1	 1.302123746440581e+00	 9.297721255047077e-01	-2.407202728211821e+00
1	 1.279887593697410e+00	 9.601511345763568e-01	-3.077358070580633e+00
1	 1.256903910177548e+00	 9.900480040233278e-01	-3.801734152281962e+00
1	 1.464619189382567e+00	 6.788323613649613e-01	 1.120435875071265e+00
1	 1.448625300029533e+00	 7.123252871588173e-01	 8.342994055315321e-01
1	 1.431800070287028e+00	 7.455675327267967e-01	 5.038750062044797e-01
1	 1.414148123966046e+00	 7.785289213860510e-01	 1.284911385366438e-01
1	 1.395675517430381e+00	 8.111793085309283e-01	-2.927031307585201e-01
1	 1.376389747591809e+00	 8.434886654624829e-01	-7.607296535951159e-01
1	 1.356299754079610e+00	 8.754271644076367e-01	-1.276770630722543e+00
1	 1.335415915441594e+00	 9.069652642588758e-01	-1.842155996974514e+00
1	 1.313750039276837e+00	 9.380737965482800e-01	-2.458348837469800e+00
1	 1.291315346245472e+00	 9.687240511570182e-01	-3.126928937634785e+00
1	 1.268126447947593e+00	 9.988878612534782e-01	-3.849574596180939e+00
1	 1.477580650006715e+00	 6.848398334693059e-01	 1.034409204418312e+00
1	 1.461445219310796e+00	 7.186291620701782e-01	 7.569645396915469e-01
1	 1.444471091100772e+00	 7.521655919967494e-01	 4.336645752009456e-01
1	 1.426662930107062e+00	 7.854186795111947e-01	 6.396607442499391e-02
1	 1.408026846290560e+00	 8.183580132367593e-01	-3.528107272241041e-01
1	 1.388570402908588e+00	 8.509532987291373e-01	-8.174740479571051e-01
1	 1.368302618703605e+00	 8.831744442480259e-01	-1.330950746031462e+00
1	 1.347233964070615e+00	 9.149916472555970e-01	-1.894274818184303e+00
1	 1.325376351102590e+00	 9.463754811513688e-01	-2.508574284328890e+00
1	 1.302743117458739e+00	 9.772969817402075e-01	-3.175056555557922e+00
1	 1.279349004047656e+00	 1.007727732922136e+00	-3.894992404552956e+00
1	 1.490542128776837e+00	 6.908473139841474e-01	 9.534925821313847e-01
1	 1.474265156539857e+00	 7.249330458070223e-01	 6.838376009140900e-01
1	 1.457142129653841e+00	 7.587636605040647e-01	 3.667757219304001e-01
1	 1.439177753768686e+00	 7.923084472820973e-01	 1.931815079561972e-03
1	 1.420378192442467e+00	 8.255367279928895e-01	-4.111576139217743e-01
1	 1.400751075278142e+00	 8.584179424464018e-01	-8.730370060840167e-01
1	 1.380305500131459e+00	 8.909217349347384e-01	-1.384322997084249e+00
1	 1.359052029244751e+00	 9.230180414893885e-01	-1.945694382589050e+00
1	 1.337002679205026e+00	 9.546771773769483e-01	-2.557880871373766e+00
1	 1.314170904670738e+00	 9.858699243256250e-01	-3.221650714662603e+00
1	 1.290571575859161e+00	 1.016567616966727e+00	-3.937797317380136e+00
1	 1.503503622668521e+00	 6.968548015076813e-01	 8.774216444385402e-01
1	 1.487085108725331e+00	 7.312369368983842e-01	 6.146318020464192e-01
1	 1.469813182989592e+00	 7.653617367091381e-01	 3.029172605364943e-01
1	 1.451692592030731e+00	 7.991982230911011e-01	-5.789021761297197e-02
1	 1.432729553004065e+00	 8.327154511242526e-01	-4.679938568024856e-01
1	 1.412931761858268e+00	 8.658825948725100e-01	-9.276253597862889e-01
1	 1.392308395562468e+00	 8.986690346600738e-01	-1.437037518465763e+00
1	 1.370870108206433e+00	 9.310444450874450e-01	-1.996495995285309e+00
1	 1.348629020871332e+00	 9.629788832879940e-01	-2.606270339641356e+00
1	 1.325598705214996e+00	 9.944428769129717e-01	-3.266624316348787e+00
1	 1.301794160763533e+00	 1.025407511324678e+00	-3.977805635106825e+00
1	 1.516465128657361e+00	 7.028622946381038e-01	 8.059410674285216e-01
1	 1.499905072875827e+00	 7.375408338732975e-01	 5.490701625038229e-01
1	 1.482484248151378e+00	 7.719598190723639e-01	 2.418079619537163e-01
1	 1.464207441973005e+00	 8.060880053305461e-01	-1.157690763649757e-01
1	 1.445080925093318e+00	 8.398941809557829e-01	-5.235609716732708e-01
1	 1.425112459806761e+00	 8.733472542656954e-01	-9.814388693511176e-01
1	 1.404311302195926e+00	 9.064163416163323e-01	-1.489239312096714e+00
1	 1.382688198198093e+00	 9.390708561769601e-01	-2.046758182210846e+00
1	 1.360255373388692e+00	 9.712805969474798e-01	-2.653744371276242e+00
1	 1.337026516425042e+00	 1.003015837501946e+00	-3.309893240164103e+00
1	 1.313016756142200e+00	 1.034247413933416e+00	-4.014839938256176e+00
1	 1.529426643718942e+00	 7.088697919736108e-01	 7.388041841643590e-01
1	 1.512725045999958e+00	 7.438447352607953e-01	 4.868850928754874e-01
1	 1.495155322182557e+00	 7.785579060541381e-01	 1.831761321208583e-01
1	 1.476722300675319e+00	 8.129777923927746e-01	-1.719646920264541e-01
1	 1.457432305828187e+00	 8.470729158124134e-01	-5.780922864438318e-01
1	 1.437293166281423e+00	 8.808119188841904e-01	-1.034670523166178e+00
1	 1.416314217231126e+00	 9.141636539958131e-01	-1.541068464727229e+00
1	 1.394506296462164e+00	 9.470972728851270e-01	-2.096556807928854e+00
1	 1.371881734044294e+00	 9.795823164183801e-01	-2.700304592051262e+00
1	 1.348454335634401e+00	 1.011588804092248e+00	-3.351376217620221e+00
1	 1.324239359376585e+00	 1.043087322730367e+00	-4.048728821295680e+00
1	 1.542388164828857e+00	 7.148772921123988e-01	 6.757726210917512e-01
1	 1.525545025106338e+00	 7.501486395899122e-01	 4.278180004630676e-01
1	 1.507826402126483e+00	 7.851559961148554e-01	 1.267592114493222e-01
1	 1.489237165217485e+00	 8.198675826701277e-01	-2.267282567882097e-01
1	 1.469783692326635e+00	 8.542516540190780e-01	-6.318132851185377e-01
1	 1.449473878440046e+00	 8.882765869862278e-01	-1.087506822244220e+00
1	 1.428317137867365e+00	 9.219109699908171e-01	-1.592660354469976e+00
1	 1.406324400241078e+00	 9.551236933391417e-01	-2.145965187476374e+00
1	 1.383508100125322e+00	 9.878840397636706e-01	-2.745952573760702e+00
1	 1.359882160176601e+00	 1.020161774683578e+00	-3.390994712367986e+00
1	 1.335461967848114e+00	 1.051927235652958e+00	-4.079306639913904e+00
1	 1.555349688962692e+00	 7.208847936526629e-01	 6.166159526171988e-01
1	 1.538365007203576e+00	 7.564525453896814e-01	 3.716189145317856e-01
1	 1.520497485026512e+00	 7.917540877149108e-01	 7.230339430729482e-02
1	 1.501752032679311e+00	 8.267573745549470e-01	-2.803025882351573e-01
1	 1.482135081706625e+00	 8.614303939007104e-01	-6.849419345979730e-01
1	 1.461654593440430e+00	 8.957412568300415e-01	-1.140128050529295e+00
1	 1.440320061303935e+00	 9.296582877936430e-01	-1.644145847012530e+00
1	 1.418142506777267e+00	 9.631501156661962e-01	-2.195054192623663e+00
1	 1.395134468918961e+00	 9.961857650463246e-01	-2.790689836494394e+00
1	 1.371309987385168e+00	 1.028734747275635e+00	-3.428672806360345e+00
1	 1.346684578938213e+00	 1.060767150638615e+00	-4.106413270926565e+00
1	 1.234458900101805e+00	 9.723683411288404e-01	-3.699580989579655e+00
1	 1.211167009889495e+00	 1.001230994946606e+00	-4.471407132602813e+00
1	 1.187173310896686e+00	 1.029567207711080e+00	-5.276885250411836e+00
1	 1.162495880220790e+00	 1.057351644371346e+00	-6.108847397902065e+00
1	 1.137154004740159e+00	 1.084559811993984e+00	-6.959498849514328e+00
1	 1.111168131322751e+00	 1.111168131322752e+00	-7.820473841798519e+00
1	 1.084559811993984e+00	 1.137154004740160e+00	-8.682896209928122e+00
1	 1.057351644371345e+00	 1.162495880220790e+00	-9.537444356641883e+00
1	 1.029567207711079e+00	 1.187173310896686e+00	-1.037441994002548e+01
1	 1.001230994946606e+00	 1.211167009889495e+00	-1.118381962295143e+01
1	 9.723683411288406e-01	 1.234458900101806e+00	-1.195540919259433e+01
1	 1.245681393356093e+00	 9.812081632942572e-01	-3.751668188866754e+00
1	 1.222177756052655e+00	 1.010333208138176e+00	-4.522249017081873e+00
1	 1.197965929809548e+00	 1.038927026041595e+00	-5.323509278234571e+00
1	 1.173064156063485e+00	 1.066964051632084e+00	-6.148189885998987e+00
1	 1.147491897030265e+00	 1.094419569310411e+00	-6.988403652936951e+00
1	 1.121269785460785e+00	 1.121269785460785e+00	-7.835692328418986e+00
1	 1.094419569310411e+00	 1.147491897030266e+00	-8.681088564319300e+00
1	 1.066964051632084e+00	 1.173064156063485e+00	-9.515182233029133e+00
1	 1.038927026041595e+00	 1.197965929809549e+00	-1.032819046988850e+01
1	 1.010333208138175e+00	 1.222177756052656e+00	-1.111003076836601e+01
1	 9.812081632942573e-01	 1.245681393356094e+00	-1.185039642195337e+01
1	 1.256903910177548e+00	 9.900480040233278e-01	-3.801734152281962e+00
1	 1.233188525338287e+00	 1.019435440444377e+00	-4.569863617229197e+00
1	 1.208758571386796e+00	 1.048286864027678e+00	-5.365376306823894e+00
1	 1.183632454099435e+00	 1.076576479078796e+00	-6.181021108713881e+00
1	 1.157829811029820e+00	 1.104279347332226e+00	-7.008927496853637e+00
1	 1.131371460812173e+00	 1.131371460812174e+00	-7.840663001763730e+00
1	 1.104279347332226e+00	 1.157829811029820e+00	-8.667295562443483e+00
1	 1.076576479078796e+00	 1.183632454099436e+00	-9.479460179461919e+00
1	 1.048286864027677e+00	 1.208758571386797e+00	-1.026742923678378e+01
1	 1.019435440444377e+00	 1.233188525338288e+00	-1.102118581666571e+01
1	 9.900480040233277e-01	 1.256903910177548e+00	-1.173049929820684e+01
1	 1.268126447947593e+00	 9.988878612534782e-01	-3.849574596180939e+00
1	 1.244199315177236e+00	 1.028537689741422e+00	-4.613956418088883e+00
1	 1.219551233110184e+00	 1.057646719485435e+00	-5.402141727282966e+00
1	 1.194200771862754e+00	 1.086188924468655e+00	-6.206983775026123e+00
1	 1.168167744326701e+00	 1.114139143758882e+00	-7.020734922838280e+00
1	 1.141473155019926e+00	 1.141473155019926e+00	-7.835103694909865e+00
1	 1.114139143758882e+00	 1.168167744326702e+00	-8.641316587155897e+00
1	 1.086188924468655e+00	 1.194200771862755e+00	-9.430184056216326e+00
1	 1.057646719485435e+00	 1.219551233110185e+00	-1.019217006106561e+01
1	 1.028537689741422e+00	 1.244199315177236e+00	-1.091746448793662e+01
1	 9.988878612534781e-01	 1.268126447947593e+00	-1.159605775669166e+01
1	 1.279349004047656e+00	 1.007727732922136e+00	-3.894992404552956e+00
1	 1.255210123000349e+00	 1.037639953905520e+00	-4.654243237256956e+00
1	 1.230343912461471e+00	 1.067006590230976e+00	-5.433473019388731e+00
1	 1.204769106887557e+00	 1.095801385558832e+00	-6.225733125662472e+00
1	 1.178505694508791e+00	 1.123998956289837e+00	-7.023502236016557e+00
1	 1.151574865727051e+00	 1.151574865727052e+00	-7.818742132380767e+00
1	 1.123998956289837e+00	 1.178505694508792e+00	-8.602958049193274e+00
1	 1.095801385558832e+00	 1.204769106887557e+00	-9.367263013446705e+00
1	 1.067006590230976e+00	 1.230343912461471e+00	-1.010244556156595e+01
1	 1.037639953905520e+00	 1.255210123000350e+00	-1.079904018043084e+01
1	 1.007727732922135e+00	 1.279349004047656e+00	-1.144739978902616e+01
1	 1.290571575859161e+00	 1.016567616966727e+00	-3.937797317380136e+00
1	 1.266220946238475e+00	 1.046742230812884e+00	-4.690449775582698e+00
1	 1.241136606922412e+00	 1.076366474080407e+00	-5.459049225863625e+00
1	 1.215337456707958e+00	 1.105413860106501e+00	-6.236936388010267e+00
1	 1.188843659163968e+00	 1.133858782624547e+00	-7.016916993273651e+00
1	 1.161676590576559e+00	 1.161676590576559e+00	-7.791315499640917e+00
1	 1.133858782624547e+00	 1.188843659163969e+00	-8.552033081066947e+00
1	 1.105413860106501e+00	 1.215337456707958e+00	-9.290609347508980e+00
1	 1.076366474080407e+00	 1.241136606922412e+00	-9.998287207125770e+00
1	 1.046742230812883e+00	 1.266220946238475e+00	-1.066608024468045e+01
1	 1.016567616966727e+00	 1.290571575859161e+00	-1.128484196165380e+01
1	 1.301794160763533e+00	 1.025407511324678e+00	-3.977805635106825e+00
1	 1.277231782322459e+00	 1.055844518339723e+00	-4.722311191096700e+00
1	 1.251929313974762e+00	 1.085726368849838e+00	-5.478560453824896e+00
1	 1.225905818858070e+00	 1.115026345868833e+00	-6.240272259209140e+00
1	 1.199181635880113e+00	 1.143718620462467e+00	-7.000677517919328e+00
1	 1.171778327211458e+00	 1.171778327211458e+00	-7.752570034845630e+00
1	 1.143718620462467e+00	 1.199181635880114e+00	-8.488361246780146e+00
1	 1.115026345868833e+00	 1.225905818858070e+00	-9.200138364711375e+00
1	 1.085726368849838e+00	 1.251929313974763e+00	-9.879725365462438e+00
1	 1.055844518339723e+00	 1.277231782322459e+00	-1.051874624344083e+01
1	 1.025407511324678e+00	 1.301794160763533e+00	-1.110868990758087e+01
1	 1.313016756142200e+00	 1.034247413933416e+00	-4.014839938256176e+00
1	 1.288242628683150e+00	 1.064946814362249e+00	-4.749571694776707e+00
1	 1.262722031100280e+00	 1.095086272355376e+00	-5.491707401786710e+00
1	 1.236474190872010e+00	 1.124638840603001e+00	-6.235430415736218e+00
1	 1.209519622245105e+00	 1.153578467503053e+00	-6.974492439228207e+00
1	 1.181880073274757e+00	 1.181880073274757e+00	-7.702260641515404e+00
1	 1.153578467503053e+00	 1.209519622245105e+00	-8.411768266423561e+00
1	 1.124638840603001e+00	 1.236474190872010e+00	-9.095768252048183e+00
1	 1.095086272355376e+00	 1.262722031100281e+00	-9.746789349532282e+00
1	 1.064946814362248e+00	 1.288242628683150e+00	-1.035719419831116e+01
1	 1.034247413933416e+00	 1.313016756142199e+00	-1.091923879291047e+01
1	 1.324239359376585e+00	 1.043087322730367e+00	-4.048728821295680e+00
1	 1.299253482751394e+00	 1.074049116756672e+00	-4.771984166856282e+00
1	 1.273514755780722e+00	 1.104446182413130e+00	-5.498200910699384e+00
1	 1.247042570283890e+00	 1.134251342066178e+00	-6.222111047913884e+00
1	 1.219857615846823e+00	 1.163438321445762e+00	-6.938080255380106e+00
1	 1.191981826409463e+00	 1.191981826409464e+00	-7.640150520893658e+00
1	 1.163438321445762e+00	 1.219857615846824e+00	-8.322085754766611e+00
1	 1.134251342066178e+00	 1.247042570283891e+00	-8.977419954502764e+00
1	 1.104446182413130e+00	 1.273514755780723e+00	-9.599507461537090e+00
1	 1.074049116756672e+00	 1.299253482751395e+00	-1.018157482382120e+01
1	 1.043087322730367e+00	 1.324239359376585e+00	-1.071677375966727e+01
1	 1.335461967848114e+00	 1.051927235652958e+00	-4.079306639913904e+00
1	 1.310264341958040e+00	 1.083151423399203e+00	-4.789309792468996e+00
1	 1.284307485497844e+00	 1.113806096839209e+00	-5.497761537613512e+00
1	 1.257610954627826e+00	 1.143863848015535e+00	-6.200024417874945e+00
1	 1.230195614273149e+00	 1.173298179990049e+00	-6.891168918425389e+00
1	 1.202083584258589e+00	 1.202083584258589e+00	-7.566010822831287e+00
1	 1.173298179990048e+00	 1.230195614273149e+00	-8.219150973021652e+00
1	 1.143863848015536e+00	 1.257610954627827e+00	-8.845017058533852e+00
1	 1.113806096839208e+00	 1.284307485497845e+00	-9.437907034712921e+00
1	 1.083151423399203e+00	 1.310264341958040e+00	-9.992033749722241e+00
1	 1.051927235652957e+00	 1.335461967848114e+00	-1.050157034630749e+01
1	 1.346684578938213e+00	 1.060767150638615e+00	-4.106413270926565e+00
1	 1.321275203733934e+00	 1.092253732166055e+00	-4.801317715500447e+00
1	 1.295100217733402e+00	 1.123166013449718e+00	-5.490119150648971e+00
1	 1.268179341437932e+00	 1.153476356208247e+00	-6.168890439617813e+00
1	 1.240533615111960e+00	 1.183158040835369e+00	-6.833495439990669e+00
1	 1.212185344465141e+00	 1.212185344465141e+00	-7.479620314117119e+00
1	 1.183158040835369e+00	 1.240533615111961e+00	-8.102806593013755e+00
1	 1.153476356208246e+00	 1.268179341437933e+00	-8.698485681383891e+00
1	 1.123166013449718e+00	 1.295100217733403e+00	-9.262014473030517e+00
1	 1.092253732166054e+00	 1.321275203733934e+00	-9.788711732169153e+00
1	 1.060767150638615e+00	 1.346684578938213e+00	-1.027389488721419e+01
1	 9.723683411288406e-01	 1.234458900101806e+00	-1.195540919259433e+01
1	 9.430053514238215e-01	 1.257032155262794e+00	-1.266900517697242e+01
1	 9.131688318442132e-01	 1.278871228587822e+00	-1.331410462434815e+01
1	 8.828862014191952e-01	 1.299961896400895e+00	-1.389525775361793e+01
1	 8.521854080414087e-01	 1.320291289037849e+00	-1.441750147793181e+01
1	 8.210948457838527e-01	 1.339847912380151e+00	-1.488631300660519e+01
1	 7.896432714658925e-01	 1.358621663420585e+00	-1.530756106304292e+01
1	 7.578597209617604e-01	 1.376603839868557e+00	-1.568745522194758e+01
1	 7.257734257371627e-01	 1.393787143848190e+00	-1.603249387755030e+01
1	 6.934137300872991e-01	 1.410165679786422e+00	-1.634941135593707e+01
1	 6.608100095329461e-01	 1.425734946630075e+00	-1.664512467894857e+01
1	 9.812081632942573e-01	 1.245681393356094e+00	-1.185039642195337e+01
1	 9.515782339985246e-01	 1.268459862481026e+00	-1.253059570676723e+01
1	 9.214704699576766e-01	 1.290497475306639e+00	-1.314216414112486e+01
1	 8.909125394678685e-01	 1.311779878849166e+00	-1.369043854853069e+01
1	 8.599326444966280e-01	 1.332294086446028e+00	-1.418128069064253e+01
1	 8.285594372480736e-01	 1.352028499485388e+00	-1.462102312434829e+01
1	 7.968219359704285e-01	 1.370972923113356e+00	-1.501641254876531e+01
1	 7.647494405036750e-01	 1.389118575926605e+00	-1.537455122416248e+01
1	 7.323714480573981e-01	 1.406458093704092e+00	-1.570283705201039e+01
1	 6.997175696964111e-01	 1.422985527275958e+00	-1.600890290440491e+01
1	 6.668174479949773e-01	 1.438696334669837e+00	-1.630055578225619e+01
1	 9.900480040233277e-01	 1.256903910177548e+00	-1.173049929820684e+01
1	 9.601511345763564e-01	 1.279887593697410e+00	-1.237834798251668e+01
1	 9.297721255047072e-01	 1.302123746440582e+00	-1.295826676181863e+01
1	 8.989388943720305e-01	 1.323597886115255e+00	-1.347619441516717e+01
1	 8.676798972212705e-01	 1.344296909060183e+00	-1.393862180668241e+01
1	 8.360240443882055e-01	 1.364209112170008e+00	-1.435253170976826e+01
1	 8.040006155504622e-01	 1.383324208743968e+00	-1.472533603961725e+01
1	 7.716391745143246e-01	 1.401633338265832e+00	-1.506481113720519e+01
1	 7.389694842338108e-01	 1.419129070169253e+00	-1.537903175402899e+01
1	 7.060214225439060e-01	 1.435805401687458e+00	-1.567630438392544e+01
1	 6.728248990729170e-01	 1.451657749928804e+00	-1.596510057676085e+01
1	 9.988878612534781e-01	 1.268126447947593e+00	-1.159605775669166e+01
1	 9.687240511570175e-01	 1.291315346245473e+00	-1.221273869390240e+01
1	 9.380737965482796e-01	 1.313750039276837e+00	-1.276297045635362e+01
1	 9.069652642588754e-01	 1.335415915441594e+00	-1.325311425016930e+01
1	 8.754271644076362e-01	 1.356299754079611e+00	-1.369009959622147e+01
1	 8.434886654624822e-01	 1.376389747591809e+00	-1.408135980693658e+01
1	 8.111793085309278e-01	 1.395675517430381e+00	-1.443476483365939e+01
1	 7.785289213860508e-01	 1.414148123966047e+00	-1.475855217168644e+01
1	 7.455675327267963e-01	 1.431800070287028e+00	-1.506125651507567e+01
1	 7.123252871588168e-01	 1.448625300029533e+00	-1.535163884880749e+01
1	 6.788323613649613e-01	 1.464619189382567e+00	-1.563861565217911e+01
1	 1.007727732922135e+00	 1.279349004047656e+00	-1.144739978902616e+01
1	 9.772969817402068e-01	 1.302743117458739e+00	-1.203422778906619e+01
1	 9.463754811513685e-01	 1.325376351102590e+00	-1.255681360254282e+01
1	 9.149916472555962e-01	 1.347233964070615e+00	-1.302176627489599e+01
1	 8.831744442480255e-01	 1.368302618703605e+00	-1.343626865220629e+01
1	 8.509532987291364e-01	 1.388570402908589e+00	-1.380801017043638e+01
1	 8.183580132367586e-01	 1.408026846290560e+00	-1.414511702088492e+01
1	 7.854186795111944e-01	 1.426662930107062e+00	-1.445608040579416e+01
1	 7.521655919967490e-01	 1.444471091100773e+00	-1.474968360209938e+01
1	 7.186291620701775e-01	 1.461445219310796e+00	-1.503492854548743e+01
1	 6.848398334693059e-01	 1.477580650006715e+00	-1.532096263164394e+01
1	 1.016567616966727e+00	 1.290571575859161e+00	-1.128484196165380e+01
1	 9.858699243256248e-01	 1.314170904670739e+00	-1.184325920180651e+01
1	 9.546771773769478e-01	 1.337002679205027e+00	-1.234031583732235e+01
1	 9.230180414893882e-01	 1.359052029244751e+00	-1.278269893389047e+01
1	 8.909217349347384e-01	 1.380305500131460e+00	-1.317766426733698e+01
1	 8.584179424464011e-01	 1.400751075278142e+00	-1.353296806044349e+01
1	 8.255367279928891e-01	 1.420378192442468e+00	-1.385679614450699e+01
1	 7.923084472820969e-01	 1.439177753768687e+00	-1.415769126954950e+01
1	 7.587636605040642e-01	 1.457142129653841e+00	-1.444447929028208e+01
1	 7.249330458070220e-01	 1.474265156539858e+00	-1.472619494814509e+01
1	 6.908473139841474e-01	 1.490542128776837e+00	-1.501200795340818e+01
1	 1.025407511324678e+00	 1.301794160763533e+00	-1.110868990758087e+01
1	 9.944428769129710e-01	 1.325598705214997e+00	-1.164026154118147e+01
1	 9.629788832879937e-01	 1.348629020871333e+00	-1.211397886398050e+01
1	 9.310444450874443e-01	 1.370870108206433e+00	-1.253644174690065e+01
1	 8.986690346600733e-01	 1.392308395562468e+00	-1.291480326570943e+01
1	 8.658825948725094e-01	 1.412931761858267e+00	-1.325670199670588e+01
1	 8.327154511242522e-01	 1.432729553004066e+00	-1.357019182806081e+01
1	 7.991982230911002e-01	 1.451692592030731e+00	-1.386367000402866e+01
1	 7.653617367091377e-01	 1.469813182989592e+00	-1.414580412169182e+01
1	 7.312369368983839e-01	 1.487085108725331e+00	-1.442545879247833e+01
1	 6.968548015076812e-01	 1.503503622668521e+00	-1.471162266383330e+01
1	 1.034247413933416e+00	 1.313016756142199e+00	-1.091923879291047e+01
1	 1.003015837501945e+00	 1.337026516425043e+00	-1.142564874576731e+01
1	 9.712805969474790e-01	 1.360255373388693e+00	-1.187828721801397e+01
1	 9.390708561769592e-01	 1.382688198198093e+00	-1.228350611723021e+01
1	 9.064163416163318e-01	 1.404311302195926e+00	-1.264818479183146e+01
1	 8.733472542656946e-01	 1.425112459806762e+00	-1.297966447387846e+01
1	 8.398941809557823e-01	 1.445080925093319e+00	-1.328568037036475e+01
1	 8.060880053305455e-01	 1.464207441973005e+00	-1.357429209704799e+01
1	 7.719598190723636e-01	 1.482484248151379e+00	-1.385381315067963e+01
1	 7.375408338732968e-01	 1.499905072875827e+00	-1.413274010774679e+01
1	 7.028622946381037e-01	 1.516465128657361e+00	-1.441968222098783e+01
1	 1.043087322730367e+00	 1.324239359376585e+00	-1.071677375966727e+01
1	 1.011588804092248e+00	 1.348454335634402e+00	-1.119982070466803e+01
1	 9.795823164183798e-01	 1.371881734044294e+00	-1.163370899406278e+01
1	 9.470972728851269e-01	 1.394506296462165e+00	-1.202438609900998e+01
1	 9.141636539958126e-01	 1.416314217231127e+00	-1.237829105954276e+01
1	 8.808119188841896e-01	 1.437293166281423e+00	-1.270229264050524e+01
1	 8.470729158124131e-01	 1.457432305828188e+00	-1.300362531024522e+01
1	 8.129777923927742e-01	 1.476722300675320e+00	-1.328982369670778e+01
1	 7.785579060541377e-01	 1.495155322182557e+00	-1.356865617680466e+01
1	 7.438447352607950e-01	 1.512725045999959e+00	-1.384805824718688e+01
1	 7.088697919736107e-01	 1.529426643718942e+00	-1.413606630822703e+01
1	 1.051927235652957e+00	 1.335461967848114e+00	-1.050157034630749e+01
1	 1.020161774683578e+00	 1.359882160176601e+00	-1.096316384723010e+01
1	 9.878840397636699e-01	 1.383508100125321e+00	-1.138069653621323e+01
1	 9.551236933391410e-01	 1.406324400241079e+00	-1.175955912580375e+01
1	 9.219109699908166e-01	 1.428317137867365e+00	-1.210558806319369e+01
1	 8.882765869862271e-01	 1.449473878440046e+00	-1.242500894378523e+01
1	 8.542516540190774e-01	 1.469783692326635e+00	-1.272437796280378e+01
1	 8.198675826701273e-01	 1.489237165217485e+00	-1.301052200409640e+01
1	 7.851559961148549e-01	 1.507826402126484e+00	-1.329047796602201e+01
1	 7.501486395899116e-01	 1.525545025106338e+00	-1.357143191689438e+01
1	 7.148772921123988e-01	 1.542388164828856e+00	-1.386065865716696e+01
1	 1.060767150638615e+00	 1.346684578938213e+00	-1.027389488721419e+01
1	 1.028734747275635e+00	 1.371309987385168e+00	-1.071605170328735e+01
1	 9.961857650463243e-01	 1.395134468918961e+00	-1.111968709380429e+01
1	 9.631501156661958e-01	 1.418142506777268e+00	-1.148948670280405e+01
1	 9.296582877936426e-01	 1.440320061303935e+00	-1.183052625328474e+01
1	 8.957412568300408e-01	 1.461654593440431e+00	-1.214822174211765e+01
1	 8.614303939007100e-01	 1.482135081706625e+00	-1.244827792888519e+01
1	 8.267573745549465e-01	 1.501752032679311e+00	-1.273663564636980e+01
1	 7.917540877149102e-01	 1.520497485026513e+00	-1.301941846081699e+01
1	 7.564525453896809e-01	 1.538365007203576e+00	-1.330287920326344e+01
1	 7.208847936526629e-01	 1.555349688962692e+00	-1.359334687950472e+01
1	 6.608100095329461e-01	 1.425734946630075e+00	-1.664512467894856e+01
1	 6.279938934045742e-01	 1.440490821570162e+00	-1.693684418516127e+01
1	 5.949922941569017e-01	 1.454432673355103e+00	-1.723593610104852e+01
1	 5.618341945948699e-01	 1.467560092601490e+00	-1.754052406445688e+01
1	 5.285483025250735e-01	 1.479873980149320e+00	-1.784864557681227e+01
1	 4.951629809952906e-01	 1.491376514271011e+00	-1.815826450608363e+01
1	 4.617061818853219e-01	 1.502071113759757e+00	-1.846728375593536e+01
1	 4.282053831011286e-01	 1.511962397240521e+00	-1.877355798768504e+01
1	 3.946875295879637e-01	 1.521056139060901e+00	-1.907490628589024e+01
1	 3.611789783415348e-01	 1.529359222129144e+00	-1.936912466377420e+01
1	 3.277054475596566e-01	 1.536879588072675e+00	-1.965399831110514e+01
1	 6.668174479949773e-01	 1.438696334669837e+00	-1.630055578225619e+01
1	 6.337029998264974e-01	 1.453586355596186e+00	-1.659487012292768e+01
1	 6.004013823074378e-01	 1.467654953064726e+00	-1.690164638823443e+01
1	 5.669418417260947e-01	 1.480901713970360e+00	-1.721771226099084e+01
1	 5.333533468724034e-01	 1.493327547342673e+00	-1.753977822964620e+01
1	 4.996645186432702e-01	 1.504934651256828e+00	-1.786446166686574e+01
1	 4.659035630296873e-01	 1.515726475586372e+00	-1.818831077620783e+01
1	 4.320982077398997e-01	 1.525707680944315e+00	-1.850782820331428e+01
1	 3.982756426762863e-01	 1.534884094173004e+00	-1.881949412076230e+01
1	 3.644624644466165e-01	 1.543262660753379e+00	-1.911978861024086e+01
1	 3.306846250534405e-01	 1.550851394510401e+00	-1.940521318169053e+01
1	 6.728248990729170e-01	 1.451657749928804e+00	-1.596510057676084e+01
1	 6.394121182377791e-01	 1.466681917123116e+00	-1.626208520065493e+01
1	 6.058104818172244e-01	 1.480877260541401e+00	-1.657552902216302e+01
1	 5.720494995834655e-01	 1.494243363356876e+00	-1.690120966266119e+01
1	 5.381584013103314e-01	 1.506781142788726e+00	-1.723476308064003e+01
1	 5.041660657444063e-01	 1.518492816714911e+00	-1.757171714351267e+01
1	 4.701009529884130e-01	 1.529381866089396e+00	-1.790752481425041e+01
1	 4.359910405534112e-01	 1.539452993513330e+00	-1.823759667550085e+01
1	 4.018637632994256e-01	 1.548712078323922e+00	-1.855733253366213e+01
1	 3.677459574467972e-01	 1.557166128574941e+00	-1.886215186747329e+01
1	 3.336638088033086e-01	 1.564823230289037e+00	-1.914752290958792e+01
1	 6.788323613649613e-01	 1.464619189382567e+00	-1.563861565217911e+01
1	 6.451212473062347e-01	 1.479777503095249e+00	-1.593820534652362e+01
1	 6.112195914240951e-01	 1.494099592699866e+00	-1.625721353573441e+01
1	 5.771571669751691e-01	 1.507585037647940e+00	-1.659060694428993e+01
1	 5.429634647176713e-01	 1.520234763348278e+00	-1.693319267259857e+01
1	 5.086676212483486e-01	 1.532051007481673e+00	-1.727965921183166e+01
1	 4.742983507821348e-01	 1.543037282082569e+00	-1.762461686438156e+01
1	 4.398838806333749e-01	 1.553198331740336e+00	-1.796263723506519e+01
1	 4.054518906202008e-01	 1.562540088287140e+00	-1.828829148367626e+01
1	 3.710294565759769e-01	 1.571069622349703e+00	-1.859618705761783e+01
1	 3.366429981141584e-01	 1.578795092148498e+00	-1.888100265355502e+01
1	 6.848398334693059e-01	 1.477580650006715e+00	-1.532096263164394e+01
1	 6.508303856996792e-01	 1.492873110456881e+00	-1.562295645699980e+01
1	 6.166287098658833e-01	 1.507321946454855e+00	-1.594634246000646e+01
1	 5.822648427093918e-01	 1.520926733730455e+00	-1.628550914006620e+01
1	 5.477685359732346e-01	 1.533688405882126e+00	-1.663467383946259e+01
1	 5.131691841047463e-01	 1.545609220393526e+00	-1.698792918207163e+01
1	 4.784957554314886e-01	 1.556692720379631e+00	-1.733928875183209e+01
1	 4.437767270715026e-01	 1.566943692418100e+00	-1.768273163458416e+01
1	 4.090400238014310e-01	 1.576368120836146e+00	-1.801224547662455e+01
1	 3.743129610680549e-01	 1.584973138833540e+00	-1.832186774598797e+01
1	 3.396221922908876e-01	 1.592766976828704e+00	-1.860572491737112e+01
1	 6.908473139841474e-01	 1.490542128776837e+00	-1.501200795340818e+01
1	 6.565395320859277e-01	 1.505968736152311e+00	-1.531607396397048e+01
1	 6.220378358804222e-01	 1.520544318721102e+00	-1.564257075952563e+01
1	 5.873725255943202e-01	 1.534268448491324e+00	-1.598553501957589e+01
1	 5.525736139558346e-01	 1.547142067251067e+00	-1.633882708515394e+01
1	 5.176707532632490e-01	 1.559167452286884e+00	-1.669618083223732e+01
1	 4.826931659571100e-01	 1.570348177794324e+00	-1.705125266169280e+01
1	 4.476695789595063e-01	 1.580689072339393e+00	-1.739766920366370e+01
1	 4.126281620059352e-01	 1.590196172744423e+00	-1.772907336693860e+01
1	 3.775964701569311e-01	 1.598876674782327e+00	-1.803916839952893e+01
1	 3.426013906383933e-01	 1.606738881069568e+00	-1.832175966470777e+01
1	 6.968548015076812e-01	 1.503503622668521e+00	-1.471162266383330e+01
1	 6.622486851327958e-01	 1.519064377125835e+00	-1.501730242425595e+01
1	 6.274469682055451e-01	 1.533766706413344e+00	-1.534556529684920e+01
1	 5.924802144381417e-01	 1.547610178817451e+00	-1.569031649608841e+01
1	 5.573786975442838e-01	 1.560595744315900e+00	-1.604528599453119e+01
1	 5.221723276735055e-01	 1.572725699998159e+00	-1.640407987069907e+01
1	 4.868905813796346e-01	 1.584003651140387e+00	-1.676023069221299e+01
1	 4.515624353890979e-01	 1.594434468296983e+00	-1.710724652203092e+01
1	 4.162163043965322e-01	 1.604024240785459e+00	-1.743865816978262e+01
1	 3.808799830765049e-01	 1.612780226951937e+00	-1.774806434742863e+01
1	 3.455805924615731e-01	 1.620710801611011e+00	-1.802917442806079e+01
1	 7.028622946381037e-01	 1.516465128657361e+00	-1.441968222098783e+01
1	 6.679578435080994e-01	 1.532160030321748e+00	-1.472639513016137e+01
1	 6.328561055790856e-01	 1.546989106446313e+00	-1.505500432451191e+01
1	 5.975879080490418e-01	 1.560951921595736e+00	-1.539949806516959e+01
1	 5.621837856173949e-01	 1.574049433937420e+00	-1.575369667453632e+01
1	 5.266739062851655e-01	 1.586283960363764e+00	-1.611130342634536e+01
1	 4.910880007196984e-01	 1.597659137231560e+00	-1.646595443099422e+01
1	 4.554552954519890e-01	 1.608179877083638e+00	-1.681126710938308e+01
1	 4.198044501360410e-01	 1.617852321732738e+00	-1.714088688280400e+01
1	 3.841634990606759e-01	 1.626683792098246e+00	-1.744853174374833e+01
1	 3.485597970653248e-01	 1.634682735192947e+00	-1.772803441209890e+01
1	 7.088697919736107e-01	 1.529426643718942e+00	-1.413606630822703e+01
1	 6.736670058796532e-01	 1.545255692684351e+00	-1.444311373981952e+01
1	 6.382652467388765e-01	 1.560211515734747e+00	-1.477057700281155e+01
1	 6.026956052352083e-01	 1.574293673713084e+00	-1.511273627182506e+01
1	 5.669888770539799e-01	 1.587503132976426e+00	-1.546371722374150e+01
1	 5.311754880478785e-01	 1.599842230220111e+00	-1.581753956464533e+01
1	 4.952854229979372e-01	 1.611314632881585e+00	-1.616816455272190e+01
1	 4.593481582398922e-01	 1.621925295492131e+00	-1.650954113099649e+01
1	 4.233925983872811e-01	 1.631680412359747e+00	-1.683565031694175e+01
1	 3.874470173433437e-01	 1.640587366977126e+00	-1.714054753195139e+01
1	 3.515390037545456e-01	 1.648654678555294e+00	-1.741840259176070e+01
1	 7.148772921123988e-01	 1.542388164828856e+00	-1.386065865716696e+01
1	 6.793761709152731e-01	 1.558351361157939e+00	-1.416722792616231e+01
1	 6.436743904227521e-01	 1.573433931193380e+00	-1.449198294189401e+01
1	 6.078033048048269e-01	 1.587635432056398e+00	-1.482969920449541e+01
1	 5.717939707328523e-01	 1.600956838293715e+00	-1.517501722862786e+01
1	 5.356770719112932e-01	 1.613400506403615e+00	-1.552248682809894e+01
1	 4.994828472349865e-01	 1.624970134904201e+00	-1.586661043716793e+01
1	 4.632410228445188e-01	 1.635670720315228e+00	-1.620188511817202e+01
1	 4.269807483130713e-01	 1.645508509439972e+00	-1.652284293576140e+01
1	 3.907305371584079e-01	 1.654490948344454e+00	-1.682408941122005e+01
1	 3.545182118341331e-01	 1.662626628437968e+00	-1.710033980540773e+01
1	 7.208847936526629e-01	 1.555349688962692e+00	-1.359334687950472e+01
1	 6.850853372827741e-01	 1.571447032686810e+00	-1.389851504343350e+01
1	 6.490835353685449e-01	 1.586656349736946e+00	-1.421893176672179e+01
1	 6.129110055660850e-01	 1.600977193512580e+00	-1.455006601433807e+01
1	 5.765990655328243e-01	 1.614410546750085e+00	-1.488727728503552e+01
1	 5.401786568250596e-01	 1.626958785750686e+00	-1.522585379965137e+01
1	 5.036802724514819e-01	 1.638625640113148e+00	-1.556104980628300e+01
1	 4.671338883575810e-01	 1.649416148345699e+00	-1.588812170264995e+01
1	 4.305688990762302e-01	 1.659336609746896e+00	-1.620236270281841e+01
1	 3.940140577397680e-01	 1.668394532956102e+00	-1.649913580445540e+01
1	 3.574974206089847e-01	 1.676598581580888e+00	-1.677390484332241e+01
1	 3.277054475596566e-01	 1.536879588072675e+00	-1.965399831110514e+01
1	 2.942896394197481e-01	 1.543626630612252e+00	-1.992528505895969e+01
1	 2.609582370370435e-01	 1.549609699338690e+00	-2.017960024747534e+01
1	 2.277348167703377e-01	 1.554839594943745e+00	-2.041616010577948e+01
1	 1.946421534908471e-01	 1.559327958474682e+00	-2.063430192426508e+01
1	 1.617021913504131e-01	 1.563087213574030e+00	-2.083348927201839e+01
1	 1.289360188419721e-01	 1.566130508218708e+00	-2.101331594799466e+01
1	 9.636384807059289e-02	 1.568471656282942e+00	-2.117350869982969e+01
1	 6.400499812932171e-02	 1.570125079232223e+00	-2.131392875501861e+01
1	 3.187788245248261e-02	 1.571105748236902e+00	-2.143457221870839e+01
1	 0.000000000000000e+00	 1.571429126974074e+00	-2.153556940049393e+01
1	 3.306846250534405e-01	 1.550851394510401e+00	-1.940521318169053e+01
1	 2.969650330601949e-01	 1.557659774563367e+00	-1.967111295132399e+01
1	 2.633306141588863e-01	 1.563697235500412e+00	-1.991586974285606e+01
1	 2.298051590414819e-01	 1.568974676202594e+00	-2.014070219027262e+01
1	 1.964116496260302e-01	 1.573503843546176e+00	-2.034692346460297e+01
1	 1.631722295591158e-01	 1.577297274117268e+00	-2.053593344529348e+01
1	 1.301081790496060e-01	 1.580368235421320e+00	-2.070921062994910e+01
1	 9.723989395123935e-02	 1.582730666914771e+00	-2.086830385779019e+01
1	 6.458686898734058e-02	 1.584399121168951e+00	-2.101482391964748e+01
1	 3.216768498914947e-02	 1.585388705457435e+00	-2.115043512411033e+01
1	 0.000000000000000e+00	 1.585715024037928e+00	-2.127684688565110e+01
1	 3.336638088033086e-01	 1.564823230289037e+00	-1.914752290958792e+01
1	 2.996404323188487e-01	 1.571692947984227e+00	-1.940859447426752e+01
1	 2.657029962626957e-01	 1.577784801246143e+00	-1.964531765574541e+01
1	 2.318755056604246e-01	 1.583109787145346e+00	-1.986053855584260e+01
1	 1.981811494773361e-01	 1.587679758387314e+00	-2.005717307894407e+01
1	 1.646422708551647e-01	 1.591507364501976e+00	-2.023818854128107e+01
1	 1.312803417190977e-01	 1.594605992523555e+00	-2.040658585805692e+01
1	 9.811594167191655e-02	 1.596989707490964e+00	-2.056538241568979e+01
1	 6.516874106758115e-02	 1.598673193081649e+00	-2.071759572293966e+01
1	 3.245748813458684e-02	 1.599671692672685e+00	-2.086622792106473e+01
1	 0.000000000000000e+00	 1.600000951102682e+00	-2.101425121960026e+01
1	 3.366429981141584e-01	 1.578795092148498e+00	-1.888100265355502e+01
1	 3.023158365714739e-01	 1.585726147600425e+00	-1.913787702716490e+01
1	 2.680753827949167e-01	 1.591872393288765e+00	-1.936811426534961e+01
1	 2.339458561440598e-01	 1.597244924473769e+00	-1.957582306015115e+01
1	 1.999506526318324e-01	 1.601855699690321e+00	-1.976515887081413e+01
1	 1.661123148954805e-01	 1.605717481412379e+00	-1.994029741765724e+01
1	 1.324525065768595e-01	 1.608843776203160e+00	-2.010540943059972e+01
1	 9.899199102812779e-02	 1.611248774684285e+00	-2.026463678211394e+01
1	 6.575061423419873e-02	 1.612947291639554e+00	-2.042207011225834e+01
1	 3.274729182112705e-02	 1.613954706549799e+00	-2.058172803166989e+01
1	 0.000000000000000e+00	 1.614286904834791e+00	-2.074753796725321e+01
1	 3.396221922908876e-01	 1.592766976828704e+00	-1.860572491737112e+01
1	 3.049912451938341e-01	 1.599759370137553e+00	-1.885910282041333e+01
1	 2.704477732019946e-01	 1.605960008341164e+00	-1.908442386074512e+01
1	 2.360162100092825e-01	 1.611380084889633e+00	-1.928670414911395e+01
1	 2.017201586765864e-01	 1.616031664147421e+00	-1.947098513978085e+01
1	 1.675823613369835e-01	 1.619927621532703e+00	-1.964230141969374e+01
1	 1.336246733493040e-01	 1.623081583137882e+00	-1.980565026884808e+01
1	 9.986804181537626e-02	 1.625507865167492e+00	-1.996596313479361e+01
1	 6.633248835134857e-02	 1.627221413511901e+00	-2.012807913583810e+01
1	 3.303709598110238e-02	 1.628237743755919e+00	-2.029672067982879e+01
1	 0.000000000000000e+00	 1.628572881900711e+00	-2.047647125877785e+01
1	 3.426013906383933e-01	 1.606738881069568e+00	-1.832175966470777e+01
1	 3.076666575616935e-01	 1.613792612321206e+00	-1.857240910051103e+01
1	 2.728201669303748e-01	 1.620047643116225e+00	-1.879440500088072e+01
1	 2.380865667729871e-01	 1.625515265094705e+00	-1.899332509188076e+01
1	 2.034896671986657e-01	 1.630207648450840e+00	-1.917475254667023e+01
1	 1.690524098365944e-01	 1.634137781547173e+00	-1.934424044597241e+01
1	 1.347968417628433e-01	 1.637319410005468e+00	-1.950727836829679e+01
1	 1.007440938291653e-01	 1.639766975613346e+00	-1.966926125684212e+01
1	 6.691436328318605e-02	 1.641495555367928e+00	-1.983546067762636e+01
1	 3.332690054684517e-02	 1.642520800958194e+00	-2.001099855203117e+01
1	 0.000000000000000e+00	 1.642858878966899e+00	-2.020082341697404e+01
1	 3.455805924615731e-01	 1.620710801611011e+00	-1.802917442806079e+01
1	 3.103420730508159e-01	 1.627825870876976e+00	-1.827792836349930e+01
1	 2.751925634265017e-01	 1.634135294326828e+00	-1.849821076113745e+01
1	 2.401569259520681e-01	 1.639650461790754e+00	-1.869582420366831e+01
1	 2.052591777851377e-01	 1.644383649292800e+00	-1.887655827024045e+01
1	 1.705224600512337e-01	 1.648347958140015e+00	-1.904615301070236e+01
1	 1.359690115438899e-01	 1.651557253483665e+00	-1.921026475241992e+01
1	 1.016201468649982e-01	 1.654026102694607e+00	-1.937443438145840e+01
1	 6.749623889386641e-02	 1.655769713876872e+00	-1.954405820583181e+01
1	 3.361670545068771e-02	 1.656803874823768e+00	-1.972436147567158e+01
1	 0.000000000000000e+00	 1.657144892699808e+00	-1.992037460391298e+01
1	 3.485597970653248e-01	 1.634682735192947e+00	-1.772803441209890e+01
1	 3.130174910369654e-01	 1.641859142530455e+00	-1.797578855746572e+01
1	 2.775649621368211e-01	 1.648222958685861e+00	-1.819598896725219e+01
1	 2.422272870634201e-01	 1.653785671679549e+00	-1.839433505717166e+01
1	 2.070286900230696e-01	 1.658559663365526e+00	-1.857649615582731e+01
1	 1.719925116378218e-01	 1.662558147995457e+00	-1.874807630284323e+01
1	 1.371411824188563e-01	 1.665795110250220e+00	-1.891458142879633e+01
1	 1.024962007183783e-01	 1.668285243084035e+00	-1.908138904458923e+01
1	 6.807811504754498e-02	 1.670043885707968e+00	-1.925372053436097e+01
1	 3.390651062496230e-02	 1.671086962019786e+00	-1.943661611385515e+01
1	 0.000000000000000e+00	 1.671430919765895e+00	-1.963491248568696e+01
1	 3.515390037545456e-01	 1.648654678555294e+00	-1.741840259176070e+01
1	 3.156929108959057e-01	 1.655892424007237e+00	-1.766611327475523e+01
1	 2.799373625077779e-01	 1.662310632906206e+00	-1.788788241735314e+01
1	 2.442976496239377e-01	 1.667920891462859e+00	-1.808898668323251e+01
1	 2.087982034995289e-01	 1.672735687361241e+00	-1.827465685643434e+01
1	 1.734625642532792e-01	 1.676768347797720e+00	-1.845004624222377e+01
1	 1.383133541141546e-01	 1.680032976982881e+00	-1.862020134746528e+01
1	 1.033722551848087e-01	 1.682544393454391e+00	-1.879003494507942e+01
1	 6.865999160837707e-02	 1.684318067530453e+00	-1.896430159637807e+01
1	 3.419631600200129e-02	 1.685370059213394e+00	-1.914757567571284e+01
1	 0.000000000000000e+00	 1.685716956831615e+00	-1.934423191419696e+01
1	 3.545182118341331e-01	 1.662626628437968e+00	-1.710033980540772e+01
1	 3.183683320034011e-01	 1.669925712032915e+00	-1.734902193449590e+01
1	 2.823097639858171e-01	 1.676398313700747e+00	-1.757402909280597e+01
1	 2.463680131505155e-01	 1.682056117842452e+00	-1.777990376139434e+01
1	 2.105677178015833e-01	 1.686911717972173e+00	-1.797112796671321e+01
1	 1.749326175545266e-01	 1.690978554231035e+00	-1.815209753283228e+01
1	 1.394855263561973e-01	 1.694270850359393e+00	-1.832709836137998e+01
1	 1.042483100597928e-01	 1.696803550478436e+00	-1.850028481186899e+01
1	 6.924186844051797e-02	 1.698592256013564e+00	-1.867566022927662e+01
1	 3.448612151413695e-02	 1.699653163071737e+00	-1.885705964131468e+01
1	 0.000000000000000e+00	 1.700003000563425e+00	-1.904813462497510e+01
1	 3.574974206089847e-01	 1.676598581580888e+00	-1.677390484332241e+01
1	 3.210437537352151e-01	 1.683959003333080e+00	-1.702462995600273e+01
1	 2.846821660173839e-01	 1.690485997782369e+00	-1.725456235852351e+01
1	 2.484383771600480e-01	 1.696191347520098e+00	-1.746720680093553e+01
1	 2.123372325162998e-01	 1.701087751890542e+00	-1.766599415024906e+01
1	 1.764026711984843e-01	 1.705188763979623e+00	-1.785426371344423e+01
1	 1.406576988713968e-01	 1.708508727057505e+00	-1.803524718883780e+01
1	 1.051243651388339e-01	 1.711062710828929e+00	-1.821205427782768e+01
1	 6.982374540812293e-02	 1.712866447826537e+00	-1.838765997039515e+01
1	 3.477592709370159e-02	 1.713936270261961e+00	-1.856489350033031e+01
1	 0.000000000000000e+00	 1.714289047627778e+00	-1.874642895010852e+01
1	 1.714289047627778e+00	 0.000000000000000e+00	 4.138445757260120e+00
1	 1.713936270261961e+00	 3.477592709370207e-02	 4.006302090508873e+00
1	 1.712866447826537e+00	 6.982374540812339e-02	 3.872624279936723e+00
1	 1.711062710828929e+00	 1.051243651388343e-01	 3.736752916309535e+00
1	 1.708508727057505e+00	 1.406576988713972e-01	 3.597876759265602e+00
1	 1.705188763979623e+00	 1.764026711984846e-01	 3.455030890438885e+00
1	 1.701087751890541e+00	 2.123372325163000e-01	 3.307095950893855e+00
1	 1.696191347520097e+00	 2.484383771600481e-01	 3.152798545370411e+00
1	 1.690485997782368e+00	 2.846821660173839e-01	 2.990712889471881e+00
1	 1.683959003333080e+00	 3.210437537352151e-01	 2.819263768045897e+00
1	 1.676598581580888e+00	 3.574974206089848e-01	 2.636730863594066e+00
1	 1.728574095521189e+00	 0.000000000000000e+00	 3.954930967844187e+00
1	 1.728218378486883e+00	 3.506571240396094e-02	 3.831658975609133e+00
1	 1.727139641297820e+00	 7.040558167873665e-02	 3.705884681816257e+00
1	 1.725320873889139e+00	 1.060003589459308e-01	 3.577021809869661e+00
1	 1.722745607954046e+00	 1.418297894041265e-01	 3.444361505420933e+00
1	 1.719397979861821e+00	 1.778726220261430e-01	 3.307071358425789e+00
1	 1.715262794332935e+00	 2.141066234704215e-01	 3.164195338534699e+00
1	 1.710325588575774e+00	 2.505085963676164e-01	 3.014654708351695e+00
1	 1.704572696567506e+00	 2.870544021224812e-01	 2.857249973390663e+00
1	 1.697991313141118e+00	 3.237189883473828e-01	 2.690663920613051e+00
1	 1.690569557521760e+00	 3.604764210173156e-01	 2.513465789242970e+00
1	 1.742859145080407e+00	 0.000000000000000e+00	 3.779258118133089e+00
1	 1.742500488377288e+00	 3.535549774782452e-02	 3.664186927585217e+00
1	 1.741412836433600e+00	 7.098741801690599e-02	 3.545783678159378e+00
1	 1.739579038612174e+00	 1.068763528548506e-01	 3.423535951739988e+00
1	 1.736982490511031e+00	 1.430018800732304e-01	 3.296835034203599e+00
1	 1.733607197401348e+00	 1.793425730249776e-01	 3.164975652548262e+00
1	 1.729437838428791e+00	 2.158760146307364e-01	 3.027156467500090e+00
1	 1.724459831280267e+00	 2.525788158165745e-01	 2.882481370300814e+00
1	 1.718659396996017e+00	 2.894266385043066e-01	 2.729961627335090e+00
1	 1.712023624586264e+00	 3.263942232717196e-01	 2.568518910221697e+00
1	 1.704540535092635e+00	 3.634554217733189e-01	 2.396989241973592e+00
1	 1.757144197972236e+00	 0.000000000000000e+00	 3.611130834369133e+00
1	 1.756782601599632e+00	 3.564528315913626e-02	 3.503668604044831e+00
1	 1.755686034899275e+00	 7.156925449056786e-02	 3.392167548336181e+00
1	 1.753837206661650e+00	 1.077523469678567e-01	 3.276189808397953e+00
1	 1.751219376389558e+00	 1.441739710155140e-01	 3.155224591674539e+00
1	 1.747816418256035e+00	 1.808125243665337e-01	 3.028688472589320e+00
1	 1.743612885831910e+00	 2.176454062037084e-01	 2.895926303799519e+00
1	 1.738594077282574e+00	 2.546490357484635e-01	 2.756212772995520e+00
1	 1.732746100711309e+00	 2.917988754396157e-01	 2.608754635839708e+00
1	 1.726055939305545e+00	 3.290694588203119e-01	 2.452693650487607e+00
1	 1.718511515923357e+00	 3.664344232245056e-01	 2.287110233228399e+00
1	 1.771429255863481e+00	 0.000000000000000e+00	 3.450262304599223e+00
1	 1.771064719820369e+00	 3.593506867173953e-02	 3.349893674974177e+00
1	 1.769959238360241e+00	 7.215109116765889e-02	 3.244887531726453e+00
1	 1.768095379701184e+00	 1.086283413872122e-01	 3.134881251824745e+00
1	 1.765456267250724e+00	 1.453460623677827e-01	 3.019459771878949e+00
1	 1.762025644083712e+00	 1.822824762223564e-01	 2.898156303149692e+00
1	 1.757787938196089e+00	 2.194147983958013e-01	 2.770453524985408e+00
1	 1.752728328231689e+00	 2.567192564048238e-01	 2.635785280021861e+00
1	 1.746832809356790e+00	 2.941711132051639e-01	 2.493538790754236e+00
1	 1.740088258935989e+00	 3.317446953052459e-01	 2.343057412797178e+00
1	 1.732482501643770e+00	 3.694134257183873e-01	 2.183643935298602e+00
1	 1.785714320420949e+00	 0.000000000000000e+00	 3.296374896180080e+00
1	 1.785346844705957e+00	 3.622485431947773e-02	 3.202658542216452e+00
1	 1.784232448481896e+00	 7.273292811611563e-02	 3.103799629289254e+00
1	 1.782353559394390e+00	 1.095043362151798e-01	 2.999511423251217e+00
1	 1.779693164755627e+00	 1.465181542668418e-01	 2.889472422889182e+00
1	 1.776234876542209e+00	 1.837524287639910e-01	 2.773327342213440e+00
1	 1.771962997175129e+00	 2.211841914134787e-01	 2.650688451646177e+00
1	 1.766862585776610e+00	 2.587894780271963e-01	 2.521137291853305e+00
1	 1.760919524575868e+00	 2.965433520777065e-01	 2.384226770899919e+00
1	 1.754120585114621e+00	 3.344199330386080e-01	 2.239483651944283e+00
1	 1.746453493883714e+00	 3.723924296024745e-01	 2.086411434838266e+00
1	 1.799999393311444e+00	 0.000000000000000e+00	 3.149199791501524e+00
1	 1.799628977922850e+00	 3.651464013619429e-02	 3.061766072311545e+00
1	 1.798505666929638e+00	 7.331476540387465e-02	 2.968764414583569e+00
1	 1.796611747404884e+00	 1.103803315540226e-01	 2.869984603393635e+00
1	 1.793930070565364e+00	 1.476902468494966e-01	 2.765196557322693e+00
1	 1.790444117289355e+00	 1.852223821629827e-01	 2.654151433116025e+00
1	 1.786138064422830e+00	 2.229535854632044e-01	 2.536582982162065e+00
1	 1.780996851566330e+00	 2.608597008571214e-01	 2.412209164974644e+00
1	 1.775006248011951e+00	 2.989155923339993e-01	 2.280734027457895e+00
1	 1.768152919478469e+00	 3.370951723324846e-01	 2.141849840071993e+00
1	 1.760424494273034e+00	 3.753714352242781e-01	 1.995239498118432e+00
1	 1.814284476201773e+00	 0.000000000000000e+00	 3.008476640923386e+00
1	 1.813911121137507e+00	 3.680442615573260e-02	 2.927025341960141e+00
1	 1.812778895368865e+00	 7.389660309887248e-02	 2.839646853719134e+00
1	 1.810869945396284e+00	 1.112563275060036e-01	 2.746208088821188e+00
1	 1.808166986341034e+00	 1.488623402525523e-01	 2.646568267088492e+00
1	 1.804653367982980e+00	 1.866923365908769e-01	 2.540579999727150e+00
1	 1.800313141592991e+00	 2.247229807514419e-01	 2.428090530544210e+00
1	 1.795131127249848e+00	 2.629299251361402e-01	 2.308943134827548e+00
1	 1.789092981308450e+00	 3.012878342507974e-01	 2.182978674773312e+00
1	 1.782185263664559e+00	 3.397704134989622e-01	 2.050037308461296e+00
1	 1.774395504441572e+00	 3.783504429313092e-01	 1.909960347374070e+00
1	 1.828569570758740e+00	 0.000000000000000e+00	 2.873953231984606e+00
1	 1.828193276016381e+00	 3.709421241193604e-02	 2.798251395421894e+00
1	 1.827052135464973e+00	 7.447844126904567e-02	 2.716316133748892e+00
1	 1.825128155032205e+00	 1.121323241733859e-01	 2.628092074120242e+00
1	 1.822403913743735e+00	 1.500344346128143e-01	 2.533525642130598e+00
1	 1.818862630280913e+00	 1.881622922192187e-01	 2.432565984672581e+00
1	 1.814488230339411e+00	 2.264923774846551e-01	 2.325165967188058e+00
1	 1.809265414476158e+00	 2.650001511057931e-01	 2.211283242369004e+00
1	 1.803179726108771e+00	 3.036600781048565e-01	 2.090881386279272e+00
1	 1.796217619309920e+00	 3.424456568501271e-01	 1.963931096737489e+00
1	 1.788366526019169e+00	 3.813294530710787e-01	 1.830411447636944e+00
1	 1.842854678649152e+00	 0.000000000000000e+00	 2.745385174001193e+00
1	 1.842475444225930e+00	 3.738399893864804e-02	 2.675265013199689e+00
1	 1.841325388883362e+00	 7.506027998233086e-02	 2.598645499044848e+00
1	 1.839386377976264e+00	 1.130083216584323e-01	 2.515549539540313e+00
1	 1.836640854434564e+00	 1.512065300670879e-01	 2.426008692951871e+00
1	 1.833071905840984e+00	 1.896322492195532e-01	 2.330063790429925e+00
1	 1.828663332315891e+00	 2.282617758693076e-01	 2.227765562383026e+00
1	 1.823399714894257e+00	 2.670703790076208e-01	 2.119175264046159e+00
1	 1.817266484056323e+00	 3.060323241729319e-01	 2.004365295262433e+00
1	 1.810249988051576e+00	 3.451209026980651e-01	 1.883419809091853e+00
1	 1.802337560635670e+00	 3.843084659910977e-01	 1.756435303485462e+00
1	 1.857139801539814e+00	 0.000000000000000e+00	 2.622535597224392e+00
1	 1.856757627432609e+00	 3.767378576971200e-02	 2.557892491402450e+00
1	 1.855598657289427e+00	 7.564211930666453e-02	 2.486512095227508e+00
1	 1.853644615892075e+00	 1.138843200634058e-01	 2.408496143826786e+00
1	 1.850877810074617e+00	 1.523786267521784e-01	 2.323959276714196e+00
1	 1.847281196321023e+00	 1.911022077634259e-01	 2.233029223143776e+00
1	 1.842838449176228e+00	 2.300311761118631e-01	 2.135846932429969e+00
1	 1.837534030153142e+00	 2.691406090831643e-01	 2.032566645003949e+00
1	 1.831353256794514e+00	 3.084045727317791e-01	 1.923355900209727e+00
1	 1.824282371526556e+00	 3.477961513548631e-01	 1.808395477140586e+00
1	 1.816308609920916e+00	 3.872874820388771e-01	 1.687879265177241e+00
1	 1.676598581580888e+00	 3.574974206089848e-01	 2.636730863594066e+00
1	 1.668394532956103e+00	 3.940140577397678e-01	 2.446713476861907e+00
1	 1.659336609746896e+00	 4.305688990762300e-01	 2.254083020806676e+00
1	 1.649416148345699e+00	 4.671338883575807e-01	 2.058922923640665e+00
1	 1.638625640113148e+00	 5.036802724514817e-01	 1.861262052259588e+00
1	 1.626958785750686e+00	 5.401786568250593e-01	 1.661070886311758e+00
1	 1.614410546750085e+00	 5.765990655328240e-01	 1.458257940113156e+00
1	 1.600977193512580e+00	 6.129110055660848e-01	 1.252666479791294e+00
1	 1.586656349736946e+00	 6.490835353685447e-01	 1.044071582476793e+00
1	 1.571447032686810e+00	 6.850853372827735e-01	 8.321775831250544e-01
1	 1.555349688962692e+00	 7.208847936526629e-01	 6.166159526171990e-01
1	 1.690569557521760e+00	 3.604764210173156e-01	 2.513465789242970e+00
1	 1.682297145147446e+00	 3.972973486709880e-01	 2.329546232980652e+00
1	 1.673163742912899e+00	 4.341567988833240e-01	 2.143771730499614e+00
1	 1.663160615017326e+00	 4.710264816027064e-01	 1.956062970915276e+00
1	 1.652280190252409e+00	 5.078774040989901e-01	 1.766245537653725e+00
1	 1.640516116827987e+00	 5.446799268967493e-01	 1.574045850798793e+00
1	 1.627863314250304e+00	 5.814038242630720e-01	 1.379087671086552e+00
1	 1.614318021842113e+00	 6.180183490931940e-01	 1.180889228164158e+00
1	 1.599877843500642e+00	 6.544923019970287e-01	 9.788610322804895e-01
1	 1.584541788300445e+00	 6.907941043493352e-01	 7.723044241149088e-01
1	 1.568310306563534e+00	 7.268918750263221e-01	 5.604109119869689e-01
1	 1.704540535092635e+00	 3.634554217733189e-01	 2.396989241973592e+00
1	 1.696199758960834e+00	 4.005806399854069e-01	 2.219413563695321e+00
1	 1.686990877692122e+00	 4.377446991091438e-01	 2.040534736803702e+00
1	 1.676905083292483e+00	 4.749190753020670e-01	 1.860121770904977e+00
1	 1.665934741984644e+00	 5.120745362362030e-01	 1.677812231310316e+00
1	 1.654073449486839e+00	 5.491811974935525e-01	 1.493108011921900e+00
1	 1.641316083319784e+00	 5.862085835537597e-01	 1.305371953474060e+00
1	 1.627658851727757e+00	 6.231256932159654e-01	 1.113825383185091e+00
1	 1.613099338806441e+00	 6.599010692562723e-01	 9.175466457996467e-01
1	 1.597636545441326e+00	 6.965028720816038e-01	 7.154706886126134e-01
1	 1.581270925675919e+00	 7.328989571004662e-01	 5.063897543996383e-01
1	 1.718511515923357e+00	 3.664344232245056e-01	 2.287110233228399e+00
1	 1.710102376018112e+00	 4.038639320660273e-01	 2.116070650173242e+00
1	 1.700818015697596e+00	 4.413326001722281e-01	 1.944091123330708e+00
1	 1.690649554774556e+00	 4.788116699097500e-01	 1.770799768033960e+00
1	 1.679589296902752e+00	 5.162716693527420e-01	 1.595661048956214e+00
1	 1.667630785308807e+00	 5.536824691405806e-01	 1.417971444769964e+00
1	 1.654768855527909e+00	 5.910133439654144e-01	 1.236856212180698e+00
1	 1.640999684725852e+00	 6.282330385302358e-01	 1.051267337057469e+00
1	 1.626320837196780e+00	 6.653098377772834e-01	 8.599827519373928e-01
1	 1.610731305637117e+00	 7.022116411455900e-01	 6.616068891562781e-01
1	 1.594231547811875e+00	 7.389060405759064e-01	 4.545726273151674e-01
1	 1.732482501643770e+00	 3.694134257183873e-01	 2.183643935298602e+00
1	 1.724004997941130e+00	 4.071472252958528e-01	 2.019280570709922e+00
1	 1.714645158542355e+00	 4.449205024911146e-01	 1.854169035139029e+00
1	 1.704394031066931e+00	 4.827042658798432e-01	 1.687807069376138e+00
1	 1.693243856599635e+00	 5.204688039382299e-01	 1.519500618271022e+00
1	 1.681188125875464e+00	 5.581837423629465e-01	 1.348359447405402e+00
1	 1.668221632444061e+00	 5.958181060585634e-01	 1.173294083864039e+00
1	 1.654340522392739e+00	 6.333403856318414e-01	 9.930141787438853e-01
1	 1.639542340214093e+00	 6.707186081910695e-01	 8.060283784802442e-01
1	 1.623826070415485e+00	 7.079204122073055e-01	 6.106457796962899e-01
1	 1.607192174483439e+00	 7.449131261534553e-01	 4.049790281849012e-01
1	 1.746453493883714e+00	 3.723924296024745e-01	 2.086411434838266e+00
1	 1.737907626351737e+00	 4.104305200578861e-01	 1.928813984794101e+00
1	 1.728472307839431e+00	 4.485084064843417e-01	 1.770505316229444e+00
1	 1.718138513772992e+00	 4.865968636664336e-01	 1.610863058107418e+00
1	 1.706898422668192e+00	 5.246659404822887e-01	 1.449048890372599e+00
1	 1.694745472768375e+00	 5.626850176857625e-01	 1.284004171914594e+00
1	 1.681674415637626e+00	 6.006228703937345e-01	 1.114447088439108e+00
1	 1.667681366284758e+00	 6.384477351166188e-01	 9.388714260756500e-01
1	 1.652763849400814e+00	 6.761273811286392e-01	 7.555470641260160e-01
1	 1.636920841304096e+00	 7.136291859327605e-01	 5.625222659230091e-01
1	 1.620152807202639e+00	 7.509202145339247e-01	 3.576278304338673e-01
1	 1.760424494273034e+00	 3.753714352242781e-01	 1.995239498118432e+00
1	 1.751810262871778e+00	 4.137138167351304e-01	 1.844448832220664e+00
1	 1.742299465201855e+00	 4.520963125704471e-01	 1.692845164306874e+00
1	 1.731883004496130e+00	 4.904894637236090e-01	 1.539696025369060e+00
1	 1.720552996701325e+00	 5.288630794745405e-01	 1.384032769807386e+00
1	 1.708302827569110e+00	 5.671862956341406e-01	 1.224646273031277e+00
1	 1.695127206677984e+00	 6.054276375314546e-01	 1.060084316229413e+00
1	 1.681022217958248e+00	 6.435550875804049e-01	 8.886507706217860e-01
1	 1.665985366299380e+00	 6.815361572210009e-01	 7.084066794646879e-01
1	 1.650015619830615e+00	 7.193379629879657e-01	 5.171733198655463e-01
1	 1.633113447481505e+00	 7.569273064181260e-01	 3.125373082055602e-01
1	 1.774395504441572e+00	 3.783504429313092e-01	 1.909960347374069e+00
1	 1.765712909123104e+00	 4.169971157105886e-01	 1.765970046421782e+00
1	 1.756126632242661e+00	 4.556842211679692e-01	 1.620941801856077e+00
1	 1.745627504839728e+00	 4.943820665054570e-01	 1.474042819527090e+00
1	 1.734207580291934e+00	 5.330602214046075e-01	 1.324187762025288e+00
1	 1.721860191859237e+00	 5.716875767331930e-01	 1.170034573363978e+00
1	 1.708580007134521e+00	 6.102324080322513e-01	 1.009982129901428e+00
1	 1.694363078969549e+00	 6.486624436190352e-01	 8.421698346141121e-01
1	 1.679206892452224e+00	 6.869449370991629e-01	 6.644792564187656e-01
1	 1.663110407522708e+00	 7.250467440389313e-01	 4.745378985261515e-01
1	 1.646074096832072e+00	 7.629344025068715e-01	 2.697251599374483e-01
1	 1.788366526019169e+00	 3.813294530710787e-01	 1.830411447636943e+00
1	 1.779615566727561e+00	 4.202804173672640e-01	 1.693169281238575e+00
1	 1.769953810574883e+00	 4.592721326954460e-01	 1.554556162639087e+00
1	 1.759372016407173e+00	 4.982746724660650e-01	 1.413648511876301e+00
1	 1.747862175032921e+00	 5.372573667621118e-01	 1.269257637382757e+00
1	 1.735417567220324e+00	 5.761888615080321e-01	 1.119925744319383e+00
1	 1.722032818576619e+00	 6.150371824566518e-01	 9.639238803739261e-01
1	 1.707703950875002e+00	 6.537698038283475e-01	 7.992519392689001e-01
1	 1.692428429401783e+00	 6.923537213941328e-01	 6.236408256803287e-01
1	 1.676205205908041e+00	 7.307555297516691e-01	 4.345568663293751e-01
1	 1.659034756766367e+00	 7.689415035009731e-01	 2.292085308311071e-01
1	 1.802337560635670e+00	 3.843084659910977e-01	 1.756435303485462e+00
1	 1.793518237306999e+00	 4.235637220881598e-01	 1.625844650403835e+00
1	 1.783781001811550e+00	 4.628600475714155e-01	 1.493456592777271e+00
1	 1.773116540801850e+00	 5.021672820595204e-01	 1.358266077896186e+00
1	 1.761516782517186e+00	 5.414545160366759e-01	 1.218994110777035e+00
1	 1.748974955233941e+00	 5.806901504837704e-01	 1.074084001869610e+00
1	 1.735485642573661e+00	 6.198419613651838e-01	 9.216996359436982e-01
1	 1.721044835230948e+00	 6.588771688041771e-01	 7.597258838866396e-01
1	 1.705649978690491e+00	 6.977625107369195e-01	 5.857712617107923e-01
1	 1.689300016514280e+00	 7.364643207921889e-01	 3.971729211790997e-01
1	 1.671995428796423e+00	 7.749486101012426e-01	 1.910040342770274e-01
1	 1.816308609920916e+00	 3.872874820388771e-01	 1.687879265177241e+00
1	 1.807420922483264e+00	 4.268470302562786e-01	 1.563800479051114e+00
1	 1.797608207565696e+00	 4.664479662144158e-01	 1.437418565632543e+00
1	 1.786861079627148e+00	 5.060598957399112e-01	 1.307656093221352e+00
1	 1.775171404337629e+00	 5.456516697179217e-01	 1.173156536069618e+00
1	 1.762532357481656e+00	 5.851914441855203e-01	 1.032280816364040e+00
1	 1.748938480695031e+00	 6.246467453183742e-01	 8.831059239158235e-01
1	 1.734385733593725e+00	 6.639845391423612e-01	 7.234257351493152e-01
1	 1.718871541860783e+00	 7.031713057585306e-01	 5.507541348960556e-01
1	 1.702394840869089e+00	 7.421731178265019e-01	 3.623305239289894e-01
1	 1.684956114434273e+00	 7.809557230084924e-01	 1.551277722903810e-01
1	 1.555349688962692e+00	 7.208847936526629e-01	 6.166159526171984e-01
1	 1.538365007203576e+00	 7.564525453896814e-01	 3.716189145317856e-01
1	 1.520497485026512e+00	 7.917540877149108e-01	 7.230339430729471e-02
1	 1.501752032679311e+00	 8.267573745549470e-01	-2.803025882351576e-01
1	 1.482135081706625e+00	 8.614303939007104e-01	-6.849419345979730e-01
1	 1.461654593440430e+00	 8.957412568300415e-01	-1.140128050529295e+00
1	 1.440320061303935e+00	 9.296582877936430e-01	-1.644145847012530e+00
1	 1.418142506777267e+00	 9.631501156661962e-01	-2.195054192623664e+00
1	 1.395134468918961e+00	 9.961857650463246e-01	-2.790689836494392e+00
1	 1.371309987385168e+00	 1.028734747275635e+00	-3.428672806360345e+00
1	 1.346684578938213e+00	 1.060767150638615e+00	-4.106413270926565e+00
1	 1.568310306563534e+00	 7.268918750263221e-01	 5.604109119869694e-01
1	 1.551184092667272e+00	 7.627560102922637e-01	 3.175117104159321e-01
1	 1.533167681707038e+00	 7.983517178423892e-01	 1.933251676133707e-02
1	 1.514266024847395e+00	 8.336466845656623e-01	-3.327447357307525e-01
1	 1.494485607226607e+00	 8.686086316992264e-01	-7.370364053738671e-01
1	 1.473834456517870e+00	 9.032054045928206e-01	-1.191558663695606e+00
1	 1.452322145252416e+00	 9.374050637470668e-01	-1.694031077978752e+00
1	 1.429959786751590e+00	 9.711759766233089e-01	-2.241882280649612e+00
1	 1.406760024561010e+00	 1.004486909704372e+00	-2.832257729744115e+00
1	 1.382737015328290e+00	 1.037307120272059e+00	-3.462029542229560e+00
1	 1.357906405115834e+00	 1.069606447358677e+00	-4.127808359122050e+00
1	 1.581270925675919e+00	 7.328989571004662e-01	 5.063897543996388e-01
1	 1.564003179625969e+00	 7.690594759299150e-01	 2.649456972944166e-01
1	 1.545837879865191e+00	 8.049493487392900e-01	-3.236187073329533e-02
1	 1.526780018474901e+00	 8.405359953798863e-01	-3.838282067501735e-01
1	 1.506836134186976e+00	 8.757868703350351e-01	-7.873806381429331e-01
1	 1.486014321015837e+00	 9.106695532263362e-01	-1.240581894236668e+00
1	 1.464324230600748e+00	 9.451518406042934e-01	-1.740636088707276e+00
1	 1.441777068104277e+00	 9.792018385168768e-01	-2.284397371678823e+00
1	 1.418385581559138e+00	 1.012788055331077e+00	-2.868381241612309e+00
1	 1.394164044604415e+00	 1.045879494268859e+00	-3.488778477564529e+00
1	 1.369128232602603e+00	 1.078445745110314e+00	-4.141471622583141e+00
1	 1.594231547811875e+00	 7.389060405759064e-01	 4.545726273151677e-01
1	 1.576822269575201e+00	 7.753629430380167e-01	 2.140242394739600e-01
1	 1.558508080979141e+00	 8.115469811753018e-01	-8.261844204317881e-02
1	 1.539294015021777e+00	 8.474253078013222e-01	-4.333581637195193e-01
1	 1.519186664028611e+00	 8.829651106455277e-01	-8.357698168464260e-01
1	 1.498194188355300e+00	 9.181337036013143e-01	-1.287005452285999e+00
1	 1.476326318749155e+00	 9.528986192690015e-01	-1.783802483758738e+00
1	 1.453594352213986e+00	 9.872277022831201e-01	-2.322495091744871e+00
1	 1.430011141269625e+00	 1.021089202894761e+00	-2.899028804853028e+00
1	 1.405591076546650e+00	 1.054451870265986e+00	-3.508978199520115e+00
1	 1.380350062707676e+00	 1.087285044924608e+00	-4.147567622726260e+00
1	 1.607192174483439e+00	 7.449131261534553e-01	 4.049790281849011e-01
1	 1.589641364010496e+00	 7.816664123519513e-01	 1.648473667785550e-01
1	 1.571178286527056e+00	 8.181446159201138e-01	-1.312810754301915e-01
1	 1.551808015947974e+00	 8.543146226336708e-01	-4.811460547541224e-01
1	 1.531537198192393e+00	 8.901433534680959e-01	-8.820057333682578e-01
1	 1.510374059957227e+00	 9.255978565884824e-01	-1.330643252283299e+00
1	 1.488328411097860e+00	 9.606454006448713e-01	-1.823376979110678e+00
1	 1.465411640459374e+00	 9.952535688582588e-01	-2.356074436168929e+00
1	 1.441636705048751e+00	 1.029390353363743e+00	-2.924169873394149e+00
1	 1.417018112488103e+00	 1.063024249263388e+00	-3.522685408669257e+00
1	 1.391571896740206e+00	 1.096124347832640e+00	-4.146255616239165e+00
1	 1.620152807202639e+00	 7.509202145339247e-01	 3.576278304338670e-01
1	 1.602460464427385e+00	 7.879698846071012e-01	 1.175119079046486e-01
1	 1.583848497987105e+00	 8.247422537434151e-01	-1.781986454093933e-01
1	 1.564322022713442e+00	 8.612039406806343e-01	-5.270093622769221e-01
1	 1.543887738119204e+00	 8.973215996401301e-01	-9.258965232773797e-01
1	 1.522553937242588e+00	 9.330620130585675e-01	-1.371315164877791e+00
1	 1.500330509047090e+00	 9.683921856355834e-01	-1.859211197791905e+00
1	 1.477228934219098e+00	 1.003279439178514e+00	-2.385037634893640e+00
1	 1.453262274252797e+00	 1.037691507706341e+00	-2.943774881607877e+00
1	 1.428445153761881e+00	 1.071596632261015e+00	-3.529954994591590e+00
1	 1.402793736009346e+00	 1.104963654865492e+00	-4.137689767398090e+00
1	 1.633113447481505e+00	 7.569273064181260e-01	 3.125373082055602e-01
1	 1.615279572321401e+00	 7.942733605388487e-01	 7.211161742471872e-02
1	 1.596518716837457e+00	 8.313398954148942e-01	-2.232248245204880e-01
1	 1.576836036778132e+00	 8.680932627459149e-01	-5.707713636099054e-01
1	 1.556238285249923e+00	 9.044998499990216e-01	-9.672564141567979e-01
1	 1.534733821632353e+00	 9.405261738822969e-01	-1.408846780648299e+00
1	 1.512332613997067e+00	 9.761389751448170e-01	-1.891161475250700e+00
1	 1.489046234871818e+00	 1.011305314180105e+00	-2.409290024231194e+00
1	 1.464887850238044e+00	 1.045992666890878e+00	-2.957815205520983e+00
1	 1.439872201701093e+00	 1.080169020258817e+00	-3.530840107862011e+00
1	 1.414015581824253e+00	 1.113802967054246e+00	-4.122019350272466e+00
1	 1.646074096832072e+00	 7.629344025068715e-01	 2.697251599374483e-01
1	 1.628098689188072e+00	 8.005768408825760e-01	 2.873729678932835e-02
1	 1.609188944556280e+00	 8.379375417042396e-01	-2.662178944665086e-01
1	 1.589350059601992e+00	 8.749825896332135e-01	-6.122609028787385e-01
1	 1.568588841025432e+00	 9.116781053821615e-01	-1.005905485825005e+00
1	 1.546913714547490e+00	 9.479903399303972e-01	-1.443069184988590e+00
1	 1.524334727348017e+00	 9.838857700762513e-01	-1.919088673920304e+00
1	 1.500863543796188e+00	 1.019331194799254e+00	-2.428739924671757e+00
1	 1.476513434360772e+00	 1.054293831885672e+00	-2.966263125858164e+00
1	 1.451299257638845e+00	 1.088741414256743e+00	-3.525392228637149e+00
1	 1.425237435494077e+00	 1.122642285429984e+00	-4.099388941374415e+00
1	 1.659034756766367e+00	 7.689415035009731e-01	 2.292085308311073e-01
1	 1.640917816522931e+00	 8.068803263736651e-01	-1.252309034396459e-02
1	 1.621859182621744e+00	 8.445351933811411e-01	-3.070405661072259e-01
1	 1.601864092644973e+00	 8.818719221462324e-01	-6.513121736116613e-01
1	 1.580939406886612e+00	 9.188563666269413e-01	-1.041669441799612e+00
1	 1.559093617408970e+00	 9.554545120735956e-01	-1.473818743547264e+00
1	 1.536336850500164e+00	 9.916325713335676e-01	-1.942858006478465e+00
1	 1.512680862370868e+00	 1.027357081972180e+00	-2.443298524420901e+00
1	 1.488139027977261e+00	 1.062595003659041e+00	-2.969091792818106e+00
1	 1.462726322908246e+00	 1.097313815254742e+00	-3.513661232026494e+00
1	 1.436459298327973e+00	 1.131481611023788e+00	-4.069938603275975e+00
1	 1.671995428796423e+00	 7.749486101012426e-01	 1.910040342770271e-01
1	 1.653736955821508e+00	 8.131838177474986e-01	-5.158430814705706e-02
1	 1.634529432512017e+00	 8.511328512152869e-01	-3.455598078268981e-01
1	 1.614378137367023e+00	 8.887612610886734e-01	-6.877645114522453e-01
1	 1.593289984274342e+00	 9.260346345707517e-01	-1.074379391392722e+00
1	 1.571273531637759e+00	 9.629186911826185e-01	-1.500936897649252e+00
1	 1.548338984853731e+00	 9.993793798204444e-01	-1.962338867329253e+00
1	 1.524498191974515e+00	 1.035382976635103e+00	-2.452879768355111e+00
1	 1.499764632443794e+00	 1.070896183179308e+00	-2.966275192488042e+00
1	 1.474153398842403e+00	 1.105886224252765e+00	-3.495695450422071e+00
1	 1.447681171635097e+00	 1.140320944866739e+00	-4.033804059683961e+00
1	 1.684956114434273e+00	 7.809557230084924e-01	 1.551277722903810e-01
1	 1.666556108579333e+00	 8.194873157394583e-01	-8.836374373400735e-02
1	 1.647199695705267e+00	 8.577305159763660e-01	-3.816466818250461e-01
1	 1.626892195228096e+00	 8.956506072642391e-01	-7.214621964412408e-01
1	 1.605640574629505e+00	 9.332129100509844e-01	-1.103871641865699e+00
1	 1.583453458654829e+00	 9.703828781281937e-01	-1.524269969161539e+00
1	 1.560341131808945e+00	 1.007126196440562e+00	-1.977404671864285e+00
1	 1.536315533985785e+00	 1.043408879724244e+00	-2.457400252103429e+00
1	 1.511390249116649e+00	 1.079197371414791e+00	-2.957788114808986e+00
1	 1.485580486774423e+00	 1.114458642250760e+00	-3.471541732950855e+00
1	 1.458903056724601e+00	 1.149160287989920e+00	-3.991116862432924e+00
1	 1.346684578938213e+00	 1.060767150638615e+00	-4.106413270926565e+00
1	 1.321275203733934e+00	 1.092253732166055e+00	-4.801317715500447e+00
1	 1.295100217733402e+00	 1.123166013449718e+00	-5.490119150648971e+00
1	 1.268179341437932e+00	 1.153476356208247e+00	-6.168890439617813e+00
1	 1.240533615111960e+00	 1.183158040835369e+00	-6.833495439990669e+00
1	 1.212185344465141e+00	 1.212185344465141e+00	-7.479620314117120e+00
1	 1.183158040835369e+00	 1.240533615111961e+00	-8.102806593013755e+00
1	 1.153476356208246e+00	 1.268179341437933e+00	-8.698485681383891e+00
1	 1.123166013449718e+00	 1.295100217733403e+00	-9.262014473030517e+00
1	 1.092253732166054e+00	 1.321275203733934e+00	-9.788711732169155e+00
1	 1.060767150638615e+00	 1.346684578938213e+00	-1.027389488721419e+01
1	 1.357906405115834e+00	 1.069606447358677e+00	-4.127808359122050e+00
1	 1.332285295407249e+00	 1.101355404315454e+00	-4.806233122658154e+00
1	 1.305892195122514e+00	 1.132525275425623e+00	-5.474264565418334e+00
1	 1.278746989092457e+00	 1.163088192100015e+00	-6.128699848538528e+00
1	 1.250870892908526e+00	 1.193017212079803e+00	-6.766211110063217e+00
1	 1.222286398152247e+00	 1.222286398152248e+00	-7.383370543547424e+00
1	 1.193017212079802e+00	 1.250870892908527e+00	-7.976676569542432e+00
1	 1.163088192100015e+00	 1.278746989092458e+00	-8.542580852210426e+00
1	 1.132525275425623e+00	 1.305892195122514e+00	-9.077515902066358e+00
1	 1.101355404315453e+00	 1.332285295407250e+00	-9.577922998202553e+00
1	 1.069606447358677e+00	 1.357906405115834e+00	-1.004028015945008e+01
1	 1.369128232602603e+00	 1.078445745110314e+00	-4.141471622583141e+00
1	 1.343295388365096e+00	 1.110457077527072e+00	-4.802612841132578e+00
1	 1.316684173770791e+00	 1.141884538493812e+00	-5.449592041576081e+00
1	 1.289314637980051e+00	 1.172700029113527e+00	-6.079881266551348e+00
1	 1.261208171911349e+00	 1.202876384474809e+00	-6.690904767724829e+00
1	 1.232387453018106e+00	 1.232387453018106e+00	-7.280058239779786e+00
1	 1.202876384474808e+00	 1.261208171911349e+00	-7.844728538375817e+00
1	 1.172700029113527e+00	 1.289314637980052e+00	-8.382313694934034e+00
1	 1.141884538493811e+00	 1.316684173770792e+00	-8.890243036419093e+00
1	 1.110457077527072e+00	 1.343295388365097e+00	-9.365997216276609e+00
1	 1.078445745110314e+00	 1.369128232602603e+00	-9.807127963385080e+00
1	 1.380350062707676e+00	 1.087285044924608e+00	-4.147567622726260e+00
1	 1.354305483891912e+00	 1.119558752862599e+00	-4.790720705170901e+00
1	 1.327476154937207e+00	 1.151243803746028e+00	-5.416437352038949e+00
1	 1.299882289333497e+00	 1.182311868369999e+00	-6.022816402219576e+00
1	 1.271545453326321e+00	 1.212735559170472e+00	-6.607979501006711e+00
1	 1.242488510241032e+00	 1.242488510241033e+00	-7.170084870400338e+00
1	 1.212735559170472e+00	 1.271545453326321e+00	-7.707341005429169e+00
1	 1.182311868369999e+00	 1.299882289333497e+00	-8.218020166023878e+00
1	 1.151243803746028e+00	 1.327476154937208e+00	-8.700471535295289e+00
1	 1.119558752862599e+00	 1.354305483891912e+00	-9.153133918200663e+00
1	 1.087285044924608e+00	 1.380350062707676e+00	-9.574547859464746e+00
1	 1.391571896740206e+00	 1.096124347832640e+00	-4.146255616239165e+00
1	 1.365315583272132e+00	 1.128660431383724e+00	-4.770812042185031e+00
1	 1.338268139880734e+00	 1.160603072274015e+00	-5.375125442364914e+00
1	 1.310449944385579e+00	 1.191923710990649e+00	-5.957874654885151e+00
1	 1.281882738359330e+00	 1.222594737316876e+00	-6.517825398865587e+00
1	 1.252589570999343e+00	 1.252589570999343e+00	-7.053838955898353e+00
1	 1.222594737316875e+00	 1.281882738359331e+00	-7.564880269850517e+00
1	 1.191923710990648e+00	 1.310449944385579e+00	-8.050025387330171e+00
1	 1.160603072274015e+00	 1.338268139880735e+00	-8.508468167927481e+00
1	 1.128660431383724e+00	 1.365315583272132e+00	-8.939526201125760e+00
1	 1.096124347832640e+00	 1.391571896740206e+00	-9.342645875428277e+00
1	 1.402793736009346e+00	 1.104963654865492e+00	-4.137689767398090e+00
1	 1.376325687790191e+00	 1.137762114152136e+00	-4.743134013148994e+00
1	 1.349060129860346e+00	 1.169962345169516e+00	-5.325970863961243e+00
1	 1.321017604369081e+00	 1.201535558096693e+00	-5.885413607135457e+00
1	 1.292220028216271e+00	 1.232453920064102e+00	-6.420820071223939e+00
1	 1.262690636471355e+00	 1.262690636471356e+00	-6.931696587604234e+00
1	 1.232453920064102e+00	 1.292220028216272e+00	-7.417700912320318e+00
1	 1.201535558096693e+00	 1.321017604369082e+00	-7.878644079472226e+00
1	 1.169962345169516e+00	 1.349060129860347e+00	-8.314491169152339e+00
1	 1.137762114152136e+00	 1.376325687790191e+00	-8.725360984888429e+00
1	 1.104963654865492e+00	 1.402793736009346e+00	-9.111524647558138e+00
1	 1.414015581824253e+00	 1.113802967054246e+00	-4.122019350272466e+00
1	 1.387335798730527e+00	 1.146863802229525e+00	-4.707925936783340e+00
1	 1.359852126135016e+00	 1.179321623524276e+00	-5.269278186658791e+00
1	 1.331585270516789e+00	 1.211147410809349e+00	-5.805779493813629e+00
1	 1.302557324103033e+00	 1.242313108562236e+00	-6.317329144241401e+00
1	 1.272791707835383e+00	 1.272791707835383e+00	-6.804021920958422e+00
1	 1.242313108562235e+00	 1.302557324103034e+00	-7.266146260093565e+00
1	 1.211147410809349e+00	 1.331585270516789e+00	-7.704180974584329e+00
1	 1.179321623524276e+00	 1.359852126135016e+00	-8.118790578052646e+00
1	 1.146863802229524e+00	 1.387335798730527e+00	-8.510819257097950e+00
1	 1.113802967054246e+00	 1.414015581824252e+00	-8.881283555201724e+00
1	 1.425237435494077e+00	 1.122642285429984e+00	-4.099388941374415e+00
1	 1.398345917377575e+00	 1.155965496677579e+00	-4.665419598420530e+00
1	 1.370644129963715e+00	 1.188680908430038e+00	-5.205342391790658e+00
1	 1.342152944061485e+00	 1.220759270249834e+00	-5.719307648866591e+00
1	 1.312894627225508e+00	 1.252172303961360e+00	-6.207706732181970e+00
1	 1.282892786269745e+00	 1.282892786269745e+00	-6.671167645470885e+00
1	 1.252172303961359e+00	 1.312894627225508e+00	-7.110548830066449e+00
1	 1.220759270249834e+00	 1.342152944061485e+00	-7.526931209557945e+00
1	 1.188680908430037e+00	 1.370644129963716e+00	-7.921608560596918e+00
1	 1.155965496677578e+00	 1.398345917377575e+00	-8.296076306641613e+00
1	 1.122642285429984e+00	 1.425237435494076e+00	-8.652018848936567e+00
1	 1.436459298327973e+00	 1.131481611023788e+00	-4.069938603275975e+00
1	 1.409356045015772e+00	 1.165067198557988e+00	-4.615839544388962e+00
1	 1.381436142605417e+00	 1.198040200978544e+00	-5.134449246840945e+00
1	 1.352720626235953e+00	 1.230371137539366e+00	-5.626322931242226e+00
1	 1.323231938789585e+00	 1.262031507411558e+00	-6.092295887158093e+00
1	 1.292993872952757e+00	 1.292993872952757e+00	-6.533475432646829e+00
1	 1.262031507411557e+00	 1.323231938789586e+00	-6.951230751069916e+00
1	 1.230371137539366e+00	 1.352720626235953e+00	-7.347180700846248e+00
1	 1.198040200978543e+00	 1.381436142605418e+00	-7.723179717152194e+00
1	 1.165067198557988e+00	 1.409356045015773e+00	-8.081301946242419e+00
1	 1.131481611023788e+00	 1.436459298327974e+00	-8.423823772726305e+00
1	 1.447681171635097e+00	 1.140320944866739e+00	-4.033804059683961e+00
1	 1.420366182929554e+00	 1.174168908932441e+00	-4.559403362701857e+00
1	 1.392228165319096e+00	 1.207399502261539e+00	-5.056875662664470e+00
1	 1.363288318272978e+00	 1.239983013799161e+00	-5.527140130973137e+00
1	 1.333569260001157e+00	 1.271890720062913e+00	-5.971429027951404e+00
1	 1.303094969062733e+00	 1.303094969062734e+00	-6.391276363073770e+00
1	 1.271890720062912e+00	 1.333569260001157e+00	-6.788504166517413e+00
1	 1.239983013799161e+00	 1.363288318272979e+00	-7.165206501832355e+00
1	 1.207399502261539e+00	 1.392228165319096e+00	-7.523731375690567e+00
1	 1.174168908932441e+00	 1.420366182929554e+00	-7.866660724662812e+00
1	 1.140320944866739e+00	 1.447681171635097e+00	-8.196788680393889e+00
1	 1.458903056724601e+00	 1.149160287989920e+00	-3.991116862432924e+00
1	 1.431376332403356e+00	 1.183270628862627e+00	-4.496321950788355e+00
1	 1.403020199363723e+00	 1.216758813370768e+00	-4.972890034215785e+00
1	 1.373856021405344e+00	 1.249594900150438e+00	-5.422064356514174e+00
1	 1.343906592066114e+00	 1.281749943065508e+00	-5.845428349037880e+00
1	 1.313196075777992e+00	 1.313196075777993e+00	-6.244891333793117e+00
1	 1.281749943065507e+00	 1.343906592066115e+00	-6.622671618464837e+00
1	 1.249594900150437e+00	 1.373856021405345e+00	-6.981277143700062e+00
1	 1.216758813370767e+00	 1.403020199363723e+00	-7.323483871460363e+00
1	 1.183270628862627e+00	 1.431376332403357e+00	-7.652312129112373e+00
1	 1.149160287989920e+00	 1.458903056724601e+00	-7.971001146717804e+00
1	 1.060767150638615e+00	 1.346684578938213e+00	-1.027389488721419e+01
1	 1.028734747275635e+00	 1.371309987385168e+00	-1.071605170328735e+01
1	 9.961857650463243e-01	 1.395134468918961e+00	-1.111968709380429e+01
1	 9.631501156661958e-01	 1.418142506777268e+00	-1.148948670280405e+01
1	 9.296582877936426e-01	 1.440320061303935e+00	-1.183052625328475e+01
1	 8.957412568300408e-01	 1.461654593440431e+00	-1.214822174211765e+01
1	 8.614303939007100e-01	 1.482135081706625e+00	-1.244827792888519e+01
1	 8.267573745549465e-01	 1.501752032679311e+00	-1.273663564636980e+01
1	 7.917540877149102e-01	 1.520497485026513e+00	-1.301941846081699e+01
1	 7.564525453896809e-01	 1.538365007203576e+00	-1.330287920326344e+01
1	 7.208847936526629e-01	 1.555349688962692e+00	-1.359334687950472e+01
1	 1.069606447358677e+00	 1.357906405115834e+00	-1.004028015945008e+01
1	 1.037307120272059e+00	 1.382737015328291e+00	-1.046473098848907e+01
1	 1.004486909704371e+00	 1.406760024561010e+00	-1.085617821543306e+01
1	 9.711759766233082e-01	 1.429959786751590e+00	-1.121855630753823e+01
1	 9.374050637470666e-01	 1.452322145252417e+00	-1.155613162037016e+01
1	 9.032054045928201e-01	 1.473834456517870e+00	-1.187345988567855e+01
1	 8.686086316992259e-01	 1.494485607226608e+00	-1.217534225743919e+01
1	 8.336466845656616e-01	 1.514266024847395e+00	-1.246678036708592e+01
1	 7.983517178423887e-01	 1.533167681707038e+00	-1.275293083906689e+01
1	 7.627560102922631e-01	 1.551184092667272e+00	-1.303905971179881e+01
1	 7.268918750263222e-01	 1.568310306563534e+00	-1.333049719715462e+01
1	 1.078445745110314e+00	 1.369128232602603e+00	-9.807127963385080e+00
1	 1.045879494268859e+00	 1.394164044604415e+00	-1.021518707867981e+01
1	 1.012788055331076e+00	 1.418385581559138e+00	-1.059531946982664e+01
1	 9.792018385168759e-01	 1.441777068104277e+00	-1.095076084113610e+01
1	 9.451518406042926e-01	 1.464324230600748e+00	-1.128502519484059e+01
1	 9.106695532263354e-01	 1.486014321015837e+00	-1.160186913127386e+01
1	 8.757868703350344e-01	 1.506836134186976e+00	-1.190525494813009e+01
1	 8.405359953798860e-01	 1.526780018474900e+00	-1.219931291826420e+01
1	 8.049493487392894e-01	 1.545837879865191e+00	-1.248830312540695e+01
1	 7.690594759299142e-01	 1.564003179625969e+00	-1.277657723188722e+01
1	 7.328989571004663e-01	 1.581270925675919e+00	-1.306854054223787e+01
1	 1.087285044924608e+00	 1.380350062707676e+00	-9.574547859464746e+00
1	 1.054451870265985e+00	 1.405591076546650e+00	-9.967444494314678e+00
1	 1.021089202894760e+00	 1.430011141269625e+00	-1.033707179086267e+01
1	 9.872277022831192e-01	 1.453594352213985e+00	-1.068601769542314e+01
1	 9.528986192690011e-01	 1.476326318749156e+00	-1.101709938707032e+01
1	 9.181337036013135e-01	 1.498194188355299e+00	-1.133333391718996e+01
1	 8.829651106455275e-01	 1.519186664028611e+00	-1.163790786599116e+01
1	 8.474253078013217e-01	 1.539294015021778e+00	-1.193414632895234e+01
1	 8.115469811753013e-01	 1.558508080979141e+00	-1.222548154596898e+01
1	 7.753629430380159e-01	 1.576822269575201e+00	-1.251542148148380e+01
1	 7.389060405759063e-01	 1.594231547811876e+00	-1.280751865532164e+01
1	 1.096124347832640e+00	 1.391571896740206e+00	-9.342645875428277e+00
1	 1.063024249263387e+00	 1.417018112488103e+00	-9.721526966129497e+00
1	 1.029390353363742e+00	 1.441636705048751e+00	-1.008139737377103e+01
1	 9.952535688582581e-01	 1.465411640459374e+00	-1.042424692816132e+01
1	 9.606454006448711e-01	 1.488328411097861e+00	-1.075225007931404e+01
1	 9.255978565884818e-01	 1.510374059957227e+00	-1.106774241091375e+01
1	 8.901433534680955e-01	 1.531537198192394e+00	-1.137319636587979e+01
1	 8.543146226336705e-01	 1.551808015947975e+00	-1.167119643552059e+01
1	 8.181446159201131e-01	 1.571178286527056e+00	-1.196441406352717e+01
1	 7.816664123519507e-01	 1.589641364010496e+00	-1.225558251237210e+01
1	 7.449131261534554e-01	 1.607192174483440e+00	-1.254747193272538e+01
1	 1.104963654865492e+00	 1.402793736009346e+00	-9.111524647558138e+00
1	 1.071596632261015e+00	 1.428445153761882e+00	-9.477457466660852e+00
1	 1.037691507706341e+00	 1.453262274252797e+00	-9.828259624606027e+00
1	 1.003279439178513e+00	 1.477228934219099e+00	-1.016537115633795e+01
1	 9.683921856355830e-01	 1.500330509047090e+00	-1.049037648676197e+01
1	 9.330620130585670e-01	 1.522553937242589e+00	-1.080498635990138e+01
1	 8.973215996401297e-01	 1.543887738119204e+00	-1.111101915282876e+01
1	 8.612039406806341e-01	 1.564322022713443e+00	-1.141038176932107e+01
1	 8.247422537434145e-01	 1.583848497987105e+00	-1.170505030799021e+01
1	 7.879698846071006e-01	 1.602460464427385e+00	-1.199705069677187e+01
1	 7.509202145339245e-01	 1.620152807202639e+00	-1.228843948025072e+01
1	 1.113802967054246e+00	 1.414015581824252e+00	-8.881283555201724e+00
1	 1.080169020258817e+00	 1.439872201701093e+00	-9.235258240264068e+00
1	 1.045992666890877e+00	 1.464887850238044e+00	-9.577623112125089e+00
1	 1.011305314180105e+00	 1.489046234871818e+00	-9.909315454537165e+00
1	 9.761389751448162e-01	 1.512332613997067e+00	-1.023138102521266e+01
1	 9.405261738822962e-01	 1.534733821632353e+00	-1.054496094945463e+01
1	 9.044998499990210e-01	 1.556238285249923e+00	-1.085127814904886e+01
1	 8.680932627459145e-01	 1.576836036778132e+00	-1.115162344969711e+01
1	 8.313398954148933e-01	 1.596518716837457e+00	-1.144734151020375e+01
1	 7.942733605388482e-01	 1.615279572321401e+00	-1.173981671458478e+01
1	 7.569273064181261e-01	 1.633113447481505e+00	-1.203045916435166e+01
1	 1.122642285429984e+00	 1.425237435494076e+00	-8.652018848936567e+00
1	 1.088741414256743e+00	 1.451299257638846e+00	-8.994950831713235e+00
1	 1.054293831885671e+00	 1.476513434360772e+00	-9.329453521941369e+00
1	 1.019331194799253e+00	 1.500863543796189e+00	-9.656007258114020e+00
1	 9.838857700762512e-01	 1.524334727348017e+00	-9.975169184999066e+00
1	 9.479903399303966e-01	 1.546913714547491e+00	-1.028756466731344e+01
1	 9.116781053821611e-01	 1.568588841025433e+00	-1.059387836721643e+01
1	 8.749825896332130e-01	 1.589350059601992e+00	-1.089484508204852e+01
1	 8.379375417042393e-01	 1.609188944556281e+00	-1.119124043888178e+01
1	 8.005768408825752e-01	 1.628098689188072e+00	-1.148387154124298e+01
1	 7.629344025068716e-01	 1.646074096832072e+00	-1.177356766088709e+01
1	 1.131481611023788e+00	 1.436459298327974e+00	-8.423823772726305e+00
1	 1.097313815254742e+00	 1.462726322908246e+00	-8.756556113460107e+00
1	 1.062595003659041e+00	 1.488139027977262e+00	-9.083717612826394e+00
1	 1.027357081972179e+00	 1.512680862370868e+00	-9.405376270908029e+00
1	 9.916325713335669e-01	 1.536336850500164e+00	-9.721649410825405e+00
1	 9.554545120735946e-01	 1.559093617408970e+00	-1.003269917459674e+01
1	 9.188563666269405e-01	 1.580939406886611e+00	-1.033872778970174e+01
1	 8.818719221462320e-01	 1.601864092644972e+00	-1.063997266067664e+01
1	 8.445351933811404e-01	 1.621859182621744e+00	-1.093670134049430e+01
1	 8.068803263736645e-01	 1.640917816522931e+00	-1.122920643612694e+01
1	 7.689415035009731e-01	 1.659034756766367e+00	-1.151780050158762e+01
1	 1.140320944866739e+00	 1.447681171635097e+00	-8.196788680393889e+00
1	 1.105886224252765e+00	 1.474153398842404e+00	-8.520094311624851e+00
1	 1.070896183179307e+00	 1.499764632443794e+00	-8.840383175044671e+00
1	 1.035382976635102e+00	 1.524498191974515e+00	-9.157354377250060e+00
1	 9.993793798204437e-01	 1.548338984853732e+00	-9.470732987194495e+00
1	 9.629186911826177e-01	 1.571273531637760e+00	-9.780269182747649e+00
1	 9.260346345707511e-01	 1.593289984274343e+00	-1.008573725341554e+01
1	 8.887612610886730e-01	 1.614378137367024e+00	-1.038693447614844e+01
1	 8.511328512152861e-01	 1.634529432512017e+00	-1.068367988195170e+01
1	 8.131838177474978e-01	 1.653736955821508e+00	-1.097581293152265e+01
1	 7.749486101012426e-01	 1.671995428796423e+00	-1.126319211836030e+01
1	 1.149160287989920e+00	 1.458903056724601e+00	-7.971001146717804e+00
1	 1.114458642250760e+00	 1.485580486774424e+00	-8.285585030787141e+00
1	 1.079197371414790e+00	 1.511390249116649e+00	-8.599418990612637e+00
1	 1.043408879724243e+00	 1.536315533985785e+00	-8.911875558031412e+00
1	 1.007126196440562e+00	 1.560341131808945e+00	-9.222333929123808e+00
1	 9.703828781281930e-01	 1.583453458654829e+00	-9.530182336159047e+00
1	 9.332129100509838e-01	 1.605640574629505e+00	-9.834820339972250e+00
1	 8.956506072642383e-01	 1.626892195228096e+00	-1.013566102693755e+01
1	 8.577305159763654e-01	 1.647199695705267e+00	-1.043213309593507e+01
1	 8.194873157394577e-01	 1.666556108579334e+00	-1.072368282208823e+01
1	 7.809557230084923e-01	 1.684956114434272e+00	-1.100977588554835e+01
1	 7.208847936526629e-01	 1.555349688962692e+00	-1.359334687950472e+01
1	 6.850853372827741e-01	 1.571447032686810e+00	-1.389851504343351e+01
1	 6.490835353685449e-01	 1.586656349736946e+00	-1.421893176672179e+01
1	 6.129110055660850e-01	 1.600977193512580e+00	-1.455006601433807e+01
1	 5.765990655328243e-01	 1.614410546750085e+00	-1.488727728503552e+01
1	 5.401786568250596e-01	 1.626958785750686e+00	-1.522585379965138e+01
1	 5.036802724514819e-01	 1.638625640113148e+00	-1.556104980628300e+01
1	 4.671338883575810e-01	 1.649416148345699e+00	-1.588812170264995e+01
1	 4.305688990762302e-01	 1.659336609746896e+00	-1.620236270281841e+01
1	 3.940140577397680e-01	 1.668394532956102e+00	-1.649913580445540e+01
1	 3.574974206089847e-01	 1.676598581580888e+00	-1.677390484332241e+01
1	 7.268918750263222e-01	 1.568310306563534e+00	-1.333049719715462e+01
1	 6.907941043493353e-01	 1.584541788300445e+00	-1.363365439561815e+01
1	 6.544923019970291e-01	 1.599877843500642e+00	-1.394895256379396e+01
1	 6.180183490931941e-01	 1.614318021842112e+00	-1.427261534474507e+01
1	 5.814038242630725e-01	 1.627863314250304e+00	-1.460078393737875e+01
1	 5.446799268967494e-01	 1.640516116827987e+00	-1.492954858144050e+01
1	 5.078774040989904e-01	 1.652280190252410e+00	-1.525497925640834e+01
1	 4.710264816027066e-01	 1.663160615017326e+00	-1.557315535004406e+01
1	 4.341567988833242e-01	 1.673163742912899e+00	-1.588019407496711e+01
1	 3.972973486709883e-01	 1.682297145147446e+00	-1.617227743591379e+01
1	 3.604764210173155e-01	 1.690569557521760e+00	-1.644567757585311e+01
1	 7.328989571004663e-01	 1.581270925675919e+00	-1.306854054223787e+01
1	 6.965028720816041e-01	 1.597636545441325e+00	-1.336949243007633e+01
1	 6.599010692562729e-01	 1.613099338806442e+00	-1.367980265375708e+01
1	 6.231256932159656e-01	 1.627658851727757e+00	-1.399637859753720e+01
1	 5.862085835537600e-01	 1.641316083319784e+00	-1.431606929725259e+01
1	 5.491811974935527e-01	 1.654073449486838e+00	-1.463569083829198e+01
1	 5.120745362362032e-01	 1.665934741984644e+00	-1.495205105917937e+01
1	 4.749190753020673e-01	 1.676905083292483e+00	-1.526197336674006e+01
1	 4.377446991091440e-01	 1.686990877692122e+00	-1.556231948753465e+01
1	 4.005806399854071e-01	 1.696199758960834e+00	-1.585001100025077e+01
1	 3.634554217733189e-01	 1.704540535092635e+00	-1.612204951464859e+01
1	 7.389060405759063e-01	 1.594231547811876e+00	-1.280751865532164e+01
1	 7.022116411455905e-01	 1.610731305637117e+00	-1.310611629888346e+01
1	 6.653098377772835e-01	 1.626320837196780e+00	-1.341159522312217e+01
1	 6.282330385302360e-01	 1.640999684725852e+00	-1.372147742845370e+01
1	 5.910133439654147e-01	 1.654768855527908e+00	-1.403324777913589e+01
1	 5.536824691405809e-01	 1.667630785308807e+00	-1.434437392119266e+01
1	 5.162716693527424e-01	 1.679589296902752e+00	-1.465232559244537e+01
1	 4.788116699097502e-01	 1.690649554774555e+00	-1.495459317568166e+01
1	 4.413326001722285e-01	 1.700818015697596e+00	-1.524870536115940e+01
1	 4.038639320660276e-01	 1.710102376018112e+00	-1.553224580074630e+01
1	 3.664344232245057e-01	 1.718511515923357e+00	-1.580286865273826e+01
1	 7.449131261534554e-01	 1.607192174483440e+00	-1.254747193272539e+01
1	 7.079204122073058e-01	 1.623826070415485e+00	-1.284361034493595e+01
1	 6.707186081910698e-01	 1.639542340214093e+00	-1.314443980924141e+01
1	 6.333403856318418e-01	 1.654340522392739e+00	-1.344802957063291e+01
1	 5.958181060585638e-01	 1.668221632444062e+00	-1.375243010820834e+01
1	 5.581837423629469e-01	 1.681188125875464e+00	-1.405568817100140e+01
1	 5.204688039382303e-01	 1.693243856599634e+00	-1.435586128730905e+01
1	 4.827042658798433e-01	 1.704394031066930e+00	-1.465103163850744e+01
1	 4.449205024911150e-01	 1.714645158542355e+00	-1.493931920031528e+01
1	 4.071472252958531e-01	 1.724004997941130e+00	-1.521889406706246e+01
1	 3.694134257183873e-01	 1.732482501643770e+00	-1.548798788751841e+01
1	 7.509202145339245e-01	 1.620152807202639e+00	-1.228843948025072e+01
1	 7.136291859327608e-01	 1.636920841304096e+00	-1.258205621427198e+01
1	 6.761273811286393e-01	 1.652763849400814e+00	-1.287844244621706e+01
1	 6.384477351166191e-01	 1.667681366284758e+00	-1.317614899144581e+01
1	 6.006228703937347e-01	 1.681674415637626e+00	-1.347372346783771e+01
1	 5.626850176857628e-01	 1.694745472768375e+00	-1.376972103875525e+01
1	 5.246659404822889e-01	 1.706898422668192e+00	-1.406271470588648e+01
1	 4.865968636664338e-01	 1.718138513772993e+00	-1.435130507788541e+01
1	 4.485084064843421e-01	 1.728472307839431e+00	-1.463412954983950e+01
1	 4.104305200578863e-01	 1.737907626351737e+00	-1.490987083807390e+01
1	 3.723924296024744e-01	 1.746453493883714e+00	-1.517726482447742e+01
1	 7.569273064181261e-01	 1.633113447481505e+00	-1.203045916435166e+01
1	 7.193379629879660e-01	 1.650015619830615e+00	-1.232153296304175e+01
1	 6.815361572210011e-01	 1.665985366299380e+00	-1.261370580386127e+01
1	 6.435550875804052e-01	 1.681022217958248e+00	-1.290594604185958e+01
1	 6.054276375314549e-01	 1.695127206677984e+00	-1.319723164004232e+01
1	 5.671862956341406e-01	 1.708302827569109e+00	-1.348655720024631e+01
1	 5.288630794745408e-01	 1.720552996701325e+00	-1.377294061536334e+01
1	 4.904894637236094e-01	 1.731883004496130e+00	-1.405542929878415e+01
1	 4.520963125704475e-01	 1.742299465201855e+00	-1.433310595352986e+01
1	 4.137138167351306e-01	 1.751810262871778e+00	-1.460509385027944e+01
1	 3.753714352242780e-01	 1.760424494273034e+00	-1.487056159027038e+01
1	 7.629344025068716e-01	 1.646074096832072e+00	-1.177356766088709e+01
1	 7.250467440389318e-01	 1.663110407522708e+00	-1.206211715942344e+01
1	 6.869449370991632e-01	 1.679206892452224e+00	-1.235032932008857e+01
1	 6.486624436190357e-01	 1.694363078969549e+00	-1.263752759874311e+01
1	 6.102324080322518e-01	 1.708580007134521e+00	-1.292305513931589e+01
1	 5.716875767331934e-01	 1.721860191859236e+00	-1.320627866518403e+01
1	 5.330602214046076e-01	 1.734207580291934e+00	-1.348659205855190e+01
1	 4.943820665054574e-01	 1.745627504839728e+00	-1.376341960873859e+01
1	 4.556842211679696e-01	 1.756126632242662e+00	-1.403621891469936e+01
1	 4.169971157105890e-01	 1.765712909123104e+00	-1.430448343148623e+01
1	 3.783504429313092e-01	 1.774395504441572e+00	-1.456774465462571e+01
1	 7.689415035009731e-01	 1.659034756766367e+00	-1.151780050158762e+01
1	 7.307555297516694e-01	 1.676205205908041e+00	-1.180388298076021e+01
1	 6.923537213941330e-01	 1.692428429401784e+00	-1.208840932710165e+01
1	 6.537698038283479e-01	 1.707703950875003e+00	-1.237099720050026e+01
1	 6.150371824566522e-01	 1.722032818576619e+00	-1.265129134017811e+01
1	 5.761888615080327e-01	 1.735417567220324e+00	-1.292896488123933e+01
1	 5.372573667621120e-01	 1.747862175032921e+00	-1.320372042113976e+01
1	 4.982746724660653e-01	 1.759372016407173e+00	-1.347529083716585e+01
1	 4.592721326954463e-01	 1.769953810574882e+00	-1.374343985857984e+01
1	 4.202804173672643e-01	 1.779615566727561e+00	-1.400796239947938e+01
1	 3.813294530710786e-01	 1.788366526019169e+00	-1.426868466060275e+01
1	 7.749486101012426e-01	 1.671995428796423e+00	-1.126319211836030e+01
1	 7.364643207921892e-01	 1.689300016514279e+00	-1.154690230617912e+01
1	 6.977625107369196e-01	 1.705649978690491e+00	-1.182803917170668e+01
1	 6.588771688041773e-01	 1.721044835230948e+00	-1.210645517639380e+01
1	 6.198419613651840e-01	 1.735485642573660e+00	-1.238203459879143e+01
1	 5.806901504837709e-01	 1.748974955233940e+00	-1.265469283324840e+01
1	 5.414545160366762e-01	 1.761516782517186e+00	-1.292437549581002e+01
1	 5.021672820595209e-01	 1.773116540801851e+00	-1.319105735378225e+01
1	 4.628600475714159e-01	 1.783781001811550e+00	-1.345474109647457e+01
1	 4.235637220881601e-01	 1.793518237307000e+00	-1.371545596540479e+01
1	 3.843084659910977e-01	 1.802337560635670e+00	-1.397325626274531e+01
1	 7.809557230084923e-01	 1.684956114434272e+00	-1.100977588554835e+01
1	 7.421731178265022e-01	 1.702394840869089e+00	-1.129124480493344e+01
1	 7.031713057585309e-01	 1.718871541860783e+00	-1.156930933007436e+01
1	 6.639845391423617e-01	 1.734385733593725e+00	-1.184399876989844e+01
1	 6.246467453183745e-01	 1.748938480695031e+00	-1.211537636896342e+01
1	 5.851914441855204e-01	 1.762532357481655e+00	-1.238353713783720e+01
1	 5.456516697179219e-01	 1.775171404337629e+00	-1.264860554340157e+01
1	 5.060598957399114e-01	 1.786861079627148e+00	-1.291073308617034e+01
1	 4.664479662144161e-01	 1.797608207565696e+00	-1.317009579156590e+01
1	 4.268470302562790e-01	 1.807420922483264e+00	-1.342689164161269e+01
1	 3.872874820388771e-01	 1.816308609920916e+00	-1.368133797270686e+01
1	 3.574974206089847e-01	 1.676598581580888e+00	-1.677390484332241e+01
1	 3.210437537352151e-01	 1.683959003333080e+00	-1.702462995600273e+01
1	 2.846821660173839e-01	 1.690485997782369e+00	-1.725456235852351e+01
1	 2.484383771600480e-01	 1.696191347520098e+00	-1.746720680093553e+01
1	 2.123372325162998e-01	 1.701087751890542e+00	-1.766599415024906e+01
1	 1.764026711984843e-01	 1.705188763979623e+00	-1.785426371344423e+01
1	 1.406576988713968e-01	 1.708508727057505e+00	-1.803524718883780e+01
1	 1.051243651388339e-01	 1.711062710828929e+00	-1.821205427782768e+01
1	 6.982374540812293e-02	 1.712866447826537e+00	-1.838765997039515e+01
1	 3.477592709370159e-02	 1.713936270261961e+00	-1.856489350033031e+01
1	 0.000000000000000e+00	 1.714289047627778e+00	-1.874642895010852e+01
1	 3.604764210173155e-01	 1.690569557521760e+00	-1.644567757585311e+01
1	 3.237189883473829e-01	 1.697991313141118e+00	-1.669880129322277e+01
1	 2.870544021224811e-01	 1.704572696567507e+00	-1.693410251800062e+01
1	 2.505085963676162e-01	 1.710325588575774e+00	-1.715400241455506e+01
1	 2.141066234704213e-01	 1.715262794332936e+00	-1.736083554633376e+01
1	 1.778726220261427e-01	 1.719397979861820e+00	-1.755684064450555e+01
1	 1.418297894041262e-01	 1.722745607954046e+00	-1.774415257552022e+01
1	 1.060003589459304e-01	 1.725320873889138e+00	-1.792479549777838e+01
1	 7.040558167873620e-02	 1.727139641297820e+00	-1.810067718651455e+01
1	 3.506571240396045e-02	 1.728218378486884e+00	-1.827358449599541e+01
1	 0.000000000000000e+00	 1.728574095521189e+00	-1.844517991926321e+01
1	 3.634554217733189e-01	 1.704540535092635e+00	-1.612204951464859e+01
1	 3.263942232717195e-01	 1.712023624586264e+00	-1.637714430786663e+01
1	 2.894266385043065e-01	 1.718659396996017e+00	-1.661699453412005e+01
1	 2.525788158165745e-01	 1.724459831280267e+00	-1.684314084152862e+01
1	 2.158760146307361e-01	 1.729437838428791e+00	-1.705702488944799e+01
1	 1.793425730249773e-01	 1.733607197401348e+00	-1.725998712704645e+01
1	 1.430018800732300e-01	 1.736982490511031e+00	-1.745326542666112e+01
1	 1.068763528548503e-01	 1.739579038612175e+00	-1.763799452654707e+01
1	 7.098741801690550e-02	 1.741412836433599e+00	-1.781520623276348e+01
1	 3.535549774782404e-02	 1.742500488377288e+00	-1.798583032604536e+01
1	 0.000000000000000e+00	 1.742859145080407e+00	-1.815069611657021e+01
1	 3.664344232245057e-01	 1.718511515923357e+00	-1.580286865273826e+01
1	 3.290694588203119e-01	 1.726055939305545e+00	-1.605946193803759e+01
1	 2.917988754396156e-01	 1.732746100711309e+00	-1.630302833408758e+01
1	 2.546490357484634e-01	 1.738594077282575e+00	-1.653442594908138e+01
1	 2.176454062037082e-01	 1.743612885831910e+00	-1.675440186087224e+01
1	 1.808125243665334e-01	 1.747816418256036e+00	-1.696359548995704e+01
1	 1.441739710155136e-01	 1.751219376389558e+00	-1.716254256724079e+01
1	 1.077523469678564e-01	 1.753837206661650e+00	-1.735167962179843e+01
1	 7.156925449056739e-02	 1.755686034899275e+00	-1.753134891387458e+01
1	 3.564528315913577e-02	 1.756782601599632e+00	-1.770180373929500e+01
1	 0.000000000000000e+00	 1.757144197972236e+00	-1.786321403321788e+01
1	 3.694134257183873e-01	 1.732482501643770e+00	-1.548798788751841e+01
1	 3.317446953052459e-01	 1.740088258935989e+00	-1.574556348005184e+01
1	 2.941711132051638e-01	 1.746832809356790e+00	-1.599200062365012e+01
1	 2.567192564048237e-01	 1.752728328231689e+00	-1.622766793395794e+01
1	 2.194147983958010e-01	 1.757787938196089e+00	-1.645281131667897e+01
1	 1.822824762223561e-01	 1.762025644083713e+00	-1.666756153895679e+01
1	 1.453460623677824e-01	 1.765456267250724e+00	-1.687194221855677e+01
1	 1.086283413872118e-01	 1.768095379701183e+00	-1.706587813277872e+01
1	 7.215109116765843e-02	 1.769959238360240e+00	-1.724920375264200e+01
1	 3.593506867173904e-02	 1.771064719820369e+00	-1.742167191237462e+01
1	 0.000000000000000e+00	 1.771429255863481e+00	-1.758296252947482e+01
1	 3.723924296024744e-01	 1.746453493883714e+00	-1.517726482447742e+01
1	 3.344199330386081e-01	 1.754120585114621e+00	-1.543526433403354e+01
1	 2.965433520777064e-01	 1.760919524575867e+00	-1.568371461590521e+01
1	 2.587894780271962e-01	 1.766862585776609e+00	-1.592268306921948e+01
1	 2.211841914134786e-01	 1.771962997175130e+00	-1.615210308074001e+01
1	 1.837524287639907e-01	 1.776234876542210e+00	-1.637178441753186e+01
1	 1.465181542668414e-01	 1.779693164755627e+00	-1.658142394237830e+01
1	 1.095043362151794e-01	 1.782353559394389e+00	-1.678061653663848e+01
1	 7.273292811611519e-02	 1.784232448481896e+00	-1.696886612113884e+01
1	 3.622485431947724e-02	 1.785346844705956e+00	-1.714559667248347e+01
1	 0.000000000000000e+00	 1.785714320420949e+00	-1.731016313968687e+01
1	 3.753714352242780e-01	 1.760424494273034e+00	-1.487056159027038e+01
1	 3.370951723324846e-01	 1.768152919478469e+00	-1.512838576162691e+01
1	 2.989155923339992e-01	 1.775006248011952e+00	-1.537797977302660e+01
1	 2.608597008571213e-01	 1.780996851566330e+00	-1.561929346309986e+01
1	 2.229535854632042e-01	 1.786138064422830e+00	-1.585213174759264e+01
1	 1.852223821629825e-01	 1.790444117289355e+00	-1.607616647449609e+01
1	 1.476902468494962e-01	 1.793930070565365e+00	-1.629094858776145e+01
1	 1.103803315540222e-01	 1.796611747404885e+00	-1.649592047302462e+01
1	 7.331476540387417e-02	 1.798505666929638e+00	-1.669042836568435e+01
1	 3.651464013619379e-02	 1.799628977922850e+00	-1.687373470953355e+01
1	 0.000000000000000e+00	 1.799999393311444e+00	-1.704503036274748e+01
1	 3.783504429313092e-01	 1.774395504441572e+00	-1.456774465462571e+01
1	 3.397704134989622e-01	 1.782185263664560e+00	-1.482475465515726e+01
1	 3.012878342507974e-01	 1.789092981308450e+00	-1.507461156019411e+01
1	 2.629299251361400e-01	 1.795131127249847e+00	-1.531732682925755e+01
1	 2.247229807514416e-01	 1.800313141592991e+00	-1.555275649462142e+01
1	 1.866923365908766e-01	 1.804653367982979e+00	-1.578061313781035e+01
1	 1.488623402525520e-01	 1.808166986341034e+00	-1.600047824037716e+01
1	 1.112563275060033e-01	 1.810869945396284e+00	-1.621181477703782e+01
1	 7.389660309887201e-02	 1.812778895368865e+00	-1.641397992590649e+01
1	 3.680442615573210e-02	 1.813911121137507e+00	-1.660623777826821e+01
1	 0.000000000000000e+00	 1.814284476201773e+00	-1.678777193884142e+01
1	 3.813294530710786e-01	 1.788366526019169e+00	-1.426868466060275e+01
1	 3.424456568501270e-01	 1.796217619309920e+00	-1.452420331761504e+01
1	 3.036600781048563e-01	 1.803179726108770e+00	-1.477343121106165e+01
1	 2.650001511057929e-01	 1.809265414476159e+00	-1.501661626779940e+01
1	 2.264923774846549e-01	 1.814488230339411e+00	-1.525384090304605e+01
1	 1.881622922192183e-01	 1.818862630280913e+00	-1.548503279431754e+01
1	 1.500344346128140e-01	 1.822403913743735e+00	-1.570997617421500e+01
1	 1.121323241733855e-01	 1.825128155032206e+00	-1.592832351064504e+01
1	 7.447844126904522e-02	 1.827052135464974e+00	-1.613960744822127e+01
1	 3.709421241193553e-02	 1.828193276016381e+00	-1.634325289090511e+01
1	 0.000000000000000e+00	 1.828569570758740e+00	-1.653858911321412e+01
1	 3.843084659910977e-01	 1.802337560635670e+00	-1.397325626274531e+01
1	 3.451209026980651e-01	 1.810249988051577e+00	-1.422656925287566e+01
1	 3.060323241729317e-01	 1.817266484056323e+00	-1.447426550413453e+01
1	 2.670703790076207e-01	 1.823399714894258e+00	-1.471700005649064e+01
1	 2.282617758693074e-01	 1.828663332315890e+00	-1.495525278723650e+01
1	 1.896322492195529e-01	 1.833071905840984e+00	-1.518933667507314e+01
1	 1.512065300670876e-01	 1.836640854434563e+00	-1.541940680553364e+01
1	 1.130083216584319e-01	 1.839386377976264e+00	-1.564546999263036e+01
1	 7.506027998233038e-02	 1.841325388883361e+00	-1.586739489403359e+01
1	 3.738399893864753e-02	 1.842475444225930e+00	-1.608492250081657e+01
1	 0.000000000000000e+00	 1.842854678649152e+00	-1.629767688766923e+01
1	 3.872874820388771e-01	 1.816308609920916e+00	-1.368133797270686e+01
1	 3.477961513548631e-01	 1.824282371526556e+00	-1.393169496560331e+01
1	 3.084045727317791e-01	 1.831353256794514e+00	-1.417694654947164e+01
1	 2.691406090831641e-01	 1.837534030153142e+00	-1.441832145160450e+01
1	 2.300311761118629e-01	 1.842838449176229e+00	-1.465686403190822e+01
1	 1.911022077634256e-01	 1.847281196321023e+00	-1.489343874596859e+01
1	 1.523786267521780e-01	 1.850877810074617e+00	-1.512873564893765e+01
1	 1.138843200634055e-01	 1.853644615892075e+00	-1.536327682716325e+01
1	 7.564211930666406e-02	 1.855598657289427e+00	-1.559742364294294e+01
1	 3.767378576971149e-02	 1.856757627432609e+00	-1.583138467773072e+01
1	 0.000000000000000e+00	 1.857139801539814e+00	-1.606522426045686e+01
1	 1.857139801539814e+00	 0.000000000000000e+00	 2.622535597224392e+00
1	 1.856757627432609e+00	 3.767378576971200e-02	 2.557892491402450e+00
1	 1.855598657289427e+00	 7.564211930666453e-02	 2.486512095227509e+00
1	 1.853644615892075e+00	 1.138843200634058e-01	 2.408496143826786e+00
1	 1.850877810074617e+00	 1.523786267521784e-01	 2.323959276714196e+00
1	 1.847281196321023e+00	 1.911022077634259e-01	 2.233029223143777e+00
1	 1.842838449176228e+00	 2.300311761118631e-01	 2.135846932429970e+00
1	 1.837534030153142e+00	 2.691406090831643e-01	 2.032566645003949e+00
1	 1.831353256794514e+00	 3.084045727317791e-01	 1.923355900209727e+00
1	 1.824282371526556e+00	 3.477961513548631e-01	 1.808395477140586e+00
1	 1.816308609920916e+00	 3.872874820388771e-01	 1.687879265177241e+00
1	 1.871425938885499e+00	 0.000000000000000e+00	 2.504714240900864e+00
1	 1.871040824885513e+00	 3.796359318002383e-02	 2.445851638345749e+00
1	 1.869872939308534e+00	 7.622399995034108e-02	 2.379882754382413e+00
1	 1.867903866353384e+00	 1.147603806773741e-01	 2.307017348834355e+00
1	 1.865115776748616e+00	 1.535508066735918e-01	 2.227479163418435e+00
1	 1.861491495870142e+00	 1.925722706961614e-01	 2.141505301173291e+00
1	 1.857014572678569e+00	 2.318007020079917e-01	 2.049345496149007e+00
1	 1.851669349156259e+00	 2.712109861755549e-01	 1.951261272984937e+00
1	 1.845441029900473e+00	 3.107769897551533e-01	 1.847524997081741e+00
1	 1.838315751506641e+00	 3.504715899935780e-01	 1.738418817224115e+00
1	 1.830280651355449e+00	 3.902667096404622e-01	 1.624233503721255e+00
1	 1.885712081233184e+00	 0.000000000000000e+00	 2.390866607004655e+00
1	 1.885324027339362e+00	 3.825340069197129e-02	 2.338603440928153e+00
1	 1.884147226325385e+00	 7.680588079802278e-02	 2.278566120243505e+00
1	 1.882163121807059e+00	 1.156364415984023e-01	 2.211129456036984e+00
1	 1.879353748407376e+00	 1.547229870057536e-01	 2.136679575166539e+00
1	 1.875701800394163e+00	 1.940423341439140e-01	 2.055611897423318e+00
1	 1.871190701143662e+00	 2.335702285239304e-01	 1.968328944678729e+00
1	 1.865804673107656e+00	 2.732813639930134e-01	 1.875237990606394e+00
1	 1.859528807937886e+00	 3.131494076092566e-01	 1.776748561859009e+00
1	 1.852349136398974e+00	 3.531470295690236e-01	 1.673269803910435e+00
1	 1.844252697680622e+00	 3.932459382850533e-01	 1.565207727111283e+00
1	 1.899998216915481e+00	 0.000000000000000e+00	 2.280207822870779e+00
1	 1.899607223129177e+00	 3.854320806894736e-02	 2.235581952856974e+00
1	 1.898421506682321e+00	 7.738776137463460e-02	 2.182190487315464e+00
1	 1.896422370607763e+00	 1.165125021112167e-01	 2.120629106852404e+00
1	 1.893591713423013e+00	 1.558951667915989e-01	 2.051498455991505e+00
1	 1.889912098287876e+00	 1.955123969063782e-01	 1.975400129184913e+00
1	 1.885366822994288e+00	 2.353397542148335e-01	 1.892932427010701e+00
1	 1.879939990463522e+00	 2.753517408450131e-01	 1.804685905159926e+00
1	 1.873616579401857e+00	 3.155218243569036e-01	 1.711238742682722e+00
1	 1.866382514743161e+00	 3.558224678965475e-01	 1.613151959796235e+00
1	 1.858224737486206e+00	 3.962251655398985e-01	 1.510964519296260e+00
1	 1.914284334264999e+00	 0.000000000000000e+00	 2.171976430378970e+00
1	 1.913890400589984e+00	 3.883301507434495e-02	 2.136238111319248e+00
1	 1.912695768721676e+00	 7.796964120510148e-02	 2.090395238004984e+00
1	 1.910681601110162e+00	 1.173885615005441e-01	 2.035319006888737e+00
1	 1.907829660167639e+00	 1.570673450740623e-01	 1.971875596902880e+00
1	 1.904122377946063e+00	 1.969824577832475e-01	 1.900919582669036e+00
1	 1.899542926653227e+00	 2.371092776358554e-01	 1.823287052616478e+00
1	 1.894075289680050e+00	 2.774221150410274e-01	 1.739788473626783e+00
1	 1.887704332787491e+00	 3.178942380609087e-01	 1.651201349624127e+00
1	 1.880415875078809e+00	 3.584979027914969e-01	 1.558262727187383e+00
1	 1.872196759361968e+00	 3.992043889722462e-01	 1.461661606671359e+00
1	 1.928570421614352e+00	 0.000000000000000e+00	 2.065433518612042e+00
1	 1.928173548056805e+00	 3.912282147155702e-02	 2.040039111714484e+00
1	 1.926970000785793e+00	 7.855151981434853e-02	 2.002830432131328e+00
1	 1.924940801668923e+00	 1.182646190511110e-01	 1.955007701599250e+00
1	 1.922067577013370e+00	 1.582395208960790e-01	 1.897752567779591e+00
1	 1.918332627763509e+00	 1.984525155742158e-01	 1.832218370030624e+00
1	 1.913719000543260e+00	 2.388787973421505e-01	 1.759520041376248e+00
1	 1.908210559213428e+00	 2.794924848905294e-01	 1.680723712253370e+00
1	 1.901792056589895e+00	 3.202666467840865e-01	 1.596836089715220e+00
1	 1.894449205945524e+00	 3.611733320692193e-01	 1.508793693564471e+00
1	 1.886168751897681e+00	 4.021836061493447e-01	 1.417452038242432e+00
1	 1.942856467296148e+00	 0.000000000000000e+00	 1.959861894693477e+00
1	 1.942456653864665e+00	 3.941262702397651e-02	 1.946467809910760e+00
1	 1.941244191217008e+00	 7.913339672730063e-02	 1.919156414505835e+00
1	 1.939199960638711e+00	 1.191406740476439e-01	 1.879509361812363e+00
1	 1.936305452332318e+00	 1.594116933005836e-01	 1.829072652260541e+00
1	 1.932542836135003e+00	 1.999225690789774e-01	 1.769343183882360e+00
1	 1.927895033087166e+00	 2.406483118888731e-01	 1.701754866907623e+00
1	 1.922345787519848e+00	 2.815628487029927e-01	 1.627664396901338e+00
1	 1.915879739304173e+00	 3.226390485892515e-01	 1.548336791633555e+00
1	 1.908482495882913e+00	 3.638487535450625e-01	 1.464930807123557e+00
1	 1.900140703683113e+00	 4.051628146384417e-01	 1.378484357859681e+00
1	 1.957142459643000e+00	 0.000000000000000e+00	 1.854565290857658e+00
1	 1.956739706348589e+00	 3.970243149499637e-02	 1.855022150620994e+00
1	 1.955518328357658e+00	 7.971527146888283e-02	 1.839043439659543e+00
1	 1.953459066374192e+00	 1.200167257748695e-01	 1.808643578633537e+00
1	 1.950543274496597e+00	 1.605838613305110e-01	 1.765780785480380e+00
1	 1.946752991455327e+00	 2.013926170972260e-01	 1.712339349426260e+00
1	 1.942071012707724e+00	 2.424178198311774e-01	 1.650111393631221e+00
1	 1.936480963055499e+00	 2.836332047878904e-01	 1.580778254642679e+00
1	 1.929967369425429e+00	 3.250114415392181e-01	 1.505891620568699e+00
1	 1.922515733430581e+00	 3.665241650343736e-01	 1.426854582898112e+00
1	 1.914112603308034e+00	 4.081420120067854e-01	 1.344902768925028e+00
1	 1.971428386987518e+00	 0.000000000000000e+00	 1.748867605918945e+00
1	 1.971022693843598e+00	 3.999223464800954e-02	 1.765214620577395e+00
1	 1.969792400550084e+00	 8.029714356402012e-02	 1.762171312850688e+00
1	 1.967718107230032e+00	 1.208927735175143e-01	 1.742235167244683e+00
1	 1.964781031878321e+00	 1.617560240287962e-01	 1.707823494506262e+00
1	 1.960963082119269e+00	 2.028626584286554e-01	 1.661250874323474e+00
1	 1.956246927827715e+00	 2.441873197242181e-01	 1.604706007889818e+00
1	 1.950616074276571e+00	 2.857035514546962e-01	 1.540228147042923e+00
1	 1.944054935448770e+00	 3.273838236968006e-01	 1.469683283767194e+00
1	 1.936548907128135e+00	 3.691995643525005e-01	 1.394740299938779e+00
1	 1.928084439362215e+00	 4.111211958216242e-01	 1.316847291953994e+00
1	 1.985714237662315e+00	 0.000000000000000e+00	 1.642112179411125e+00
1	 1.985305604684719e+00	 4.028203624640896e-02	 1.676571725257968e+00
1	 1.984066396136623e+00	 8.087901253763749e-02	 1.688229046534290e+00
1	 1.981977071560896e+00	 1.217688165603047e-01	 1.680113979153957e+00
1	 1.979018712849604e+00	 1.629281804383741e-01	 1.655148841340029e+00
1	 1.975173096521612e+00	 2.043326918729596e-01	 1.616120496416270e+00
1	 1.970422766869918e+00	 2.459568101231494e-01	 1.565651743420218e+00
1	 1.964751109639255e+00	 2.877738870128831e-01	 1.506172245550062e+00
1	 1.958142425869298e+00	 3.297561931248137e-01	 1.439889227224369e+00
1	 1.950582005515181e+00	 3.718749493147904e-01	 1.368758190000452e+00
1	 1.942056200435424e+00	 4.141003636502061e-01	 1.294453915351188e+00
1	 2.000000000000000e+00	 0.000000000000000e+00	 1.533661096767310e+00
1	 1.999588427206973e+00	 4.057183605358756e-02	 1.588633487990079e+00
1	 1.998340303459614e+00	 8.146087791465992e-02	 1.616914531522287e+00
1	 1.996235947721451e+00	 1.226448541879675e-01	 1.622114722474464e+00
1	 1.993256305782559e+00	 1.641003296021794e-01	 1.607706368357678e+00
1	 1.989383023057143e+00	 2.058027162298326e-01	 1.576989729408939e+00
1	 1.984598518257113e+00	 2.477262895831255e-01	 1.533058401459105e+00
1	 1.978886057599742e+00	 2.898442097719247e-01	 1.478764199383082e+00
1	 1.972229829182122e+00	 3.321285478860718e-01	 1.416681823964943e+00
1	 1.964615017131326e+00	 3.745503177365909e-01	 1.349073618160207e+00
1	 1.956027875117432e+00	 4.170795130597794e-01	 1.277854739738036e+00
1	 1.816308609920916e+00	 3.872874820388771e-01	 1.687879265177241e+00
1	 1.807420922483264e+00	 4.268470302562786e-01	 1.563800479051114e+00
1	 1.797608207565696e+00	 4.664479662144158e-01	 1.437418565632542e+00
1	 1.786861079627148e+00	 5.060598957399112e-01	 1.307656093221352e+00
1	 1.775171404337629e+00	 5.456516697179217e-01	 1.173156536069618e+00
1	 1.762532357481656e+00	 5.851914441855203e-01	 1.032280816364039e+00
1	 1.748938480695031e+00	 6.246467453183742e-01	 8.831059239158234e-01
1	 1.734385733593725e+00	 6.639845391423612e-01	 7.234257351493154e-01
1	 1.718871541860783e+00	 7.031713057585306e-01	 5.507541348960557e-01
1	 1.702394840869089e+00	 7.421731178265019e-01	 3.623305239289893e-01
1	 1.684956114434273e+00	 7.809557230084924e-01	 1.551277722903811e-01
1	 1.830280651355449e+00	 3.902667096404622e-01	 1.624233503721255e+00
1	 1.821324594953817e+00	 4.301305715873713e-01	 1.506523067094271e+00
1	 1.811436395253883e+00	 4.700361396521799e-01	 1.385997568405517e+00
1	 1.800606594515861e+00	 5.099527858528720e-01	 1.261503271025518e+00
1	 1.788826995836037e+00	 5.498491214585424e-01	 1.131604254760957e+00
1	 1.776090722503322e+00	 5.896930575450493e-01	 9.945793451688354e-01
1	 1.762392274164796e+00	 6.294518704816068e-01	 8.484211639259129e-01
1	 1.747727579355579e+00	 6.690922721786595e-01	 6.908374202991598e-01
1	 1.732094043955664e+00	 7.085804848838240e-01	 5.192545451163941e-01
1	 1.715490595148239e+00	 7.478823202690240e-01	 3.308237474963967e-01
1	 1.697917720470713e+00	 7.869632625087234e-01	 1.224295511512425e-01
1	 1.844252697680622e+00	 3.932459382850533e-01	 1.565207727111283e+00
1	 1.835228272290978e+00	 4.334141140679417e-01	 1.453707411788561e+00
1	 1.825264587782192e+00	 4.736243143460175e-01	 1.338940134430579e+00
1	 1.814352114215724e+00	 5.138456773285418e-01	 1.219659250626857e+00
1	 1.802482592114112e+00	 5.540465746684604e-01	 1.094333321165135e+00
1	 1.789649092270640e+00	 5.941946724803288e-01	 9.611435593538656e-01
1	 1.775846072343640e+00	 6.342569973268171e-01	 8.179834433574014e-01
1	 1.761069429787372e+00	 6.742000070028453e-01	 6.624606108567870e-01
1	 1.745316550678762e+00	 7.139896659025048e-01	 4.919011340854997e-01
1	 1.728586354011298e+00	 7.535915247099296e-01	 3.033562515397980e-01
1	 1.710879331044161e+00	 7.929708041117344e-01	 9.361160862514750e-02
1	 1.858224737486206e+00	 3.962251655398985e-01	 1.510964519296260e+00
1	 1.849131943140409e+00	 4.366976550167055e-01	 1.405460440460144e+00
1	 1.839092773857973e+00	 4.772124873658478e-01	 1.296300970762778e+00
1	 1.828097627501635e+00	 5.177385669879708e-01	 1.182130234309212e+00
1	 1.816138182020209e+00	 5.582440259199826e-01	 1.061305418509466e+00
1	 1.803207455711374e+00	 5.986962853152487e-01	 9.318948685835790e-01
1	 1.789299864244732e+00	 6.390621219300107e-01	 7.916783916477865e-01
1	 1.774411273993693e+00	 6.793077394437820e-01	 6.381498837870923e-01
1	 1.758539051232120e+00	 7.193988443972456e-01	 4.685223735835685e-01
1	 1.741682106763799e+00	 7.593007264868671e-01	 2.797355531689696e-01
1	 1.723840935569680e+00	 7.989783429115335e-01	 6.846584321432514e-02
1	 1.872196759361968e+00	 3.992043889722462e-01	 1.461661606671359e+00
1	 1.863035596147771e+00	 4.399811917523779e-01	 1.361885885373297e+00
1	 1.852920942188578e+00	 4.808006557815890e-01	 1.258133149625424e+00
1	 1.841843123148493e+00	 5.216314516522095e-01	 1.148922239064504e+00
1	 1.829793754402687e+00	 5.624414717854167e-01	 1.032483375418965e+00
1	 1.816765801753297e+00	 6.031978923737006e-01	 9.067570319135030e-01
1	 1.802753638881248e+00	 6.438672403671951e-01	 7.693950574363269e-01
1	 1.787753101079132e+00	 6.844154653303315e-01	 6.177641638029678e-01
1	 1.771761534817776e+00	 7.248080159507175e-01	 4.489518637877509e-01
1	 1.754777842711275e+00	 7.650099209374835e-01	 2.597749245016611e-01
1	 1.736802523462338e+00	 8.049858740021280e-01	 4.679037539507958e-02
1	 1.886168751897681e+00	 4.021836061493447e-01	 1.417452038242432e+00
1	 1.876939219958725e+00	 4.432647215936743e-01	 1.323084402315886e+00
1	 1.866749081481357e+00	 4.843888166631600e-01	 1.224488169215816e+00
1	 1.855588589931198e+00	 5.255243281423084e-01	 1.120041103727153e+00
1	 1.843449298109903e+00	 5.666389088370701e-01	 1.007831123786811e+00
1	 1.830324119324177e+00	 6.076994899795758e-01	 8.856560710918779e-01
1	 1.816207385266352e+00	 6.486723487143761e-01	 7.510257822665218e-01
1	 1.801094900148275e+00	 6.895231804913566e-01	 6.011665626978135e-01
1	 1.784983990637771e+00	 7.302171761455920e-01	 4.330281437071403e-01
1	 1.767873551159260e+00	 7.707191033994266e-01	 2.432931798985897e-01
1	 1.749764084137201e+00	 8.109933924775250e-01	 2.838931755599661e-02
1	 1.900140703683113e+00	 4.051628146384417e-01	 1.378484357859681e+00
1	 1.890842803218936e+00	 4.465482418593103e-01	 1.289153683964761e+00
1	 1.880577180443664e+00	 4.879769670804797e-01	 1.195416011834363e+00
1	 1.869334016624649e+00	 5.294171932793179e-01	 1.095492495794312e+00
1	 1.857104801990212e+00	 5.708363336472505e-01	 9.873136584992777e-01
1	 1.843882397351781e+00	 6.122010744567645e-01	 8.685201876777546e-01
1	 1.829661092413219e+00	 6.534774430475603e-01	 7.364660798480966e-01
1	 1.814436660305711e+00	 6.946308807557207e-01	 5.882242257505395e-01
1	 1.798206407894145e+00	 7.356263205645408e-01	 4.205945099622633e-01
1	 1.780969221413285e+00	 7.764282692103445e-01	 2.301144725642356e-01
1	 1.762725607009334e+00	 8.170008934317318e-01	 1.307255406333174e-02
1	 1.914112603308034e+00	 4.081420120067854e-01	 1.344902768925029e+00
1	 1.904746334574061e+00	 4.498317498680010e-01	 1.260188568297203e+00
1	 1.894405227782849e+00	 4.915651041034668e-01	 1.170965199473541e+00
1	 1.883079392003745e+00	 5.333100438842887e-01	 1.075281917948169e+00
1	 1.870760254891974e+00	 5.750337427882651e-01	 9.708969989206326e-01
1	 1.857440624763881e+00	 6.167026421291587e-01	 8.552796837808143e-01
1	 1.843114749335018e+00	 6.582825194427546e-01	 7.256145205950971e-01
1	 1.827778370656030e+00	 6.997385619522857e-01	 5.788081848424396e-01
1	 1.811428775788937e+00	 7.410354447902353e-01	 4.114988434836901e-01
1	 1.794064842778885e+00	 7.821374137078839e-01	 2.200681000358913e-01
1	 1.775687081493801e+00	 8.230083719587561e-01	 6.555309372643370e-04
1	 1.928084439362215e+00	 4.111211958216242e-01	 1.316847291953994e+00
1	 1.918649802669765e+00	 4.531152429384617e-01	 1.236281142299259e+00
1	 1.908233212206262e+00	 4.951532248020400e-01	 1.151182846995205e+00
1	 1.896824704843383e+00	 5.372028767782708e-01	 1.059414714295189e+00
1	 1.884415645663542e+00	 5.792311328324216e-01	 9.585481520489223e-01
1	 1.870998790488245e+00	 6.212041893206487e-01	 8.458668862398039e-01
1	 1.856568345044922e+00	 6.630875739759653e-01	 7.183726211730378e-01
1	 1.841120020303820e+00	 7.048462199099149e-01	 5.727932179463053e-01
1	 1.824651083524189e+00	 7.464445444053474e-01	 4.055934437289493e-01
1	 1.807160404561592e+00	 7.878465322296934e-01	 2.129883181111973e-01
1	 1.788648497005671e+00	 8.290158231526051e-01	-9.040945347406404e-03
1	 1.942056200435424e+00	 4.141003636502061e-01	 1.294453915351188e+00
1	 1.932553196151707e+00	 4.563987183894079e-01	 1.217520841207131e+00
1	 1.922061122421255e+00	 4.987413262461179e-01	 1.136114713017466e+00
1	 1.910569943918465e+00	 5.410956887823153e-01	 1.047896076336629e+00
1	 1.898070963153277e+00	 5.834285003520271e-01	 9.502350772586627e-01
1	 1.884556883452640e+00	 6.257057123551258e-01	 8.402160740666225e-01
1	 1.870021868556099e+00	 6.678926027231987e-01	 7.146447388033901e-01
1	 1.854461598353669e+00	 7.099538504574706e-01	 5.700577146675115e-01
1	 1.837873320301940e+00	 7.518536149925487e-01	 4.027348700399673e-01
1	 1.820255896066940e+00	 7.935556201134200e-01	 2.087141627900679e-01
1	 1.801609842960009e+00	 8.350232421072867e-01	-1.619090039456683e-02
1	 1.956027875117432e+00	 4.170795130597794e-01	 1.277854739738036e+00
1	 1.946456503665550e+00	 4.596821735395547e-01	 1.203994543504631e+00
1	 1.935888947135180e+00	 5.023294055056194e-01	 1.125805248625488e+00
1	 1.924315098003887e+00	 5.449884767174719e-01	 1.040731048683804e+00
1	 1.911726196209532e+00	 5.876258419193892e-01	 9.459266525512756e-01
1	 1.898114892584837e+00	 6.302072075564812e-01	 8.382634089932921e-01
1	 1.883475308881720e+00	 6.726976017604614e-01	 7.143379700881064e-01
1	 1.867803093910167e+00	 7.150614494238159e-01	 5.704835475352038e-01
1	 1.851095475324230e+00	 7.572626521345105e-01	 4.027837897847950e-01
1	 1.833351306600461e+00	 7.992646726967115e-01	 2.070892798312164e-01
1	 1.814571108771880e+00	 8.410306239168078e-01	-2.096337618653199e-02
1	 1.684956114434273e+00	 7.809557230084924e-01	 1.551277722903810e-01
1	 1.666556108579333e+00	 8.194873157394583e-01	-8.836374373400679e-02
1	 1.647199695705267e+00	 8.577305159763660e-01	-3.816466818250467e-01
1	 1.626892195228096e+00	 8.956506072642391e-01	-7.214621964412404e-01
1	 1.605640574629505e+00	 9.332129100509844e-01	-1.103871641865699e+00
1	 1.583453458654829e+00	 9.703828781281937e-01	-1.524269969161539e+00
1	 1.560341131808945e+00	 1.007126196440562e+00	-1.977404671864284e+00
1	 1.536315533985785e+00	 1.043408879724244e+00	-2.457400252103429e+00
1	 1.511390249116649e+00	 1.079197371414791e+00	-2.957788114808987e+00
1	 1.485580486774423e+00	 1.114458642250760e+00	-3.471541732950855e+00
1	 1.458903056724601e+00	 1.149160287989920e+00	-3.991116862432924e+00
1	 1.697917720470713e+00	 7.869632625087234e-01	 1.224295511512428e-01
1	 1.679376171684905e+00	 8.257912613720412e-01	-1.220605631007400e-01
1	 1.659870858672978e+00	 8.643286492681638e-01	-4.146633931727763e-01
1	 1.639407141770808e+00	 9.025404426841122e-01	-7.520329326455509e-01
1	 1.617992042057758e+00	 9.403916952936697e-01	-1.130127213050548e+00
1	 1.595634250625419e+00	 9.778475951400555e-01	-1.544222485076451e+00
1	 1.572344131092705e+00	 1.014873563197749e+00	-1.988933117843705e+00
1	 1.548133715201746e+00	 1.051435352769626e+00	-2.458237183096454e+00
1	 1.523016691378873e+00	 1.087499149155750e+00	-2.945507624971671e+00
1	 1.497008386197335e+00	 1.123031669015494e+00	-3.443548849176292e+00
1	 1.470125738732542e+00	 1.158000258835432e+00	-3.944638499025620e+00
1	 1.710879331044161e+00	 7.929708041117344e-01	 9.361160862514750e-02
1	 1.692196239277984e+00	 8.320952092111141e-01	-1.520731693859139e-01
1	 1.672542026076116e+00	 8.709267848693754e-01	-4.442094989379684e-01
1	 1.651922092694297e+00	 9.094302805154478e-01	-7.793667555739879e-01
1	 1.630343513809585e+00	 9.475704830488989e-01	-1.153401781554576e+00
1	 1.607815046859852e+00	 9.853123147644879e-01	-1.561473843578093e+00
1	 1.584347134578076e+00	 1.022620932666389e+00	-1.998065481360528e+00
1	 1.559951900554614e+00	 1.059461828624110e+00	-2.457009209184495e+00
1	 1.534643137710871e+00	 1.095800929802140e+00	-2.931519964143511e+00
1	 1.508436289620492e+00	 1.131604698780583e+00	-3.414233125817123e+00
1	 1.481348424668851e+00	 1.166840232774733e+00	-3.897247863638556e+00
1	 1.723840935569680e+00	 7.989783429115335e-01	 6.846584321432514e-02
1	 1.705016300889208e+00	 8.383991541086286e-01	-1.786220939835751e-01
1	 1.685213187566892e+00	 8.775249173917148e-01	-4.705170175546540e-01
1	 1.664437037778324e+00	 9.163201151317564e-01	-8.037062088796989e-01
1	 1.642694979798230e+00	 9.547492674542318e-01	-1.173947438343412e+00
1	 1.619995837410733e+00	 9.927770309055642e-01	-1.576284691964573e+00
1	 1.596350132462838e+00	 1.030368298519748e+00	-2.005069965122425e+00
1	 1.571770080393091e+00	 1.067488300733048e+00	-2.453991080850241e+00
1	 1.546269578617915e+00	 1.104102706574501e+00	-2.916105419550731e+00
1	 1.519864187711302e+00	 1.140177724545059e+00	-3.383879375792444e+00
1	 1.492571105368532e+00	 1.175680202588859e+00	-3.849233287235541e+00
1	 1.736802523462338e+00	 8.049858740021280e-01	 4.679037539507969e-02
1	 1.717836346049209e+00	 8.447030909165361e-01	-2.019212749053241e-01
1	 1.697884332797518e+00	 8.841230414468964e-01	-4.938110311491738e-01
1	 1.676951966802650e+00	 9.232099409065490e-01	-8.252865860208360e-01
1	 1.655046429936937e+00	 9.619280426472270e-01	-1.192008739802362e+00
1	 1.632176612330666e+00	 1.000241737467358e+00	-1.588907888439491e+00
1	 1.608353114944773e+00	 1.038115654431095e+00	-2.010206758370475e+00
1	 1.583588245065871e+00	 1.075514762541794e+00	-2.449449341050000e+00
1	 1.557896004605275e+00	 1.112404472693372e+00	-2.899535907211956e+00
1	 1.531292071137173e+00	 1.148750739307956e+00	-3.352763907472984e+00
1	 1.503793771666583e+00	 1.184520161058842e+00	-3.800874493087342e+00
1	 1.749764084137201e+00	 8.109933924775250e-01	 2.838931755599672e-02
1	 1.730656364288626e+00	 8.510070144867884e-01	-2.221783006099440e-01
1	 1.710555451420205e+00	 8.907211516466336e-01	-5.143099420922719e-01
1	 1.689466869547038e+00	 9.300997522133370e-01	-8.443361984693980e-01
1	 1.667397854138950e+00	 9.691068027654434e-01	-1.207822986519006e+00
1	 1.644357361672258e+00	 1.007706428353941e+00	-1.599588790371653e+00
1	 1.620356072221661e+00	 1.045862994073695e+00	-2.013728333509160e+00
1	 1.595406384921654e+00	 1.083541207495701e+00	-2.443642629100182e+00
1	 1.569522406178222e+00	 1.120706221379292e+00	-2.882075281965060e+00
1	 1.542719930565512e+00	 1.157323736068305e+00	-3.321154839732567e+00
1	 1.515016414398009e+00	 1.193360100965718e+00	-3.752442915736621e+00
1	 1.762725607009334e+00	 8.170008934317318e-01	 1.307255406333174e-02
1	 1.743476345138092e+00	 8.573109196713373e-01	-2.395946430997261e-01
1	 1.723226533087164e+00	 8.973192426026411e-01	-5.322257182578968e-01
1	 1.701981735791249e+00	 9.369895434256313e-01	-8.610766321137021e-01
1	 1.679749242317513e+00	 9.762855419464395e-01	-1.221620489794166e+00
1	 1.656538075488112e+00	 1.015171097469386e+00	-1.608565529866036e+00
1	 1.632358994491283e+00	 1.053610311120815e+00	-2.015879729679063e+00
1	 1.607224490309136e+00	 1.091567629040120e+00	-2.436821971187237e+00
1	 1.581148773842030e+00	 1.129007945852801e+00	-2.863979633846802e+00
1	 1.554147756663726e+00	 1.165896707825141e+00	-3.289312403131150e+00
1	 1.526239024397810e+00	 1.202200015090521e+00	-3.704202005922760e+00
1	 1.775687081493801e+00	 8.230083719587561e-01	 6.555309372644480e-04
1	 1.756296278128241e+00	 8.636148013221341e-01	-2.543658808308272e-01
1	 1.735897567450607e+00	 9.039173089266328e-01	-5.477641275645524e-01
1	 1.714496555315046e+00	 9.438793089169430e-01	-8.757229924564096e-01
1	 1.692100584385871e+00	 9.834642543277747e-01	-1.233624826506516e+00
1	 1.668718743830833e+00	 1.022635738717768e+00	-1.616069277292447e+00
1	 1.644361871951418e+00	 1.061357599245724e+00	-2.016898823937584e+00
1	 1.619042551577015e+00	 1.099594020620405e+00	-2.429231058182431e+00
1	 1.592775098101968e+00	 1.137309639334439e+00	-2.845497571521079e+00
1	 1.565575540099225e+00	 1.174469647577495e+00	-3.257489227936778e+00
1	 1.537461592500988e+00	 1.211039896214285e+00	-3.656407522181802e+00
1	 1.788648497005671e+00	 8.290158231526051e-01	-9.040945347406404e-03
1	 1.769116152789709e+00	 8.699186542911306e-01	-2.666819119531064e-01
1	 1.748568544162743e+00	 9.105153452303222e-01	-5.611249623415674e-01
1	 1.727011317898189e+00	 9.507690430607832e-01	-8.884841391751576e-01
1	 1.704451870257265e+00	 9.906429340470074e-01	-1.244053082920647e+00
1	 1.680899356753025e+00	 1.030100346003158e+00	-1.622324493381804e+00
1	 1.656364694799848e+00	 1.069104852121687e+00	-2.017016590675413e+00
1	 1.630860559073990e+00	 1.107620375681909e+00	-2.421106511404603e+00
1	 1.604401369463309e+00	 1.145611295044744e+00	-2.826870493411707e+00
1	 1.577003271539414e+00	 1.183042548324400e+00	-3.225930619652478e+00
1	 1.548684109542545e+00	 1.219879737118045e+00	-3.609307809796272e+00
1	 1.801609842960009e+00	 8.350232421072867e-01	-1.619090039456694e-02
1	 1.781935958653133e+00	 8.762224734302785e-01	-2.767271583653843e-01
1	 1.761239452875785e+00	 9.171133461254239e-01	-5.725022540314992e-01
1	 1.739526013320439e+00	 9.576587402306627e-01	-8.995629105803190e-01
1	 1.716803089844941e+00	 9.978215752416968e-01	-1.253116087993825e+00
1	 1.693079904307295e+00	 1.037564913229629e+00	-1.627549170464220e+00
1	 1.668367453234355e+00	 1.076852063421972e+00	-2.016457349859372e+00
1	 1.642678503148756e+00	 1.115646687669985e+00	-2.412678136936055e+00
1	 1.616027578431323e+00	 1.153912906204257e+00	-2.808332847156717e+00
1	 1.588430941651701e+00	 1.191615403064889e+00	-3.194874822675918e+00
1	 1.559906566357481e+00	 1.228719530582835e+00	-3.563144067730287e+00
1	 1.814571108771880e+00	 8.410306239168078e-01	-2.096337618653210e-02
1	 1.794755685249146e+00	 8.825262535915291e-01	-2.846807610444068e-01
1	 1.773910283241944e+00	 9.237113062236514e-01	-5.820844787109825e-01
1	 1.752040631361560e+00	 9.645483948000926e-01	-9.091563384739716e-01
1	 1.729154233062143e+00	 1.005000172049402e+00	-1.261018636705586e+00
1	 1.705260376546246e+00	 1.045029434301255e+00	-1.631955063390560e+00
1	 1.680370137452718e+00	 1.084599226819845e+00	-2.015439004659586e+00
1	 1.654496374150013e+00	 1.123672950029984e+00	-2.404169169062833e+00
1	 1.627653715511282e+00	 1.162214466033516e+00	-2.790112377967882e+00
1	 1.599858541103495e+00	 1.200188204797995e+00	-3.164553272684083e+00
1	 1.571128953780799e+00	 1.237559269389690e+00	-3.518150604149552e+00
1	 1.458903056724601e+00	 1.149160287989920e+00	-3.991116862432924e+00
1	 1.431376332403356e+00	 1.183270628862627e+00	-4.496321950788356e+00
1	 1.403020199363723e+00	 1.216758813370768e+00	-4.972890034215784e+00
1	 1.373856021405344e+00	 1.249594900150438e+00	-5.422064356514174e+00
1	 1.343906592066114e+00	 1.281749943065508e+00	-5.845428349037880e+00
1	 1.313196075777992e+00	 1.313196075777993e+00	-6.244891333793115e+00
1	 1.281749943065507e+00	 1.343906592066115e+00	-6.622671618464835e+00
1	 1.249594900150437e+00	 1.373856021405345e+00	-6.981277143700062e+00
1	 1.216758813370767e+00	 1.403020199363723e+00	-7.323483871460362e+00
1	 1.183270628862627e+00	 1.431376332403357e+00	-7.652312129112375e+00
1	 1.149160287989920e+00	 1.458903056724601e+00	-7.971001146717804e+00
1	 1.470125738732542e+00	 1.158000258835432e+00	-3.944638499025620e+00
1	 1.442387263759201e+00	 1.192372995147767e+00	-4.429669740106921e+00
1	 1.413812999800923e+00	 1.226118789127744e+00	-4.885765424658025e+00
1	 1.384424474999414e+00	 1.259207469086070e+00	-5.314461185837389e+00
1	 1.354244658232962e+00	 1.291609866217064e+00	-5.717655672282588e+00
1	 1.323297899819588e+00	 1.323297899819588e+00	-6.097593547553137e+00
1	 1.291609866217063e+00	 1.354244658232962e+00	-6.456845695819186e+00
1	 1.259207469086070e+00	 1.384424474999415e+00	-6.798286822026175e+00
1	 1.226118789127743e+00	 1.413812999800923e+00	-7.125070665210407e+00
1	 1.192372995147766e+00	 1.442387263759201e+00	-7.440603071031282e+00
1	 1.158000258835432e+00	 1.470125738732542e+00	-7.748513193471344e+00
1	 1.481348424668851e+00	 1.166840232774733e+00	-3.897247863638556e+00
1	 1.453398198969239e+00	 1.201475364618558e+00	-4.362588424356465e+00
1	 1.424605804015899e+00	 1.235478768160576e+00	-4.798799736686199e+00
1	 1.394992932292661e+00	 1.268820041386022e+00	-5.207685933683647e+00
1	 1.364582728018272e+00	 1.301469792819580e+00	-5.591434336761826e+00
1	 1.333399727396883e+00	 1.333399727396884e+00	-5.952595918345072e+00
1	 1.301469792819580e+00	 1.364582728018273e+00	-6.294062806163812e+00
1	 1.268820041386021e+00	 1.394992932292662e+00	-6.619043043652746e+00
1	 1.235478768160575e+00	 1.424605804015899e+00	-6.931032853084986e+00
1	 1.201475364618558e+00	 1.453398198969239e+00	-7.233786676796676e+00
1	 1.166840232774733e+00	 1.481348424668851e+00	-7.531285296658947e+00
1	 1.492571105368532e+00	 1.175680202588859e+00	-3.849233287235541e+00
1	 1.464409129041410e+00	 1.210577729841743e+00	-4.295364391538349e+00
1	 1.435398603194744e+00	 1.244838742825615e+00	-4.712267801429859e+00
1	 1.405561384654415e+00	 1.278432609200344e+00	-5.101992749842696e+00
1	 1.374920792979544e+00	 1.311329714821083e+00	-5.466989217926016e+00
1	 1.343501550260330e+00	 1.343501550260330e+00	-5.810086025462012e+00
1	 1.311329714821082e+00	 1.374920792979545e+00	-6.134465819137731e+00
1	 1.278432609200344e+00	 1.405561384654415e+00	-6.443637197715698e+00
1	 1.244838742825615e+00	 1.435398603194745e+00	-6.741404246812915e+00
1	 1.210577729841742e+00	 1.464409129041410e+00	-7.031833785848972e+00
1	 1.175680202588859e+00	 1.492571105368532e+00	-7.319220655266139e+00
1	 1.503793771666583e+00	 1.184520161058842e+00	-3.800874493087342e+00
1	 1.475420044983652e+00	 1.219680083384064e+00	-4.228275481937583e+00
1	 1.446191388523552e+00	 1.254198705479214e+00	-4.626436249351683e+00
1	 1.416129823454001e+00	 1.288045164679088e+00	-4.997628202887815e+00
1	 1.385258844674276e+00	 1.321189624169597e+00	-5.344538485924517e+00
1	 1.353603360160380e+00	 1.353603360160380e+00	-5.670245858145567e+00
1	 1.321189624169596e+00	 1.385258844674276e+00	-5.978193350663580e+00
1	 1.288045164679088e+00	 1.416129823454001e+00	-6.272157957773774e+00
1	 1.254198705479213e+00	 1.446191388523552e+00	-6.556217662266500e+00
1	 1.219680083384063e+00	 1.475420044983652e+00	-6.834716122005661e+00
1	 1.184520161058843e+00	 1.503793771666584e+00	-7.112225371591189e+00
1	 1.515016414398009e+00	 1.193360100965718e+00	-3.752442915736621e+00
1	 1.486430937803904e+00	 1.228782417812263e+00	-4.161591304968806e+00
1	 1.456984151188414e+00	 1.263558648477723e+00	-4.541563814350293e+00
1	 1.426698240060748e+00	 1.297657699972307e+00	-4.894831561451814e+00
1	 1.395596874659965e+00	 1.331049512813149e+00	-5.224293854557047e+00
1	 1.363705148847485e+00	 1.363705148847485e+00	-5.533252023345125e+00
1	 1.331049512813148e+00	 1.395596874659965e+00	-5.825379921318618e+00
1	 1.297657699972306e+00	 1.426698240060748e+00	-6.104691383304618e+00
1	 1.263558648477722e+00	 1.456984151188414e+00	-6.375504957338864e+00
1	 1.228782417812262e+00	 1.486430937803904e+00	-6.642406261751452e+00
1	 1.193360100965718e+00	 1.515016414398009e+00	-6.910208344781599e+00
1	 1.526239024397810e+00	 1.202200015090521e+00	-3.704202005922760e+00
1	 1.497441798510104e+00	 1.237884725693083e+00	-4.095573542075282e+00
1	 1.467776882375423e+00	 1.272918564177493e+00	-4.457901624477443e+00
1	 1.437266625843982e+00	 1.307270207230050e+00	-4.793835063121899e+00
1	 1.405934874494110e+00	 1.340909372699764e+00	-5.106460819266817e+00
1	 1.373806908072096e+00	 1.373806908072096e+00	-5.399275944332134e+00
1	 1.340909372699764e+00	 1.405934874494111e+00	-5.676156107734836e+00
1	 1.307270207230049e+00	 1.437266625843983e+00	-5.941321016732999e+00
1	 1.272918564177493e+00	 1.467776882375423e+00	-6.199297068154169e+00
1	 1.237884725693082e+00	 1.497441798510105e+00	-6.454877603924786e+00
1	 1.202200015090521e+00	 1.526239024397810e+00	-6.713081169057581e+00
1	 1.537461592500988e+00	 1.211039896214285e+00	-3.656407522181802e+00
1	 1.508452618110191e+00	 1.246986999593266e+00	-4.030476236391844e+00
1	 1.478569573270671e+00	 1.282278444934877e+00	-4.375693479951073e+00
1	 1.447834972173032e+00	 1.316882678602370e+00	-4.694864171584026e+00
1	 1.416272835734211e+00	 1.350769195777470e+00	-4.991238884733457e+00
1	 1.383908629584665e+00	 1.383908629584666e+00	-5.268484050635132e+00
1	 1.350769195777470e+00	 1.416272835734212e+00	-5.530648687383070e+00
1	 1.316882678602369e+00	 1.447834972173032e+00	-5.782127976219497e+00
1	 1.282278444934876e+00	 1.478569573270671e+00	-6.027624043695702e+00
1	 1.246986999593265e+00	 1.508452618110192e+00	-6.272104340728877e+00
1	 1.211039896214285e+00	 1.537461592500988e+00	-6.520758036382674e+00
1	 1.548684109542545e+00	 1.219879737118045e+00	-3.609307809796272e+00
1	 1.519463387612104e+00	 1.256089232079554e+00	-3.966546069841496e+00
1	 1.489362215060251e+00	 1.291638283106225e+00	-4.295176119107666e+00
1	 1.458403270417224e+00	 1.326495106239317e+00	-4.598137822612326e+00
1	 1.426610749937764e+00	 1.360628973994291e+00	-4.878821782593147e+00
1	 1.394010305135645e+00	 1.394010305135645e+00	-5.141037959735582e+00
1	 1.360628973994290e+00	 1.426610749937764e+00	-5.388980777076506e+00
1	 1.326495106239316e+00	 1.458403270417224e+00	-5.627191044423712e+00
1	 1.291638283106225e+00	 1.489362215060251e+00	-5.860515078932028e+00
1	 1.256089232079554e+00	 1.519463387612105e+00	-6.094061430000664e+00
1	 1.219879737118045e+00	 1.548684109542545e+00	-6.333155643357466e+00
1	 1.559906566357481e+00	 1.228719530582835e+00	-3.563144067730287e+00
1	 1.530474098023782e+00	 1.265191415718691e+00	-3.904022628297438e+00
1	 1.500154798930255e+00	 1.300998071047889e+00	-4.216579472900014e+00
1	 1.468971511945886e+00	 1.336107482290944e+00	-4.503868659463405e+00
1	 1.436948608662268e+00	 1.370488699298253e+00	-4.769397679781169e+00
1	 1.404111926475486e+00	 1.404111926475486e+00	-5.017094650937694e+00
1	 1.370488699298252e+00	 1.436948608662268e+00	-5.251271965508830e+00
1	 1.336107482290943e+00	 1.468971511945887e+00	-5.476586753445134e+00
1	 1.300998071047889e+00	 1.500154798930256e+00	-5.697998546516573e+00
1	 1.265191415718691e+00	 1.530474098023782e+00	-5.920724568674578e+00
1	 1.228719530582835e+00	 1.559906566357482e+00	-6.150193102123223e+00
1	 1.571128953780799e+00	 1.237559269389690e+00	-3.518150604149552e+00
1	 1.541484740353162e+00	 1.274293543077417e+00	-3.843138655405498e+00
1	 1.510947316066777e+00	 1.310357801116220e+00	-4.140126908511750e+00
1	 1.479539688128345e+00	 1.345719798907301e+00	-4.412263258204282e+00
1	 1.447286403465221e+00	 1.380348363637383e+00	-4.663149377965045e+00
1	 1.414213485354640e+00	 1.414213485354640e+00	-4.896806631803066e+00
1	 1.380348363637382e+00	 1.447286403465222e+00	-5.117638440124304e+00
1	 1.345719798907301e+00	 1.479539688128346e+00	-5.330389466131017e+00
1	 1.310357801116220e+00	 1.510947316066777e+00	-5.540102027131858e+00
1	 1.274293543077416e+00	 1.541484740353163e+00	-5.752070167381024e+00
1	 1.237559269389690e+00	 1.571128953780800e+00	-5.971791855076212e+00
1	 1.149160287989920e+00	 1.458903056724601e+00	-7.971001146717804e+00
1	 1.114458642250760e+00	 1.485580486774424e+00	-8.285585030787141e+00
1	 1.079197371414790e+00	 1.511390249116649e+00	-8.599418990612637e+00
1	 1.043408879724243e+00	 1.536315533985785e+00	-8.911875558031412e+00
1	 1.007126196440562e+00	 1.560341131808945e+00	-9.222333929123808e+00
1	 9.703828781281930e-01	 1.583453458654829e+00	-9.530182336159047e+00
1	 9.332129100509838e-01	 1.605640574629505e+00	-9.834820339972250e+00
1	 8.956506072642383e-01	 1.626892195228096e+00	-1.013566102693755e+01
1	 8.577305159763654e-01	 1.647199695705267e+00	-1.043213309593508e+01
1	 8.194873157394577e-01	 1.666556108579334e+00	-1.072368282208823e+01
1	 7.809557230084923e-01	 1.684956114434272e+00	-1.100977588554835e+01
1	 1.158000258835432e+00	 1.470125738732542e+00	-7.748513193471344e+00
1	 1.123031669015494e+00	 1.497008386197336e+00	-8.054804127295212e+00
1	 1.087499149155749e+00	 1.523016691378874e+00	-8.362353815653529e+00
1	 1.051435352769625e+00	 1.548133715201746e+00	-8.670243738012644e+00
1	 1.014873563197748e+00	 1.572344131092705e+00	-8.977547100455334e+00
1	 9.778475951400548e-01	 1.595634250625419e+00	-9.283334055011633e+00
1	 9.403916952936689e-01	 1.617992042057758e+00	-9.586676878697999e+00
1	 9.025404426841116e-01	 1.639407141770809e+00	-9.886655067971573e+00
1	 8.643286492681631e-01	 1.659870858672978e+00	-1.018236030611900e+01
1	 8.257912613720407e-01	 1.679376171684905e+00	-1.047290126341787e+01
1	 7.869632625087235e-01	 1.697917720470713e+00	-1.075740819269289e+01
1	 1.166840232774733e+00	 1.481348424668851e+00	-7.531285296658947e+00
1	 1.131604698780582e+00	 1.508436289620493e+00	-7.829439913136017e+00
1	 1.095800929802139e+00	 1.534643137710871e+00	-8.130633304764329e+00
1	 1.059461828624109e+00	 1.559951900554615e+00	-8.433684879806540e+00
1	 1.022620932666388e+00	 1.584347134578076e+00	-8.737395490382061e+00
1	 9.853123147644873e-01	 1.607815046859852e+00	-9.040555167197420e+00
1	 9.475704830488985e-01	 1.630343513809585e+00	-9.341950824509221e+00
1	 9.094302805154472e-01	 1.651922092694298e+00	-9.640373866549341e+00
1	 8.709267848693747e-01	 1.672542026076116e+00	-9.934627629218058e+00
1	 8.320952092111138e-01	 1.692196239277985e+00	-1.022353459424157e+01
1	 7.929708041117345e-01	 1.710879331044161e+00	-1.050594331711889e+01
1	 1.175680202588859e+00	 1.492571105368532e+00	-7.319220655266139e+00
1	 1.140177724545059e+00	 1.519864187711303e+00	-7.609334826706892e+00
1	 1.104102706574500e+00	 1.546269578617915e+00	-7.904056593583590e+00
1	 1.067488300733048e+00	 1.571770080393091e+00	-8.201971510050866e+00
1	 1.030368298519748e+00	 1.596350132462839e+00	-8.501640880220242e+00
1	 9.927770309055636e-01	 1.619995837410733e+00	-8.801611680918025e+00
1	 9.547492674542313e-01	 1.642694979798230e+00	-9.100426436757406e+00
1	 9.163201151317556e-01	 1.664437037778324e+00	-9.396632958210748e+00
1	 8.775249173917143e-01	 1.685213187566893e+00	-9.688793856895183e+00
1	 8.383991541086279e-01	 1.705016300889208e+00	-9.975495756871609e+00
1	 7.989783429115337e-01	 1.723840935569681e+00	-1.025535812629625e+01
1	 1.184520161058843e+00	 1.503793771666584e+00	-7.112225371591189e+00
1	 1.148750739307955e+00	 1.531292071137173e+00	-7.394336022527217e+00
1	 1.112404472693371e+00	 1.557896004605275e+00	-7.682428824813509e+00
1	 1.075514762541794e+00	 1.583588245065872e+00	-7.974882954417890e+00
1	 1.038115654431094e+00	 1.608353114944774e+00	-8.270052168210141e+00
1	 1.000241737467357e+00	 1.632176612330667e+00	-8.566276591849110e+00
1	 9.619280426472262e-01	 1.655046429936937e+00	-8.861894413924585e+00
1	 9.232099409065484e-01	 1.676951966802651e+00	-9.155253380383911e+00
1	 8.841230414468955e-01	 1.697884332797518e+00	-9.444721987940000e+00
1	 8.447030909165353e-01	 1.717836346049210e+00	-9.728700281062464e+00
1	 8.049858740021278e-01	 1.736802523462339e+00	-1.000563016417070e+01
1	 1.193360100965718e+00	 1.515016414398009e+00	-6.910208344781599e+00
1	 1.157323736068305e+00	 1.542719930565512e+00	-7.184295197621932e+00
1	 1.120706221379291e+00	 1.569522406178222e+00	-7.465560926746966e+00
1	 1.083541207495700e+00	 1.595406384921653e+00	-7.752205086738358e+00
1	 1.045862994073694e+00	 1.620356072221661e+00	-8.042405106772806e+00
1	 1.007706428353940e+00	 1.644357361672258e+00	-8.334329625081523e+00
1	 9.691068027654426e-01	 1.667397854138951e+00	-8.626151655753661e+00
1	 9.300997522133365e-01	 1.689466869547039e+00	-8.916061469105719e+00
1	 8.907211516466331e-01	 1.710555451420205e+00	-9.202279072825498e+00
1	 8.510070144867877e-01	 1.730656364288626e+00	-9.483066188451135e+00
1	 8.109933924775248e-01	 1.749764084137200e+00	-9.756737626298305e+00
1	 1.202200015090521e+00	 1.526239024397810e+00	-6.713081169057581e+00
1	 1.165896707825140e+00	 1.554147756663727e+00	-6.979068425547701e+00
1	 1.129007945852801e+00	 1.581148773842030e+00	-7.253269401543927e+00
1	 1.091567629040120e+00	 1.607224490309136e+00	-7.533730089168394e+00
1	 1.053610311120815e+00	 1.632358994491282e+00	-7.818482051332248e+00
1	 1.015171097469386e+00	 1.656538075488112e+00	-8.105556988421606e+00
1	 9.762855419464389e-01	 1.679749242317514e+00	-8.393001035849375e+00
1	 9.369895434256307e-01	 1.701981735791249e+00	-8.678888664689808e+00
1	 8.973192426026407e-01	 1.723226533087165e+00	-8.961336065107208e+00
1	 8.573109196713367e-01	 1.743476345138091e+00	-9.238513901204186e+00
1	 8.170008934317319e-01	 1.762725607009334e+00	-9.508659336074516e+00
1	 1.211039896214285e+00	 1.537461592500988e+00	-6.520758036382674e+00
1	 1.174469647577494e+00	 1.565575540099225e+00	-6.778515997671729e+00
1	 1.137309639334438e+00	 1.592775098101969e+00	-7.045376122759756e+00
1	 1.099594020620405e+00	 1.619042551577015e+00	-7.319256222837227e+00
1	 1.061357599245723e+00	 1.644361871951419e+00	-7.598071720113873e+00
1	 1.022635738717767e+00	 1.668718743830833e+00	-7.879751136472444e+00
1	 9.834642543277738e-01	 1.692100584385871e+00	-8.162251184216018e+00
1	 9.438793089169424e-01	 1.714496555315046e+00	-8.443571325887090e+00
1	 9.039173089266319e-01	 1.735897567450607e+00	-8.721767679315477e+00
1	 8.636148013221334e-01	 1.756296278128241e+00	-8.994966154656119e+00
1	 8.230083719587561e-01	 1.775687081493801e+00	-9.261374722001586e+00
1	 1.219879737118045e+00	 1.548684109542545e+00	-6.333155643357466e+00
1	 1.183042548324399e+00	 1.577003271539414e+00	-6.582502271337289e+00
1	 1.145611295044743e+00	 1.604401369463309e+00	-6.841708141657608e+00
1	 1.107620375681909e+00	 1.630860559073990e+00	-7.108587608444819e+00
1	 1.069104852121687e+00	 1.656364694799849e+00	-7.380968964363848e+00
1	 1.030100346003157e+00	 1.680899356753026e+00	-7.656710544949428e+00
1	 9.906429340470070e-01	 1.704451870257265e+00	-7.933716279229518e+00
1	 9.507690430607827e-01	 1.727011317898189e+00	-8.209950552107863e+00
1	 9.105153452303217e-01	 1.748568544162743e+00	-8.483452255013129e+00
1	 8.699186542911300e-01	 1.769116152789710e+00	-8.752347913738101e+00
1	 8.290158231526052e-01	 1.788648497005671e+00	-9.014863795942391e+00
1	 1.228719530582835e+00	 1.559906566357482e+00	-6.150193102123223e+00
1	 1.191615403064888e+00	 1.588430941651702e+00	-6.390895524567683e+00
1	 1.153912906204256e+00	 1.616027578431323e+00	-6.642097501863089e+00
1	 1.115646687669984e+00	 1.642678503148757e+00	-6.901534016309173e+00
1	 1.076852063421971e+00	 1.668367453234356e+00	-7.166974548464740e+00
1	 1.037564913229628e+00	 1.693079904307296e+00	-7.436239494716420e+00
1	 9.978215752416963e-01	 1.716803089844942e+00	-7.707215848569140e+00
1	 9.576587402306620e-01	 1.739526013320440e+00	-7.977872013300981e+00
1	 9.171133461254229e-01	 1.761239452875786e+00	-8.246271626707532e+00
1	 8.762224734302777e-01	 1.781935958653133e+00	-8.510586293005767e+00
1	 8.350232421072867e-01	 1.801609842960009e+00	-8.769107132309927e+00
1	 1.237559269389690e+00	 1.571128953780800e+00	-5.971791855076212e+00
1	 1.200188204797994e+00	 1.599858541103495e+00	-6.203567816985498e+00
1	 1.162214466033515e+00	 1.627653715511282e+00	-6.446381061945442e+00
1	 1.123672950029984e+00	 1.654496374150013e+00	-6.697910665392822e+00
1	 1.084599226819845e+00	 1.680370137452718e+00	-6.955894939455049e+00
1	 1.045029434301254e+00	 1.705260376546246e+00	-7.218147865057525e+00
1	 1.005000172049402e+00	 1.729154233062144e+00	-7.482574578662130e+00
1	 9.645483948000920e-01	 1.752040631361561e+00	-7.747185787108506e+00
1	 9.237113062236508e-01	 1.773910283241945e+00	-8.010110999326416e+00
1	 8.825262535915284e-01	 1.794755685249146e+00	-8.269610480086845e+00
1	 8.410306239168076e-01	 1.814571108771879e+00	-8.524085848148047e+00
1	 7.809557230084923e-01	 1.684956114434272e+00	-1.100977588554835e+01
1	 7.421731178265022e-01	 1.702394840869089e+00	-1.129124480493344e+01
1	 7.031713057585309e-01	 1.718871541860783e+00	-1.156930933007436e+01
1	 6.639845391423617e-01	 1.734385733593725e+00	-1.184399876989844e+01
1	 6.246467453183745e-01	 1.748938480695031e+00	-1.211537636896342e+01
1	 5.851914441855204e-01	 1.762532357481655e+00	-1.238353713783721e+01
1	 5.456516697179219e-01	 1.775171404337629e+00	-1.264860554340157e+01
1	 5.060598957399114e-01	 1.786861079627148e+00	-1.291073308617034e+01
1	 4.664479662144161e-01	 1.797608207565696e+00	-1.317009579156590e+01
1	 4.268470302562790e-01	 1.807420922483264e+00	-1.342689164161269e+01
1	 3.872874820388771e-01	 1.816308609920916e+00	-1.368133797270686e+01
1	 7.869632625087235e-01	 1.697917720470713e+00	-1.075740819269289e+01
1	 7.478823202690242e-01	 1.715490595148239e+00	-1.103651226146043e+01
1	 7.085804848838243e-01	 1.732094043955664e+00	-1.131154390459454e+01
1	 6.690922721786597e-01	 1.747727579355579e+00	-1.158266829571352e+01
1	 6.294518704816070e-01	 1.762392274164796e+00	-1.185008313553240e+01
1	 5.896930575450495e-01	 1.776090722503322e+00	-1.211401547767785e+01
1	 5.498491214585426e-01	 1.788826995836037e+00	-1.237471847347057e+01
1	 5.099527858528722e-01	 1.800606594515860e+00	-1.263246806885695e+01
1	 4.700361396521803e-01	 1.811436395253883e+00	-1.288755968552679e+01
1	 4.301305715873716e-01	 1.821324594953817e+00	-1.314030491674878e+01
1	 3.902667096404621e-01	 1.830280651355449e+00	-1.339102826664804e+01
1	 7.929708041117345e-01	 1.710879331044161e+00	-1.050594331711889e+01
1	 7.535915247099300e-01	 1.728586354011297e+00	-1.078232133559885e+01
1	 7.139896659025052e-01	 1.745316550678762e+00	-1.105409665576644e+01
1	 6.742000070028458e-01	 1.761069429787372e+00	-1.132154582568970e+01
1	 6.342569973268173e-01	 1.775846072343639e+00	-1.158497209539356e+01
1	 5.941946724803291e-01	 1.789649092270639e+00	-1.184470161768942e+01
1	 5.540465746684606e-01	 1.802482592114111e+00	-1.210107964403903e+01
1	 5.138456773285421e-01	 1.814352114215724e+00	-1.235446675040765e+01
1	 4.736243143460179e-01	 1.825264587782192e+00	-1.260523512597764e+01
1	 4.334141140679419e-01	 1.835228272290978e+00	-1.285376495519334e+01
1	 3.932459382850532e-01	 1.844252697680622e+00	-1.310044092094726e+01
1	 7.989783429115337e-01	 1.723840935569681e+00	-1.025535812629625e+01
1	 7.593007264868672e-01	 1.741682106763799e+00	-1.052870801322222e+01
1	 7.193988443972461e-01	 1.758539051232120e+00	-1.079704451367744e+01
1	 6.793077394437823e-01	 1.774411273993694e+00	-1.106073177144948e+01
1	 6.390621219300110e-01	 1.789299864244733e+00	-1.132015045021884e+01
1	 5.986962853152490e-01	 1.803207455711374e+00	-1.157569368397767e+01
1	 5.582440259199829e-01	 1.816138182020209e+00	-1.182776311541379e+01
1	 5.177385669879710e-01	 1.828097627501634e+00	-1.207676505471526e+01
1	 4.772124873658480e-01	 1.839092773857973e+00	-1.232310678828869e+01
1	 4.366976550167058e-01	 1.849131943140409e+00	-1.256719306370538e+01
1	 3.962251655398985e-01	 1.858224737486205e+00	-1.280942277384261e+01
1	 8.049858740021278e-01	 1.736802523462339e+00	-1.000563016417069e+01
1	 7.650099209374839e-01	 1.754777842711275e+00	-1.027570718987619e+01
1	 7.248080159507176e-01	 1.771761534817776e+00	-1.054046209445717e+01
1	 6.844154653303316e-01	 1.787753101079132e+00	-1.080032352886395e+01
1	 6.438672403671953e-01	 1.802753638881247e+00	-1.105572218282933e+01
1	 6.031978923737010e-01	 1.816765801753297e+00	-1.130708685459665e+01
1	 5.624414717854173e-01	 1.829793754402688e+00	-1.155484071825647e+01
1	 5.216314516522099e-01	 1.841843123148493e+00	-1.179939781441218e+01
1	 4.808006557815893e-01	 1.852920942188577e+00	-1.204115978612669e+01
1	 4.399811917523782e-01	 1.863035596147770e+00	-1.228051287825203e+01
1	 3.992043889722463e-01	 1.872196759361969e+00	-1.251782521437661e+01
1	 8.109933924775248e-01	 1.749764084137200e+00	-9.756737626298305e+00
1	 7.707191033994272e-01	 1.767873551159260e+00	-1.002335271129363e+01
1	 7.302171761455923e-01	 1.784983990637770e+00	-1.028442178607789e+01
1	 6.895231804913569e-01	 1.801094900148274e+00	-1.054041558982937e+01
1	 6.486723487143762e-01	 1.816207385266352e+00	-1.079178817649032e+01
1	 6.076994899795760e-01	 1.830324119324177e+00	-1.103897346881891e+01
1	 5.666389088370706e-01	 1.843449298109902e+00	-1.128238213625181e+01
1	 5.255243281423086e-01	 1.855588589931198e+00	-1.152239881137650e+01
1	 4.843888166631602e-01	 1.866749081481358e+00	-1.175937965529902e+01
1	 4.432647215936746e-01	 1.876939219958725e+00	-1.199365027778711e+01
1	 4.021836061493446e-01	 1.886168751897681e+00	-1.222550401383305e+01
1	 8.170008934317319e-01	 1.762725607009334e+00	-9.508659336074516e+00
1	 7.764282692103445e-01	 1.780969221413285e+00	-9.771677412126211e+00
1	 7.356263205645411e-01	 1.798206407894144e+00	-1.002899383037802e+01
1	 6.946308807557208e-01	 1.814436660305711e+00	-1.028109964912265e+01
1	 6.534774430475607e-01	 1.829661092413220e+00	-1.052844632895525e+01
1	 6.122010744567649e-01	 1.843882397351781e+00	-1.077144313159560e+01
1	 5.708363336472511e-01	 1.857104801990213e+00	-1.101045498513713e+01
1	 5.294171932793182e-01	 1.869334016624649e+00	-1.124580081545546e+01
1	 4.879769670804801e-01	 1.880577180443665e+00	-1.147775233830993e+01
1	 4.465482418593107e-01	 1.890842803218936e+00	-1.170653330182491e+01
1	 4.051628146384416e-01	 1.900140703683113e+00	-1.193231916459334e+01
1	 8.230083719587561e-01	 1.775687081493801e+00	-9.261374722001586e+00
1	 7.821374137078843e-01	 1.794064842778885e+00	-9.520713152983587e+00
1	 7.410354447902358e-01	 1.811428775788938e+00	-9.774246401500905e+00
1	 6.997385619522860e-01	 1.827778370656031e+00	-1.002246470658771e+01
1	 6.582825194427550e-01	 1.843114749335019e+00	-1.026579166152558e+01
1	 6.167026421291589e-01	 1.857440624763881e+00	-1.050458281345085e+01
1	 5.750337427882655e-01	 1.870760254891973e+00	-1.073912488827766e+01
1	 5.333100438842889e-01	 1.883079392003745e+00	-1.096963562149682e+01
1	 4.915651041034672e-01	 1.894405227782849e+00	-1.119626416958966e+01
1	 4.498317498680013e-01	 1.904746334574061e+00	-1.141909207161558e+01
1	 4.081420120067854e-01	 1.914112603308034e+00	-1.163813472603465e+01
1	 8.290158231526052e-01	 1.788648497005671e+00	-9.014863795942391e+00
1	 7.878465322296937e-01	 1.807160404561592e+00	-9.270490855865118e+00
1	 7.464445444053480e-01	 1.824651083524189e+00	-9.520245680930762e+00
1	 7.048462199099151e-01	 1.841120020303820e+00	-9.764597164888356e+00
1	 6.630875739759654e-01	 1.856568345044922e+00	-1.000391642337954e+01
1	 6.212041893206490e-01	 1.870998790488244e+00	-1.023847694604351e+01
1	 5.792311328324219e-01	 1.884415645663543e+00	-1.046845554896312e+01
1	 5.372028767782712e-01	 1.896824704843383e+00	-1.069393408477262e+01
1	 4.951532248020403e-01	 1.908233212206262e+00	-1.091490186136614e+01
1	 4.531152429384621e-01	 1.918649802669765e+00	-1.113125871474011e+01
1	 4.111211958216242e-01	 1.928084439362215e+00	-1.134281867711263e+01
1	 8.350232421072867e-01	 1.801609842960009e+00	-8.769107132309927e+00
1	 7.935556201134204e-01	 1.820255896066940e+00	-9.021040538065661e+00
1	 7.518536149925490e-01	 1.837873320301940e+00	-9.267055929296333e+00
1	 7.099538504574709e-01	 1.854461598353669e+00	-9.507580923050959e+00
1	 6.678926027231988e-01	 1.870021868556099e+00	-9.742910191406938e+00
1	 6.257057123551264e-01	 1.884556883452640e+00	-9.973207513611611e+00
1	 5.834285003520273e-01	 1.898070963153276e+00	-1.019850881959033e+01
1	 5.410956887823155e-01	 1.910569943918465e+00	-1.041872615487813e+01
1	 4.987413262461183e-01	 1.922061122421256e+00	-1.063365249014282e+01
1	 4.563987183894082e-01	 1.932553196151707e+00	-1.084296729295193e+01
1	 4.141003636502062e-01	 1.942056200435424e+00	-1.104624277529347e+01
1	 8.410306239168076e-01	 1.814571108771879e+00	-8.524085848148047e+00
1	 7.992646726967119e-01	 1.833351306600461e+00	-8.772391344631108e+00
1	 7.572626521345107e-01	 1.851095475324230e+00	-9.014739555103745e+00
1	 7.150614494238162e-01	 1.867803093910166e+00	-9.251497466005615e+00
1	 6.726976017604617e-01	 1.883475308881719e+00	-9.482859965774260e+00
1	 6.302072075564815e-01	 1.898114892584837e+00	-9.708854140506855e+00
1	 5.876258419193895e-01	 1.911726196209532e+00	-9.929344767887265e+00
1	 5.449884767174722e-01	 1.924315098003888e+00	-1.014404090817979e+01
1	 5.023294055056197e-01	 1.935888947135180e+00	-1.035250348375677e+01
1	 4.596821735395550e-01	 1.946456503665550e+00	-1.055415373310576e+01
1	 4.170795130597794e-01	 1.956027875117432e+00	-1.074828242151877e+01
1	 3.872874820388771e-01	 1.816308609920916e+00	-1.368133797270686e+01
1	 3.477961513548631e-01	 1.824282371526556e+00	-1.393169496560331e+01
1	 3.084045727317791e-01	 1.831353256794514e+00	-1.417694654947164e+01
1	 2.691406090831641e-01	 1.837534030153142e+00	-1.441832145160450e+01
1	 2.300311761118629e-01	 1.842838449176229e+00	-1.465686403190822e+01
1	 1.911022077634256e-01	 1.847281196321023e+00	-1.489343874596859e+01
1	 1.523786267521780e-01	 1.850877810074617e+00	-1.512873564893765e+01
1	 1.138843200634055e-01	 1.853644615892075e+00	-1.536327682716325e+01
1	 7.564211930666406e-02	 1.855598657289427e+00	-1.559742364294294e+01
1	 3.767378576971149e-02	 1.856757627432609e+00	-1.583138467773072e+01
1	 0.000000000000000e+00	 1.857139801539814e+00	-1.606522426045686e+01
1	 3.902667096404621e-01	 1.830280651355449e+00	-1.339102826664804e+01
1	 3.504715899935780e-01	 1.838315751506641e+00	-1.363784005766835e+01
1	 3.107769897551532e-01	 1.845441029900473e+00	-1.387996882678764e+01
1	 2.712109861755548e-01	 1.851669349156259e+00	-1.411933490051670e+01
1	 2.318007020079915e-01	 1.857014572678568e+00	-1.435766830817793e+01
1	 1.925722706961611e-01	 1.861491495870142e+00	-1.459650833564061e+01
1	 1.535508066735914e-01	 1.865115776748615e+00	-1.483720446445476e+01
1	 1.147603806773737e-01	 1.867903866353385e+00	-1.508091860173865e+01
1	 7.622399995034060e-02	 1.869872939308534e+00	-1.532862849970351e+01
1	 3.796359318002330e-02	 1.871040824885514e+00	-1.558113225892943e+01
1	 0.000000000000000e+00	 1.871425938885499e+00	-1.583905380636261e+01
1	 3.932459382850532e-01	 1.844252697680622e+00	-1.310044092094726e+01
1	 3.531470295690237e-01	 1.852349136398973e+00	-1.334326117431494e+01
1	 3.131494076092565e-01	 1.859528807937886e+00	-1.358181238039051e+01
1	 2.732813639930133e-01	 1.865804673107656e+00	-1.381877700542747e+01
1	 2.335702285239302e-01	 1.871190701143662e+00	-1.405664733154438e+01
1	 1.940423341439138e-01	 1.875701800394163e+00	-1.429771917332945e+01
1	 1.547229870057532e-01	 1.879353748407376e+00	-1.454408733807692e+01
1	 1.156364415984018e-01	 1.882163121807058e+00	-1.479764276047041e+01
1	 7.680588079802229e-02	 1.884147226325386e+00	-1.506007123044985e+01
1	 3.825340069197077e-02	 1.885324027339362e+00	-1.533285362279051e+01
1	 0.000000000000000e+00	 1.885712081233184e+00	-1.561726752858244e+01
1	 3.962251655398985e-01	 1.858224737486205e+00	-1.280942277384261e+01
1	 3.558224678965476e-01	 1.866382514743161e+00	-1.304774331628212e+01
1	 3.155218243569035e-01	 1.873616579401857e+00	-1.328223485797392e+01
1	 2.753517408450131e-01	 1.879939990463523e+00	-1.351641068513746e+01
1	 2.353397542148332e-01	 1.885366822994288e+00	-1.375359997743184e+01
1	 1.955123969063779e-01	 1.889912098287876e+00	-1.399693477068078e+01
1	 1.558951667915985e-01	 1.893591713423012e+00	-1.424933903496253e+01
1	 1.165125021112163e-01	 1.896422370607762e+00	-1.451351983130218e+01
1	 7.738776137463409e-02	 1.898421506682321e+00	-1.479196049183585e+01
1	 3.854320806894682e-02	 1.899607223129177e+00	-1.508691575197058e+01
1	 0.000000000000000e+00	 1.899998216915481e+00	-1.540040874879965e+01
1	 3.992043889722463e-01	 1.872196759361969e+00	-1.251782521437661e+01
1	 3.584979027914968e-01	 1.880415875078809e+00	-1.275107787887126e+01
1	 3.178942380609087e-01	 1.887704332787491e+00	-1.298100111569441e+01
1	 2.774221150410272e-01	 1.894075289680050e+00	-1.321200590697652e+01
1	 2.371092776358552e-01	 1.899542926653227e+00	-1.344833109441525e+01
1	 1.969824577832472e-01	 1.904122377946063e+00	-1.369402268208951e+01
1	 1.570673450740619e-01	 1.907829660167639e+00	-1.395291563971965e+01
1	 1.173885615005437e-01	 1.910681601110162e+00	-1.422861820893062e+01
1	 7.796964120510101e-02	 1.912695768721677e+00	-1.452449868974084e+01
1	 3.883301507434440e-02	 1.913890400589983e+00	-1.484367466131613e+01
1	 0.000000000000000e+00	 1.914284334264999e+00	-1.518900457013527e+01
1	 4.021836061493446e-01	 1.886168751897681e+00	-1.222550401383305e+01
1	 3.611733320692193e-01	 1.894449205945525e+00	-1.245306241501001e+01
1	 3.202666467840865e-01	 1.901792056589895e+00	-1.267788295099937e+01
1	 2.794924848905292e-01	 1.908210559213428e+00	-1.290533942547141e+01
1	 2.388787973421502e-01	 1.913719000543261e+00	-1.314065128265724e+01
1	 1.984525155742156e-01	 1.918332627763510e+00	-1.338885435461398e+01
1	 1.582395208960786e-01	 1.922067577013369e+00	-1.365477450722112e+01
1	 1.182646190511106e-01	 1.924940801668923e+00	-1.394300423361234e+01
1	 7.855151981434802e-02	 1.926970000785793e+00	-1.425788221078427e+01
1	 3.912282147155649e-02	 1.928173548056805e+00	-1.460347580440398e+01
1	 0.000000000000000e+00	 1.928570421614352e+00	-1.498356647861068e+01
1	 4.051628146384416e-01	 1.900140703683113e+00	-1.193231916459334e+01
1	 3.638487535450625e-01	 1.908482495882913e+00	-1.215350040874601e+01
1	 3.226390485892515e-01	 1.915879739304173e+00	-1.237265884721576e+01
1	 2.815628487029925e-01	 1.922345787519847e+00	-1.259619453251681e+01
1	 2.406483118888728e-01	 1.927895033087166e+00	-1.283037668209690e+01
1	 1.999225690789772e-01	 1.932542836135003e+00	-1.308130498449550e+01
1	 1.594116933005831e-01	 1.936305452332318e+00	-1.335487421558363e+01
1	 1.191406740476435e-01	 1.939199960638711e+00	-1.365674226650020e+01
1	 7.913339672730015e-02	 1.941244191217008e+00	-1.399230164364993e+01
1	 3.941262702397597e-02	 1.942456653864665e+00	-1.436665446218489e+01
1	 0.000000000000000e+00	 1.942856467296148e+00	-1.478459091813549e+01
1	 4.081420120067854e-01	 1.914112603308034e+00	-1.163813472603465e+01
1	 3.665241650343737e-01	 1.922515733430581e+00	-1.185220105863803e+01
1	 3.250114415392178e-01	 1.929967369425429e+00	-1.206511372929818e+01
1	 2.836332047878904e-01	 1.936480963055499e+00	-1.228436081846302e+01
1	 2.424178198311772e-01	 1.942071012707724e+00	-1.251732876989468e+01
1	 2.013926170972256e-01	 1.946752991455327e+00	-1.277125337994753e+01
1	 1.605838613305106e-01	 1.950543274496597e+00	-1.305317452120208e+01
1	 1.200167257748691e-01	 1.953459066374192e+00	-1.336989476168889e+01
1	 7.971527146888234e-02	 1.955518328357659e+00	-1.372794199073770e+01
1	 3.970243149499583e-02	 1.956739706348588e+00	-1.413353611464597e+01
1	 0.000000000000000e+00	 1.957142459643000e+00	-1.459255984036908e+01
1	 4.111211958216242e-01	 1.928084439362215e+00	-1.134281867711263e+01
1	 3.691995643525005e-01	 1.936548907128135e+00	-1.154897907054396e+01
1	 3.273838236968005e-01	 1.944054935448769e+00	-1.175503873017439e+01
1	 2.857035514546960e-01	 1.950616074276571e+00	-1.196963394356768e+01
1	 2.441873197242179e-01	 1.956246927827715e+00	-1.220133416666427e+01
1	 2.028626584286550e-01	 1.960963082119268e+00	-1.245858182989782e+01
1	 1.617560240287959e-01	 1.964781031878321e+00	-1.274963631573386e+01
1	 1.208927735175138e-01	 1.967718107230032e+00	-1.308252233513256e+01
1	 8.029714356401962e-02	 1.969792400550084e+00	-1.346498287063375e+01
1	 3.999223464800900e-02	 1.971022693843598e+00	-1.390443679634707e+01
1	 0.000000000000000e+00	 1.971428386987518e+00	-1.440794123072774e+01
1	 4.141003636502062e-01	 1.942056200435424e+00	-1.104624277529347e+01
1	 3.718749493147904e-01	 1.950582005515181e+00	-1.124365445933259e+01
1	 3.297561931248136e-01	 1.958142425869298e+00	-1.144223096715300e+01
1	 2.877738870128829e-01	 1.964751109639256e+00	-1.165181541929093e+01
1	 2.459568101231491e-01	 1.970422766869918e+00	-1.188222445104925e+01
1	 2.043326918729593e-01	 1.975173096521612e+00	-1.214317597838203e+01
1	 1.629281804383737e-01	 1.979018712849604e+00	-1.244422158493518e+01
1	 1.217688165603043e-01	 1.981977071560896e+00	-1.279468383059652e+01
1	 8.087901253763698e-02	 1.984066396136623e+00	-1.320359871185894e+01
1	 4.028203624640840e-02	 1.985305604684719e+00	-1.367966343664595e+01
1	 0.000000000000000e+00	 1.985714237662315e+00	-1.423118961173645e+01
1	 4.170795130597794e-01	 1.956027875117432e+00	-1.074828242151877e+01
1	 3.745503177365909e-01	 1.964615017131326e+00	-1.093605235907620e+01
1	 3.321285478860717e-01	 1.972229829182122e+00	-1.112649332789306e+01
1	 2.898442097719244e-01	 1.978886057599742e+00	-1.133071239894362e+01
1	 2.477262895831253e-01	 1.984598518257113e+00	-1.155983598222955e+01
1	 2.058027162298323e-01	 1.989383023057143e+00	-1.182492470430963e+01
1	 1.641003296021790e-01	 1.993256305782559e+00	-1.213689336925744e+01
1	 1.226448541879670e-01	 1.996235947721450e+00	-1.250643638278482e+01
1	 8.146087791465940e-02	 1.998340303459614e+00	-1.294395893833334e+01
1	 4.057183605358700e-02	 1.999588427206973e+00	-1.345951418537237e+01
1	 0.000000000000000e+00	 2.000000000000000e+00	-1.406274652485586e+01
