x	y	stress_yy
 1.000000000000000e+00	 0.000000000000000e+00	 2.283126206546687e+02
 9.998426119581704e-01	 1.774123198744521e-02	 2.021489706460427e+02
 9.993659466402713e-01	 3.560484089073321e-02	 1.750534687844124e+02
 9.985633751090949e-01	 5.358344789747921e-02	 1.470209611077191e+02
 9.974284469032259e-01	 7.166933308134273e-02	 1.180483902547092e+02
 9.959549086084808e-01	 8.985443791194039e-02	 8.813491643891598e+01
 9.941367226520526e-01	 1.081303688402291e-01	 5.728203537192956e+01
 9.919680862544972e-01	 1.264884019976692e-01	 2.549369226132782e+01
 9.894434504702301e-01	 1.449194890435835e-01	-7.223609021370827e+00
 9.865575392429453e-01	 1.634142641907508e-01	-4.086070253128968e+01
 9.833053683983746e-01	 1.819630524344169e-01	-7.540566354494544e+01
 1.012500000000000e+00	 0.000000000000000e+00	 2.295956911560122e+02
 1.012340644607676e+00	 1.796299738536411e-02	 2.026894622271537e+02
 1.011858020973390e+00	 3.604990139831822e-02	 1.748205506934490e+02
 1.011045417298220e+00	 5.425324099133014e-02	 1.460070347965926e+02
 1.009896302489983e+00	 7.256519973898737e-02	 1.162700333999808e+02
 1.008404344966822e+00	 9.097761837928382e-02	 8.563377876444646e+01
 1.006563431686269e+00	 1.094819984438203e-01	 5.412567945455409e+01
 1.004367687334138e+00	 1.280695070157070e-01	 2.177637243458372e+01
 1.001811493603026e+00	 1.467309826500149e-01	-1.138023656863820e+01
 9.988895084859243e-01	 1.654569424871888e-01	-4.530694533118990e+01
 9.955966855063876e-01	 1.842375905849211e-01	-7.996324088309214e+01
 1.025000000000000e+00	 0.000000000000000e+00	 2.286323799969097e+02
 1.024838677257182e+00	 1.818476278346252e-02	 2.012759268058760e+02
 1.024350095306508e+00	 3.649496190623553e-02	 1.729274702176905e+02
 1.023527459487344e+00	 5.492303408563875e-02	 1.436279039262388e+02
 1.022364158076741e+00	 7.346106639718697e-02	 1.134220900078162e+02
 1.020853781325163e+00	 9.210079884725078e-02	 8.235888418327055e+01
 1.018990140720485e+00	 1.108336280480742e-01	 5.049114449210195e+01
 1.016767288413778e+00	 1.296506120344168e-01	 1.787572237254790e+01
 1.014179536735822e+00	 1.485424762570972e-01	-1.542656479290403e+01
 1.011221477728904e+00	 1.674996207842254e-01	-4.935098052850162e+01
 1.007888002614400e+00	 1.865121287359399e-01	-8.382893628266628e+01
 1.037500000000000e+00	 0.000000000000000e+00	 2.255038426744192e+02
 1.037336709906687e+00	 1.840652818174046e-02	 1.979789548343009e+02
 1.036842169639627e+00	 3.694002241448514e-02	 1.694341981920039e+02
 1.036009501676469e+00	 5.559282718040499e-02	 1.399328802018561e+02
 1.034832013663499e+00	 7.435693305594146e-02	 1.095431887888271e+02
 1.033303217683504e+00	 9.322397931584123e-02	 7.833817075700107e+01
 1.031416849754700e+00	 1.121852576529908e-01	 4.639568698790851e+01
 1.029166889493419e+00	 1.312317170537988e-01	 1.379834335874913e+01
 1.026547579868618e+00	 1.503539698648304e-01	-1.936660357729897e+01
 1.023553446971883e+00	 1.695422990818606e-01	-5.300736697762513e+01
 1.020179319722413e+00	 1.887866668874734e-01	-8.702777684713132e+01
 1.050000000000000e+00	 0.000000000000000e+00	 2.202873704037442e+02
 1.049834742556193e+00	 1.862829358019793e-02	 1.928657755889089e+02
 1.049334243972746e+00	 3.738508292306705e-02	 1.643978499797857e+02
 1.048491543865594e+00	 5.626262027562888e-02	 1.349689274420567e+02
 1.047299869250256e+00	 7.525279971525092e-02	 1.046701192875291e+02
 1.045752654041845e+00	 9.434715978505519e-02	 7.359824646530613e+01
 1.043843558788917e+00	 1.135368872585703e-01	 4.185574201377690e+01
 1.041566490573060e+00	 1.328128220738529e-01	 9.550522640526070e+00
 1.038915623001414e+00	 1.521654634732144e-01	-2.320417154443668e+01
 1.035885416214862e+00	 1.715849773800943e-01	-5.628996993829213e+01
 1.032470636830427e+00	 1.910612050395216e-01	-8.958359759591875e+01
 1.062500000000000e+00	 0.000000000000000e+00	 2.130566174289215e+02
 1.062332775205699e+00	 1.885005897883492e-02	 1.860004548866245e+02
 1.061826318305864e+00	 3.783014343198125e-02	 1.578728534415692e+02
 1.060973586054718e+00	 5.693241337131042e-02	 1.287807996893943e+02
 1.059767724837014e+00	 7.614866637511535e-02	 9.883794006799036e+01
 1.058202090400185e+00	 9.547034025489266e-02	 6.816446744528943e+01
 1.056270267823133e+00	 1.148885168648125e-01	 3.688697152860678e+01
 1.053966091652700e+00	 1.343939270945790e-01	 5.138251900735032e+00
 1.051283666134210e+00	 1.539769570822494e-01	-2.694290730817314e+01
 1.048217385457841e+00	 1.736276556789267e-01	-5.921200187652070e+01
 1.044761953938439e+00	 1.933357431920845e-01	-9.151911158840942e+01
 1.075000000000000e+00	 0.000000000000000e+00	 2.038818124746239e+02
 1.074830807855204e+00	 1.907182437765143e-02	 1.774440790067306e+02
 1.074318392638983e+00	 3.827520394122774e-02	 1.499111051848917e+02
 1.073455628243843e+00	 5.760220646744962e-02	 1.214111696852727e+02
 1.072235580423771e+00	 7.704453303553466e-02	 9.208007935164488e+01
 1.070651526758527e+00	 9.659352072535370e-02	 6.206101077230988e+01
 1.068696976857348e+00	 1.162401464717175e-01	 3.150430932595694e+01
 1.066365692732341e+00	 1.359750321159773e-01	 5.672444407354758e-01
 1.063651709267006e+00	 1.557884506919352e-01	-3.058627994035896e+01
 1.060549354700821e+00	 1.756703339783577e-01	-6.178606041899077e+01
 1.057053271046452e+00	 1.956102813451620e-01	-9.285597515554252e+01
 1.087500000000000e+00	 0.000000000000000e+00	 1.928299556150806e+02
 1.087328840504711e+00	 1.929358977664748e-02	 1.672549259285109e+02
 1.086810466972101e+00	 3.872026445080654e-02	 1.405621160383100e+02
 1.085937670432968e+00	 5.827199956404649e-02	 1.129007484845192e+02
 1.084703436010529e+00	 7.794039969650891e-02	 8.442842871456767e+01
 1.083100963116868e+00	 9.771670119643823e-02	 5.531094222143508e+01
 1.081123685891564e+00	 1.175917760792853e-01	 2.572200288177641e+01
 1.078765293811981e+00	 1.375561371380476e-01	-4.157048821657389e+00
 1.076019752399802e+00	 1.575999443022719e-01	-3.413759871574503e+01
 1.072881323943800e+00	 1.777130122783873e-01	-6.402416368987484e+01
 1.069344588154466e+00	 1.978848194987542e-01	-9.361484863269078e+01
 1.100000000000000e+00	 0.000000000000000e+00	 1.799650017201182e+02
 1.099826873154216e+00	 1.951535517582304e-02	 1.554886248936004e+02
 1.099302541305220e+00	 3.916532496071764e-02	 1.298731466067327e+02
 1.098419712622092e+00	 5.894179266110097e-02	 1.032883969144152e+02
 1.097171291597287e+00	 7.883626635803816e-02	 7.591343039629926e+01
 1.095550399475209e+00	 9.883988166814628e-02	 4.793627940879558e+01
 1.093550394925780e+00	 1.189434056875159e-01	 1.955365234888178e+01
 1.091164894891622e+00	 1.391372421607900e-01	-9.029424444988955e+00
 1.088387795532598e+00	 1.594114379132595e-01	-3.760002219246208e+01
 1.085213293186779e+00	 1.797556905790154e-01	-6.593778323833791e+01
 1.081635905262479e+00	 2.001593576528611e-01	-9.381545295165665e+01
 1.112500000000000e+00	 0.000000000000000e+00	 1.653480315340517e+02
 1.112324905803722e+00	 1.973712057517813e-02	 1.421983052113244e+02
 1.111794615638338e+00	 3.961038547096103e-02	 1.178893336881917e+02
 1.110901754811217e+00	 5.961158575861313e-02	 9.261122951963897e+01
 1.109639147184044e+00	 7.973213302012230e-02	 6.656415872268266e+01
 1.107999835833550e+00	 9.996306214047786e-02	 3.995805067621981e+01
 1.105977103959996e+00	 1.202950352964092e-01	 1.301224692259397e+01
 1.103564495971262e+00	 1.407183471842045e-01	-1.404491256195850e+01
 1.100755838665393e+00	 1.612229315248979e-01	-4.097656668033207e+01
 1.097545262429758e+00	 1.817983688802421e-01	-6.753787474620471e+01
 1.093927222370492e+00	 2.024338958074826e-01	-9.347662241747540e+01
 1.125000000000000e+00	 0.000000000000000e+00	 1.490374113493180e+02
 1.124822938453228e+00	 1.995888597471274e-02	 1.274347351436797e+02
 1.124286689971457e+00	 4.005544598153672e-02	 1.046538082628285e+02
 1.123383797000342e+00	 6.028137885658293e-02	 8.090471157754355e+01
 1.122107002770802e+00	 8.062799968276138e-02	 5.640839610051168e+01
 1.120449272191891e+00	 1.010862426134330e-01	 3.139635005022676e+01
 1.118403812994212e+00	 1.216466649059652e-01	 6.110198782000344e+00
 1.115964097050903e+00	 1.422994522082910e-01	-1.919876390402698e+01
 1.113123881798189e+00	 1.630344251371873e-01	-4.427011414462405e+01
 1.109877231672737e+00	 1.838410471820675e-01	-6.883490668844786e+01
 1.106218539478505e+00	 2.047084339626188e-01	-9.261635396676392e+01
 9.833053683983746e-01	 1.819630524344169e-01	-7.540566354494544e+01
 9.796822644935034e-01	 2.005558790047255e-01	-7.309641984239784e+01
 9.756838834365029e-01	 2.191824800562895e-01	-7.088410699831073e+01
 9.713062287906588e-01	 2.378323146029681e-01	-6.870958669583119e+01
 9.665456696731551e-01	 2.564945776994924e-01	-6.651124417251745e+01
 9.613989581557346e-01	 2.751582148638952e-01	-6.422514127003892e+01
 9.558632460744549e-01	 2.938119377279353e-01	-6.178518784238010e+01
 9.499361011546518e-01	 3.124442408950446e-01	-5.912333127479550e+01
 9.436155223571460e-01	 3.310434199775670e-01	-5.616976370777538e+01
 9.368999543523497e-01	 3.495975907771368e-01	-5.285314639765896e+01
 9.297883010302649e-01	 3.680947095640363e-01	-4.910085047992624e+01
 9.955966855063876e-01	 1.842375905849211e-01	-7.996324088309214e+01
 9.919282928033321e-01	 2.030628274885299e-01	-7.729213280250507e+01
 9.878799319837496e-01	 2.219222610543536e-01	-7.463170190051463e+01
 9.834475566554662e-01	 2.408052185339226e-01	-7.193610354120821e+01
 9.786274905496307e-01	 2.597007599201509e-01	-6.915767897660284e+01
 9.734164451388825e-01	 2.785976925500452e-01	-6.624707635288060e+01
 9.678115366572296e-01	 2.974845869507597e-01	-6.315338560397975e+01
 9.618103024265737e-01	 3.163497939082676e-01	-5.982428701729308e+01
 9.554107163947458e-01	 3.351814627300659e-01	-5.620621313534078e+01
 9.486112037905381e-01	 3.539675606653077e-01	-5.224452353306320e+01
 9.414106548025766e-01	 3.726958934376526e-01	-4.788369188412024e+01
 1.007888002614400e+00	 1.865121287359399e-01	-8.382893628266628e+01
 1.004174321113151e+00	 2.055697759727489e-01	-8.096197966543006e+01
 1.000075980530958e+00	 2.246620420527318e-01	-7.802193790263389e+01
 9.955888845201883e-01	 2.437781224650910e-01	-7.497601686632753e+01
 9.907093114259543e-01	 2.629069421409228e-01	-7.179025897691282e+01
 9.854339321217915e-01	 2.820371702362078e-01	-6.842963264038632e+01
 9.797598272396584e-01	 3.011572361734960e-01	-6.485813117055160e+01
 9.736845036980223e-01	 3.202553469213019e-01	-6.103888101315434e+01
 9.672059104317243e-01	 3.393195054822754e-01	-5.693425900457069e+01
 9.603224532279363e-01	 3.583375305530889e-01	-5.250601831131247e+01
 9.530330085739085e-01	 3.772970773107793e-01	-4.771542260911245e+01
 1.020179319722413e+00	 1.887866668874734e-01	-8.702777684713132e+01
 1.016420349422961e+00	 2.080767244573826e-01	-8.412498508021098e+01
 1.012272029078130e+00	 2.274018230514244e-01	-8.106774717920379e+01
 1.007730212384825e+00	 2.467510263964731e-01	-7.783608514346072e+01
 1.002791132302125e+00	 2.661131243618078e-01	-7.440949692980013e+01
 9.974514191044608e-01	 2.854766479223831e-01	-7.076701477806509e+01
 9.917081178217403e-01	 3.048298853961441e-01	-6.688726868554514e+01
 9.855587049689970e-01	 3.241608999341473e-01	-6.274855487912038e+01
 9.790011044680813e-01	 3.434575482341956e-01	-5.832890908571185e+01
 9.720337026645446e-01	 3.627075004404805e-01	-5.360618435257193e+01
 9.646553623442610e-01	 3.818982611834161e-01	-4.855813311965929e+01
 1.032470636830427e+00	 1.910612050395216e-01	-8.958359759591875e+01
 1.028666377732762e+00	 2.105836729424308e-01	-8.679926744260489e+01
 1.024468077625263e+00	 2.301416040504314e-01	-8.378144576977513e+01
 1.019871540249377e+00	 2.497239303280692e-01	-8.052274469705080e+01
 1.014872953178144e+00	 2.693193065828061e-01	-7.701588086102699e+01
 1.009468906086891e+00	 2.889161256085709e-01	-7.325370307010982e+01
 1.003656408403476e+00	 3.085025346187041e-01	-6.922922083602356e+01
 9.974329062394982e-01	 3.280664529468040e-01	-6.493563366246862e+01
 9.907962985038169e-01	 3.475955909858267e-01	-6.036636095868666e+01
 9.837449521003627e-01	 3.670774703274826e-01	-5.551507243343671e+01
 9.762777161136343e-01	 3.864994450555633e-01	-5.037571881328045e+01
 1.044761953938439e+00	 1.933357431920845e-01	-9.151911158840942e+01
 1.040912406042553e+00	 2.130906214278937e-01	-8.900209220561099e+01
 1.036664126172359e+00	 2.328813850497527e-01	-8.617476982376526e+01
 1.032012868113843e+00	 2.526968342598790e-01	-8.304212865530266e+01
 1.026954774054010e+00	 2.725254888039177e-01	-7.960987552231926e+01
 1.021486393069082e+00	 2.923556032947711e-01	-7.588443726608219e+01
 1.015604698984865e+00	 3.121751838411760e-01	-7.187295482266771e+01
 1.009307107509526e+00	 3.319720059592721e-01	-6.758327387656283e+01
 1.002591492538931e+00	 3.517336337371683e-01	-6.302393202640407e+01
 9.954562015353910e-01	 3.714474402140948e-01	-5.820414242107670e+01
 9.879000698820278e-01	 3.911006289272207e-01	-5.313377384995722e+01
 1.057053271046452e+00	 1.956102813451620e-01	-9.285597515554252e+01
 1.053158434352335e+00	 2.155975699137711e-01	-9.074992147065333e+01
 1.048860174719417e+00	 2.356211660493882e-01	-8.825890931659532e+01
 1.044154195978224e+00	 2.556697381919028e-01	-8.540008457956763e+01
 1.039036594929724e+00	 2.757316710251425e-01	-8.219192374629830e+01
 1.033503880051033e+00	 2.957950809809841e-01	-7.865420147875574e+01
 1.027552989565909e+00	 3.158478330635599e-01	-7.480795070396221e+01
 1.021181308779080e+00	 3.358775589715513e-01	-7.067541516182608e+01
 1.014386686573424e+00	 3.558716764882207e-01	-6.627999441085834e+01
 1.007167450969629e+00	 3.758174101003176e-01	-6.164618135150369e+01
 9.995224236494423e-01	 3.957018127983884e-01	-5.679949238905566e+01
 1.069344588154466e+00	 1.978848194987542e-01	-9.361484863269078e+01
 1.065404462662107e+00	 2.181045184000633e-01	-9.205846015867976e+01
 1.061056223266437e+00	 2.383609470493381e-01	-9.004453944057528e+01
 1.056295523842520e+00	 2.586426421241405e-01	-8.760219087790553e+01
 1.051118415805285e+00	 2.789378532464805e-01	-8.476244770796563e+01
 1.045521367032745e+00	 2.992345586672095e-01	-8.155821014210429e+01
 1.039501280146605e+00	 3.195204822858554e-01	-7.802417192353715e+01
 1.033055510048160e+00	 3.397831119836419e-01	-7.419673528043592e+01
 1.026181880607295e+00	 3.600097192389838e-01	-7.011391433914707e+01
 1.018878700403077e+00	 3.801873799861507e-01	-6.581522715761092e+01
 1.011144777415877e+00	 4.003029966690664e-01	-6.134157663749198e+01
 1.081635905262479e+00	 2.001593576528611e-01	-9.381545295165665e+01
 1.077650490971870e+00	 2.206114668867699e-01	-9.294269903322927e+01
 1.073252271813420e+00	 2.411007280496023e-01	-9.154184985549807e+01
 1.068436851706730e+00	 2.616155460565918e-01	-8.965377209953746e+01
 1.063200236680694e+00	 2.821440354679318e-01	-8.732185010017500e+01
 1.057538854014219e+00	 3.026740363534475e-01	-8.459189492669728e+01
 1.051449570726956e+00	 3.231931315080629e-01	-8.151203784700621e+01
 1.044929711316766e+00	 3.436886649955435e-01	-7.813260817955924e+01
 1.037977074640545e+00	 3.641477619894577e-01	-7.450599566225756e+01
 1.030589949835735e+00	 3.845573498715942e-01	-7.068649759756715e+01
 1.022767131181332e+00	 4.049041805392548e-01	-6.673015116733623e+01
 1.093927222370492e+00	 2.024338958074826e-01	-9.347662241747540e+01
 1.089896519281624e+00	 2.231184153738912e-01	-9.341695482306633e+01
 1.085448320360364e+00	 2.438405090501808e-01	-9.276057196728186e+01
 1.080578179570856e+00	 2.645884499892571e-01	-9.155991319820973e+01
 1.075282057555951e+00	 2.853502176894963e-01	-8.987051522985573e+01
 1.069556340995452e+00	 3.061135140396980e-01	-8.775089253719983e+01
 1.063397861306960e+00	 3.268657807301824e-01	-8.526239815024999e+01
 1.056803912584899e+00	 3.475942180072564e-01	-8.246906488178061e+01
 1.049772268673173e+00	 3.682858047396423e-01	-7.943742718157024e+01
 1.042301199267603e+00	 3.889273197566481e-01	-7.623632397455161e+01
 1.034389484945809e+00	 4.095053644089534e-01	-7.293668300975249e+01
 1.106218539478505e+00	 2.047084339626188e-01	-9.261635396676392e+01
 1.102142547591368e+00	 2.256253638614272e-01	-9.349490766997032e+01
 1.097644368907272e+00	 2.465802900510737e-01	-9.371000438803449e+01
 1.092719507434896e+00	 2.675613539221362e-01	-9.332547284466389e+01
 1.087363878431055e+00	 2.885563999111739e-01	-9.240881004115198e+01
 1.081573827976446e+00	 3.095529917259612e-01	-9.103103332336946e+01
 1.075346151886618e+00	 3.305384299522137e-01	-8.926650891514372e+01
 1.068678113852559e+00	 3.514997710187806e-01	-8.719275698283181e+01
 1.061567462705179e+00	 3.724238474895377e-01	-8.489023348692510e+01
 1.054012448698681e+00	 3.932972896413123e-01	-8.244208927516812e+01
 1.046011838709305e+00	 4.141065482781622e-01	-7.993390707600464e+01
 9.297883010302649e-01	 3.680947095640363e-01	-4.910085047992624e+01
 9.222799379563009e-01	 3.865225944039564e-01	-4.933981050954101e+01
 9.143747236862125e-01	 4.048689474701951e-01	-4.889290343396539e+01
 9.060730098564396e-01	 4.231213782743761e-01	-4.784326364095229e+01
 8.973756499704220e-01	 4.412674277413337e-01	-4.627746759424040e+01
 8.882840068073012e-01	 4.592945930433334e-01	-4.428524777609381e+01
 8.787999583847406e-01	 4.771903531042267e-01	-4.195918293296472e+01
 8.689259024143142e-01	 4.949421946770166e-01	-3.939436601221044e+01
 8.586647591951593e-01	 5.125376388923134e-01	-3.668805140512120e+01
 8.480199728994641e-01	 5.299642681697645e-01	-3.393928332995772e+01
 8.369955112118155e-01	 5.472097533798151e-01	-3.124850739526140e+01
 9.414106548025766e-01	 3.726958934376526e-01	-4.788369188412024e+01
 9.338084371907733e-01	 3.913541268386016e-01	-4.906938980338204e+01
 9.258044077427657e-01	 4.099298093186076e-01	-4.961347557698709e+01
 9.173989224904455e-01	 4.284103955081879e-01	-4.958662411842980e+01
 9.085928456060454e-01	 4.467832705937361e-01	-4.906261286101220e+01
 8.993875569034437e-01	 4.650357754621704e-01	-4.811808049480830e+01
 8.897849578755234e-01	 4.831552325238889e-01	-4.683226469599645e+01
 8.797874762052527e-01	 5.011289721163065e-01	-4.528672000010567e+01
 8.693980686955066e-01	 5.189443593841651e-01	-4.356501717044087e+01
 8.586202225706245e-01	 5.365888215273571e-01	-4.175242560553523e+01
 8.474579551112504e-01	 5.540498753022077e-01	-3.993558051234006e+01
 9.530330085739085e-01	 3.772970773107793e-01	-4.771542260911245e+01
 9.453369364240809e-01	 3.961856592726618e-01	-4.971305039562640e+01
 9.372340917979960e-01	 4.149906711663489e-01	-5.111228757098941e+01
 9.287248351230007e-01	 4.336994127412525e-01	-5.197158589159081e+01
 9.198100412401194e-01	 4.522991134453253e-01	-5.235216620327911e+01
 9.104911069979682e-01	 4.707769578801373e-01	-5.231782125843290e+01
 9.007699573646499e-01	 4.891201119426346e-01	-5.193470017145573e+01
 8.906490499945261e-01	 5.073157495546431e-01	-5.127107543135243e+01
 8.801313781942111e-01	 5.253510798750376e-01	-5.039709356258325e+01
 8.692204722401954e-01	 5.432133748839548e-01	-4.938451069251209e+01
 8.579203990091799e-01	 5.608899972236004e-01	-4.830641444328410e+01
 9.646553623442610e-01	 3.818982611834161e-01	-4.855813311965929e+01
 9.568654356562231e-01	 4.010171917061370e-01	-5.123775385119708e+01
 9.486637758519040e-01	 4.200515330134196e-01	-5.336120948471431e+01
 9.400507477541058e-01	 4.389884299735700e-01	-5.497495639621432e+01
 9.310272368726441e-01	 4.578149562961006e-01	-5.612789252500637e+01
 9.215946570908742e-01	 4.765181402972340e-01	-5.687120358238364e+01
 9.117549568521194e-01	 4.950849913604636e-01	-5.725819350314814e+01
 9.015106237821341e-01	 5.135025269920270e-01	-5.734409982913596e+01
 8.908646876912724e-01	 5.317578003649310e-01	-5.718589485963636e+01
 8.798207219081765e-01	 5.498379282395579e-01	-5.684207354566789e+01
 8.683828429056041e-01	 5.677301191439930e-01	-5.637242924156197e+01
 9.762777161136343e-01	 3.864994450555633e-01	-5.037571881328045e+01
 9.683939348872000e-01	 4.058487241390272e-01	-5.361203471838481e+01
 9.600934599044899e-01	 4.251123948598194e-01	-5.633345064044974e+01
 9.513766603837601e-01	 4.442774472051405e-01	-5.857464721803272e+01
 9.422444325036197e-01	 4.633307991460626e-01	-6.037242481995925e+01
 9.326982071821625e-01	 4.822593227134609e-01	-6.176559248169112e+01
 9.227399563379315e-01	 5.010498707773759e-01	-6.279484364882886e+01
 9.123721975680773e-01	 5.196893044284582e-01	-6.350261919064071e+01
 9.015979971866909e-01	 5.381645208538457e-01	-6.393295826586640e+01
 8.904209715745676e-01	 5.564624815941661e-01	-6.413133774040197e+01
 8.788452868005231e-01	 5.745702410633855e-01	-6.414450097029948e+01
 9.879000698820278e-01	 3.911006289272207e-01	-5.313377384995722e+01
 9.799224341170119e-01	 4.106802565713322e-01	-5.680590800266443e+01
 9.715231439557533e-01	 4.301732567055483e-01	-6.000348083668489e+01
 9.627025730119644e-01	 4.495664644359640e-01	-6.274960914502792e+01
 9.534616281330460e-01	 4.688466419952109e-01	-6.506921310989613e+01
 9.438017572718324e-01	 4.880005051288175e-01	-6.698894732626115e+01
 9.337249558220870e-01	 5.070147501933717e-01	-6.853712115813566e+01
 9.232337713523547e-01	 5.258760818639360e-01	-6.974360866731462e+01
 9.123313066804664e-01	 5.445712413417811e-01	-7.063974844770482e+01
 9.010212212393695e-01	 5.630870349477797e-01	-7.125823379136436e+01
 8.893077306939365e-01	 5.814103629817780e-01	-7.163299370385910e+01
 9.995224236494423e-01	 3.957018127983884e-01	-5.679949238905566e+01
 9.914509333456585e-01	 4.155117890030526e-01	-6.079078309581993e+01
 9.829528280056942e-01	 4.352341185506064e-01	-6.434695706685301e+01
 9.740284856387178e-01	 4.548554816660403e-01	-6.747977175095347e+01
 9.646788237609235e-01	 4.743624848435458e-01	-7.020247694520610e+01
 9.549053073598841e-01	 4.937416875433039e-01	-7.252978728762163e+01
 9.447099553045856e-01	 5.129796296084510e-01	-7.447784657066228e+01
 9.340953451349669e-01	 5.320628592984610e-01	-7.606418389533943e+01
 9.230646161725991e-01	 5.509779618287377e-01	-7.730766175326610e+01
 9.116214709025816e-01	 5.697115883003986e-01	-7.822841619303318e+01
 8.997701745858451e-01	 5.882504848991706e-01	-7.884778929674516e+01
 1.011144777415877e+00	 4.003029966690664e-01	-6.134157663749198e+01
 1.002979432573140e+00	 4.203433214341877e-01	-6.553938364098745e+01
 9.943825120543131e-01	 4.402949803949937e-01	-6.934065529194856e+01
 9.853543982640206e-01	 4.601444988953695e-01	-7.274598714550665e+01
 9.758960193872512e-01	 4.798783276910670e-01	-7.575716118135983e+01
 9.660088574463180e-01	 4.994828699569205e-01	-7.837715916864641e+01
 9.556949547854272e-01	 5.189445090226136e-01	-8.061017030381169e+01
 9.449569189159139e-01	 5.382496367320331e-01	-8.246159292399477e+01
 9.337979256630885e-01	 5.573846823147149e-01	-8.393803014085682e+01
 9.222217205642039e-01	 5.763361416520226e-01	-8.504727928507478e+01
 9.102326184762480e-01	 5.950906068155633e-01	-8.579831509947496e+01
 1.022767131181332e+00	 4.049041805392548e-01	-6.673015116733623e+01
 1.014507931799456e+00	 4.251748538647378e-01	-7.102567286143946e+01
 1.005812196101609e+00	 4.453558422387101e-01	-7.496240686500585e+01
 9.966803108878730e-01	 4.654335161239517e-01	-7.852997755970958e+01
 9.871132150120300e-01	 4.853941705377748e-01	-8.171889477059565e+01
 9.771124075311334e-01	 5.052240523696667e-01	-8.452060742670091e+01
 9.666799542646118e-01	 5.249093884358594e-01	-8.692755391192662e+01
 9.558184926951958e-01	 5.444364141646523e-01	-8.893320869435314e+01
 9.445312351519353e-01	 5.637914027997134e-01	-9.053212483962533e+01
 9.328219702242366e-01	 5.829606950026520e-01	-9.171997203596800e+01
 9.206950623651458e-01	 6.019307287309560e-01	-9.249356978472360e+01
 1.034389484945809e+00	 4.095053644089534e-01	-7.293668300975249e+01
 1.026036431024607e+00	 4.300063862947030e-01	-7.722478392337895e+01
 1.017241880147583e+00	 4.504167040817556e-01	-8.119103924156289e+01
 1.008006223510275e+00	 4.707225333517867e-01	-8.481428646485486e+01
 9.983304106352595e-01	 4.909100133836690e-01	-8.807395233168859e+01
 9.882159576143311e-01	 5.109652347815431e-01	-9.095014621769377e+01
 9.776649537421397e-01	 5.308742678481889e-01	-9.342375260884324e+01
 9.666800664728121e-01	 5.506231915963183e-01	-9.547652202502405e+01
 9.552645446391390e-01	 5.701981232837328e-01	-9.709115976342005e+01
 9.434222198826796e-01	 5.895852483522865e-01	-9.825141182997311e+01
 9.311575062525380e-01	 6.087708506453484e-01	-9.894214743237623e+01
 1.046011838709305e+00	 4.141065482781622e-01	-7.993390707600464e+01
 1.037564930248593e+00	 4.348379187240830e-01	-8.411295494120914e+01
 1.028671564192235e+00	 4.554775659241303e-01	-8.800632064275531e+01
 1.019332136131226e+00	 4.760115505788748e-01	-9.158223295018252e+01
 1.009547606256940e+00	 4.964258562287497e-01	-9.480921828172970e+01
 9.993195076959104e-01	 5.167064171925492e-01	-9.765623330385174e+01
 9.886499532180107e-01	 5.368391472596017e-01	-1.000927989556018e+02
 9.775416402487633e-01	 5.568099690270316e-01	-1.020891350655083e+02
 9.659978541247000e-01	 5.766048437667730e-01	-1.036162946970513e+02
 9.540224695395332e-01	 5.962098017009265e-01	-1.046462973349633e+02
 9.416199501384250e-01	 6.156109725587411e-01	-1.051522600089009e+02
 8.369955112118155e-01	 5.472097533798151e-01	-3.124850739526140e+01
 8.255958632931958e-01	 5.642618811384013e-01	-2.471433863564641e+01
 8.138260360506314e-01	 5.811085811170719e-01	-1.896265845157750e+01
 8.016915487021741e-01	 5.977379532449607e-01	-1.401575836687658e+01
 7.891984256370140e-01	 6.141382946773878e-01	-9.893354424471639e+00
 7.763531875817183e-01	 6.302981264093361e-01	-6.612483814846236e+00
 7.631628410930560e-01	 6.462062194093811e-01	-4.187414408271252e+00
 7.496348664083717e-01	 6.618516201518141e-01	-2.629567933115695e+00
 7.357772036946522e-01	 6.772236754270479e-01	-1.947457437684761e+00
 7.215982377473873e-01	 6.923120563137026e-01	-2.146639560481837e+00
 7.071067811999999e-01	 7.071067811999999e-01	-3.229682014772600e+00
 8.474579551112504e-01	 5.540498753022077e-01	-3.993558051234006e+01
 8.359158115929692e-01	 5.713151546574315e-01	-3.347461168195185e+01
 8.239988615092374e-01	 5.883724383855524e-01	-2.774185121299871e+01
 8.117126930683318e-01	 6.052096776648181e-01	-2.276206856555485e+01
 7.990634059643095e-01	 6.218150233649912e-01	-1.855762819333533e+01
 7.860576024328196e-01	 6.381768529934919e-01	-1.514837642257504e+01
 7.727023766125910e-01	 6.542837971560034e-01	-1.255154031903732e+01
 7.590053022439359e-01	 6.701247654077456e-01	-1.078163934740771e+01
 7.449744187459286e-01	 6.856889713740123e-01	-9.850410530245362e+00
 7.306182157240029e-01	 7.009659570219055e-01	-9.766747708189335e+00
 7.159456159695000e-01	 7.159456159695000e-01	-1.053665539050732e+01
 8.579203990091799e-01	 5.608899972236004e-01	-4.830641444328410e+01
 8.462357598913327e-01	 5.783684281754621e-01	-4.194244504749432e+01
 8.341716869665182e-01	 5.956362956530330e-01	-3.625343621558775e+01
 8.217338374332409e-01	 6.126814020836755e-01	-3.126659346255359e+01
 8.089283862904220e-01	 6.294917520515947e-01	-2.700688489853496e+01
 7.957620172827934e-01	 6.460555795766478e-01	-2.349691849098253e+01
 7.822419121310444e-01	 6.623613749016258e-01	-2.075683041386630e+01
 7.683757380784541e-01	 6.783979106626776e-01	-1.880418534939550e+01
 7.541716337961848e-01	 6.941542673199765e-01	-1.765388951824729e+01
 7.396381936996136e-01	 7.096198577291084e-01	-1.731811711581280e+01
 7.247844507379998e-01	 7.247844507379999e-01	-1.780625072563819e+01
 8.683828429056041e-01	 5.677301191439930e-01	-5.637242924156197e+01
 8.565557081882860e-01	 5.854217016924925e-01	-5.012839761847943e+01
 8.443445124224748e-01	 6.029001529195133e-01	-4.450707391458293e+01
 8.317549817969009e-01	 6.201531265015331e-01	-3.953805933122818e+01
 8.187933666153511e-01	 6.371684807371980e-01	-3.524888249706950e+01
 8.054664321316400e-01	 6.539343061588038e-01	-3.166486724154881e+01
 7.917814476484165e-01	 6.704389526462485e-01	-2.880901056841300e+01
 7.777461739119264e-01	 6.866710559166093e-01	-2.670187175519211e+01
 7.633688488454204e-01	 7.026195632649410e-01	-2.536147342258681e+01
 7.486581716742190e-01	 7.182737584353109e-01	-2.480321532613029e+01
 7.336232855055000e-01	 7.336232855055000e-01	-2.503980152233818e+01
 8.788452868005231e-01	 5.745702410633855e-01	-6.414450097029948e+01
 8.668756564838288e-01	 5.924749752085229e-01	-5.804252531187961e+01
 8.545173378771065e-01	 6.101640101849937e-01	-5.251196459188090e+01
 8.417761261593122e-01	 6.276248509183908e-01	-4.758477677017866e+01
 8.286583469390975e-01	 6.448452094218015e-01	-4.329100939544889e+01
 8.151708469793590e-01	 6.618130327399596e-01	-3.965865801347882e+01
 8.013209831647067e-01	 6.785165303898708e-01	-3.671353390204216e+01
 7.871166097443530e-01	 6.949442011695413e-01	-3.447914211801729e+01
 7.725660638936355e-01	 7.110848592089053e-01	-3.297657076783358e+01
 7.576781496478195e-01	 7.269276591405139e-01	-3.222439232753919e+01
 7.424621202719999e-01	 7.424621202720001e-01	-3.223857774470071e+01
 8.893077306939365e-01	 5.814103629817780e-01	-7.163299370385910e+01
 8.771956047779617e-01	 5.995282487235530e-01	-6.569441066395416e+01
 8.646901633304135e-01	 6.174278674494742e-01	-6.027687542708659e+01
 8.517972705204740e-01	 6.350965753342479e-01	-5.541466515666704e+01
 8.385233272616601e-01	 6.525219381054047e-01	-5.114030618983868e+01
 8.248752618259512e-01	 6.696917593201157e-01	-4.748442319975528e+01
 8.108605186799150e-01	 6.865941081324930e-01	-4.447559682403018e+01
 7.964870455757337e-01	 7.032173464214730e-01	-4.214023080410349e+01
 7.817632789408300e-01	 7.195501551518694e-01	-4.050242961294838e+01
 7.666981276204146e-01	 7.355815598447166e-01	-3.958388747043597e+01
 7.513009550375001e-01	 7.513009550375001e-01	-3.940378955758621e+01
 8.997701745858451e-01	 5.882504848991706e-01	-7.884778929674516e+01
 8.875155530706845e-01	 6.065815222375835e-01	-7.309319035444602e+01
 8.748629887823961e-01	 6.246917247129546e-01	-6.781016567988001e+01
 8.618184148803874e-01	 6.425682997491056e-01	-6.303527539397359e+01
 8.483883075830400e-01	 6.601986667880082e-01	-5.880348588944975e+01
 8.345796766714155e-01	 6.775704858992714e-01	-5.514800986206504e+01
 8.204000541940423e-01	 6.946716858741154e-01	-5.210015396025548e+01
 8.058574814060682e-01	 7.114904916724046e-01	-4.968917515632441e+01
 7.909604939870044e-01	 7.280154510938338e-01	-4.794214688217475e+01
 7.757181055920049e-01	 7.442354605479196e-01	-4.688383590105479e+01
 7.601397898020000e-01	 7.601397898019999e-01	-4.653659080461335e+01
 9.102326184762480e-01	 5.950906068155633e-01	-8.579831509947496e+01
 8.978355013619972e-01	 6.136347957506137e-01	-8.024758083255107e+01
 8.850358142330540e-01	 6.319555819754350e-01	-7.511981013566006e+01
 8.718395592390517e-01	 6.500400241629630e-01	-7.045381108996733e+01
 8.582532879032364e-01	 6.678753954696115e-01	-6.628695274520206e+01
 8.442840915157530e-01	 6.854492124774274e-01	-6.265499613089687e+01
 8.299395897070877e-01	 7.027492636147378e-01	-5.959193205045719e+01
 8.152279172353567e-01	 7.197636369223365e-01	-5.712982681894587e+01
 8.001577090321583e-01	 7.364807470347983e-01	-5.529867705241704e+01
 7.847380835625897e-01	 7.528893612501224e-01	-5.412627455158720e+01
 7.689786245654999e-01	 7.689786245654999e-01	-5.363808224628492e+01
 9.206950623651458e-01	 6.019307287309560e-01	-9.249356978472360e+01
 9.081554496518998e-01	 6.206880692626442e-01	-8.716590219565620e+01
 8.952086396823874e-01	 6.392194392369155e-01	-8.221342095261701e+01
 8.818607035964670e-01	 6.575117485758205e-01	-7.767714829167267e+01
 8.681182682222500e-01	 6.755521241502151e-01	-7.359681979460989e+01
 8.539885063589624e-01	 6.933279390545832e-01	-7.001070648744356e+01
 8.394791252190520e-01	 7.108268413543603e-01	-6.695544289794788e+01
 8.245983530635995e-01	 7.280367821712683e-01	-6.446586229023013e+01
 8.093549240762918e-01	 7.449460429747625e-01	-6.257484024829117e+01
 7.937580615321697e-01	 7.615432619513252e-01	-6.131314772188009e+01
 7.778174593279999e-01	 7.778174593279999e-01	-6.070931457732649e+01
 9.311575062525380e-01	 6.087708506453484e-01	-9.894214743237623e+01
 9.184753979403921e-01	 6.277413427736747e-01	-9.385610045826866e+01
 9.053814651303959e-01	 6.464832964973959e-01	-8.909826803596115e+01
 8.918818479526330e-01	 6.649834729876779e-01	-8.471185388941265e+01
 8.779832485400803e-01	 6.832288528298185e-01	-8.073892522386120e+01
 8.636929212010450e-01	 7.012066656307392e-01	-7.722022601525984e+01
 8.490186607299344e-01	 7.189044190929826e-01	-7.419499544630646e+01
 8.339687888907961e-01	 7.363099274192001e-01	-7.170079276362192e+01
 8.185521391194046e-01	 7.534113389137267e-01	-6.977332979143753e+01
 8.027780395007446e-01	 7.701971626515282e-01	-6.844631228483408e+01
 7.866562940895000e-01	 7.866562940895000e-01	-6.775129124060597e+01
 9.416199501384250e-01	 6.156109725587411e-01	-1.051522600089009e+02
 9.287953462274744e-01	 6.347946162837050e-01	-1.003257683363437e+02
 9.155542905770797e-01	 6.537471537568762e-01	-9.578129805386354e+01
 9.019029923075504e-01	 6.724551973985354e-01	-9.156420279400163e+01
 8.878482288567273e-01	 6.909055815084219e-01	-8.771884763908443e+01
 8.733973360420002e-01	 7.090853922058951e-01	-8.428841370180211e+01
 8.585581962397351e-01	 7.269819968306050e-01	-8.131470705095192e+01
 8.433392247169470e-01	 7.445830726661317e-01	-7.883797331285227e+01
 8.277493541614975e-01	 7.618766348516912e-01	-7.689671924654007e+01
 8.117980174683143e-01	 7.788510633507310e-01	-7.552754254477077e+01
 7.954951288500001e-01	 7.954951288500001e-01	-7.476497105345302e+01
 7.071067811999999e-01	 7.071067811999999e-01	-3.229682014772600e+00
 6.923120563137025e-01	 7.215982377473872e-01	-4.079045574361238e+00
 6.772236754270478e-01	 7.357772036946522e-01	-4.065136839308650e+00
 6.618516201518141e-01	 7.496348664083716e-01	-3.203293153948188e+00
 6.462062194093813e-01	 7.631628410930559e-01	-1.512120504685790e+00
 6.302981264093362e-01	 7.763531875817182e-01	 9.865963278808394e-01
 6.141382946773881e-01	 7.891984256370137e-01	 4.268000223006929e+00
 5.977379532449610e-01	 8.016915487021739e-01	 8.304283966859003e+00
 5.811085811170723e-01	 8.138260360506312e-01	 1.306482735373483e+01
 5.642618811384018e-01	 8.255958632931955e-01	 1.851634808763954e+01
 5.472097533798151e-01	 8.369955112118155e-01	 2.462306532752744e+01
 7.159456159695000e-01	 7.159456159695000e-01	-1.053665539050732e+01
 7.009659570219053e-01	 7.306182157240030e-01	-1.117251507609666e+01
 6.856889713740122e-01	 7.449744187459286e-01	-1.098656411622412e+01
 6.701247654077458e-01	 7.590053022439357e-01	-9.992357071150224e+00
 6.542837971560036e-01	 7.727023766125908e-01	-8.206584627449573e+00
 6.381768529934920e-01	 7.860576024328195e-01	-5.648992573367757e+00
 6.218150233649915e-01	 7.990634059643091e-01	-2.342284770120671e+00
 6.052096776648186e-01	 8.117126930683318e-01	 1.687989134979830e+00
 5.883724383855530e-01	 8.239988615092370e-01	 6.413560385847497e+00
 5.713151546574324e-01	 8.359158115929688e-01	 1.180358120584017e+01
 5.540498753022077e-01	 8.474579551112504e-01	 1.782477721675159e+01
 7.247844507379998e-01	 7.247844507379999e-01	-1.780625072563819e+01
 7.096198577291083e-01	 7.396381936996136e-01	-1.821050446168218e+01
 6.941542673199766e-01	 7.541716337961849e-01	-1.783330510108507e+01
 6.783979106626776e-01	 7.683757380784542e-01	-1.668646243679307e+01
 6.623613749016261e-01	 7.822419121310443e-01	-1.478479253486741e+01
 6.460555795766482e-01	 7.957620172827933e-01	-1.214604538001670e+01
 6.294917520515949e-01	 8.089283862904216e-01	-8.790817107792549e+00
 6.126814020836757e-01	 8.217338374332406e-01	-4.742447503171988e+00
 5.956362956530332e-01	 8.341716869665180e-01	-2.690356328386656e-02
 5.783684281754625e-01	 8.462357598913323e-01	 5.327349969179757e+00
 5.608899972236003e-01	 8.579203990091798e-01	 1.128949209703588e+01
 7.336232855055000e-01	 7.336232855055000e-01	-2.503980152233818e+01
 7.182737584353108e-01	 7.486581716742190e-01	-2.519500104165450e+01
 7.026195632649409e-01	 7.633688488454202e-01	-2.460804085561010e+01
 6.866710559166094e-01	 7.777461739119265e-01	-2.328902263018382e+01
 6.704389526462485e-01	 7.917814476484162e-01	-2.125092701753853e+01
 6.539343061588040e-01	 8.054664321316398e-01	-1.850954982421549e+01
 6.371684807371982e-01	 8.187933666153508e-01	-1.508342334574086e+01
 6.201531265015334e-01	 8.317549817969007e-01	-1.099372348226276e+01
 6.029001529195136e-01	 8.443445124224743e-01	-6.264163364141588e+00
 5.854217016924929e-01	 8.565557081882855e-01	-9.208743222039359e-01
 5.677301191439930e-01	 8.683828429056042e-01	 5.007724866558917e+00
 7.424621202719999e-01	 7.424621202720001e-01	-3.223857774470071e+01
 7.269276591405137e-01	 7.576781496478194e-01	-3.212789746901785e+01
 7.110848592089053e-01	 7.725660638936355e-01	-3.131332476236017e+01
 6.949442011695413e-01	 7.871166097443529e-01	-2.980328849317453e+01
 6.785165303898705e-01	 8.013209831647063e-01	-2.760897170372380e+01
 6.618130327399598e-01	 8.151708469793592e-01	-2.474425615871617e+01
 6.448452094218017e-01	 8.286583469390970e-01	-2.122565262951012e+01
 6.276248509183910e-01	 8.417761261593117e-01	-1.707221746443657e+01
 6.101640101849942e-01	 8.545173378771063e-01	-1.230545610640815e+01
 5.924749752085233e-01	 8.668756564838282e-01	-6.949214321847450e+00
 5.745702410633855e-01	 8.788452868005230e-01	-1.029557998844972e+00
 7.513009550375001e-01	 7.513009550375001e-01	-3.940378955758621e+01
 7.355815598447167e-01	 7.666981276204147e-01	-3.901099730853824e+01
 7.195501551518695e-01	 7.817632789408299e-01	-3.795159003637121e+01
 7.032173464214733e-01	 7.964870455757336e-01	-3.623235789217028e+01
 6.865941081324931e-01	 8.108605186799150e-01	-3.386272277564676e+01
 6.696917593201157e-01	 8.248752618259508e-01	-3.085469112700558e+01
 6.525219381054053e-01	 8.385233272616602e-01	-2.722279301334866e+01
 6.350965753342483e-01	 8.517972705204742e-01	-2.298400799705643e+01
 6.174278674494746e-01	 8.646901633304133e-01	-1.815767838061779e+01
 5.995282487235538e-01	 8.771956047779614e-01	-1.276541052236293e+01
 5.814103629817781e-01	 8.893077306939365e-01	-6.830965009293802e+00
 7.601397898020000e-01	 7.601397898019999e-01	-4.653659080461335e+01
 7.442354605479196e-01	 7.757181055920047e-01	-4.584602021747762e+01
 7.280154510938339e-01	 7.909604939870044e-01	-4.452515671271442e+01
 7.114904916724047e-01	 8.058574814060682e-01	-4.257918461301806e+01
 6.946716858741158e-01	 8.204000541940424e-01	-4.001579986837548e+01
 6.775704858992717e-01	 8.345796766714155e-01	-3.684517095877631e+01
 6.601986667880085e-01	 8.483883075830395e-01	-3.307988664057156e+01
 6.425682997491058e-01	 8.618184148803871e-01	-2.873489096176616e+01
 6.246917247129552e-01	 8.748629887823960e-01	-2.382740607503683e+01
 6.065815222375840e-01	 8.875155530706840e-01	-1.837684347441041e+01
 5.882504848991708e-01	 8.997701745858451e-01	-1.240470437119345e+01
 7.689786245654999e-01	 7.689786245654999e-01	-5.363808224628492e+01
 7.528893612501225e-01	 7.847380835625901e-01	-5.263460676903127e+01
 7.364807470347983e-01	 8.001577090321584e-01	-5.103623815215133e+01
 7.197636369223366e-01	 8.152279172353567e-01	-4.884658664245001e+01
 7.027492636147382e-01	 8.299395897070879e-01	-4.607165621705408e+01
 6.854492124774276e-01	 8.442840915157526e-01	-4.271981346915522e+01
 6.678753954696118e-01	 8.582532879032362e-01	-3.880174387699785e+01
 6.500400241629634e-01	 8.718395592390513e-01	-3.433039582016433e+01
 6.319555819754356e-01	 8.850358142330536e-01	-2.932091280724284e+01
 6.136347957506144e-01	 8.978355013619969e-01	-2.379055447332823e+01
 5.950906068155634e-01	 9.102326184762480e-01	-1.775860699340616e+01
 7.778174593279999e-01	 7.778174593279999e-01	-6.070931457732649e+01
 7.615432619513252e-01	 7.937580615321698e-01	-5.937832294689036e+01
 7.449460429747624e-01	 8.093549240762917e-01	-5.748694710322007e+01
 7.280367821712684e-01	 8.245983530635994e-01	-5.503725388487940e+01
 7.108268413543607e-01	 8.394791252190520e-01	-5.203358811227302e+01
 6.933279390545833e-01	 8.539885063589621e-01	-4.848254933297999e+01
 6.755521241502154e-01	 8.681182682222498e-01	-4.439295648074298e+01
 6.575117485758207e-01	 8.818607035964664e-01	-3.977580075181744e+01
 6.392194392369160e-01	 8.952086396823867e-01	-3.464418709900179e+01
 6.206880692626449e-01	 9.081554496518994e-01	-2.901326483530823e+01
 6.019307287309560e-01	 9.206950623651458e-01	-2.290014792481918e+01
 7.866562940895000e-01	 7.866562940895000e-01	-6.775129124060597e+01
 7.701971626515279e-01	 8.027780395007448e-01	-6.607866433679639e+01
 7.534113389137267e-01	 8.185521391194046e-01	-6.387930135563465e+01
 7.363099274192003e-01	 8.339687888907965e-01	-6.115375535896113e+01
 7.189044190929827e-01	 8.490186607299340e-01	-5.790474371799804e+01
 7.012066656307393e-01	 8.636929212010448e-01	-5.413713259901089e+01
 6.832288528298186e-01	 8.779832485400799e-01	-4.985790988415639e+01
 6.649834729876783e-01	 8.918818479526329e-01	-4.507614677173072e+01
 6.464832964973964e-01	 9.053814651303955e-01	-3.980294839328731e+01
 6.277413427736752e-01	 9.184753979403918e-01	-3.405139387405305e+01
 6.087708506453484e-01	 9.311575062525379e-01	-2.783646634668176e+01
 7.954951288500001e-01	 7.954951288500001e-01	-7.476497105345302e+01
 7.788510633507308e-01	 8.117980174683144e-01	-7.273706003865395e+01
 7.618766348516911e-01	 8.277493541614976e-01	-7.021522901678966e+01
 7.445830726661320e-01	 8.433392247169471e-01	-6.719854591437569e+01
 7.269819968306053e-01	 8.585581962397351e-01	-6.368813130163114e+01
 7.090853922058953e-01	 8.733973360420000e-01	-5.968715050319185e+01
 6.909055815084221e-01	 8.878482288567272e-01	-5.520079465696245e+01
 6.724551973985359e-01	 9.019029923075501e-01	-5.023625090665239e+01
 6.537471537568769e-01	 9.155542905770793e-01	-4.480266200349656e+01
 6.347946162837055e-01	 9.287953462274742e-01	-3.891107567898828e+01
 6.156109725587411e-01	 9.416199501384250e-01	-3.257438423211795e+01
 5.472097533798151e-01	 8.369955112118155e-01	 2.462306532752744e+01
 5.299642681697644e-01	 8.480199728994640e-01	 3.838766158095736e+01
 5.125376388923134e-01	 8.586647591951594e-01	 4.849771564096680e+01
 4.949421946770166e-01	 8.689259024143141e-01	 5.484307033933467e+01
 4.771903531042269e-01	 8.787999583847403e-01	 5.732748856919405e+01
 4.592945930433337e-01	 8.882840068073012e-01	 5.586882169914198e+01
 4.412674277413340e-01	 8.973756499704219e-01	 5.039910316506908e+01
 4.231213782743766e-01	 9.060730098564395e-01	 4.086456832491182e+01
 4.048689474701956e-01	 9.143747236862123e-01	 2.722560222472275e+01
 3.865225944039570e-01	 9.222799379563006e-01	 9.456617454549288e+00
 3.680947095640363e-01	 9.297883010302649e-01	-1.245413523552608e+01
 5.540498753022077e-01	 8.474579551112504e-01	 1.782477721675159e+01
 5.365888215273570e-01	 8.586202225706244e-01	 3.051963118630029e+01
 5.189443593841651e-01	 8.693980686955066e-01	 3.972789253697694e+01
 5.011289721163066e-01	 8.797874762052528e-01	 4.535094084761099e+01
 4.831552325238891e-01	 8.897849578755235e-01	 4.730336095582852e+01
 4.650357754621707e-01	 8.993875569034435e-01	 4.551307832164511e+01
 4.467832705937365e-01	 9.085928456060449e-01	 3.992142398903308e+01
 4.284103955081883e-01	 9.173989224904452e-01	 3.048313031765546e+01
 4.099298093186080e-01	 9.258044077427652e-01	 1.716625918165479e+01
 3.913541268386022e-01	 9.338084371907733e-01	-4.793517529464708e-02
 3.726958934376526e-01	 9.414106548025766e-01	-2.116520598431459e+01
 5.608899972236003e-01	 8.579203990091798e-01	 1.128949209703588e+01
 5.432133748839548e-01	 8.692204722401957e-01	 2.305305856139488e+01
 5.253510798750377e-01	 8.801313781942111e-01	 3.149391813317883e+01
 5.073157495546432e-01	 8.906490499945261e-01	 3.652476434543473e+01
 4.891201119426348e-01	 9.007699573646497e-01	 3.807079456807790e+01
 4.707769578801375e-01	 9.104911069979682e-01	 3.606981284600102e+01
 4.522991134453255e-01	 9.198100412401192e-01	 3.047226668044679e+01
 4.336994127412528e-01	 9.287248351230004e-01	 2.124121901171237e+01
 4.149906711663495e-01	 9.372340917979960e-01	 8.352257148138222e+00
 3.961856592726625e-01	 9.453369364240807e-01	-8.206659158578731e+00
 3.772970773107793e-01	 9.530330085739084e-01	-2.843540787266351e+01
 5.677301191439930e-01	 8.683828429056042e-01	 5.007724866558917e+00
 5.498379282395577e-01	 8.798207219081762e-01	 1.597345444979909e+01
 5.317578003649310e-01	 8.908646876912723e-01	 2.377644589269581e+01
 5.135025269920271e-01	 9.015106237821341e-01	 2.834049194460067e+01
 4.950849913604638e-01	 9.117549568521192e-01	 2.960120066670912e+01
 4.765181402972344e-01	 9.215946570908742e-01	 2.750606625073816e+01
 4.578149562961010e-01	 9.310272368726438e-01	 2.201447805387901e+01
 4.389884299735704e-01	 9.400507477541058e-01	 1.309766919295341e+01
 4.200515330134201e-01	 9.486637758519038e-01	 7.386064903118026e-01
 4.010171917061375e-01	 9.568654356562227e-01	-1.506817601750057e+01
 3.818982611834161e-01	 9.646553623442610e-01	-3.431679741380952e+01
 5.745702410633855e-01	 8.788452868005230e-01	-1.029557998844972e+00
 5.564624815941662e-01	 8.904209715745679e-01	 9.267019454665693e+00
 5.381645208538457e-01	 9.015979971866910e-01	 1.655705042668500e+01
 5.196893044284583e-01	 9.123721975680770e-01	 2.077521981634045e+01
 5.010498707773762e-01	 9.227399563379314e-01	 2.186735174578991e+01
 4.822593227134611e-01	 9.326982071821623e-01	 1.979044884743399e+01
 4.633307991460628e-01	 9.422444325036196e-01	 1.451267397073375e+01
 4.442774472051409e-01	 9.513766603837600e-01	 6.013275735403326e+00
 4.251123948598199e-01	 9.600934599044898e-01	-5.717540229312561e+00
 4.058487241390278e-01	 9.683939348871998e-01	-2.067879213714399e+01
 3.864994450555633e-01	 9.762777161136343e-01	-3.885895241850370e+01
 5.814103629817781e-01	 8.893077306939365e-01	-6.830965009293802e+00
 5.630870349477796e-01	 9.010212212393696e-01	 2.920603458647086e+00
 5.445712413417813e-01	 9.123313066804662e-01	 9.818173309135133e+00
 5.258760818639362e-01	 9.232337713523550e-01	 1.380712183495160e+01
 5.070147501933719e-01	 9.337249558220868e-01	 1.484330146028881e+01
 4.880005051288177e-01	 9.438017572718324e-01	 1.289304796723805e+01
 4.688466419952113e-01	 9.534616281330459e-01	 7.933135277975637e+00
 4.495664644359644e-01	 9.627025730119640e-01	-4.932169769192285e-02
 4.301732567055489e-01	 9.715231439557529e-01	-1.105701426296882e+01
 4.106802565713329e-01	 9.799224341170115e-01	-2.508263494953221e+01
 3.911006289272207e-01	 9.879000698820278e-01	-4.210911780050737e+01
 5.882504848991708e-01	 8.997701745858451e-01	-1.240470437119345e+01
 5.697115883003985e-01	 9.116214709025819e-01	-3.078332125029789e+00
 5.509779618287376e-01	 9.230646161725989e-01	 3.543072672029048e+00
 5.320628592984612e-01	 9.340953451349671e-01	 7.415386920709167e+00
 5.129796296084511e-01	 9.447099553045852e-01	 8.504310140129888e+00
 4.937416875433043e-01	 9.549053073598841e-01	 6.785342087869445e+00
 4.743624848435461e-01	 9.646788237609232e-01	 2.243711006945261e+00
 4.548554816660406e-01	 9.740284856387172e-01	-5.125745908683605e+00
 4.352341185506070e-01	 9.829528280056942e-01	-1.531874789728199e+01
 4.155117890030531e-01	 9.914509333456581e-01	-2.832177961646357e+01
 3.957018127983884e-01	 9.995224236494423e-01	-4.411234120961178e+01
 5.950906068155634e-01	 9.102326184762480e-01	-1.775860699340616e+01
 5.763361416520227e-01	 9.222217205642042e-01	-8.741749498111904e+00
 5.573846823147151e-01	 9.337979256630887e-01	-2.284223723299412e+00
 5.382496367320332e-01	 9.449569189159140e-01	 1.580160703955769e+00
 5.189445090226138e-01	 9.556949547854271e-01	 2.826775441203758e+00
 4.994828699569208e-01	 9.660088574463179e-01	 1.440120882891065e+00
 4.798783276910674e-01	 9.758960193872510e-01	-2.586271751882116e+00
 4.601444988953700e-01	 9.853543982640203e-01	-9.249982023457072e+00
 4.402949803949942e-01	 9.943825120543127e-01	-1.853988358880167e+01
 4.203433214341882e-01	 1.002979432573140e+00	-3.043636697560280e+01
 4.003029966690664e-01	 1.011144777415877e+00	-4.491159931065839e+01
 6.019307287309560e-01	 9.206950623651458e-01	-2.290014792481918e+01
 5.829606950026519e-01	 9.328219702242370e-01	-1.408106722658185e+01
 5.637914027997134e-01	 9.445312351519353e-01	-7.678962215127328e+00
 5.444364141646524e-01	 9.558184926951957e-01	-3.717508833359531e+00
 5.249093884358597e-01	 9.666799542646118e-01	-2.211832275276926e+00
 5.052240523696671e-01	 9.771124075311334e-01	-3.168589277831607e+00
 4.853941705377752e-01	 9.871132150120299e-01	-6.586091829235130e+00
 4.654335161239521e-01	 9.966803108878728e-01	-1.245447054087283e+01
 4.453558422387106e-01	 1.005812196101609e+00	-2.075587565847588e+01
 4.251748538647384e-01	 1.014507931799456e+00	-3.146471344479319e+01
 4.049041805392548e-01	 1.022767131181332e+00	-4.454791545262508e+01
 6.087708506453484e-01	 9.311575062525379e-01	-2.783646634668176e+01
 5.895852483522863e-01	 9.434222198826796e-01	-1.910719078210301e+01
 5.701981232837326e-01	 9.552645446391391e-01	-1.265570402228322e+01
 5.506231915963185e-01	 9.666800664728121e-01	-8.495722051527565e+00
 5.308742678481890e-01	 9.776649537421396e-01	-6.633030206978496e+00
 5.109652347815433e-01	 9.882159576143307e-01	-7.065594805230532e+00
 4.909100133836695e-01	 9.983304106352595e-01	-9.783712295790814e+00
 4.707225333517872e-01	 1.008006223510275e+00	-1.477019410921189e+01
 4.504167040817562e-01	 1.017241880147583e+00	-2.200058513031919e+01
 4.300063862947036e-01	 1.026036431024607e+00	-3.144341351709183e+01
 4.095053644089534e-01	 1.034389484945808e+00	-4.306046940496783e+01
 6.156109725587411e-01	 9.416199501384250e-01	-3.257438423211795e+01
 5.962098017009264e-01	 9.540224695395332e-01	-2.383054104736772e+01
 5.766048437667730e-01	 9.659978541247000e-01	-1.722836330635818e+01
 5.568099690270316e-01	 9.775416402487633e-01	-1.277177496733331e+01
 5.368391472596018e-01	 9.886499532180105e-01	-1.045737935702962e+01
 5.167064171925495e-01	 9.993195076959103e-01	-1.027459973632817e+01
 4.964258562287501e-01	 1.009547606256940e+00	-1.220585355966824e+01
 4.760115505788752e-01	 1.019332136131226e+00	-1.622675851752594e+01
 4.554775659241308e-01	 1.028671564192235e+00	-2.230636824750363e+01
 4.348379187240837e-01	 1.037564930248593e+00	-3.040743542280102e+01
 4.141065482781622e-01	 1.046011838709305e+00	-4.048669977820531e+01
 3.680947095640363e-01	 9.297883010302649e-01	-1.245413523552608e+01
 3.495975907771368e-01	 9.368999543523497e-01	-2.108181421254114e+01
 3.310434199775671e-01	 9.436155223571460e-01	-2.641142476939410e+01
 3.124442408950447e-01	 9.499361011546517e-01	-2.838049217158747e+01
 2.938119377279355e-01	 9.558632460744549e-01	-2.694150205628609e+01
 2.751582148638955e-01	 9.613989581557346e-01	-2.206162201911297e+01
 2.564945776994927e-01	 9.665456696731550e-01	-1.372235888586558e+01
 2.378323146029685e-01	 9.713062287906586e-01	-1.919156378881198e+00
 2.191824800562900e-01	 9.756838834365028e-01	 1.333906185849592e+01
 2.005558790047262e-01	 9.796822644935033e-01	 3.203039872165510e+01
 1.819630524344169e-01	 9.833053683983746e-01	 5.412053429523555e+01
 3.726958934376526e-01	 9.414106548025766e-01	-2.116520598431459e+01
 3.539675606653077e-01	 9.486112037905382e-01	-2.728219734414417e+01
 3.351814627300657e-01	 9.554107163947457e-01	-3.035815138805214e+01
 3.163497939082678e-01	 9.618103024265738e-01	-3.034354574660526e+01
 2.974845869507599e-01	 9.678115366572296e-01	-2.720258133166245e+01
 2.785976925500455e-01	 9.734164451388825e-01	-2.091289525520249e+01
 2.597007599201513e-01	 9.786274905496308e-01	-1.146521582555544e+01
 2.408052185339230e-01	 9.834475566554659e-01	 1.137035903471393e+00
 2.219222610543540e-01	 9.878799319837492e-01	 1.687819333831562e+01
 2.030628274885305e-01	 9.919282928033322e-01	 3.573083545233748e+01
 1.842375905849211e-01	 9.955966855063876e-01	 5.765631683195894e+01
 3.772970773107793e-01	 9.530330085739084e-01	-2.843540787266351e+01
 3.583375305530888e-01	 9.603224532279364e-01	-3.221869408694053e+01
 3.393195054822754e-01	 9.672059104317243e-01	-3.321048090407963e+01
 3.202553469213020e-01	 9.736845036980224e-01	-3.137399655515181e+01
 3.011572361734961e-01	 9.797598272396583e-01	-2.668497809560317e+01
 2.820371702362082e-01	 9.854339321217914e-01	-1.913137565772528e+01
 2.629069421409231e-01	 9.907093114259542e-01	-8.713005071524705e+00
 2.437781224650914e-01	 9.955888845201885e-01	 4.558846900404973e+00
 2.246620420527323e-01	 1.000075980530958e+00	 2.066186028808499e+01
 2.055697759727496e-01	 1.004174321113151e+00	 3.956315804402295e+01
 1.865121287359399e-01	 1.007888002614400e+00	 6.121981594243768e+01
 3.818982611834161e-01	 9.646553623442610e-01	-3.431679741380952e+01
 3.627075004404804e-01	 9.720337026645445e-01	-3.593696379614867e+01
 3.434575482341956e-01	 9.790011044680814e-01	-3.500794634785573e+01
 3.241608999341474e-01	 9.855587049689971e-01	-3.150552942769784e+01
 3.048298853961442e-01	 9.917081178217401e-01	-2.541681357743006e+01
 2.854766479223834e-01	 9.974514191044608e-01	-1.673991110944747e+01
 2.661131243618082e-01	 1.002791132302125e+00	-5.483596256037728e+00
 2.467510263964736e-01	 1.007730212384825e+00	 8.333086099901259e+00
 2.274018230514250e-01	 1.012272029078129e+00	 2.468124894838699e+01
 2.080767244573832e-01	 1.016420349422961e+00	 4.352262466805935e+01
 1.887866668874734e-01	 1.020179319722413e+00	 6.481005521944482e+01
 3.864994450555633e-01	 9.762777161136343e-01	-3.885895241850370e+01
 3.670774703274824e-01	 9.837449521003626e-01	-3.848049175598995e+01
 3.475955909858267e-01	 9.907962985038169e-01	-3.578819841270825e+01
 3.280664529468041e-01	 9.974329062394982e-01	-3.077022534683464e+01
 3.085025346187044e-01	 1.003656408403476e+00	-2.342487009468845e+01
 2.889161256085711e-01	 1.009468906086891e+00	-1.376026169506819e+01
 2.693193065828065e-01	 1.014872953178144e+00	-1.794008274054043e+00
 2.497239303280696e-01	 1.019871540249376e+00	 1.244719091154132e+01
 2.301416040504319e-01	 1.024468077625263e+00	 2.892796506491098e+01
 2.105836729424314e-01	 1.028666377732761e+00	 4.760471910049280e+01
 1.910612050395216e-01	 1.032470636830427e+00	 6.842610455647791e+01
 3.911006289272207e-01	 9.879000698820278e-01	-4.210911780050737e+01
 3.714474402140946e-01	 9.954562015353907e-01	-3.989071706564451e+01
 3.517336337371683e-01	 1.002591492538931e+00	-3.558711618002002e+01
 3.319720059592722e-01	 1.009307107509526e+00	-2.919865579063505e+01
 3.121751838411762e-01	 1.015604698984865e+00	-2.073466981201970e+01
 2.923556032947714e-01	 1.021486393069082e+00	-1.021316368868849e+01
 2.725254888039181e-01	 1.026954774054010e+00	 2.339540674052962e+00
 2.526968342598795e-01	 1.032012868113843e+00	 1.688918973058522e+01
 2.328813850497531e-01	 1.036664126172358e+00	 3.339400921231574e+01
 2.130906214278943e-01	 1.040912406042553e+00	 5.180513745181706e+01
 1.933357431920845e-01	 1.044761953938439e+00	 7.206707742477622e+01
 3.957018127983884e-01	 9.995224236494423e-01	-4.411234120961178e+01
 3.758174101003174e-01	 1.007167450969629e+00	-4.020715160293425e+01
 3.558716764882207e-01	 1.014386686573424e+00	-3.443891011932620e+01
 3.358775589715515e-01	 1.021181308779080e+00	-2.681997049392797e+01
 3.158478330635600e-01	 1.027552989565908e+00	-1.737054800522903e+01
 2.957950809809843e-01	 1.033503880051033e+00	-6.118389077038330e+00
 2.757316710251428e-01	 1.039036594929724e+00	 6.901586531135828e+00
 2.556697381919033e-01	 1.044154195978224e+00	 2.164766757898226e+01
 2.356211660493888e-01	 1.048860174719417e+00	 3.807175383968459e+01
 2.155975699137717e-01	 1.053158434352334e+00	 5.611977582255468e+01
 1.956102813451620e-01	 1.057053271046452e+00	 7.573212834031078e+01
 4.003029966690664e-01	 1.011144777415877e+00	-4.491159931065839e+01
 3.801873799861506e-01	 1.018878700403077e+00	-3.946749078361322e+01
 3.600097192389839e-01	 1.026181880607295e+00	-3.237621798496031e+01
 3.397831119836419e-01	 1.033055510048160e+00	-2.366197915706701e+01
 3.195204822858556e-01	 1.039501280146605e+00	-1.335572127266061e+01
 2.992345586672098e-01	 1.045521367032745e+00	-1.494800977654631e+00
 2.789378532464808e-01	 1.051118415805285e+00	 1.187737604234264e+01
 2.586426421241408e-01	 1.056295523842520e+00	 2.671173411596300e+01
 2.383609470493386e-01	 1.061056223266437e+00	 4.295392189905421e+01
 2.181045184000638e-01	 1.065404462662107e+00	 6.054471881017778e+01
 1.978848194987542e-01	 1.069344588154466e+00	 7.942045050546591e+01
 4.049041805392548e-01	 1.022767131181332e+00	-4.454791545262508e+01
 3.845573498715942e-01	 1.030589949835736e+00	-3.770771676889078e+01
 3.641477619894577e-01	 1.037977074640545e+00	-2.943019417429253e+01
 3.436886649955436e-01	 1.044929711316767e+00	-1.975122758365087e+01
 3.231931315080631e-01	 1.051449570726956e+00	-8.712351095795997e+00
 3.026740363534478e-01	 1.057538854014218e+00	 3.639594721452751e+00
 2.821440354679321e-01	 1.063200236680694e+00	 1.725282636925462e+01
 2.616155460565923e-01	 1.068436851706730e+00	 3.207099382972790e+01
 2.411007280496028e-01	 1.073252271813419e+00	 4.803356693108293e+01
 2.206114668867706e-01	 1.077650490971870e+00	 6.507622879964711e+01
 2.001593576528611e-01	 1.081635905262479e+00	 8.313127361151416e+01
 4.095053644089534e-01	 1.034389484945808e+00	-4.306046940496783e+01
 3.889273197566479e-01	 1.042301199267603e+00	-3.496219471514420e+01
 3.682858047396424e-01	 1.049772268673173e+00	-2.563059306181682e+01
 3.475942180072565e-01	 1.056803912584900e+00	-1.511306868536245e+01
 3.268657807301825e-01	 1.063397861306960e+00	-3.461603114872762e+00
 3.061135140396982e-01	 1.069556340995452e+00	 9.267601203457524e+00
 2.853502176894966e-01	 1.075282057555951e+00	 2.301448742666382e+01
 2.645884499892575e-01	 1.080578179570855e+00	 3.771551823868285e+01
 2.438405090501814e-01	 1.085448320360364e+00	 5.330405449326230e+01
 2.231184153738919e-01	 1.089896519281624e+00	 6.971073597593463e+01
 2.024338958074826e-01	 1.093927222370491e+00	 8.686386178923772e+01
 4.141065482781622e-01	 1.046011838709305e+00	-4.048669977820531e+01
 3.932972896413123e-01	 1.054012448698682e+00	-3.126376260698441e+01
 3.724238474895377e-01	 1.061567462705179e+00	-2.100584677763482e+01
 3.514997710187807e-01	 1.068678113852559e+00	-9.771728753154033e+00
 3.305384299522138e-01	 1.075346151886617e+00	 2.376297547206942e+00
 3.095529917259615e-01	 1.081573827976446e+00	 1.537278577493201e+01
 2.885563999111744e-01	 1.087363878431055e+00	 2.914950673022988e+01
 2.675613539221366e-01	 1.092719507434895e+00	 4.363581994592594e+01
 2.465802900510743e-01	 1.097644368907271e+00	 5.875904482624451e+01
 2.256253638614278e-01	 1.102142547591368e+00	 7.444482900237962e+01
 2.047084339626188e-01	 1.106218539478505e+00	 9.061751169617489e+01
 1.819630524344169e-01	 9.833053683983746e-01	 5.412053429523555e+01
 1.634142641907509e-01	 9.865575392429453e-01	 4.096836272245805e+01
 1.449194890435836e-01	 9.894434504702300e-01	 2.705139908734681e+01
 1.264884019976694e-01	 9.919680862544974e-01	 1.260573867459578e+01
 1.081303688402294e-01	 9.941367226520524e-01	-2.139557668901855e+00
 8.985443791194073e-02	 9.959549086084808e-01	-1.696302100012256e+01
 7.166933308134309e-02	 9.974284469032259e-01	-3.165127074781196e+01
 5.358344789747966e-02	 9.985633751090948e-01	-4.599945048153463e+01
 3.560484089073371e-02	 9.993659466402712e-01	-5.981160370154501e+01
 1.774123198744578e-02	 9.998426119581703e-01	-7.290099075584217e+01
 0.000000000000000e+00	 1.000000000000000e+00	-8.509034834215706e+01
 1.842375905849211e-01	 9.955966855063876e-01	 5.765631683195894e+01
 1.654569424871889e-01	 9.988895084859244e-01	 4.610409030584953e+01
 1.467309826500151e-01	 1.001811493603026e+00	 3.317914574992352e+01
 1.280695070157072e-01	 1.004367687334138e+00	 1.910754272251141e+01
 1.094819984438205e-01	 1.006563431686268e+00	 4.110747678155818e+00
 9.097761837928414e-02	 1.008404344966822e+00	-1.159499431493171e+01
 7.256519973898776e-02	 1.009896302489984e+00	-2.779923466489768e+01
 5.425324099133060e-02	 1.011045417298220e+00	-4.429784258525566e+01
 3.604990139831873e-02	 1.011858020973390e+00	-6.089347251521808e+01
 1.796299738536468e-02	 1.012340644607676e+00	-7.739597787854234e+01
 0.000000000000000e+00	 1.012500000000000e+00	-9.362277179452607e+01
 1.865121287359399e-01	 1.007888002614400e+00	 6.121981594243768e+01
 1.674996207842255e-01	 1.011221477728904e+00	 5.098186062551935e+01
 1.485424762570973e-01	 1.014179536735822e+00	 3.877926786912776e+01
 1.296506120344171e-01	 1.016767288413778e+00	 2.482820723109943e+01
 1.108336280480745e-01	 1.018990140720485e+00	 9.342656118846806e+00
 9.210079884725111e-02	 1.020853781325163e+00	-7.466298195563553e+00
 7.346106639718736e-02	 1.022364158076741e+00	-2.539111105579910e+01
 5.492303408563919e-02	 1.023527459487344e+00	-4.422838597333580e+01
 3.649496190623605e-02	 1.024350095306508e+00	-6.377943224883668e+01
 1.818476278346310e-02	 1.024838677257182e+00	-8.385077406330950e+01
 0.000000000000000e+00	 1.025000000000000e+00	-1.042546108209040e+02
 1.887866668874734e-01	 1.020179319722413e+00	 6.481005521944482e+01
 1.695422990818606e-01	 1.023553446971883e+00	 5.561102310921891e+01
 1.503539698648305e-01	 1.026547579868618e+00	 4.387086216516344e+01
 1.312317170537990e-01	 1.029166889493419e+00	 2.979599240286713e+01
 1.121852576529911e-01	 1.031416849754700e+00	 1.359300371963707e+01
 9.322397931584156e-02	 1.033303217683504e+00	-4.532110718964753e+00
 7.435693305594188e-02	 1.034832013663499e+00	-2.437468316261621e+01
 5.559282718040544e-02	 1.036009501676469e+00	-4.573205976280656e+01
 3.694002241448566e-02	 1.036842169639627e+00	-6.840424701749096e+01
 1.840652818174105e-02	 1.037336709906688e+00	-9.219451473964372e+01
 0.000000000000000e+00	 1.037500000000000e+00	-1.169099545116397e+02
 1.910612050395216e-01	 1.032470636830427e+00	 6.842610455647791e+01
 1.715849773800944e-01	 1.035885416214862e+00	 6.000048178155269e+01
 1.521654634732146e-01	 1.038915623001414e+00	 4.847211580160907e+01
 1.328128220738531e-01	 1.041566490573059e+00	 3.403781253143881e+01
 1.135368872585706e-01	 1.043843558788917e+00	 1.689687226840939e+01
 9.434715978505553e-02	 1.045752654041845e+00	-2.749744514058166e+00
 7.525279971525133e-02	 1.047299869250256e+00	-2.470022090822737e+01
 5.626262027562935e-02	 1.048491543865594e+00	-4.875265375055373e+01
 3.738508292306758e-02	 1.049334243972746e+00	-7.470578756104831e+01
 1.862829358019852e-02	 1.049834742556193e+00	-1.023597099862672e+02
 0.000000000000000e+00	 1.050000000000000e+00	-1.315165068993368e+02
 1.933357431920845e-01	 1.044761953938439e+00	 7.206707742477622e+01
 1.736276556789268e-01	 1.048217385457841e+00	 6.415872146471753e+01
 1.539769570822495e-01	 1.051283666134210e+00	 5.260035988926149e+01
 1.343939270945792e-01	 1.053966091652700e+00	 3.757931517313597e+01
 1.148885168648128e-01	 1.056270267823132e+00	 1.928769246773661e+01
 9.547034025489304e-02	 1.058202090400186e+00	-2.078521199508000e+00
 7.614866637511571e-02	 1.059767724837014e+00	-2.632033462065586e+01
 5.693241337131089e-02	 1.060973586054718e+00	-5.323660307898131e+01
 3.783014343198180e-02	 1.061826318305864e+00	-8.262484850136940e+01
 1.885005897883552e-02	 1.062332775205699e+00	-1.142820460222745e+02
 0.000000000000000e+00	 1.062500000000000e+00	-1.480053743152016e+02
 1.956102813451620e-01	 1.057053271046452e+00	 7.573212834031078e+01
 1.756703339783578e-01	 1.060549354700821e+00	 6.809383215128339e+01
 1.557884506919354e-01	 1.063651709267005e+00	 5.627211925715422e+01
 1.359750321159775e-01	 1.066365692732341e+00	 4.044495479495447e+01
 1.162401464717178e-01	 1.068696976857348e+00	 2.079733992862196e+01
 9.659352072535407e-02	 1.070651526758527e+00	-2.479654581638897e+00
 7.704453303553507e-02	 1.072235580423771e+00	-2.918983896271542e+01
 5.760220646745011e-02	 1.073455628243843e+00	-5.913283443663840e+01
 3.827520394122830e-02	 1.074318392638983e+00	-9.210497834902014e+01
 1.907182437765204e-02	 1.074830807855205e+00	-1.279002005477393e+02
 0.000000000000000e+00	 1.075000000000000e+00	-1.663108675809925e+02
 1.978848194987542e-01	 1.069344588154466e+00	 7.942045050546591e+01
 1.777130122783873e-01	 1.072881323943800e+00	 7.181353169609243e+01
 1.575999443022721e-01	 1.076019752399801e+00	 5.950315879109249e+01
 1.375561371380478e-01	 1.078765293811981e+00	 4.265806134337370e+01
 1.175917760792856e-01	 1.081123685891564e+00	 2.145622454398220e+01
 9.771670119643860e-02	 1.083100963116868e+00	-3.916141907671099e+00
 7.794039969650934e-02	 1.084703436010529e+00	-3.326562624581907e+01
 5.827199956404695e-02	 1.085937670432968e+00	-6.639262286569060e+01
 3.872026445080710e-02	 1.086810466972101e+00	-1.030923212336615e+02
 1.929358977664810e-02	 1.087328840504710e+00	-1.431556708194466e+02
 0.000000000000000e+00	 1.087500000000000e+00	-1.863703178429038e+02
 2.001593576528611e-01	 1.081635905262479e+00	 8.313127361151416e+01
 1.797556905790155e-01	 1.085213293186779e+00	 7.532518696098154e+01
 1.594114379132596e-01	 1.088387795532598e+00	 6.230852661274020e+01
 1.391372421607902e-01	 1.091164894891622e+00	 4.424090413801692e+01
 1.189434056875161e-01	 1.093550394925780e+00	 2.129337376848351e+01
 9.883988166814665e-02	 1.095550399475209e+00	-6.352662533510113e+00
 7.883626635803856e-02	 1.097171291597286e+00	-3.850654838148151e+01
 5.894179266110147e-02	 1.098419712622093e+00	-7.496945833252461e+01
 3.916532496071819e-02	 1.099302541305220e+00	-1.155354694255461e+02
 1.951535517582367e-02	 1.099826873154216e+00	-1.599926134487364e+02
 0.000000000000000e+00	 1.100000000000000e+00	-2.081239049622291e+02
 2.024338958074826e-01	 1.093927222370491e+00	 8.686386178923772e+01
 1.817983688802422e-01	 1.097545262429758e+00	 7.863583353401793e+01
 1.612229315248981e-01	 1.100755838665393e+00	 6.470259434775687e+01
 1.407183471842047e-01	 1.103564495971262e+00	 4.521475145787453e+01
 1.202950352964094e-01	 1.105977103959997e+00	 2.033651028400626e+01
 9.996306214047822e-02	 1.107999835833549e+00	-9.755483422917939e+00
 7.973213302012272e-02	 1.109639147184044e+00	-4.487330679114714e+01
 5.961158575861362e-02	 1.110901754811217e+00	-8.481892129358874e+01
 3.961038547096159e-02	 1.111794615638339e+00	-1.293853257993857e+02
 1.973712057517876e-02	 1.112324905803722e+00	-1.783576949994948e+02
 0.000000000000000e+00	 1.112500000000000e+00	-2.315144974751939e+02
 2.047084339626188e-01	 1.106218539478505e+00	 9.061751169617489e+01
 1.838410471820675e-01	 1.109877231672737e+00	 8.175219413411929e+01
 1.630344251371875e-01	 1.113123881798189e+00	 6.669909470939309e+01
 1.422994522082913e-01	 1.115964097050903e+00	 4.559992615511225e+01
 1.216466649059655e-01	 1.118403812994212e+00	 1.861212448741185e+01
 1.010862426134333e-01	 1.120449272191891e+00	-1.409237094674356e+01
 8.062799968276181e-02	 1.122107002770802e+00	-5.232834965536329e+01
 6.028137885658343e-02	 1.123383797000342e+00	-9.589856655684565e+01
 4.005544598153728e-02	 1.124286689971457e+00	-1.445949754672950e+02
 1.995888597471339e-02	 1.124822938453228e+00	-1.981999525462717e+02
 0.000000000000000e+00	 1.125000000000000e+00	-2.564875032221321e+02
 1.125000000000000e+00	 0.000000000000000e+00	 1.490374113493180e+02
 1.124822938453228e+00	 1.995888597471274e-02	 1.274347351436797e+02
 1.124286689971457e+00	 4.005544598153672e-02	 1.046538082628285e+02
 1.123383797000342e+00	 6.028137885658293e-02	 8.090471157754355e+01
 1.122107002770802e+00	 8.062799968276138e-02	 5.640839610051168e+01
 1.120449272191891e+00	 1.010862426134330e-01	 3.139635005022676e+01
 1.118403812994212e+00	 1.216466649059652e-01	 6.110198782000344e+00
 1.115964097050903e+00	 1.422994522082910e-01	-1.919876390402698e+01
 1.113123881798189e+00	 1.630344251371873e-01	-4.427011414462405e+01
 1.109877231672737e+00	 1.838410471820675e-01	-6.883490668844786e+01
 1.106218539478505e+00	 2.047084339626188e-01	-9.261635396676392e+01
 1.137500000000000e+00	 0.000000000000000e+00	 1.337183007321978e+02
 1.137320971102731e+00	 2.018065137442460e-02	 1.152260764305590e+02
 1.136778764304567e+00	 4.050050649243549e-02	 9.564356310934329e+01
 1.135865839189446e+00	 6.095117195498952e-02	 7.514597977868769e+01
 1.134574858357522e+00	 8.152386634591800e-02	 5.391790398362871e+01
 1.132898708550173e+00	 1.022094230869528e-01	 3.215300591087750e+01
 1.130830522028343e+00	 1.229982945160989e-01	 1.005372571352185e+01
 1.128363698130427e+00	 1.438805572329329e-01	-1.216910729939320e+01
 1.125491924930832e+00	 1.648459187499742e-01	-3.429671460868634e+01
 1.122209200915521e+00	 1.858837254842960e-01	-5.610286817949257e+01
 1.118509856586275e+00	 2.069829721180270e-01	-7.735445009799810e+01
 1.150000000000000e+00	 0.000000000000000e+00	 1.212101722526937e+02
 1.149819003752230e+00	 2.040241677431140e-02	 1.054134925838042e+02
 1.149270838637657e+00	 4.094556700364810e-02	 8.861139193255224e+01
 1.148347881378508e+00	 6.162096505381197e-02	 7.094479978102308e+01
 1.147042713944167e+00	 8.241973300955485e-02	 5.256251712837798e+01
 1.145348144908337e+00	 1.033326035609785e-01	 3.362101678696047e+01
 1.143257231062303e+00	 1.243499241267248e-01	 1.428419710380731e+01
 1.140763299209717e+00	 1.454616622580135e-01	-5.276912110783142e+00
 1.137859968063168e+00	 1.666574123631049e-01	-2.488449238288063e+01
 1.134541170157914e+00	 1.879264037867323e-01	-4.435432872619479e+01
 1.130801173693560e+00	 2.092575102734646e-01	-6.349625142920841e+01
 1.162500000000000e+00	 0.000000000000000e+00	 1.114223166412005e+02
 1.162317036401724e+00	 2.062418217437315e-02	 9.791966029016810e+01
 1.161762912970730e+00	 4.139062751517460e-02	 8.349345716677962e+01
 1.160829923567528e+00	 6.229075815305031e-02	 6.825090109204375e+01
 1.159510569530738e+00	 8.331559967367190e-02	 5.230559418221961e+01
 1.157797581266385e+00	 1.044557840355102e-01	 3.577741250825853e+01
 1.155683940096093e+00	 1.257015537378430e-01	 1.879233524940886e+01
 1.153162900288774e+00	 1.470427672835326e-01	 1.482236255064430e+00
 1.150228011195196e+00	 1.684689059765797e-01	-1.601536285678584e+01
 1.146873139399917e+00	 1.899690820893765e-01	-3.355757869861484e+01
 1.143092490800359e+00	 2.115320484289315e-01	-5.099649158414857e+01
 1.175000000000000e+00	 0.000000000000000e+00	 1.042678848341030e+02
 1.174815069051214e+00	 2.084594757460985e-02	 9.267054683388538e+01
 1.174254987303784e+00	 4.183568802701497e-02	 8.022863798818567e+01
 1.173311965756507e+00	 6.296055125270457e-02	 6.701615264405234e+01
 1.171978425117234e+00	 8.421146633826908e-02	 5.311205325852788e+01
 1.170247017624314e+00	 1.055789645105478e-01	 3.860020062180106e+01
 1.168110649129713e+00	 1.270531833494537e-01	 2.356925750899476e+01
 1.165562501367597e+00	 1.486238723094903e-01	 8.112564804885636e+00
 1.162596054326918e+00	 1.702803995903985e-01	-7.672010707829720e+00
 1.159205108641529e+00	 1.920117603922284e-01	-2.368225754193908e+01
 1.155383807906674e+00	 2.138065865844276e-01	-3.981183014447763e+01
 1.187500000000000e+00	 0.000000000000000e+00	 9.966368480504710e+01
 1.187313101700699e+00	 2.106771297502151e-02	 8.959523690720357e+01
 1.186747061636820e+00	 4.228074853916918e-02	 7.875838732809117e+01
 1.185794007945443e+00	 6.363034435277468e-02	 6.719445019245991e+01
 1.184446280703655e+00	 8.510733300334646e-02	 5.494828985891307e+01
 1.182696453982126e+00	 1.067021449860912e-01	 4.206831493240999e+01
 1.180537358163162e+00	 1.284048129615565e-01	 2.860645550983025e+01
 1.177962102446187e+00	 1.502049773358866e-01	 1.461812283097146e+01
 1.174964097458333e+00	 1.720918932045612e-01	 1.621505865358941e-01
 1.171537077882749e+00	 1.940544386952882e-01	-1.469928277364607e+01
 1.167675125012503e+00	 2.160811247399532e-01	-2.990075128477947e+01
 1.200000000000000e+00	 0.000000000000000e+00	 9.752999109425555e+01
 1.199811134350180e+00	 2.128947837560811e-02	 8.862577024525511e+01
 1.199239135969837e+00	 4.272580905163728e-02	 7.902659782297019e+01
 1.198276050134338e+00	 6.430013745326070e-02	 6.874161075169170e+01
 1.196914136290001e+00	 8.600319966890399e-02	 5.778209992539837e+01
 1.195145890339820e+00	 1.078253254621407e-01	 4.616156725946193e+01
 1.192964067196440e+00	 1.297564425741518e-01	 3.389577565385571e+01
 1.190361703524544e+00	 1.517860823627215e-01	 2.100279116624380e+01
 1.187332140589441e+00	 1.739033868190680e-01	 7.503016706170877e+00
 1.183869047123579e+00	 1.960971169985557e-01	-6.580783418348986e+00
 1.179966442117847e+00	 2.183556628955082e-01	-2.122346874289270e+01
 1.212500000000000e+00	 0.000000000000000e+00	 9.779036611953600e+01
 1.212309166999656e+00	 2.151124377636965e-02	 8.969698930413288e+01
 1.211731210302836e+00	 4.317086956441923e-02	 8.097947605619493e+01
 1.210758092323192e+00	 6.496993055416259e-02	 7.161527356083057e+01
 1.209381991876273e+00	 8.689906633494171e-02	 6.158260765225629e+01
 1.207595326697396e+00	 1.089485059386960e-01	 5.086060217776841e+01
 1.205390776229548e+00	 1.311080721872393e-01	 3.942940082957361e+01
 1.202761304602666e+00	 1.533671873899949e-01	 2.727029086685309e+01
 1.199700183720242e+00	 1.757148804339188e-01	 1.436582809770727e+01
 1.196201016364018e+00	 1.981397953020310e-01	 6.999624399306015e-01
 1.192257759222705e+00	 2.206302010510924e-01	-1.374183666836299e+01
 1.225000000000000e+00	 0.000000000000000e+00	 1.003714924274303e+02
 1.224807199649127e+00	 2.173300917730615e-02	 9.274639626479799e+01
 1.224223284635816e+00	 4.361593007751505e-02	 8.456542449926596e+01
 1.223240134512003e+00	 6.563972365548039e-02	 7.577480711258890e+01
 1.221849847462470e+00	 8.779493300145964e-02	 6.632019771752874e+01
 1.220044763054855e+00	 1.100716864157573e-01	 5.614685452942295e+01
 1.217817485262486e+00	 1.324597018008191e-01	 4.519983324361712e+01
 1.215160905680556e+00	 1.549482924177070e-01	 3.342419136318915e+01
 1.212068226850737e+00	 1.775263740491136e-01	 2.076520340383967e+01
 1.208532985604066e+00	 2.001824736057143e-01	 7.168586282160089e+00
 1.204549076327078e+00	 2.229047392067060e-01	-7.419265929152131e+00
 1.237500000000000e+00	 0.000000000000000e+00	 1.052030151109605e+02
 1.237305232298594e+00	 2.195477457841760e-02	 9.771401870341660e+01
 1.236715358968778e+00	 4.406099059092473e-02	 8.973493060811892e+01
 1.235722176700773e+00	 6.630951675721405e-02	 8.118122181688778e+01
 1.234317703048592e+00	 8.869079966845773e-02	 7.196645162172814e+01
 1.232494199412197e+00	 1.111948668933245e-01	 6.200250951068853e+01
 1.230244194295253e+00	 1.338113314148913e-01	 5.119987829282995e+01
 1.227560506758211e+00	 1.565293974458576e-01	 3.946791811689200e+01
 1.224436269980924e+00	 1.793378676646523e-01	 2.671517086659878e+01
 1.220864954843724e+00	 2.022251519096052e-01	 1.284968422570038e+01
 1.216840393430966e+00	 2.251792773623488e-01	-2.220645490666687e+00
 1.250000000000000e+00	 0.000000000000000e+00	 1.122173936823102e+02
 1.249803264948056e+00	 2.217653997970400e-02	 1.045422833214768e+02
 1.249207433301722e+00	 4.450605110464827e-02	 9.644046257365275e+01
 1.248204218889501e+00	 6.697930985936361e-02	 8.779708790462203e+01
 1.246785558634639e+00	 8.958666633593600e-02	 7.849408784621593e+01
 1.244943635769421e+00	 1.123180473713976e-01	 6.841046515367159e+01
 1.242670903327850e+00	 1.351629610294558e-01	 5.742262940402229e+01
 1.239960107835634e+00	 1.581105024744469e-01	 4.540475981844295e+01
 1.236804313110804e+00	 1.811493612805350e-01	 3.222919784642937e+01
 1.233196924082991e+00	 2.042678302137040e-01	 1.776686879142744e+01
 1.229131710534368e+00	 2.274538155180211e-01	 1.887731487956671e+00
 1.106218539478505e+00	 2.047084339626188e-01	-9.261635396676392e+01
 1.102142547591368e+00	 2.256253638614272e-01	-9.349490766997032e+01
 1.097644368907272e+00	 2.465802900510737e-01	-9.371000438803449e+01
 1.092719507434896e+00	 2.675613539221362e-01	-9.332547284466389e+01
 1.087363878431055e+00	 2.885563999111739e-01	-9.240881004115198e+01
 1.081573827976446e+00	 3.095529917259612e-01	-9.103103332336946e+01
 1.075346151886618e+00	 3.305384299522137e-01	-8.926650891514372e+01
 1.068678113852559e+00	 3.514997710187806e-01	-8.719275698283181e+01
 1.061567462705179e+00	 3.724238474895377e-01	-8.489023348692510e+01
 1.054012448698681e+00	 3.932972896413123e-01	-8.244208927516812e+01
 1.046011838709305e+00	 4.141065482781622e-01	-7.993390707600464e+01
 1.118509856586275e+00	 2.069829721180270e-01	-7.735445009799810e+01
 1.114388575900822e+00	 2.281323123490921e-01	-7.896584887769268e+01
 1.109840417453845e+00	 2.493200710519664e-01	-7.996660299944412e+01
 1.104860835298564e+00	 2.705342578549000e-01	-8.040751549276112e+01
 1.099445699305754e+00	 2.917625821326358e-01	-8.034257550292327e+01
 1.093591314957006e+00	 3.129924694119225e-01	-7.982884783570006e+01
 1.087294442465818e+00	 3.342110791738725e-01	-7.892634268504281e+01
 1.080552315119742e+00	 3.554053240298770e-01	-7.769786550945213e+01
 1.073362656736697e+00	 3.765618902389651e-01	-7.620884717997234e+01
 1.065723698129263e+00	 3.976672595254847e-01	-7.452715468714169e+01
 1.057634192472302e+00	 4.187077321468711e-01	-7.272288286417140e+01
 1.130801173693560e+00	 2.092575102734646e-01	-6.349625142920841e+01
 1.126634604209704e+00	 2.306392608366003e-01	-6.570069361087177e+01
 1.122036465999790e+00	 2.520598520525441e-01	-6.734630534514019e+01
 1.117002163161574e+00	 2.735071617872195e-01	-6.847108555921420e+01
 1.111527520179795e+00	 2.949687643535529e-01	-6.911574474920135e+01
 1.105608801936938e+00	 3.164319470972682e-01	-6.932363148283446e+01
 1.099242733044450e+00	 3.378837283948746e-01	-6.914064274994232e+01
 1.092426516386447e+00	 3.593108770403062e-01	-6.861511802846967e+01
 1.085157850767857e+00	 3.806999329877463e-01	-6.779771705775802e+01
 1.077434947559639e+00	 4.020372294090629e-01	-6.674128144134987e+01
 1.069256546235278e+00	 4.233089160150696e-01	-6.550068033759391e+01
 1.143092490800359e+00	 2.115320484289315e-01	-5.099649158414857e+01
 1.138880632518016e+00	 2.331462093239517e-01	-5.365868354625353e+01
 1.134232514545106e+00	 2.547996330528071e-01	-5.581289338561614e+01
 1.129143491023926e+00	 2.764800657190944e-01	-5.748453037343752e+01
 1.123609341053178e+00	 2.981749465739247e-01	-5.870124817213024e+01
 1.117626288916241e+00	 3.198714247819978e-01	-5.949290779306038e+01
 1.111191023622513e+00	 3.415563776152200e-01	-5.989152801668900e+01
 1.104300717652674e+00	 3.632164300500684e-01	-5.993122304616473e+01
 1.096953044798661e+00	 3.848379757358811e-01	-5.964812725642592e+01
 1.089146196989810e+00	 4.064071992920468e-01	-5.908030699803343e+01
 1.080878899998233e+00	 4.279100998827580e-01	-5.826765951748175e+01
 1.155383807906674e+00	 2.138065865844276e-01	-3.981183014447763e+01
 1.151126660825756e+00	 2.356531578111465e-01	-4.280079448709444e+01
 1.146428563089792e+00	 2.575394140527553e-01	-4.533169000568633e+01
 1.141284818885619e+00	 2.794529696505251e-01	-4.741754392024076e+01
 1.135691161925902e+00	 3.013811287937518e-01	-4.907316779810122e+01
 1.129643775894916e+00	 3.233109024661115e-01	-5.031515647980063e+01
 1.123139314200007e+00	 3.452290268349085e-01	-5.116187803340721e+01
 1.116174918918422e+00	 3.671219830591637e-01	-5.163345441281613e+01
 1.108748238829107e+00	 3.889760184833697e-01	-5.175173255392662e+01
 1.100857446419777e+00	 4.107771691744366e-01	-5.154024570684719e+01
 1.092501253761168e+00	 4.325112837499361e-01	-5.102416487172807e+01
 1.167675125012503e+00	 2.160811247399532e-01	-2.990075128477947e+01
 1.163372689132924e+00	 2.381601062981845e-01	-3.308964509467204e+01
 1.158624611633849e+00	 2.602791950523886e-01	-3.586947791462909e+01
 1.153426146746654e+00	 2.824258735815113e-01	-3.824109596474130e+01
 1.147772982797968e+00	 3.045873110130340e-01	-4.020667667701913e+01
 1.141661262872963e+00	 3.267503801496095e-01	-4.176976311775061e+01
 1.135087604776933e+00	 3.489016760539403e-01	-4.293529295748667e+01
 1.128049120183692e+00	 3.710275360675916e-01	-4.370962156955373e+01
 1.120543432859196e+00	 3.931140612302118e-01	-4.410053886440780e+01
 1.112568695849540e+00	 4.151471390562321e-01	-4.411727949878970e+01
 1.104123607524082e+00	 4.371124676166038e-01	-4.377052613544085e+01
 1.179966442117847e+00	 2.183556628955082e-01	-2.122346874289270e+01
 1.175618717439522e+00	 2.406670547850658e-01	-2.448941132407450e+01
 1.170820660177278e+00	 2.630189760517072e-01	-2.739442361506852e+01
 1.165567474607031e+00	 2.853987775120529e-01	-2.992736560696761e+01
 1.159854803669377e+00	 3.077934932317711e-01	-3.207798205973673e+01
 1.153678749850381e+00	 3.301898578324914e-01	-3.383697196425459e+01
 1.147035895353290e+00	 3.525743252723154e-01	-3.519605602556805e+01
 1.139923321448485e+00	 3.749330890753527e-01	-3.614804165477996e+01
 1.132338626888928e+00	 3.972521039764076e-01	-3.668688495170114e+01
 1.124279945279097e+00	 4.195171089374333e-01	-3.680774915988296e+01
 1.115745961286976e+00	 4.417136514827613e-01	-3.650705908018671e+01
 1.192257759222705e+00	 2.206302010510924e-01	-1.374183666836299e+01
 1.187864745745548e+00	 2.431740032717905e-01	-1.696574615262043e+01
 1.183016708720077e+00	 2.657587570507109e-01	-1.987600607481026e+01
 1.177708802466750e+00	 2.883716814421504e-01	-2.244967894648471e+01
 1.171936624540126e+00	 3.109996754499633e-01	-2.466427209028464e+01
 1.165696236827171e+00	 3.336293355147576e-01	-2.649784169894382e+01
 1.158984185929078e+00	 3.562469744900338e-01	-2.792909834496944e+01
 1.151797522712798e+00	 3.788386420824467e-01	-2.893751333596335e+01
 1.144133820918304e+00	 4.013901467219569e-01	-2.950342527392926e+01
 1.135991194708451e+00	 4.238870788180404e-01	-2.960814614462012e+01
 1.127368315049849e+00	 4.463148353484084e-01	-2.923406623564797e+01
 1.204549076327078e+00	 2.229047392067060e-01	-7.419265929152131e+00
 1.200110774051002e+00	 2.456809517583584e-01	-1.048570422286336e+01
 1.195212757262247e+00	 2.684985380493998e-01	-1.328494976570583e+01
 1.189850130325810e+00	 2.913445853718033e-01	-1.578245056346901e+01
 1.184018445410218e+00	 3.142058576676106e-01	-1.794366576183986e+01
 1.177713723803332e+00	 3.370688131964078e-01	-1.973420387319040e+01
 1.170932476504299e+00	 3.599196237070955e-01	-2.111996584073639e+01
 1.163671723976633e+00	 3.827441950888736e-01	-2.206729224356382e+01
 1.155929014947322e+00	 4.055281894668601e-01	-2.254311387843967e+01
 1.147702444137599e+00	 4.282570486980532e-01	-2.251510489062709e+01
 1.138990668812702e+00	 4.509160192135453e-01	-2.195183756709226e+01
 1.216840393430966e+00	 2.251792773623488e-01	-2.220645490666687e+00
 1.212356802355885e+00	 2.481879002447696e-01	-5.017671052685408e+00
 1.207408805803788e+00	 2.712383190477738e-01	-7.593161760765565e+00
 1.201991458184212e+00	 2.943174893010117e-01	-9.901128546382498e+00
 1.196100266279652e+00	 3.174120398847128e-01	-1.189516590566298e+01
 1.189731210778864e+00	 3.405082908774421e-01	-1.352862387777289e+01
 1.182880767078950e+00	 3.635922729235002e-01	-1.475478820589813e+01
 1.175545925239990e+00	 3.866497480946335e-01	-1.552706789380718e+01
 1.167724208975982e+00	 4.096662322111168e-01	-1.579918927279922e+01
 1.159413693566543e+00	 4.326270185774718e-01	-1.552539559909757e+01
 1.150613022575534e+00	 4.555172030781720e-01	-1.466065111177928e+01
 1.229131710534368e+00	 2.274538155180211e-01	 1.887731487956671e+00
 1.224602830660197e+00	 2.506948487310240e-01	-5.312964927837101e-01
 1.219604854344699e+00	 2.739781000458331e-01	-2.773672605443238e+00
 1.214132786041956e+00	 2.972903932297759e-01	-4.782142817984308e+00
 1.208182087148427e+00	 3.206182221012702e-01	-6.498615000696923e+00
 1.201748697753769e+00	 3.439477685578606e-01	-7.864364252479380e+00
 1.194829057653032e+00	 3.672649221392482e-01	-8.820249714705096e+00
 1.187420126502869e+00	 3.905553010997262e-01	-9.306941996090160e+00
 1.179519403004286e+00	 4.138042749547273e-01	-9.265160203525461e+00
 1.171124942995283e+00	 4.369969884562962e-01	-8.635917448398619e+00
 1.162235376338345e+00	 4.601183869422883e-01	-7.360773577178421e+00
 1.046011838709305e+00	 4.141065482781622e-01	-7.993390707600464e+01
 1.037564930248593e+00	 4.348379187240830e-01	-8.411295494120914e+01
 1.028671564192235e+00	 4.554775659241303e-01	-8.800632064275531e+01
 1.019332136131226e+00	 4.760115505788748e-01	-9.158223295018252e+01
 1.009547606256940e+00	 4.964258562287497e-01	-9.480921828172970e+01
 9.993195076959104e-01	 5.167064171925492e-01	-9.765623330385174e+01
 9.886499532180107e-01	 5.368391472596017e-01	-1.000927989556018e+02
 9.775416402487633e-01	 5.568099690270316e-01	-1.020891350655083e+02
 9.659978541247000e-01	 5.766048437667730e-01	-1.036162946970513e+02
 9.540224695395332e-01	 5.962098017009265e-01	-1.046462973349633e+02
 9.416199501384250e-01	 6.156109725587411e-01	-1.051522600089009e+02
 1.057634192472302e+00	 4.187077321468711e-01	-7.272288286417140e+01
 1.049093429472079e+00	 4.396694511529656e-01	-7.660792362839062e+01
 1.040101248236386e+00	 4.605384277660148e-01	-8.023700828502099e+01
 1.030658048751678e+00	 4.813005678054846e-01	-8.358179128755678e+01
 1.020764801878120e+00	 5.019416990733694e-01	-8.661418798104344e+01
 1.010423057776990e+00	 5.224475996031163e-01	-8.930649252583947e+01
 9.996349526933814e-01	 5.428040266706026e-01	-9.163149711578291e+01
 9.884032140242147e-01	 5.629967464573652e-01	-9.356261175185809e+01
 9.767311636097610e-01	 5.830115642494709e-01	-9.507398380421523e+01
 9.646227191958864e-01	 6.028343550492662e-01	-9.614061657391611e+01
 9.520823940238123e-01	 6.224510944718811e-01	-9.673848605158069e+01
 1.069256546235278e+00	 4.233089160150696e-01	-6.550068033759391e+01
 1.060621928695730e+00	 4.445009835814379e-01	-6.912096112037912e+01
 1.051530932280860e+00	 4.655992896075891e-01	-7.251451142106254e+01
 1.041983961372580e+00	 4.865895850318852e-01	-7.565635301056071e+01
 1.031981997499850e+00	 5.074575419178803e-01	-7.852173216170783e+01
 1.021526607858687e+00	 5.281887820136757e-01	-8.108622310750114e+01
 1.010619952169409e+00	 5.487689060816964e-01	-8.332583266575176e+01
 9.992647878003310e-01	 5.691835238878922e-01	-8.521710538345587e+01
 9.874644730954648e-01	 5.894182847324629e-01	-8.673722852918399e+01
 9.752229688528294e-01	 6.094589083980005e-01	-8.786413624267885e+01
 9.625448379097046e-01	 6.292912163855157e-01	-8.857661213810474e+01
 1.080878899998233e+00	 4.279100998827580e-01	-5.826765951748175e+01
 1.072150427919546e+00	 4.493325160095001e-01	-6.165148273447274e+01
 1.062960616325657e+00	 4.706601514488539e-01	-6.483731685859902e+01
 1.053309873993932e+00	 4.918786022580766e-01	-6.780349449520007e+01
 1.043199193122128e+00	 5.129733847622828e-01	-7.052853671734850e+01
 1.032630157941003e+00	 5.339299644242272e-01	-7.299124226203438e+01
 1.021604951646094e+00	 5.547337854928831e-01	-7.517077776713859e+01
 1.010126361577113e+00	 5.753703013186130e-01	-7.704676849352317e+01
 9.981977825818115e-01	 5.958250052157493e-01	-7.859938895472274e+01
 9.858232185103620e-01	 6.160834617471294e-01	-7.980945285995340e+01
 9.730072817961023e-01	 6.361313382996451e-01	-8.065850176483487e+01
 1.092501253761168e+00	 4.325112837499361e-01	-5.102416487172807e+01
 1.083678927143527e+00	 4.541640484371521e-01	-5.419892844205919e+01
 1.074390300370775e+00	 4.757210132898089e-01	-5.720397557826432e+01
 1.064635786615735e+00	 4.971676194840585e-01	-6.002089504046226e+01
 1.054416388744956e+00	 5.184892276065766e-01	-6.263142836621566e+01
 1.043733708023937e+00	 5.396711468347709e-01	-6.501754500161375e+01
 1.032589951123436e+00	 5.606986649041628e-01	-6.716151834984024e+01
 1.020987935354560e+00	 5.815570787495272e-01	-6.904600227138975e+01
 1.008931092068801e+00	 6.022317256993295e-01	-7.065410755139300e+01
 9.964234681684848e-01	 6.227080150966529e-01	-7.196947783503853e+01
 9.834697256830054e-01	 6.429714602142690e-01	-7.297636452216813e+01
 1.104123607524082e+00	 4.371124676166038e-01	-4.377052613544085e+01
 1.095207426367674e+00	 4.589955808643940e-01	-4.676276157299599e+01
 1.085819984416216e+00	 4.807818751304540e-01	-4.961309935807061e+01
 1.075961699237989e+00	 5.024566367098313e-01	-5.230633145331563e+01
 1.065633584368334e+00	 5.240050704507618e-01	-5.482736724136341e+01
 1.054837258107488e+00	 5.454123292453066e-01	-5.716129478154804e+01
 1.043574950601434e+00	 5.666635443155353e-01	-5.929344286304521e+01
 1.031849509132672e+00	 5.877438561806352e-01	-6.120944347729688e+01
 1.019664401556434e+00	 6.086384461832040e-01	-6.289529431697639e+01
 1.007023717827197e+00	 6.293325684465709e-01	-6.433742089654477e+01
 9.939321695704136e-01	 6.498115821293877e-01	-6.552273788092369e+01
 1.115745961286976e+00	 4.417136514827613e-01	-3.650705908018671e+01
 1.106735925591986e+00	 4.638271132912256e-01	-3.934246760096354e+01
 1.097249668461980e+00	 4.858427369707892e-01	-4.206335760883783e+01
 1.087287611860693e+00	 5.077456539353947e-01	-4.465767297214026e+01
 1.076850779992260e+00	 5.295209132948384e-01	-4.711343994393818e+01
 1.065940808191658e+00	 5.511535116558346e-01	-4.941881472917194e+01
 1.054559950080090e+00	 5.726284237270007e-01	-5.156213172931390e+01
 1.042711082911450e+00	 5.939306336119368e-01	-5.353195217501926e+01
 1.030397711044709e+00	 6.150451666673727e-01	-5.531711284467806e+01
 1.017623967486499e+00	 6.359571217968834e-01	-5.690677455680906e+01
 1.004394613458327e+00	 6.566517040450012e-01	-5.829047011707451e+01
 1.127368315049849e+00	 4.463148353484084e-01	-2.923406623564797e+01
 1.118264424816463e+00	 4.686586457176470e-01	-3.193755300394536e+01
 1.108679352508066e+00	 4.909035988108147e-01	-3.455347440536511e+01
 1.098613524483847e+00	 5.130346711607490e-01	-3.707287650416863e+01
 1.088067975616736e+00	 5.350367561388065e-01	-3.948685302615506e+01
 1.077044358276446e+00	 5.568946940663547e-01	-4.178657941527553e+01
 1.065544949559402e+00	 5.785933031385589e-01	-4.396334745097803e+01
 1.053572656690893e+00	 6.001174110434317e-01	-4.600860022328820e+01
 1.041131020533627e+00	 6.214518871518355e-01	-4.791396725308542e+01
 1.028224217146390e+00	 6.425816751475903e-01	-4.967129953726705e+01
 1.014857057346746e+00	 6.634918259611092e-01	-5.127270429267540e+01
 1.138990668812702e+00	 4.509160192135453e-01	-2.195183756709226e+01
 1.129792924041105e+00	 4.734901781436583e-01	-2.454754419447091e+01
 1.120109036554474e+00	 4.959644606505302e-01	-2.708222569936215e+01
 1.109939437107452e+00	 5.183236883858939e-01	-2.954998215450648e+01
 1.099285171241760e+00	 5.405525989826659e-01	-3.194492687327011e+01
 1.088147908361853e+00	 5.626358764768669e-01	-3.426120712931802e+01
 1.076529949039371e+00	 5.845581825502102e-01	-3.649302532226510e+01
 1.064434230471001e+00	 6.063041884751205e-01	-3.863466047181565e+01
 1.051864330023189e+00	 6.278586076365928e-01	-4.068048991632757e+01
 1.038824466806871e+00	 6.492062284986921e-01	-4.262501108614440e+01
 1.025319501235670e+00	 6.703319478777121e-01	-4.446286321754442e+01
 1.150613022575534e+00	 4.555172030781720e-01	-1.466065111177928e+01
 1.141321423265912e+00	 4.783217105692595e-01	-1.717198651468681e+01
 1.131538720601204e+00	 5.010253224899361e-01	-1.964843670128901e+01
 1.121265349731507e+00	 5.236127056108295e-01	-2.208710902611688e+01
 1.110502366867334e+00	 5.460684418264167e-01	-2.448508995633737e+01
 1.099251458447877e+00	 5.683770588873712e-01	-2.683945262280509e+01
 1.087514948519997e+00	 5.905230619619543e-01	-2.914726470431929e+01
 1.075295804251774e+00	 6.124909659070027e-01	-3.140559661209959e+01
 1.062597639513394e+00	 6.342653281216439e-01	-3.361152993785535e+01
 1.049424716467942e+00	 6.558307818501883e-01	-3.576216612537242e+01
 1.035781945125100e+00	 6.771720697948095e-01	-3.785463532235242e+01
 1.162235376338345e+00	 4.601183869422883e-01	-7.360773577178421e+00
 1.152849922490885e+00	 4.831532429944503e-01	-9.810443291720112e+00
 1.142968404648257e+00	 5.060861843290319e-01	-1.225097941928092e+01
 1.132591262356013e+00	 5.289017228355558e-01	-1.468245127180030e+01
 1.121719562493458e+00	 5.515842846700590e-01	-1.710487342979485e+01
 1.110355008534519e+00	 5.741182412978676e-01	-1.951820028805824e+01
 1.098499948001281e+00	 5.964879413737912e-01	-2.192232082371474e+01
 1.086157378033213e+00	 6.186777433390787e-01	-2.431705363717470e+01
 1.073330949004241e+00	 6.406720486069893e-01	-2.670214231578962e+01
 1.060024966129602e+00	 6.624553352020790e-01	-2.907725116868372e+01
 1.046244389015035e+00	 6.840121917124017e-01	-3.144196137932078e+01
 9.416199501384250e-01	 6.156109725587411e-01	-1.051522600089009e+02
 9.287953462274744e-01	 6.347946162837050e-01	-1.003257683363437e+02
 9.155542905770797e-01	 6.537471537568762e-01	-9.578129805386354e+01
 9.019029923075504e-01	 6.724551973985354e-01	-9.156420279400163e+01
 8.878482288567273e-01	 6.909055815084219e-01	-8.771884763908443e+01
 8.733973360420002e-01	 7.090853922058951e-01	-8.428841370180211e+01
 8.585581962397351e-01	 7.269819968306050e-01	-8.131470705095192e+01
 8.433392247169470e-01	 7.445830726661317e-01	-7.883797331285227e+01
 8.277493541614975e-01	 7.618766348516912e-01	-7.689671924654007e+01
 8.117980174683143e-01	 7.788510633507310e-01	-7.552754254477077e+01
 7.954951288500001e-01	 7.954951288500001e-01	-7.476497105345302e+01
 9.520823940238123e-01	 6.224510944718811e-01	-9.673848605158069e+01
 9.391152945140595e-01	 6.418478897935279e-01	-9.253879902378642e+01
 9.257271160232740e-01	 6.610110110161846e-01	-8.857634122224465e+01
 9.119241366619902e-01	 6.799269218092460e-01	-8.489217193382751e+01
 8.977132091729143e-01	 6.985823101868938e-01	-8.152651877160821e+01
 8.831017508825175e-01	 7.169641187809249e-01	-7.851860098628661e+01
 8.680977317491259e-01	 7.350595745680968e-01	-7.590645638042537e+01
 8.527096605427205e-01	 7.528562179129182e-01	-7.372677302711260e+01
 8.369465692032501e-01	 7.703419307894854e-01	-7.201472696809029e+01
 8.208179954355866e-01	 7.875049640497287e-01	-7.080382702743793e+01
 8.043339636102501e-01	 8.043339636102501e-01	-7.012576782591709e+01
 9.625448379097046e-01	 6.292912163855157e-01	-8.857661213810474e+01
 9.494352428010591e-01	 6.489011633039358e-01	-8.496740577890691e+01
 9.358999414698121e-01	 6.682748682761483e-01	-8.155175457336392e+01
 9.219452810167237e-01	 6.873986462206629e-01	-7.836649671596054e+01
 9.075781894893646e-01	 7.062590388661032e-01	-7.544779313478651e+01
 8.928061657232872e-01	 7.248428453567026e-01	-7.283096925853297e+01
 8.776372672587778e-01	 7.431371523063274e-01	-7.055035965432384e+01
 8.620800963687846e-01	 7.611293631604144e-01	-6.863915661089159e+01
 8.461437842453429e-01	 7.788072267279392e-01	-6.712926372076838e+01
 8.298379734032688e-01	 7.961588647493163e-01	-6.605115548326586e+01
 8.131727983709998e-01	 8.131727983709998e-01	-6.543374390732028e+01
 9.730072817961023e-01	 6.361313382996451e-01	-8.065850176483487e+01
 9.597551910884740e-01	 6.559544368149283e-01	-7.760462311301737e+01
 9.460727669166951e-01	 6.755387255367674e-01	-7.470170761548765e+01
 9.319664253717509e-01	 6.948703706327861e-01	-7.198244326334083e+01
 9.174431698060769e-01	 7.139357675460493e-01	-6.947899279914435e+01
 9.025105805643084e-01	 7.327215719332285e-01	-6.722285367312044e+01
 8.871768027686909e-01	 7.512147300452967e-01	-6.524472014822993e+01
 8.714505321951391e-01	 7.694025084086192e-01	-6.357434850329058e+01
 8.553409992877762e-01	 7.872725226670531e-01	-6.224042626808178e+01
 8.388579513713611e-01	 8.048127654494942e-01	-6.127044639944963e+01
 8.220116331322499e-01	 8.220116331322499e-01	-6.069058727291812e+01
 9.834697256830054e-01	 6.429714602142690e-01	-7.297636452216813e+01
 9.700751393763041e-01	 6.630077103265059e-01	-7.044378181229513e+01
 9.562455923639225e-01	 6.828025827980423e-01	-6.802061784547303e+01
 9.419875697270718e-01	 7.023420950456155e-01	-6.573547903469233e+01
 9.273081501230523e-01	 7.216124962267327e-01	-6.361659624884143e+01
 9.122149954055820e-01	 7.406002985105027e-01	-6.169170270019995e+01
 8.967163382788652e-01	 7.592923077850046e-01	-5.998791326862698e+01
 8.808209680217846e-01	 7.776756536575339e-01	-5.853160608786690e+01
 8.645382143305497e-01	 7.957378186068262e-01	-5.734830720980789e+01
 8.478779293398637e-01	 8.134666661502616e-01	-5.646257914445596e+01
 8.308504678940001e-01	 8.308504678940001e-01	-5.589791404696298e+01
 9.939321695704136e-01	 6.498115821293877e-01	-6.552273788092369e+01
 9.803950876645493e-01	 6.700609838386684e-01	-6.347849334618279e+01
 9.664184178114943e-01	 6.900664400599723e-01	-6.150313769849529e+01
 9.520087140826864e-01	 7.098138194591513e-01	-5.962126222959932e+01
 9.371731304402908e-01	 7.292892249081534e-01	-5.785723015100372e+01
 9.219194102471076e-01	 7.484790250885244e-01	-5.623507216307237e+01
 9.062558737893012e-01	 7.673698855254514e-01	-5.477838275801418e+01
 8.901914038487204e-01	 7.859487989071573e-01	-5.351021796011160e+01
 8.737354293736630e-01	 8.042031145472591e-01	-5.245299520245047e+01
 8.568979073087760e-01	 8.221205668516193e-01	-5.162839602812765e+01
 8.396893026562502e-01	 8.396893026562502e-01	-5.105727228546668e+01
 1.004394613458327e+00	 6.566517040450012e-01	-5.829047011707451e+01
 9.907150359532092e-01	 6.771142573514157e-01	-5.670263525025594e+01
 9.765912432594107e-01	 6.973302973225582e-01	-5.514414231341036e+01
 9.620298584385946e-01	 7.172855438733935e-01	-5.363563185575879e+01
 9.470381107577920e-01	 7.369659535903109e-01	-5.219766163946714e+01
 9.316238250888850e-01	 7.563577516672941e-01	-5.085061964841307e+01
 9.157954092999983e-01	 7.754474632666368e-01	-4.961463713719749e+01
 8.995618396759473e-01	 7.942219441574904e-01	-4.850950230320565e+01
 8.829326444171172e-01	 8.126684104883521e-01	-4.755457516591049e+01
 8.659178852780987e-01	 8.307744675535668e-01	-4.676870423302421e+01
 8.485281374190000e-01	 8.485281374190000e-01	-4.617014552253676e+01
 1.014857057346746e+00	 6.634918259611092e-01	-5.127270429267540e+01
 1.001034984242285e+00	 6.841675308647481e-01	-5.011033741323887e+01
 9.867640687076716e-01	 7.045941545857993e-01	-4.893871805489347e+01
 9.720510027947967e-01	 7.247572682883416e-01	-4.777459841062486e+01
 9.569030910755562e-01	 7.446426822732061e-01	-4.663479107580937e+01
 9.413282399309146e-01	 7.642364782468121e-01	-4.553609926225059e+01
 9.253349448109566e-01	 7.835250410085610e-01	-4.449524636763915e+01
 9.089322755034644e-01	 8.024950894085326e-01	-4.352880536423903e+01
 8.921298594609115e-01	 8.211337064301045e-01	-4.265312847736992e+01
 8.749378632478313e-01	 8.394283682561041e-01	-4.188427762629637e+01
 8.573669721822499e-01	 8.573669721822500e-01	-4.123795609734702e+01
 1.025319501235670e+00	 6.703319478777121e-01	-4.446286321754442e+01
 1.011354932531775e+00	 6.912208043786654e-01	-4.369596920358368e+01
 9.969368941562768e-01	 7.118580118496960e-01	-4.288215173829842e+01
 9.820721471512923e-01	 7.322289927039963e-01	-4.203433513355782e+01
 9.667680713935828e-01	 7.523194109568380e-01	-4.116564525357861e+01
 9.510326547731961e-01	 7.721152048270781e-01	-4.028935670700196e+01
 9.348744803221760e-01	 7.916026187512237e-01	-3.941883871814864e+01
 9.183027113312726e-01	 8.107682346602844e-01	-3.856750002371867e+01
 9.013270745050462e-01	 8.295990023725169e-01	-3.774873315330000e+01
 8.839578412179739e-01	 8.480822689592314e-01	-3.697585846062290e+01
 8.662058069460000e-01	 8.662058069460000e-01	-3.626206827741206e+01
 1.035781945125100e+00	 6.771720697948095e-01	-3.785463532235242e+01
 1.021674880821681e+00	 6.982740778931678e-01	-3.745412737625216e+01
 1.007109719605227e+00	 7.191218691142480e-01	-3.696992050755054e+01
 9.920932915080820e-01	 7.397007171203575e-01	-3.641116978814215e+01
 9.766330517118729e-01	 7.599961396412075e-01	-3.578737101438123e+01
 9.607370696157297e-01	 7.799939314080919e-01	-3.510832465686511e+01
 9.444140158336568e-01	 7.996801964946254e-01	-3.438409782146511e+01
 9.276731471593713e-01	 8.190413799127453e-01	-3.362498445176677e+01
 9.105242895495208e-01	 8.380642983155886e-01	-3.284146402043363e+01
 8.929778191885266e-01	 8.567361696629487e-01	-3.204415897205707e+01
 8.750446417102501e-01	 8.750446417102501e-01	-3.124379119256844e+01
 1.046244389015035e+00	 6.840121917124017e-01	-3.144196137932078e+01
 1.031994829112001e+00	 7.053273514082546e-01	-3.137962470508419e+01
 1.017282545054521e+00	 7.263857263794559e-01	-3.119768232035877e+01
 1.002114435865165e+00	 7.471724415374245e-01	-3.090157693755818e+01
 9.864980320304253e-01	 7.676728683263137e-01	-3.049722924699980e+01
 9.704414844585151e-01	 7.878726579898537e-01	-2.999101841068104e+01
 9.539535513453987e-01	 8.077577742387658e-01	-2.938975990744130e+01
 9.370435829877606e-01	 8.273145251659155e-01	-2.870068084494353e+01
 9.197215045943361e-01	 8.465295942593203e-01	-2.793139287647535e+01
 9.019977971594894e-01	 8.653900703672559e-01	-2.708986288199801e+01
 8.838834764750000e-01	 8.838834764750000e-01	-2.618438159291287e+01
 7.954951288500001e-01	 7.954951288500001e-01	-7.476497105345302e+01
 7.788510633507308e-01	 8.117980174683144e-01	-7.273706003865395e+01
 7.618766348516911e-01	 8.277493541614976e-01	-7.021522901678966e+01
 7.445830726661320e-01	 8.433392247169471e-01	-6.719854591437569e+01
 7.269819968306053e-01	 8.585581962397351e-01	-6.368813130163114e+01
 7.090853922058953e-01	 8.733973360420000e-01	-5.968715050319185e+01
 6.909055815084221e-01	 8.878482288567272e-01	-5.520079465696245e+01
 6.724551973985359e-01	 9.019029923075501e-01	-5.023625090665239e+01
 6.537471537568769e-01	 9.155542905770793e-01	-4.480266200349656e+01
 6.347946162837055e-01	 9.287953462274742e-01	-3.891107567898828e+01
 6.156109725587411e-01	 9.416199501384250e-01	-3.257438423211795e+01
 8.043339636102501e-01	 8.043339636102501e-01	-7.012576782591709e+01
 7.875049640497286e-01	 8.208179954355866e-01	-6.789609966694643e+01
 7.703419307894857e-01	 8.369465692032504e-01	-6.526362534241218e+01
 7.528562179129183e-01	 8.527096605427203e-01	-6.222831539332643e+01
 7.350595745680969e-01	 8.680977317491256e-01	-5.879185347174872e+01
 7.169641187809250e-01	 8.831017508825173e-01	-5.495762725796202e+01
 6.985823101868941e-01	 8.977132091729141e-01	-5.073071013129952e+01
 6.799269218092464e-01	 9.119241366619899e-01	-4.611783376509412e+01
 6.610110110161852e-01	 9.257271160232733e-01	-4.112735189143315e+01
 6.418478897935284e-01	 9.391152945140590e-01	-3.576919555341591e+01
 6.224510944718810e-01	 9.520823940238121e-01	-3.005482023058107e+01
 8.131727983709998e-01	 8.131727983709998e-01	-6.543374390732028e+01
 7.961588647493163e-01	 8.298379734032689e-01	-6.301228952138632e+01
 7.788072267279395e-01	 8.461437842453429e-01	-6.027717754389457e+01
 7.611293631604142e-01	 8.620800963687844e-01	-5.722926751405255e+01
 7.431371523063276e-01	 8.776372672587778e-01	-5.387079765950995e+01
 7.248428453567030e-01	 8.928061657232867e-01	-5.020537463456497e+01
 7.062590388661033e-01	 9.075781894893641e-01	-4.623795579284025e+01
 6.873986462206633e-01	 9.219452810167234e-01	-4.197482415004421e+01
 6.682748682761487e-01	 9.358999414698115e-01	-3.742355625307999e+01
 6.489011633039364e-01	 9.494352428010588e-01	-3.259298322965774e+01
 6.292912163855158e-01	 9.625448379097047e-01	-2.749314534702319e+01
 8.220116331322499e-01	 8.220116331322499e-01	-6.069058727291812e+01
 8.048127654494940e-01	 8.388579513713611e-01	-5.808699562775192e+01
 7.872725226670528e-01	 8.553409992877761e-01	-5.525699312373058e+01
 7.694025084086196e-01	 8.714505321951391e-01	-5.220231511876453e+01
 7.512147300452968e-01	 8.871768027686908e-01	-4.892574618177373e+01
 7.327215719332288e-01	 9.025105805643083e-01	-4.543110866603424e+01
 7.139357675460497e-01	 9.174431698060764e-01	-4.172324557392133e+01
 6.948703706327866e-01	 9.319664253717506e-01	-3.780799785401015e+01
 6.755387255367677e-01	 9.460727669166946e-01	-3.369217631776634e+01
 6.559544368149288e-01	 9.597551910884736e-01	-2.938352840700803e+01
 6.361313382996451e-01	 9.730072817961023e-01	-2.489070008444442e+01
 8.308504678940001e-01	 8.308504678940001e-01	-5.589791404696298e+01
 8.134666661502615e-01	 8.478779293398638e-01	-5.312152587259131e+01
 7.957378186068262e-01	 8.645382143305497e-01	-5.020413245783249e+01
 7.776756536575337e-01	 8.808209680217844e-01	-4.714833221799650e+01
 7.592923077850048e-01	 8.967163382788653e-01	-4.395744808928040e+01
 7.406002985105028e-01	 9.122149954055819e-01	-4.063551495092882e+01
 7.216124962267330e-01	 9.273081501230521e-01	-3.718726307258942e+01
 7.023420950456158e-01	 9.419875697270713e-01	-3.361809771336394e+01
 6.828025827980426e-01	 9.562455923639220e-01	-2.993407503113189e+01
 6.630077103265065e-01	 9.700751393763041e-01	-2.614187449091090e+01
 6.429714602142689e-01	 9.834697256830051e-01	-2.224876798896324e+01
 8.396893026562502e-01	 8.396893026562502e-01	-5.105727228546668e+01
 8.221205668516191e-01	 8.568979073087760e-01	-4.811713306421910e+01
 8.042031145472591e-01	 8.737354293736630e-01	-4.511961127681985e+01
 7.859487989071573e-01	 8.901914038487202e-01	-4.206815603522475e+01
 7.673698855254515e-01	 9.062558737893011e-01	-3.896662091824874e+01
 7.484790250885247e-01	 9.219194102471072e-01	-3.581925025579844e+01
 7.292892249081535e-01	 9.371731304402904e-01	-3.263066314969723e+01
 7.098138194591518e-01	 9.520087140826861e-01	-2.940583534333448e+01
 6.900664400599729e-01	 9.664184178114940e-01	-2.615007907042386e+01
 6.700609838386691e-01	 9.803950876645489e-01	-2.286902102975241e+01
 6.498115821293877e-01	 9.939321695704137e-01	-1.956857864773184e+01
 8.485281374190000e-01	 8.485281374190000e-01	-4.617014552253676e+01
 8.307744675535665e-01	 8.659178852780989e-01	-4.307501780239723e+01
 8.126684104883521e-01	 8.829326444171173e-01	-4.000440299222358e+01
 7.942219441574904e-01	 8.995618396759469e-01	-3.696258892369264e+01
 7.754474632666368e-01	 9.157954092999980e-01	-3.395395233249414e+01
 7.563577516672944e-01	 9.316238250888849e-01	-3.098294401749201e+01
 7.369659535903115e-01	 9.470381107577917e-01	-2.805407342617844e+01
 7.172855438733938e-01	 9.620298584385945e-01	-2.517189276456054e+01
 6.973302973225586e-01	 9.765912432594104e-01	-2.234098073383403e+01
 6.771142573514164e-01	 9.907150359532090e-01	-1.956592599935121e+01
 6.566517040450012e-01	 1.004394613458327e+00	-1.685131049947956e+01
 8.573669721822499e-01	 8.573669721822500e-01	-4.123795609734702e+01
 8.394283682561042e-01	 8.749378632478314e-01	-3.799633117050531e+01
 8.211337064301045e-01	 8.921298594609115e-01	-3.485944087879718e+01
 8.024950894085328e-01	 9.089322755034644e-01	-3.183240016466689e+01
 7.835250410085610e-01	 9.253349448109562e-01	-2.892010166397003e+01
 7.642364782468123e-01	 9.413282399309145e-01	-2.612719975253801e+01
 7.446426822732063e-01	 9.569030910755558e-01	-2.345809568770545e+01
 7.247572682883421e-01	 9.720510027947962e-01	-2.091692392903106e+01
 7.045941545857998e-01	 9.867640687076713e-01	-1.850753971297018e+01
 6.841675308647487e-01	 1.001034984242284e+00	-1.623350794613981e+01
 6.634918259611091e-01	 1.014857057346746e+00	-1.409809347120834e+01
 8.662058069460000e-01	 8.662058069460000e-01	-3.626206827741206e+01
 8.480822689592312e-01	 8.839578412179739e-01	-3.288217726288061e+01
 8.295990023725168e-01	 9.013270745050461e-01	-2.968562012321387e+01
 8.107682346602842e-01	 9.183027113312724e-01	-2.667832765559309e+01
 7.916026187512240e-01	 9.348744803221758e-01	-2.386570135898774e+01
 7.721152048270784e-01	 9.510326547731961e-01	-2.125259638023228e+01
 7.523194109568384e-01	 9.667680713935827e-01	-1.884330720334593e+01
 7.322289927039969e-01	 9.820721471512921e-01	-1.664155615259829e+01
 7.118580118496967e-01	 9.969368941562767e-01	-1.465048475680613e+01
 6.912208043786661e-01	 1.011354932531775e+00	-1.287264799912870e+01
 6.703319478777120e-01	 1.025319501235670e+00	-1.131001145345665e+01
 8.750446417102501e-01	 8.750446417102501e-01	-3.124379119256844e+01
 8.567361696629487e-01	 8.929778191885266e-01	-2.773361555898220e+01
 8.380642983155886e-01	 9.105242895495208e-01	-2.448379974859697e+01
 8.190413799127454e-01	 9.276731471593713e-01	-2.150107949593468e+01
 7.996801964946257e-01	 9.444140158336568e-01	-1.879135833678388e+01
 7.799939314080920e-01	 9.607370696157294e-01	-1.635968946553772e+01
 7.599961396412075e-01	 9.766330517118722e-01	-1.421026196429845e+01
 7.397007171203579e-01	 9.920932915080817e-01	-1.234639146066945e+01
 7.191218691142488e-01	 1.007109719605227e+00	-1.077051523478471e+01
 6.982740778931683e-01	 1.021674880821680e+00	-9.484191759932024e+00
 6.771720697948095e-01	 1.035781945125100e+00	-8.488104625545509e+00
 8.838834764750000e-01	 8.838834764750000e-01	-2.618438159291287e+01
 8.653900703672558e-01	 9.019977971594894e-01	-2.255166315510160e+01
 8.465295942593203e-01	 9.197215045943362e-01	-1.925480442357426e+01
 8.273145251659157e-01	 9.370435829877607e-01	-1.630133547786064e+01
 8.077577742387659e-01	 9.539535513453987e-01	-1.369765526656939e+01
 7.878726579898540e-01	 9.704414844585149e-01	-1.144901238740615e+01
 7.676728683263140e-01	 9.864980320304252e-01	-9.559491848300951e+00
 7.471724415374250e-01	 1.002114435865165e+00	-8.032007853155598e+00
 7.263857263794565e-01	 1.017282545054521e+00	-6.868302606133717e+00
 7.053273514082554e-01	 1.031994829112000e+00	-6.068951079391753e+00
 6.840121917124017e-01	 1.046244389015035e+00	-5.633371641310114e+00
 6.156109725587411e-01	 9.416199501384250e-01	-3.257438423211795e+01
 5.962098017009264e-01	 9.540224695395332e-01	-2.383054104736772e+01
 5.766048437667730e-01	 9.659978541247000e-01	-1.722836330635818e+01
 5.568099690270316e-01	 9.775416402487633e-01	-1.277177496733331e+01
 5.368391472596018e-01	 9.886499532180105e-01	-1.045737935702962e+01
 5.167064171925495e-01	 9.993195076959103e-01	-1.027459973632817e+01
 4.964258562287501e-01	 1.009547606256940e+00	-1.220585355966824e+01
 4.760115505788752e-01	 1.019332136131226e+00	-1.622675851752594e+01
 4.554775659241308e-01	 1.028671564192235e+00	-2.230636824750363e+01
 4.348379187240837e-01	 1.037564930248593e+00	-3.040743542280102e+01
 4.141065482781622e-01	 1.046011838709305e+00	-4.048669977820531e+01
 6.224510944718810e-01	 9.520823940238121e-01	-3.005482023058107e+01
 6.028343550492661e-01	 9.646227191958865e-01	-2.201488661021333e+01
 5.830115642494710e-01	 9.767311636097610e-01	-1.594171254392529e+01
 5.629967464573653e-01	 9.884032140242146e-01	-1.184087678062424e+01
 5.428040266706029e-01	 9.996349526933817e-01	-9.711214277510351e+00
 5.224475996031166e-01	 1.010423057776989e+00	-9.544937376022709e+00
 5.019416990733697e-01	 1.020764801878120e+00	-1.132778821289084e+01
 4.813005678054852e-01	 1.030658048751678e+00	-1.503922065508948e+01
 4.605384277660153e-01	 1.040101248236386e+00	-2.065260985654225e+01
 4.396694511529662e-01	 1.049093429472078e+00	-2.813548736795627e+01
 4.187077321468711e-01	 1.057634192472302e+00	-3.744979959033745e+01
 6.292912163855158e-01	 9.625448379097047e-01	-2.749314534702319e+01
 6.094589083980003e-01	 9.752229688528293e-01	-2.015811116562321e+01
 5.894182847324629e-01	 9.874644730954647e-01	-1.461869554642823e+01
 5.691835238878924e-01	 9.992647878003311e-01	-1.088209568299387e+01
 5.487689060816965e-01	 1.010619952169409e+00	-8.949332881126910e+00
 5.281887820136760e-01	 1.021526607858687e+00	-8.815354639139045e+00
 5.074575419178806e-01	 1.031981997499849e+00	-1.046916553954644e+01
 4.865895850318857e-01	 1.041983961372579e+00	-1.389398543772680e+01
 4.655992896075897e-01	 1.051530932280860e+00	-1.906743325471001e+01
 4.445009835814387e-01	 1.060621928695729e+00	-2.596173452499217e+01
 4.233089160150698e-01	 1.069256546235278e+00	-3.454395071712059e+01
 6.361313382996451e-01	 9.730072817961023e-01	-2.489070008444442e+01
 6.160834617471291e-01	 9.858232185103623e-01	-1.826152317205322e+01
 5.958250052157492e-01	 9.981977825818114e-01	-1.326046728564523e+01
 5.753703013186131e-01	 1.010126361577113e+00	-9.896312887674402e+00
 5.547337854928833e-01	 1.021604951646094e+00	-8.172223809309259e+00
 5.339299644242276e-01	 1.032630157941003e+00	-8.085830519530369e+00
 5.129733847622833e-01	 1.043199193122128e+00	-9.629339815886926e+00
 4.918786022580771e-01	 1.053309873993932e+00	-1.278966961643480e+01
 4.706601514488546e-01	 1.062960616325656e+00	-1.754860736649904e+01
 4.493325160095007e-01	 1.072150427919546e+00	-2.388299042765022e+01
 4.279100998827580e-01	 1.080878899998233e+00	-3.176490669073055e+01
 6.429714602142689e-01	 9.834697256830051e-01	-2.224876798896324e+01
 6.227080150966526e-01	 9.964234681684844e-01	-1.632637550374554e+01
 6.022317256993296e-01	 1.008931092068801e+00	-1.186813368913919e+01
 5.815570787495273e-01	 1.020987935354560e+00	-8.884372221192379e+00
 5.606986649041629e-01	 1.032589951123436e+00	-7.380355029712135e+00
 5.396711468347712e-01	 1.043733708023936e+00	-7.356345031672525e+00
 5.184892276065770e-01	 1.054416388744956e+00	-8.807692929281426e+00
 4.971676194840591e-01	 1.064635786615735e+00	-1.172494894363129e+01
 4.757210132898095e-01	 1.074390300370775e+00	-1.609399620126441e+01
 4.541640484371527e-01	 1.083678927143527e+00	-2.189620435463384e+01
 4.325112837499361e-01	 1.092501253761168e+00	-2.910860189936816e+01
 6.498115821293877e-01	 9.939321695704137e-01	-1.956857864773184e+01
 6.293325684465706e-01	 1.007023717827196e+00	-1.435386837631207e+01
 6.086384461832042e-01	 1.019664401556434e+00	-1.044275422154878e+01
 5.877438561806352e-01	 1.031849509132672e+00	-7.847082091027897e+00
 5.666635443155355e-01	 1.043574950601434e+00	-6.574174924173043e+00
 5.454123292453070e-01	 1.054837258107488e+00	-6.626879156741474e+00
 5.240050704507622e-01	 1.065633584368333e+00	-8.003632924729736e+00
 5.024566367098319e-01	 1.075961699237989e+00	-1.069855506748893e+01
 4.807818751304545e-01	 1.085819984416216e+00	-1.470155384837726e+01
 4.589955808643948e-01	 1.095207426367674e+00	-1.999845418470780e+01
 4.371124676166038e-01	 1.104123607524082e+00	-2.657114206805196e+01
 6.566517040450012e-01	 1.004394613458327e+00	-1.685131049947956e+01
 6.359571217968834e-01	 1.017623967486498e+00	-1.234515208946718e+01
 6.150451666673726e-01	 1.030397711044709e+00	-8.985344304547265e+00
 5.939306336119369e-01	 1.042711082911450e+00	-6.785217330294415e+00
 5.726284237270008e-01	 1.054559950080089e+00	-5.754113308671325e+00
 5.511535116558349e-01	 1.065940808191658e+00	-5.897414792060840e+00
 5.295209132948389e-01	 1.076850779992260e+00	-7.216592642219684e+00
 5.077456539353953e-01	 1.087287611860692e+00	-9.709272620373522e+00
 4.858427369707898e-01	 1.097249668461979e+00	-1.336931978518014e+01
 4.638271132912263e-01	 1.106735925591985e+00	-1.818693969835572e+01
 4.417136514827614e-01	 1.115745961286976e+00	-2.414879533436255e+01
 6.634918259611091e-01	 1.014857057346746e+00	-1.409809347120834e+01
 6.425816751475903e-01	 1.028224217146390e+00	-1.030132960010783e+01
 6.214518871518357e-01	 1.041131020533627e+00	-7.496877587113014e+00
 6.001174110434320e-01	 1.053572656690893e+00	-5.699520928314696e+00
 5.785933031385591e-01	 1.065544949559402e+00	-4.920582390197566e+00
 5.568946940663551e-01	 1.077044358276446e+00	-5.167934703677108e+00
 5.350367561388070e-01	 1.088067975616736e+00	-6.446028438370959e+00
 5.130346711607495e-01	 1.098613524483847e+00	-8.755936487380087e+00
 4.909035988108152e-01	 1.108679352508065e+00	-1.209541447517296e+01
 4.686586457176479e-01	 1.118264424816463e+00	-1.645897629376855e+01
 4.463148353484084e-01	 1.127368315049849e+00	-2.183798387620321e+01
 6.703319478777120e-01	 1.025319501235670e+00	-1.131001145345665e+01
 6.492062284986920e-01	 1.038824466806871e+00	-8.223458937855550e+00
 6.278586076365926e-01	 1.051864330023189e+00	-5.978288076803900e+00
 6.063041884751207e-01	 1.064434230471001e+00	-4.590705655242566e+00
 5.845581825502105e-01	 1.076529949039371e+00	-4.073977665039635e+00
 5.626358764768672e-01	 1.088147908361853e+00	-4.438422481838225e+00
 5.405525989826665e-01	 1.099285171241760e+00	-5.691418986347252e+00
 5.183236883858944e-01	 1.109939437107452e+00	-7.837429242100519e+00
 4.959644606505308e-01	 1.120109036554474e+00	-1.087803523569944e+01
 4.734901781436591e-01	 1.129792924041105e+00	-1.481198908756905e+01
 4.509160192135453e-01	 1.138990668812702e+00	-1.963527605214776e+01
 6.771720697948095e-01	 1.035781945125100e+00	-8.488104625545509e+00
 6.558307818501883e-01	 1.049424716467942e+00	-6.112555474203517e+00
 6.342653281216438e-01	 1.062597639513393e+00	-4.430472141862626e+00
 6.124909659070029e-01	 1.075295804251774e+00	-3.459455588223342e+00
 5.905230619619546e-01	 1.087514948519997e+00	-3.214678762626415e+00
 5.683770588873716e-01	 1.099251458447877e+00	-3.708862499170939e+00
 5.460684418264172e-01	 1.110502366867334e+00	-4.952264148500952e+00
 5.236127056108301e-01	 1.121265349731507e+00	-6.952678737801806e+00
 5.010253224899366e-01	 1.131538720601204e+00	-9.715452356075966e+00
 4.783217105692602e-01	 1.141321423265912e+00	-1.324350737306899e+01
 4.555172030781719e-01	 1.150613022575534e+00	-1.753737901813158e+01
 6.840121917124017e-01	 1.046244389015035e+00	-5.633371641310114e+00
 6.624553352020789e-01	 1.060024966129602e+00	-3.969594055511437e+00
 6.406720486069893e-01	 1.073330949004241e+00	-2.854290393195004e+00
 6.186777433390788e-01	 1.086157378033213e+00	-2.306427545983079e+00
 5.964879413737916e-01	 1.098499948001280e+00	-2.343050238740826e+00
 5.741182412978680e-01	 1.110355008534519e+00	-2.979239871367223e+00
 5.515842846700593e-01	 1.121719562493458e+00	-4.228083916658381e+00
 5.289017228355563e-01	 1.132591262356013e+00	-6.100655843131838e+00
 5.060861843290325e-01	 1.142968404648257e+00	-8.606005448633745e+00
 4.831532429944511e-01	 1.152849922490885e+00	-1.175115941103150e+01
 4.601183869422882e-01	 1.162235376338345e+00	-1.554113178714188e+01
 4.141065482781622e-01	 1.046011838709305e+00	-4.048669977820531e+01
 3.932972896413123e-01	 1.054012448698682e+00	-3.126376260698441e+01
 3.724238474895377e-01	 1.061567462705179e+00	-2.100584677763482e+01
 3.514997710187807e-01	 1.068678113852559e+00	-9.771728753154033e+00
 3.305384299522138e-01	 1.075346151886617e+00	 2.376297547206942e+00
 3.095529917259615e-01	 1.081573827976446e+00	 1.537278577493201e+01
 2.885563999111744e-01	 1.087363878431055e+00	 2.914950673022988e+01
 2.675613539221366e-01	 1.092719507434895e+00	 4.363581994592594e+01
 2.465802900510743e-01	 1.097644368907271e+00	 5.875904482624451e+01
 2.256253638614278e-01	 1.102142547591368e+00	 7.444482900237962e+01
 2.047084339626188e-01	 1.106218539478505e+00	 9.061751169617489e+01
 4.187077321468711e-01	 1.057634192472302e+00	-3.744979959033745e+01
 3.976672595254846e-01	 1.065723698129262e+00	-2.802339351408045e+01
 3.765618902389651e-01	 1.073362656736697e+00	-1.786834731955589e+01
 3.554053240298771e-01	 1.080552315119742e+00	-7.033811198187234e+00
 3.342110791738727e-01	 1.087294442465818e+00	 4.428323743601652e+00
 3.129924694119229e-01	 1.093591314957006e+00	 1.646372657740000e+01
 2.917625821326362e-01	 1.099445699305754e+00	 2.901593085286846e+01
 2.705342578549005e-01	 1.104860835298564e+00	 4.202664001731112e+01
 2.493200710519669e-01	 1.109840417453845e+00	 5.543603194806340e+01
 2.281323123490928e-01	 1.114388575900822e+00	 6.918306068714126e+01
 2.069829721180270e-01	 1.118509856586275e+00	 8.320575357710581e+01
 4.233089160150698e-01	 1.069256546235278e+00	-3.454395071712059e+01
 4.020372294090627e-01	 1.077434947559639e+00	-2.486458887069406e+01
 3.806999329877463e-01	 1.085157850767857e+00	-1.475660909855668e+01
 3.593108770403063e-01	 1.092426516386447e+00	-4.259716665173968e+00
 3.378837283948748e-01	 1.099242733044450e+00	 6.584407813488607e+00
 3.164319470972685e-01	 1.105608801936938e+00	 1.773234645824921e+01
 2.949687643535532e-01	 1.111527520179795e+00	 2.913918409371303e+01
 2.735071617872199e-01	 1.117002163161573e+00	 4.075874845794455e+01
 2.520598520525447e-01	 1.122036465999790e+00	 5.254384908653270e+01
 2.306392608366009e-01	 1.126634604209704e+00	 6.444651338237031e+01
 2.092575102734646e-01	 1.130801173693560e+00	 7.641821847235167e+01
 4.279100998827580e-01	 1.080878899998233e+00	-3.176490669073055e+01
 4.064071992920467e-01	 1.089146196989810e+00	-2.178469842263980e+01
 3.848379757358810e-01	 1.096953044798660e+00	-1.166978181668273e+01
 3.632164300500685e-01	 1.104300717652674e+00	-1.450592704225187e+00
 3.415563776152200e-01	 1.111191023622512e+00	 8.841212671588849e+00
 3.198714247819980e-01	 1.117626288916241e+00	 1.917293363865933e+01
 2.981749465739252e-01	 1.123609341053177e+00	 2.951100164427642e+01
 2.764800657190950e-01	 1.129143491023926e+00	 3.982115617852752e+01
 2.547996330528077e-01	 1.134232514545106e+00	 5.006861893720638e+01
 2.331462093239524e-01	 1.138880632518015e+00	 6.021826515194059e+01
 2.115320484289314e-01	 1.143092490800359e+00	 7.023479108576788e+01
 4.325112837499361e-01	 1.092501253761168e+00	-2.910860189936816e+01
 4.107771691744364e-01	 1.100857446419777e+00	-1.878118485181636e+01
 3.889760184833697e-01	 1.108748238829107e+00	-8.607051521645392e+00
 3.671219830591637e-01	 1.116174918918422e+00	 1.392461800820247e+00
 3.452290268349087e-01	 1.123139314200007e+00	 1.119554306832759e+01
 3.233109024661119e-01	 1.129643775894916e+00	 2.078001922462923e+01
 3.013811287937522e-01	 1.135691161925902e+00	 3.012347021938461e+01
 2.794529696505255e-01	 1.141284818885619e+00	 3.920334153946232e+01
 2.575394140527559e-01	 1.146428563089792e+00	 4.799705454827015e+01
 2.356531578111472e-01	 1.151126660825756e+00	 5.648211397192308e+01
 2.138065865844276e-01	 1.155383807906674e+00	 6.463621192245166e+01
 4.371124676166038e-01	 1.104123607524082e+00	-2.657114206805196e+01
 4.151471390562320e-01	 1.112568695849540e+00	-1.585161783169904e+01
 3.931140612302117e-01	 1.120543432859196e+00	-5.567638693359743e+00
 3.710275360675918e-01	 1.128049120183693e+00	 4.268394071565293e+00
 3.489016760539405e-01	 1.135087604776933e+00	 1.364433812536492e+01
 3.267503801496099e-01	 1.141661262872963e+00	 2.254836442414135e+01
 3.045873110130343e-01	 1.147772982797968e+00	 3.096900955652755e+01
 2.824258735815118e-01	 1.153426146746654e+00	 3.889522574880904e+01
 2.602791950523892e-01	 1.158624611633849e+00	 4.631642824991028e+01
 2.381601062981852e-01	 1.163372689132924e+00	 5.322253984101409e+01
 2.160811247399532e-01	 1.167675125012503e+00	 5.960403224709025e+01
 4.417136514827614e-01	 1.115745961286976e+00	-2.414879533436255e+01
 4.195171089374332e-01	 1.124279945279097e+00	-1.299366845436430e+01
 3.972521039764076e-01	 1.132338626888928e+00	-2.550796450076174e+00
 3.749330890753527e-01	 1.139923321448485e+00	 7.176195034276581e+00
 3.525743252723156e-01	 1.147035895353290e+00	 1.618466433765531e+01
 3.301898578324918e-01	 1.153678749850381e+00	 2.447294856325281e+01
 3.077934932317715e-01	 1.159854803669376e+00	 3.204035507149965e+01
 2.853987775120535e-01	 1.165567474607031e+00	 3.888714979786941e+01
 2.630189760517078e-01	 1.170820660177278e+00	 4.501454252559795e+01
 2.406670547850666e-01	 1.175618717439521e+00	 5.042466925905911e+01
 2.183556628955082e-01	 1.179966442117847e+00	 5.512057185741201e+01
 4.463148353484084e-01	 1.127368315049849e+00	-2.183798387620321e+01
 4.238870788180403e-01	 1.135991194708451e+00	-1.020510400223529e+01
 4.013901467219571e-01	 1.144133820918303e+00	 4.441911345267364e-01
 3.788386420824468e-01	 1.151797522712798e+00	 1.011489706760611e+01
 3.562469744900341e-01	 1.158984185929079e+00	 1.881370900836832e+01
 3.336293355147580e-01	 1.165696236827171e+00	 2.654895784345844e+01
 3.109996754499638e-01	 1.171936624540127e+00	 3.333054158688577e+01
 2.883716814421509e-01	 1.177708802466749e+00	 3.916985282343436e+01
 2.657587570507115e-01	 1.183016708720077e+00	 4.407970268514807e+01
 2.431740032717912e-01	 1.187864745745547e+00	 4.807424190278336e+01
 2.206302010510924e-01	 1.192257759222705e+00	 5.116887946958930e+01
 4.509160192135453e-01	 1.138990668812702e+00	-1.963527605214776e+01
 4.282570486980531e-01	 1.147702444137599e+00	-7.483783039925690e+00
 4.055281894668601e-01	 1.155929014947321e+00	 3.418010611213777e+00
 3.827441950888737e-01	 1.163671723976633e+00	 1.308357188820742e+01
 3.599196237070956e-01	 1.170932476504298e+00	 2.152877408575139e+01
 3.370688131964081e-01	 1.177713723803332e+00	 2.877177478737676e+01
 3.142058576676110e-01	 1.184018445410219e+00	 3.483288805676283e+01
 2.913445853718038e-01	 1.189850130325810e+00	 3.973445179479175e+01
 2.684985380494003e-01	 1.195212757262246e+00	 4.350069121085595e+01
 2.456809517583592e-01	 1.200110774051002e+00	 4.615757934178141e+01
 2.229047392067060e-01	 1.204549076327078e+00	 4.773269552902293e+01
 4.555172030781719e-01	 1.150613022575534e+00	-1.753737901813158e+01
 4.326270185774718e-01	 1.159413693566544e+00	-4.827650803548536e+00
 4.096662322111168e-01	 1.167724208975982e+00	 6.371320639313698e+00
 3.866497480946336e-01	 1.175545925239990e+00	 1.608132856449396e+01
 3.635922729235004e-01	 1.182880767078950e+00	 2.432727037351614e+01
 3.405082908774424e-01	 1.189731210778864e+00	 3.113696832409132e+01
 3.174120398847132e-01	 1.196100266279651e+00	 3.654098321717481e+01
 2.943174893010123e-01	 1.201991458184212e+00	 4.057242243182370e+01
 2.712383190477745e-01	 1.207408805803788e+00	 4.326674365841320e+01
 2.481879002447703e-01	 1.212356802355885e+00	 4.466155565050745e+01
 2.251792773623489e-01	 1.216840393430966e+00	 4.479641727501843e+01
 4.601183869422882e-01	 1.162235376338345e+00	-1.554113178714188e+01
 4.369969884562961e-01	 1.171124942995283e+00	-2.234734866667083e+00
 4.138042749547273e-01	 1.179519403004286e+00	 9.304753381790258e+00
 3.905553010997264e-01	 1.187420126502869e+00	 1.910731164957344e+01
 3.672649221392484e-01	 1.194829057653032e+00	 2.720671208860064e+01
 3.439477685578608e-01	 1.201748697753768e+00	 3.364028446937078e+01
 3.206182221012706e-01	 1.208182087148427e+00	 3.844867209757942e+01
 2.972903932297764e-01	 1.214132786041956e+00	 4.167558126801674e+01
 2.739781000458337e-01	 1.219604854344699e+00	 4.336752600376731e+01
 2.506948487310247e-01	 1.224602830660197e+00	 4.357356978354489e+01
 2.274538155180211e-01	 1.229131710534368e+00	 4.234506590158276e+01
 2.047084339626188e-01	 1.106218539478505e+00	 9.061751169617489e+01
 1.838410471820675e-01	 1.109877231672737e+00	 8.175219413411929e+01
 1.630344251371875e-01	 1.113123881798189e+00	 6.669909470939309e+01
 1.422994522082913e-01	 1.115964097050903e+00	 4.559992615511225e+01
 1.216466649059655e-01	 1.118403812994212e+00	 1.861212448741185e+01
 1.010862426134333e-01	 1.120449272191891e+00	-1.409237094674356e+01
 8.062799968276181e-02	 1.122107002770802e+00	-5.232834965536329e+01
 6.028137885658343e-02	 1.123383797000342e+00	-9.589856655684565e+01
 4.005544598153728e-02	 1.124286689971457e+00	-1.445949754672950e+02
 1.995888597471339e-02	 1.124822938453228e+00	-1.981999525462717e+02
 0.000000000000000e+00	 1.125000000000000e+00	-2.564875032221321e+02
 2.069829721180270e-01	 1.118509856586275e+00	 8.320575357710581e+01
 1.858837254842960e-01	 1.122209200915521e+00	 7.321121779741156e+01
 1.648459187499743e-01	 1.125491924930832e+00	 5.803571673703932e+01
 1.438805572329332e-01	 1.128363698130427e+00	 3.780456900875885e+01
 1.229982945160992e-01	 1.130830522028343e+00	 1.265619438883566e+01
 1.022094230869531e-01	 1.132898708550173e+00	-1.725893134195481e+01
 8.152386634591845e-02	 1.134574858357522e+00	-5.177933044064540e+01
 6.095117195499002e-02	 1.135865839189446e+00	-9.073357947509996e+01
 4.050050649243606e-02	 1.136778764304567e+00	-1.339413615462954e+02
 2.018065137442525e-02	 1.137320971102731e+00	-1.812145085809914e+02
 0.000000000000000e+00	 1.137500000000000e+00	-2.323580282433525e+02
 2.092575102734646e-01	 1.130801173693560e+00	 7.641821847235167e+01
 1.879264037867324e-01	 1.134541170157915e+00	 6.533232198138032e+01
 1.666574123631051e-01	 1.137859968063168e+00	 5.005072704795924e+01
 1.454616622580137e-01	 1.140763299209717e+00	 3.068272280289150e+01
 1.243499241267251e-01	 1.143257231062304e+00	 7.348114653979970e+00
 1.033326035609789e-01	 1.145348144908337e+00	-1.982364866757693e+01
 8.241973300955530e-02	 1.147042713944167e+00	-5.069435362915466e+01
 6.162096505381248e-02	 1.148347881378508e+00	-8.511790052968409e+01
 4.094556700364869e-02	 1.149270838637658e+00	-1.229411771031607e+02
 2.040241677431206e-02	 1.149819003752230e+00	-1.640049222939215e+02
 0.000000000000000e+00	 1.150000000000000e+00	-2.081445757661537e+02
 2.115320484289314e-01	 1.143092490800359e+00	 7.023479108576788e+01
 1.899690820893766e-01	 1.146873139399917e+00	 5.809417044677444e+01
 1.684689059765799e-01	 1.150228011195196e+00	 4.272226362627663e+01
 1.470427672835328e-01	 1.153162900288774e+00	 2.421268314849555e+01
 1.257015537378434e-01	 1.155683940096093e+00	 2.667008960003734e+00
 1.044557840355105e-01	 1.157797581266385e+00	-2.180591482283710e+01
 8.331559967367232e-02	 1.159510569530738e+00	-4.909068545400457e+01
 6.229075815305083e-02	 1.160829923567528e+00	-7.906604510786745e+01
 4.139062751517519e-02	 1.161762912970730e+00	-1.116055784248087e+02
 2.062418217437382e-02	 1.162317036401724e+00	-1.465784003197778e+02
 0.000000000000000e+00	 1.162500000000000e+00	-1.838498306170177e+02
 2.138065865844276e-01	 1.155383807906674e+00	 6.463621192245166e+01
 1.920117603922285e-01	 1.159205108641528e+00	 5.147633471259135e+01
 1.702803995903987e-01	 1.162596054326918e+00	 3.602939459042159e+01
 1.486238723094905e-01	 1.165562501367597e+00	 1.837366908652194e+01
 1.270531833494540e-01	 1.168110649129712e+00	-1.407110819048533e+00
 1.055789645105481e-01	 1.170247017624314e+00	-2.322429667267212e+01
 8.421146633826952e-02	 1.171978425117234e+00	-4.698485756294924e+01
 6.296055125270505e-02	 1.173311965756507e+00	-7.259191106331534e+01
 4.183568802701556e-02	 1.174254987303784e+00	-9.994524719892242e+01
 2.084594757461052e-02	 1.174815069051214e+00	-1.289418427577228e+02
 0.000000000000000e+00	 1.175000000000000e+00	-1.594763634970882e+02
 2.160811247399532e-01	 1.167675125012503e+00	 5.960403224709025e+01
 1.940544386952883e-01	 1.171537077882749e+00	 4.545924627981647e+01
 1.720918932045614e-01	 1.174964097458333e+00	 2.995206923914911e+01
 1.502049773358868e-01	 1.177962102446187e+00	 1.314577448672375e+01
 1.284048129615569e-01	 1.180537358163162e+00	-4.893391359081737e+00
 1.067021449860916e-01	 1.182696453982126e+00	-2.409657947026749e+01
 8.510733300334690e-02	 1.184446280703655e+00	-4.439270568050970e+01
 6.363034435277519e-02	 1.185794007945443e+00	-6.570881121765440e+01
 4.228074853916980e-02	 1.186747061636820e+00	-8.797041549271277e+01
 2.106771297502218e-02	 1.187313101700699e+00	-1.111018593047440e+02
 0.000000000000000e+00	 1.187500000000000e+00	-1.350266369887655e+02
 2.183556628955082e-01	 1.179966442117847e+00	 5.512057185741201e+01
 1.960971169985559e-01	 1.183869047123579e+00	 4.002415184117902e+01
 1.739033868190682e-01	 1.187332140589441e+00	 2.447107215717875e+01
 1.517860823627217e-01	 1.190361703524544e+00	 8.509922484065969e+00
 1.297564425741521e-01	 1.192964067196440e+00	-7.810181711111150e+00
 1.078253254621411e-01	 1.195145890339820e+00	-2.443980756569110e+01
 8.600319966890443e-02	 1.196914136290001e+00	-4.132940585371620e+01
 6.430013745326123e-02	 1.198276050134339e+00	-5.842950383069274e+01
 4.272580905163788e-02	 1.199239135969837e+00	-7.569088917051847e+01
 2.128947837560878e-02	 1.199811134350180e+00	-9.306478438069681e+01
 0.000000000000000e+00	 1.200000000000000e+00	-1.105030111868920e+02
 2.206302010510924e-01	 1.192257759222705e+00	 5.116887946958930e+01
 1.981397953020312e-01	 1.196201016364018e+00	 3.515307126143732e+01
 1.757148804339190e-01	 1.199700183720243e+00	 1.956798015966179e+01
 1.533671873899952e-01	 1.202761304602666e+00	 4.447822733500423e+00
 1.311080721872396e-01	 1.205390776229548e+00	-1.017507441558628e+01
 1.089485059386964e-01	 1.207595326697396e+00	-2.427032259646341e+01
 8.689906633494215e-02	 1.209381991876273e+00	-3.780950845584623e+01
 6.496993055416314e-02	 1.210758092323192e+00	-5.076622118588244e+01
 4.317086956441985e-02	 1.211731210302836e+00	-6.311606986288781e+01
 2.151124377637034e-02	 1.212309166999656e+00	-7.483669131777879e+01
 0.000000000000000e+00	 1.212500000000000e+00	-8.590774898161591e+01
 2.229047392067060e-01	 1.204549076327078e+00	 4.773269552902293e+01
 2.001824736057144e-01	 1.208532985604066e+00	 3.082875813030006e+01
 1.775263740491137e-01	 1.212068226850737e+00	 1.522512187270101e+01
 1.549482924177072e-01	 1.215160905680556e+00	 9.419312817947851e-01
 1.324597018008195e-01	 1.217817485262486e+00	-1.200494409951307e+01
 1.100716864157577e-01	 1.220044763054856e+00	-2.360379933993190e+01
 8.779493300146010e-02	 1.221849847462470e+00	-3.384697010830108e+01
 6.563972365548093e-02	 1.223240134512003e+00	-4.273069642565087e+01
 4.361593007751567e-02	 1.224223284635816e+00	-5.025497559061979e+01
 2.173300917730685e-02	 1.224807199649127e+00	-5.642340568125752e+01
 0.000000000000000e+00	 1.225000000000000e+00	-6.124302101781270e+01
 2.251792773623489e-01	 1.216840393430966e+00	 4.479641727501843e+01
 2.022251519096053e-01	 1.220864954843724e+00	 2.703466270607862e+01
 1.793378676646525e-01	 1.224436269980924e+00	 1.142553976353505e+01
 1.565293974458579e-01	 1.227560506758212e+00	-2.024587128626541e+00
 1.338113314148917e-01	 1.230244194295253e+00	-1.331598373435637e+01
 1.111948668933249e-01	 1.232494199412197e+00	-2.245527939277381e+01
 8.869079966845822e-02	 1.234317703048592e+00	-2.945518366782427e+01
 6.630951675721461e-02	 1.235722176700773e+00	-3.433418876035172e+01
 4.406099059092536e-02	 1.236715358968778e+00	-3.711626013885981e+01
 2.195477457841831e-02	 1.237305232298594e+00	-3.783051778288713e+01
 0.000000000000000e+00	 1.237500000000000e+00	-3.651091035393839e+01
 2.274538155180211e-01	 1.229131710534368e+00	 4.234506590158276e+01
 2.042678302137041e-01	 1.233196924082991e+00	 2.375489708271976e+01
 1.811493612805352e-01	 1.236804313110804e+00	 8.152954448911338e+00
 1.581105024744471e-01	 1.239960107835634e+00	-4.467894494074503e+00
 1.351629610294562e-01	 1.242670903327850e+00	-1.412373871846824e+01
 1.123180473713980e-01	 1.244943635769421e+00	-2.083920282973011e+01
 8.958666633593650e-02	 1.246785558634639e+00	-2.464700641448530e+01
 6.697930985936418e-02	 1.248204218889501e+00	-2.558750716467493e+01
 4.450605110464890e-02	 1.249207433301722e+00	-2.370823126875161e+01
 2.217653997970472e-02	 1.249803264948056e+00	-1.906339444351315e+01
 0.000000000000000e+00	 1.250000000000000e+00	-1.171341684134979e+01
 1.250000000000000e+00	 0.000000000000000e+00	 1.122173936823102e+02
 1.249803264948056e+00	 2.217653997970400e-02	 1.045422833214768e+02
 1.249207433301722e+00	 4.450605110464827e-02	 9.644046257365275e+01
 1.248204218889501e+00	 6.697930985936361e-02	 8.779708790462203e+01
 1.246785558634639e+00	 8.958666633593600e-02	 7.849408784621593e+01
 1.244943635769421e+00	 1.123180473713976e-01	 6.841046515367159e+01
 1.242670903327850e+00	 1.351629610294558e-01	 5.742262940402229e+01
 1.239960107835634e+00	 1.581105024744469e-01	 4.540475981844295e+01
 1.236804313110804e+00	 1.811493612805350e-01	 3.222919784642937e+01
 1.233196924082991e+00	 2.042678302137040e-01	 1.776686879142744e+01
 1.229131710534368e+00	 2.274538155180211e-01	 1.887731487956671e+00
 1.262500000000000e+00	 0.000000000000000e+00	 1.172574854495482e+02
 1.262301297597516e+00	 2.239830538099040e-02	 1.081659797693167e+02
 1.261699507634656e+00	 4.495111161837182e-02	 9.866718667443072e+01
 1.260686261078208e+00	 6.764910296151318e-02	 8.866009909865021e+01
 1.259253414220649e+00	 9.048253300341427e-02	 7.804091919311095e+01
 1.257393072126586e+00	 1.134412278494708e-01	 6.670332735661569e+01
 1.255097612360361e+00	 1.365145906440204e-01	 5.453877805957313e+01
 1.252359708912939e+00	 1.596916075030361e-01	 4.143682225281449e+01
 1.249172356240532e+00	 1.829608548964178e-01	 2.728545593556320e+01
 1.245528893322062e+00	 2.063105085178028e-01	 1.197149422830265e+01
 1.241423027637528e+00	 2.297283536736933e-01	-4.619029942095075e+00
 1.275000000000000e+00	 0.000000000000000e+00	 1.214811287997025e+02
 1.274799330246976e+00	 2.262007078210185e-02	 1.111116439426673e+02
 1.274191581967590e+00	 4.539617213178149e-02	 1.003543692583207e+02
 1.273168303266915e+00	 6.831889606324687e-02	 8.912192398108817e+01
 1.271721269806660e+00	 9.137839967041235e-02	 7.732456703293272e+01
 1.269842508483751e+00	 1.145644083270380e-01	 6.487043333004809e+01
 1.267524321392873e+00	 1.378662202580925e-01	 5.166579328238086e+01
 1.264759309990245e+00	 1.612727125311867e-01	 3.761533528557533e+01
 1.261540399370259e+00	 1.847723485119565e-01	 2.262247081572702e+01
 1.257860862561133e+00	 2.083531868216938e-01	 6.589661538187524e+00
 1.253714344740687e+00	 2.320028918293363e-01	-1.058123236590591e+01
 1.287500000000000e+00	 0.000000000000000e+00	 1.249120766704205e+02
 1.287297362896436e+00	 2.284183618303835e-02	 1.133989989669799e+02
 1.286683656300524e+00	 4.584123264487731e-02	 1.015177014563697e+02
 1.285650345455622e+00	 6.898868916456465e-02	 8.919422562469589e+01
 1.284189125392670e+00	 9.227426633693030e-02	 7.635267662922749e+01
 1.282291944840916e+00	 1.156875888040993e-01	 6.291542727321978e+01
 1.279951030425384e+00	 1.392178498716724e-01	 4.880334161795995e+01
 1.277158911067551e+00	 1.628538175588988e-01	 3.393601804004202e+01
 1.273908442499985e+00	 1.865838421271512e-01	 1.823205138009471e+01
 1.270192831800205e+00	 2.103958651253769e-01	 1.609313659087849e+00
 1.266005661843847e+00	 2.342774299849499e-01	-1.601474733878001e+01
 1.300000000000000e+00	 0.000000000000000e+00	 1.275731686391849e+02
 1.299795395545896e+00	 2.306360158379989e-02	 1.150470096050922e+02
 1.299175730633459e+00	 4.628629315765927e-02	 1.021722711178705e+02
 1.298132387644330e+00	 6.965848226546656e-02	 8.888821874932110e+01
 1.296656980978680e+00	 9.317013300296803e-02	 7.513259942664227e+01
 1.294741381198081e+00	 1.168107692806546e-01	 6.084181345582364e+01
 1.292377739457895e+00	 1.405694794847599e-01	 4.595110267056390e+01
 1.289558512144857e+00	 1.644349225861723e-01	 3.039475452317864e+01
 1.286276485629712e+00	 1.883953357420020e-01	 1.410632179929888e+01
 1.282524801039276e+00	 2.124385434288523e-01	-2.981142503234398e+00
 1.278296978947007e+00	 2.365519681405341e-01	-2.093483573789314e+01
 1.312500000000000e+00	 0.000000000000000e+00	 1.294863744166577e+02
 1.312293428195356e+00	 2.328536698438650e-02	 1.160739183696139e+02
 1.311667804966393e+00	 4.673135367012735e-02	 1.023325915378254e+02
 1.310614429833036e+00	 7.032827536595254e-02	 8.821469107168106e+01
 1.309124836564690e+00	 9.406599966852559e-02	 7.367140704182815e+01
 1.307190817555246e+00	 1.179339497567040e-01	 5.865296288072088e+01
 1.304804448490407e+00	 1.419211090973551e-01	 4.310876848064450e+01
 1.301958113222162e+00	 1.660160276130072e-01	 2.698758577319244e+01
 1.298644528759440e+00	 1.902068293565088e-01	 1.023770650731286e+01
 1.294856770278347e+00	 2.144812217321199e-01	-7.192858169967421e+00
 1.290588296050166e+00	 2.388265062960890e-01	-2.535617684330038e+01
 1.325000000000000e+00	 0.000000000000000e+00	 1.306728348781351e+02
 1.324791460844817e+00	 2.350713238479816e-02	 1.164972795912166e+02
 1.324159879299327e+00	 4.717641418228159e-02	 1.020126285583272e+02
 1.323096472021744e+00	 7.099806846602269e-02	 8.718402344666590e+01
 1.321592692150699e+00	 9.496186633360294e-02	 7.197590446240625e+01
 1.319640253912411e+00	 1.190571302322476e-01	 5.635211956953225e+01
 1.317231157522919e+00	 1.432727387094580e-01	 4.027604293754982e+01
 1.314357714299468e+00	 1.675971326394035e-01	 2.371070245160462e+01
 1.311012571889166e+00	 1.920183229706716e-01	 6.618916037190237e+00
 1.307188739517419e+00	 2.165239000351796e-01	-1.103656353331060e+01
 1.302879613153326e+00	 2.411010444516146e-01	-2.929289577284709e+01
 1.337500000000000e+00	 0.000000000000000e+00	 1.311529007941743e+02
 1.337289493494276e+00	 2.372889778503485e-02	 1.163339915765503e+02
 1.336651953632262e+00	 4.762147469412194e-02	 1.012258261502358e+02
 1.335578514210450e+00	 7.166786156567692e-02	 8.580620887922379e+01
 1.334060547736709e+00	 9.585773299820013e-02	 7.005264250580426e+01
 1.332089690269576e+00	 1.201803107072851e-01	 5.394240649576609e+01
 1.329657866555430e+00	 1.446243683210686e-01	 3.745264122515501e+01
 1.326757315376773e+00	 1.691782376653612e-01	 2.056043785072102e+01
 1.323380615018894e+00	 1.938298165844904e-01	 3.242933651061962e+00
 1.319520708756490e+00	 2.185665783380315e-01	-1.452258743170858e+01
 1.315170930256486e+00	 2.433755826071108e-01	-3.275858937867359e+01
 1.350000000000000e+00	 0.000000000000000e+00	 1.309461694095177e+02
 1.349787526143736e+00	 2.395066318509660e-02	 1.156003269796102e+02
 1.349144027965196e+00	 4.806653520564843e-02	 9.998513057365176e+01
 1.348060556399157e+00	 7.233765466491528e-02	 8.409087048002944e+01
 1.346528403322719e+00	 9.675359966231714e-02	 6.790792958593600e+01
 1.344539126626741e+00	 1.213034911818168e-01	 5.142683118832912e+01
 1.342084575587941e+00	 1.459759979321868e-01	 3.463828929829241e+01
 1.339156916454079e+00	 1.707593426908803e-01	 1.753326128957633e+01
 1.335748658148621e+00	 1.956413101979651e-01	 1.030027129130575e-01
 1.331852677995562e+00	 2.206092566406757e-01	-1.766087593201642e+01
 1.327462247359646e+00	 2.456501207625777e-01	-3.576635070502276e+01
 1.362500000000000e+00	 0.000000000000000e+00	 1.300715190084991e+02
 1.362285558793196e+00	 2.417242858498341e-02	 1.143119615012847e+02
 1.361636102298130e+00	 4.851159571686106e-02	 9.830301320845460e+01
 1.360542598587865e+00	 7.300744776373773e-02	 8.204727843276818e+01
 1.358996258908729e+00	 9.764946632595396e-02	 6.554784283217400e+01
 1.356988562983906e+00	 1.224266716558425e-01	 4.880829102658723e+01
 1.354511284620453e+00	 1.473276275428128e-01	 3.183272338800239e+01
 1.351556517531384e+00	 1.723404477159608e-01	 1.462577187340557e+01
 1.348116701278348e+00	 1.974528038110959e-01	-2.807385243563815e+00
 1.344184647234633e+00	 2.226519349431120e-01	-2.046100988879116e+01
 1.339753564462805e+00	 2.479246589180152e-01	-3.832879209974561e+01
 1.375000000000000e+00	 0.000000000000000e+00	 1.285471415950633e+02
 1.374783591442656e+00	 2.439419398469526e-02	 1.124840010234738e+02
 1.374128176631064e+00	 4.895665622775984e-02	 9.619149213953922e+01
 1.373024640776572e+00	 7.367724086214431e-02	 7.968436603593148e+01
 1.371464114494739e+00	 9.854533298911061e-02	 6.297823860183299e+01
 1.369437999341071e+00	 1.235498521293624e-01	 4.608957824660496e+01
 1.366937993652964e+00	 1.486792571529464e-01	 2.903568953377090e+01
 1.363956118608690e+00	 1.739215527406027e-01	 1.183469259350824e+01
 1.360484744408075e+00	 1.992642974238827e-01	-5.494501796269522e+00
 1.356516616473704e+00	 2.246946132453406e-01	-2.293222154580373e+01
 1.352044881565965e+00	 2.501991970734234e-01	-4.045806706517796e+01
 1.229131710534368e+00	 2.274538155180211e-01	 1.887731487956671e+00
 1.224602830660197e+00	 2.506948487310240e-01	-5.312964927837101e-01
 1.219604854344699e+00	 2.739781000458331e-01	-2.773672605443238e+00
 1.214132786041956e+00	 2.972903932297759e-01	-4.782142817984308e+00
 1.208182087148427e+00	 3.206182221012702e-01	-6.498615000696923e+00
 1.201748697753769e+00	 3.439477685578606e-01	-7.864364252479380e+00
 1.194829057653032e+00	 3.672649221392482e-01	-8.820249714705096e+00
 1.187420126502869e+00	 3.905553010997262e-01	-9.306941996090160e+00
 1.179519403004286e+00	 4.138042749547273e-01	-9.265160203525461e+00
 1.171124942995283e+00	 4.369969884562962e-01	-8.635917448398619e+00
 1.162235376338345e+00	 4.601183869422883e-01	-7.360773577178421e+00
 1.241423027637528e+00	 2.297283536736933e-01	-4.619029942095075e+00
 1.236848858964224e+00	 2.532017972172809e-01	-6.238720471152071e+00
 1.231800902885296e+00	 2.767178810439017e-01	-7.702352201762654e+00
 1.226274113899371e+00	 3.002632971585613e-01	-8.960591246598607e+00
 1.220263908016873e+00	 3.238244043178657e-01	-9.963390804682543e+00
 1.213766184728358e+00	 3.473872462383388e-01	-1.066016888552364e+01
 1.206777348226831e+00	 3.709375713550829e-01	-1.099999593314568e+01
 1.199294327765508e+00	 3.944608541049375e-01	-1.093179158909312e+01
 1.191314597032411e+00	 4.179423176984929e-01	-1.040452972248134e+01
 1.182836192423920e+00	 4.413669583353181e-01	-9.367450746768984e+00
 1.173857730101146e+00	 4.647195708066494e-01	-7.770280138626731e+00
 1.253714344740687e+00	 2.320028918293363e-01	-1.058123236590591e+01
 1.249094887268250e+00	 2.557087457036991e-01	-1.146978340674875e+01
 1.243996951425893e+00	 2.794576620423040e-01	-1.222244574065943e+01
 1.238415441756786e+00	 3.032362010878337e-01	-1.279768357397746e+01
 1.232345728885320e+00	 3.270305865350823e-01	-1.315337149016505e+01
 1.225783671702949e+00	 3.508267239195527e-01	-1.324694492461447e+01
 1.218725638800629e+00	 3.746102205717475e-01	-1.303555897195688e+01
 1.211168529028148e+00	 3.983664071110527e-01	-1.247625487926986e+01
 1.203109791060537e+00	 4.220803604432159e-01	-1.152613348478066e+01
 1.194547441852557e+00	 4.457369282153292e-01	-1.014253477012118e+01
 1.185480083863948e+00	 4.693207546720106e-01	-8.283222606139722e+00
 1.266005661843847e+00	 2.342774299849499e-01	-1.601474733878001e+01
 1.261340915572276e+00	 2.582156941902787e-01	-1.623836900110049e+01
 1.256192999966490e+00	 2.821974430410401e-01	-1.634586142621616e+01
 1.250556769614201e+00	 3.062091050175934e-01	-1.630336842017214e+01
 1.244427549753766e+00	 3.302367687529200e-01	-1.607656561865251e+01
 1.237801158677538e+00	 3.542662016015020e-01	-1.563078405499264e+01
 1.230673929374427e+00	 3.782828697892420e-01	-1.493114051301218e+01
 1.223042730290788e+00	 4.022719601180717e-01	-1.394267413105928e+01
 1.214904985088662e+00	 4.262184031888958e-01	-1.263048864686887e+01
 1.206258691281194e+00	 4.501068980963296e-01	-1.095989959794925e+01
 1.197102437626749e+00	 4.739219385383718e-01	-8.896585720210718e+00
 1.278296978947007e+00	 2.365519681405341e-01	-2.093483573789314e+01
 1.273586943876303e+00	 2.607226426770197e-01	-2.055782673502293e+01
 1.268389048507087e+00	 2.849372240401096e-01	-2.008404922458100e+01
 1.262698097471615e+00	 3.091820089478399e-01	-1.948721153861115e+01
 1.256509370622212e+00	 3.334429509713790e-01	-1.874067350593875e+01
 1.249818645652128e+00	 3.577056792841868e-01	-1.781754344602860e+01
 1.242622219948226e+00	 3.819555190075664e-01	-1.669078041912995e+01
 1.234916931553427e+00	 4.061775131259946e-01	-1.533330131080374e+01
 1.226700179116788e+00	 4.303564459355328e-01	-1.371809226896680e+01
 1.217969940709831e+00	 4.544768679783192e-01	-1.181832395314635e+01
 1.208724791389550e+00	 4.785231224057330e-01	-9.607469999513397e+00
 1.290588296050166e+00	 2.388265062960890e-01	-2.535617684330038e+01
 1.285832972180329e+00	 2.632295911639221e-01	-2.444099730888797e+01
 1.280585097047684e+00	 2.876770050395130e-01	-2.344802268609055e+01
 1.274839425329030e+00	 3.121549128785735e-01	-2.235841404919210e+01
 1.268591191490658e+00	 3.366491331904589e-01	-2.115310190189014e+01
 1.261836132626718e+00	 3.611451569676073e-01	-1.981285692012987e+01
 1.254570510522024e+00	 3.856281682267207e-01	-1.831836444128628e+01
 1.246791132816067e+00	 4.100830661348213e-01	-1.665030238825491e+01
 1.238495373144913e+00	 4.344944886831269e-01	-1.478942227367442e+01
 1.229681190138469e+00	 4.588468378612980e-01	-1.271663288733193e+01
 1.220347145152352e+00	 4.831243062740942e-01	-1.041308622936537e+01
 1.302879613153326e+00	 2.411010444516146e-01	-2.929289577284709e+01
 1.298079000484355e+00	 2.657365396509859e-01	-2.790023664287473e+01
 1.292781145588281e+00	 2.904167860392501e-01	-2.644837953217777e+01
 1.286980753186445e+00	 3.151278168097941e-01	-2.492582963930875e+01
 1.280673012359105e+00	 3.398553154101601e-01	-2.332097783929884e+01
 1.273853619601308e+00	 3.645846346517633e-01	-2.162214548944306e+01
 1.266518801095822e+00	 3.893008174467049e-01	-1.981763148956800e+01
 1.258665334078706e+00	 4.139886191445518e-01	-1.789576139459438e+01
 1.250290567173038e+00	 4.386325314316781e-01	-1.584493835031169e+01
 1.241392439567106e+00	 4.632168077452660e-01	-1.365369559719431e+01
 1.231969498915152e+00	 4.877254901434555e-01	-1.131075026216164e+01
 1.315170930256486e+00	 2.433755826071108e-01	-3.275858937867359e+01
 1.310325028788382e+00	 2.682434881382111e-01	-3.094743853140968e+01
 1.304977194128878e+00	 2.931565670393207e-01	-2.909532108787084e+01
 1.299122081043860e+00	 3.181007207415019e-01	-2.719798080033308e+01
 1.292754833227551e+00	 3.430614976304824e-01	-2.525116170616166e+01
 1.285871106575899e+00	 3.680241123366550e-01	-2.325062730171056e+01
 1.278467091669621e+00	 3.929734666675191e-01	-2.119218049640570e+01
 1.270539535341346e+00	 4.178941721551863e-01	-1.907168425289839e+01
 1.262085761201164e+00	 4.427705741811864e-01	-1.688508280854420e+01
 1.253103688995743e+00	 4.675867776302233e-01	-1.462842336327753e+01
 1.243591852677954e+00	 4.923266740138165e-01	-1.229787810936883e+01
 1.327462247359646e+00	 2.456501207625777e-01	-3.576635070502276e+01
 1.322571057092408e+00	 2.707504366255978e-01	-3.359405603902622e+01
 1.317173242669475e+00	 2.958963480397251e-01	-3.139867063470760e+01
 1.311263408901274e+00	 3.210736246736966e-01	-2.918307416206824e+01
 1.304836654095997e+00	 3.462676798514259e-01	-2.695025959171986e+01
 1.297888593550488e+00	 3.714635900222821e-01	-2.470332703357694e+01
 1.290415382243419e+00	 3.966461158891632e-01	-2.244547689851277e+01
 1.282413736603985e+00	 4.217997251667246e-01	-2.018000239579636e+01
 1.273880955229289e+00	 4.469086169316517e-01	-1.791028138458256e+01
 1.264814938424380e+00	 4.719567475161698e-01	-1.563976760327640e+01
 1.255214206440755e+00	 4.969278578851778e-01	-1.337198130618172e+01
 1.339753564462805e+00	 2.479246589180152e-01	-3.832879209974561e+01
 1.334817085396434e+00	 2.732573851131458e-01	-3.585112171846811e+01
 1.329369291210072e+00	 2.986361290404630e-01	-3.336789075339584e+01
 1.323404736758689e+00	 3.240465286063783e-01	-3.088901498310106e+01
 1.316918474964443e+00	 3.494738620729904e-01	-2.842463495289730e+01
 1.309906080525078e+00	 3.749030677086448e-01	-2.598508476682972e+01
 1.302363672817217e+00	 4.003187651116372e-01	-2.358085876201801e+01
 1.294287937866625e+00	 4.257052781791670e-01	-2.122257618398818e+01
 1.285676149257414e+00	 4.510466596830741e-01	-1.892094400299948e+01
 1.276526187853017e+00	 4.763267174031054e-01	-1.668671803248582e+01
 1.266836560203556e+00	 5.015290417575390e-01	-1.453066253133316e+01
 1.352044881565965e+00	 2.501991970734234e-01	-4.045806706517796e+01
 1.347063113700461e+00	 2.757643336008552e-01	-3.772926672598646e+01
 1.341565339750669e+00	 3.013759100415347e-01	-3.501209972050875e+01
 1.335546064616104e+00	 3.270194325395472e-01	-3.232342085076991e+01
 1.329000295832889e+00	 3.526800442951761e-01	-2.968041964438568e+01
 1.321923567499668e+00	 3.783425453957430e-01	-2.710056438047937e+01
 1.314311963391016e+00	 4.039914143349411e-01	-2.460154257349697e+01
 1.306162139129264e+00	 4.296108311925129e-01	-2.220119813829488e+01
 1.297471343285539e+00	 4.551847024354536e-01	-1.991746549699072e+01
 1.288237437281654e+00	 4.806966872910303e-01	-1.776830092458564e+01
 1.278458913966357e+00	 5.061302256309002e-01	-1.577161146581881e+01
 1.162235376338345e+00	 4.601183869422883e-01	-7.360773577178421e+00
 1.152849922490885e+00	 4.831532429944503e-01	-9.810443291720112e+00
 1.142968404648257e+00	 5.060861843290319e-01	-1.225097941928092e+01
 1.132591262356013e+00	 5.289017228355558e-01	-1.468245127180030e+01
 1.121719562493458e+00	 5.515842846700590e-01	-1.710487342979485e+01
 1.110355008534519e+00	 5.741182412978676e-01	-1.951820028805824e+01
 1.098499948001281e+00	 5.964879413737912e-01	-2.192232082371474e+01
 1.086157378033213e+00	 6.186777433390787e-01	-2.431705363717470e+01
 1.073330949004241e+00	 6.406720486069893e-01	-2.670214231578962e+01
 1.060024966129602e+00	 6.624553352020790e-01	-2.907725116868372e+01
 1.046244389015035e+00	 6.840121917124017e-01	-3.144196137932078e+01
 1.173857730101146e+00	 4.647195708066494e-01	-7.770280138626731e+00
 1.164378421715943e+00	 4.879847754199314e-01	-1.033212481335908e+01
 1.154398088695481e+00	 5.111470461684536e-01	-1.286530928706570e+01
 1.143917174980766e+00	 5.341907400606339e-01	-1.536846561626983e+01
 1.132936758119894e+00	 5.571001275140689e-01	-1.784022372040779e+01
 1.121458558621532e+00	 5.798594237087382e-01	-2.027921301172036e+01
 1.109484947482980e+00	 6.024528207859984e-01	-2.268406411866248e+01
 1.097018951815104e+00	 6.248645207715108e-01	-2.505341070327628e+01
 1.084064258495567e+00	 6.470787690926668e-01	-2.738589137213712e+01
 1.070625215791757e+00	 6.690798885542671e-01	-2.968015167956840e+01
 1.056706832905469e+00	 6.908523136302467e-01	-3.193484622085791e+01
 1.185480083863948e+00	 4.693207546720106e-01	-8.283222606139722e+00
 1.175906920941005e+00	 4.928163078464028e-01	-1.094729554493750e+01
 1.165827772742723e+00	 5.162079080088365e-01	-1.356358861697467e+01
 1.155243087605563e+00	 5.394797572866247e-01	-1.612931870467227e+01
 1.144153953746409e+00	 5.626159703589233e-01	-1.864175246217231e+01
 1.132562108708666e+00	 5.856006061203647e-01	-2.109821494027656e+01
 1.120469946964856e+00	 6.084177001988529e-01	-2.349609817754066e+01
 1.107880525597237e+00	 6.310512982044613e-01	-2.583286970845093e+01
 1.094797567987208e+00	 6.534854895787139e-01	-2.810608093868387e+01
 1.081225465454313e+00	 6.757044419066560e-01	-3.031337533695462e+01
 1.067169276796399e+00	 6.976924355481020e-01	-3.245249639291842e+01
 1.197102437626749e+00	 4.739219385383718e-01	-8.896585720210718e+00
 1.187435420166073e+00	 4.976478402738645e-01	-1.165322887653573e+01
 1.177257456789986e+00	 5.212687698501810e-01	-1.434336764682522e+01
 1.166569000230403e+00	 5.447687745135282e-01	-1.696282517798130e+01
 1.155371149373001e+00	 5.681318132046219e-01	-1.950752563167292e+01
 1.143665658795923e+00	 5.913417885327469e-01	-2.197350971777399e+01
 1.131454946446909e+00	 6.143825796123552e-01	-2.435695006802654e+01
 1.118742099379610e+00	 6.372380756379310e-01	-2.665416635190053e+01
 1.105530877479165e+00	 6.598922100651305e-01	-2.886164003561383e+01
 1.091825715117267e+00	 6.823289952592448e-01	-3.097602868518543e+01
 1.077631720687823e+00	 7.045325574659680e-01	-3.299417971528165e+01
 1.208724791389550e+00	 4.785231224057330e-01	-9.607469999513397e+00
 1.198963919391144e+00	 5.024793727023167e-01	-1.244730288130380e+01
 1.188687140837268e+00	 5.263296316924868e-01	-1.520229065672589e+01
 1.177894912855287e+00	 5.500577917413444e-01	-1.786688355770993e+01
 1.166588344999672e+00	 5.736476560511649e-01	-2.043568342724156e+01
 1.154769208883302e+00	 5.970829709458854e-01	-2.290346607725001e+01
 1.142439945929137e+00	 6.203474590265043e-01	-2.526520336217796e+01
 1.129603673162223e+00	 6.434248530719191e-01	-2.751608482180671e+01
 1.116264186971437e+00	 6.662989305519170e-01	-2.965153874580687e+01
 1.102425964780622e+00	 6.889535486120343e-01	-3.166725251281106e+01
 1.088094164579742e+00	 7.113726793838446e-01	-3.355919205859080e+01
 1.220347145152352e+00	 4.831243062740942e-01	-1.041308622936537e+01
 1.210492418616221e+00	 5.073109051317592e-01	-1.332699533228789e+01
 1.200116824884569e+00	 5.313904935357540e-01	-1.613809149262274e+01
 1.189220825480215e+00	 5.553468089700732e-01	-1.883947225335843e+01
 1.177805540626420e+00	 5.791634988985520e-01	-2.142443673635114e+01
 1.165872758970802e+00	 6.028241533597791e-01	-2.388651474301312e+01
 1.153424945411542e+00	 6.263123384413013e-01	-2.621949544749356e+01
 1.140465246945077e+00	 6.496116305064259e-01	-2.841745548805627e+01
 1.126997496464023e+00	 6.727056510390734e-01	-3.047478626117363e+01
 1.113026214444376e+00	 6.955781019650239e-01	-3.238622022358098e+01
 1.098556608472156e+00	 7.182128013017320e-01	-3.414685601022740e+01
 1.231969498915152e+00	 4.877254901434555e-01	-1.131075026216164e+01
 1.222020917841303e+00	 5.121424375621921e-01	-1.428987900131840e+01
 1.211546508931890e+00	 5.364513553799823e-01	-1.714858934322526e+01
 1.200546738105186e+00	 5.606358261997149e-01	-1.987864579585199e+01
 1.189022736253246e+00	 5.846793417467834e-01	-2.247206380296176e+01
 1.176976309058426e+00	 6.085653357744293e-01	-2.492114550826189e+01
 1.164409944894123e+00	 6.322772178567456e-01	-2.721851499017190e+01
 1.151326820728172e+00	 6.557984079414517e-01	-2.935715272556470e+01
 1.137730805956926e+00	 6.791123715265995e-01	-3.133042903956822e+01
 1.123626464108531e+00	 7.022026553182141e-01	-3.313213629963830e+01
 1.109019052365064e+00	 7.250529232196299e-01	-3.475651961569748e+01
 1.243591852677954e+00	 4.923266740138165e-01	-1.229787810936883e+01
 1.233549417066389e+00	 5.169739699936152e-01	-1.533361722150778e+01
 1.222976192979229e+00	 5.415122172251722e-01	-1.823168475373590e+01
 1.211872650730201e+00	 5.659248434302693e-01	-2.098253128218261e+01
 1.200239931880150e+00	 5.901951845958592e-01	-2.357690708174148e+01
 1.188079859146171e+00	 6.143065181898351e-01	-2.600590447657047e+01
 1.175394944376881e+00	 6.382420972728371e-01	-2.826099954061236e+01
 1.162188394511508e+00	 6.619851853769962e-01	-3.033409285964856e+01
 1.148464115450142e+00	 6.855190920144951e-01	-3.221754906504744e+01
 1.134226713773085e+00	 7.088272086716045e-01	-3.390423485088531e+01
 1.119481496258467e+00	 7.318930451375384e-01	-3.538755519058891e+01
 1.255214206440755e+00	 4.969278578851778e-01	-1.337198130618172e+01
 1.245077916291481e+00	 5.218055024260289e-01	-1.645595969627196e+01
 1.234405877026588e+00	 5.465730790713230e-01	-1.938535586103443e+01
 1.223198563355260e+00	 5.712138606617362e-01	-2.214932501756580e+01
 1.211457127507132e+00	 5.957110274457791e-01	-2.473737026704653e+01
 1.199183409234037e+00	 6.200477006059969e-01	-2.713939145661998e+01
 1.186379943859815e+00	 6.442069766895762e-01	-2.934573327193892e+01
 1.173049968295084e+00	 6.681719628130592e-01	-3.134723222554059e+01
 1.159197424943675e+00	 6.919258125027606e-01	-3.313526220477664e+01
 1.144826963438039e+00	 7.154517620251954e-01	-3.470177824493399e+01
 1.129943940152365e+00	 7.387331670554576e-01	-3.603935819852567e+01
 1.266836560203556e+00	 5.015290417575390e-01	-1.453066253133316e+01
 1.256606415516577e+00	 5.266370348594331e-01	-1.765473853904355e+01
 1.245835561073966e+00	 5.516339409184358e-01	-2.060765483609565e+01
 1.234524475980362e+00	 5.765028778941159e-01	-2.337728934242865e+01
 1.222674323134192e+00	 6.012268702965434e-01	-2.595191548543976e+01
 1.210286959322027e+00	 6.257888830229146e-01	-2.832025750033440e+01
 1.197364943342925e+00	 6.501718561069625e-01	-3.047154484300387e+01
 1.183911542078901e+00	 6.743587402496409e-01	-3.239556533471387e+01
 1.169930734437522e+00	 6.983325329913959e-01	-3.408271665637584e+01
 1.155427213103392e+00	 7.220763153789866e-01	-3.552405581246745e+01
 1.140406384046757e+00	 7.455732889733871e-01	-3.671134619088093e+01
 1.278458913966357e+00	 5.061302256309002e-01	-1.577161146581881e+01
 1.268134914741677e+00	 5.314685672938273e-01	-1.892786452899698e+01
 1.257265245121364e+00	 5.566948027665093e-01	-2.189670452045257e+01
 1.245850388605507e+00	 5.817918951274083e-01	-2.466474963246660e+01
 1.233891518761329e+00	 6.067427131481519e-01	-2.721906064133941e+01
 1.221390509410137e+00	 6.315300654405880e-01	-2.954720257529488e+01
 1.208349942826211e+00	 6.561367355249965e-01	-3.163730537794985e+01
 1.194773115862958e+00	 6.805455176867415e-01	-3.347812314122118e+01
 1.180664043931685e+00	 7.047392534804008e-01	-3.505909147995135e+01
 1.166027462769146e+00	 7.287008687329783e-01	-3.637038262321217e+01
 1.150868827941644e+00	 7.524134108913275e-01	-3.740295780431894e+01
 1.046244389015035e+00	 6.840121917124017e-01	-3.144196137932078e+01
 1.031994829112001e+00	 7.053273514082546e-01	-3.137962470508419e+01
 1.017282545054521e+00	 7.263857263794559e-01	-3.119768232035877e+01
 1.002114435865165e+00	 7.471724415374245e-01	-3.090157693755818e+01
 9.864980320304253e-01	 7.676728683263137e-01	-3.049722924699980e+01
 9.704414844585151e-01	 7.878726579898537e-01	-2.999101841068104e+01
 9.539535513453987e-01	 8.077577742387658e-01	-2.938975990744130e+01
 9.370435829877606e-01	 8.273145251659155e-01	-2.870068084494353e+01
 9.197215045943361e-01	 8.465295942593203e-01	-2.793139287647535e+01
 9.019977971594894e-01	 8.653900703672559e-01	-2.708986288199801e+01
 8.838834764750000e-01	 8.838834764750000e-01	-2.618438159291287e+01
 1.056706832905469e+00	 6.908523136302467e-01	-3.193484622085791e+01
 1.042314777402819e+00	 7.123806249235496e-01	-3.178684095088536e+01
 1.027455370504306e+00	 7.336495836448358e-01	-3.153288206060368e+01
 1.012135580222726e+00	 7.546441659546386e-01	-3.117694289026959e+01
 9.963630123494379e-01	 7.753495970115514e-01	-3.072341249506696e+01
 9.801458993017382e-01	 7.957513845717418e-01	-3.017708211963519e+01
 9.634930868575512e-01	 8.158353519830368e-01	-2.954312939498615e+01
 9.464140188165280e-01	 8.355876704192311e-01	-2.882710033453120e+01
 9.289187196394912e-01	 8.549948902032221e-01	-2.803488922522944e+01
 9.110177751307498e-01	 8.740439710717682e-01	-2.717271652841931e+01
 8.927223112400001e-01	 8.927223112400001e-01	-2.624710492249110e+01
 1.067169276796399e+00	 6.976924355481020e-01	-3.245249639291842e+01
 1.052634725694217e+00	 7.194338984386744e-01	-3.220643022964581e+01
 1.037628195954726e+00	 7.409134409099047e-01	-3.186776101377757e+01
 1.022156724580948e+00	 7.621158903714401e-01	-3.143901524178650e+01
 1.006227992669108e+00	 7.830263256963153e-01	-3.092307375528668e+01
 9.898503141455847e-01	 8.036301111531332e-01	-3.032316412136628e+01
 9.730326223702622e-01	 8.239129297268302e-01	-2.964285110159947e+01
 9.557844546457592e-01	 8.438608156721282e-01	-2.888602524819206e+01
 9.381159346849866e-01	 8.634601861468045e-01	-2.805688968176965e+01
 9.200377531021950e-01	 8.826978717761008e-01	-2.715994512103095e+01
 9.015611460049998e-01	 9.015611460049998e-01	-2.619997324966495e+01
 1.077631720687823e+00	 7.045325574659680e-01	-3.299417971528165e+01
 1.062954673986195e+00	 7.264871719536292e-01	-3.263802074681491e+01
 1.047801021405781e+00	 7.481772981746628e-01	-3.220231659956212e+01
 1.032177868939832e+00	 7.695876147878290e-01	-3.168816879695660e+01
 1.016092972989436e+00	 7.907030543806040e-01	-3.109697270480719e+01
 9.995547289900544e-01	 8.115088377340292e-01	-3.043041574468515e+01
 9.825721578835327e-01	 8.319905074701464e-01	-2.969047405770068e+01
 9.651548904754556e-01	 8.521339609246066e-01	-2.887940761929420e+01
 9.473131497308213e-01	 8.719254820900676e-01	-2.799975381852643e+01
 9.290577310738252e-01	 8.913517724802531e-01	-2.705431952825451e+01
 9.103999807700000e-01	 9.103999807700000e-01	-2.604617170537052e+01
 1.088094164579742e+00	 7.113726793838446e-01	-3.355919205859080e+01
 1.073274622278753e+00	 7.335404454684142e-01	-3.308125490744087e+01
 1.057973846857473e+00	 7.554411554391099e-01	-3.253654624655024e+01
 1.042199013299377e+00	 7.770593392038053e-01	-3.192476386469116e+01
 1.025957953310421e+00	 7.983797830644190e-01	-3.124583973210554e+01
 1.009259143835148e+00	 8.193875643144291e-01	-3.049994397630280e+01
 9.921116933973619e-01	 8.400680852129850e-01	-2.968748766551152e+01
 9.745253263056164e-01	 8.604071061766666e-01	-2.880912436300692e+01
 9.565103647769959e-01	 8.803907780330110e-01	-2.786575042523124e+01
 9.380777090456406e-01	 9.000056731842258e-01	-2.685850402675359e+01
 9.192388155350000e-01	 9.192388155350000e-01	-2.578876290554423e+01
 1.098556608472156e+00	 7.182128013017320e-01	-3.414685601022740e+01
 1.083594570571891e+00	 7.405937189830295e-01	-3.353578864158574e+01
 1.068146672309800e+00	 7.627050127032456e-01	-3.287044739335771e+01
 1.052220157659584e+00	 7.845310636193691e-01	-3.214914694972946e+01
 1.035822933632064e+00	 8.060565117477595e-01	-3.137037733310866e+01
 1.018963558680864e+00	 8.272662908943328e-01	-3.053281357371655e+01
 1.001651228911751e+00	 8.481456629553464e-01	-2.963532453978381e+01
 9.838957621362415e-01	 8.686802514283076e-01	-2.867698085457558e+01
 9.657075798235105e-01	 8.888560739756349e-01	-2.765706183304449e+01
 9.470976870176407e-01	 9.086595738880187e-01	-2.657506137829727e+01
 9.280776503000001e-01	 9.280776503000001e-01	-2.543069278615528e+01
 1.109019052365064e+00	 7.250529232196299e-01	-3.475651961569748e+01
 1.093914518865609e+00	 7.476469924974751e-01	-3.400129076791924e+01
 1.078319497762762e+00	 7.699688699670706e-01	-3.320401748966793e+01
 1.062241302020453e+00	 7.920027880345202e-01	-3.236165140524255e+01
 1.045687913954364e+00	 8.137332404306257e-01	-3.147126142828320e+01
 1.028667973527204e+00	 8.351450174737410e-01	-3.053004905849420e+01
 1.011190764426698e+00	 8.562232406972299e-01	-2.953536318772664e+01
 9.932661979673315e-01	 8.769533966795300e-01	-2.848471430504828e+01
 9.749047948703654e-01	 8.973213699179398e-01	-2.737578799391776e+01
 9.561176649898260e-01	 9.173134745916315e-01	-2.620645761924879e+01
 9.369164850650002e-01	 9.369164850650001e-01	-2.497479610794742e+01
 1.119481496258467e+00	 7.318930451375384e-01	-3.538755519058891e+01
 1.104234467159906e+00	 7.547002660117507e-01	-3.447744239299294e+01
 1.088492323216361e+00	 7.772327272305846e-01	-3.353725399721175e+01
 1.072262446381982e+00	 7.994745124492590e-01	-3.256259804883597e+01
 1.055552894277321e+00	 8.214099691130178e-01	-3.154914260586562e+01
 1.038372388374167e+00	 8.430237440526529e-01	-3.049263659778099e+01
 1.020730299942205e+00	 8.643008184386362e-01	-2.938893053865198e+01
 1.002636633798886e+00	 8.852265419303337e-01	-2.823399694770456e+01
 9.841020099175596e-01	 9.057866658599246e-01	-2.702395033120172e+01
 9.651376429621962e-01	 9.259673752950645e-01	-2.575506658148063e+01
 9.457553198299999e-01	 9.457553198299999e-01	-2.442380165250271e+01
 1.129943940152365e+00	 7.387331670554576e-01	-3.603935819852567e+01
 1.114554415454784e+00	 7.617535395258563e-01	-3.496393634388397e+01
 1.098665148670595e+00	 7.844965844937873e-01	-3.387015439068887e+01
 1.082283590744174e+00	 8.069462368635849e-01	-3.275229574432531e+01
 1.065417874600936e+00	 8.290866977949353e-01	-3.160464729601770e+01
 1.048076803221754e+00	 8.509024706310688e-01	-3.042152578127324e+01
 1.030269835458270e+00	 8.723783961795647e-01	-2.919730433308144e+01
 1.012007069630905e+00	 8.934996871807190e-01	-2.792643904745615e+01
 9.932992249650937e-01	 9.142519618015905e-01	-2.660349537632861e+01
 9.741576209347511e-01	 9.346212759983175e-01	-2.522317416212429e+01
 9.545941545949999e-01	 9.545941545949999e-01	-2.378033712962896e+01
 1.140406384046757e+00	 7.455732889733871e-01	-3.671134619088093e+01
 1.124874363750242e+00	 7.688068130397925e-01	-3.546047663206337e+01
 1.108837974125464e+00	 7.917604417566795e-01	-3.420271615863241e+01
 1.092304735107027e+00	 8.144179612774985e-01	-3.293104195148320e+01
 1.075282854925209e+00	 8.367634264763789e-01	-3.163837888034611e+01
 1.057781218069964e+00	 8.587811972089886e-01	-3.031763130037152e+01
 1.039809370974894e+00	 8.804559739200161e-01	-2.896171538033504e+01
 1.021377505463388e+00	 9.017728324306855e-01	-2.756359174458789e+01
 1.002496440012967e+00	 9.227172577429366e-01	-2.611629820530372e+01
 9.831775989074915e-01	 9.432751767013908e-01	-2.461298235828340e+01
 9.634329893600002e-01	 9.634329893600002e-01	-2.304693381461328e+01
 1.150868827941644e+00	 7.524134108913275e-01	-3.740295780431894e+01
 1.135194312046280e+00	 7.758600865535584e-01	-3.596677794650285e+01
 1.119010799580969e+00	 7.990242990192602e-01	-3.453493680422154e+01
 1.102325879470541e+00	 8.218896856909992e-01	-3.309912324579395e+01
 1.085147835250138e+00	 8.444401551573477e-01	-3.165091874089690e+01
 1.067485632918797e+00	 8.666599237864125e-01	-3.018183453573948e+01
 1.049348906492078e+00	 8.885335516599897e-01	-2.868334969297765e+01
 1.030747941296336e+00	 9.100459776802332e-01	-2.714694974338165e+01
 1.011693655061181e+00	 9.311825536839639e-01	-2.556416568775084e+01
 9.921975768804164e-01	 9.519290774042841e-01	-2.392661308166804e+01
 9.722718241249999e-01	 9.722718241249999e-01	-2.222603093253057e+01
 8.838834764750000e-01	 8.838834764750000e-01	-2.618438159291287e+01
 8.653900703672558e-01	 9.019977971594894e-01	-2.255166315510160e+01
 8.465295942593203e-01	 9.197215045943362e-01	-1.925480442357426e+01
 8.273145251659157e-01	 9.370435829877607e-01	-1.630133547786064e+01
 8.077577742387659e-01	 9.539535513453987e-01	-1.369765526656939e+01
 7.878726579898540e-01	 9.704414844585149e-01	-1.144901238740615e+01
 7.676728683263140e-01	 9.864980320304252e-01	-9.559491848300951e+00
 7.471724415374250e-01	 1.002114435865165e+00	-8.032007853155598e+00
 7.263857263794565e-01	 1.017282545054521e+00	-6.868302606133717e+00
 7.053273514082554e-01	 1.031994829112000e+00	-6.068951079391753e+00
 6.840121917124017e-01	 1.046244389015035e+00	-5.633371641310114e+00
 8.927223112400001e-01	 8.927223112400001e-01	-2.624710492249110e+01
 8.740439710717682e-01	 9.110177751307497e-01	-2.258543464438644e+01
 8.549948902032222e-01	 9.289187196394916e-01	-1.923561363299515e+01
 8.355876704192313e-01	 9.464140188165279e-01	-1.620734250787978e+01
 8.158353519830368e-01	 9.634930868575508e-01	-1.350925378526484e+01
 7.957513845717418e-01	 9.801458993017379e-01	-1.114888302425555e+01
 7.753495970115517e-01	 9.963630123494376e-01	-9.132645729261759e+00
 7.546441659546392e-01	 1.012135580222726e+00	-7.465820119289129e+00
 7.336495836448365e-01	 1.027455370504305e+00	-6.152535825915336e+00
 7.123806249235501e-01	 1.042314777402819e+00	-5.195768532797230e+00
 6.908523136302465e-01	 1.056706832905469e+00	-4.597340521071421e+00
 9.015611460049998e-01	 9.015611460049998e-01	-2.619997324966495e+01
 8.826978717761006e-01	 9.200377531021950e-01	-2.252457039744384e+01
 8.634601861468045e-01	 9.381159346849864e-01	-1.913739043154440e+01
 8.438608156721283e-01	 9.557844546457592e-01	-1.605027398002138e+01
 8.239129297268304e-01	 9.730326223702622e-01	-1.327405574894071e+01
 8.036301111531335e-01	 9.898503141455844e-01	-1.081852614942753e+01
 7.830263256963154e-01	 1.006227992669108e+00	-8.692398459020650e+00
 7.621158903714405e-01	 1.022156724580948e+00	-6.903281694390119e+00
 7.409134409099053e-01	 1.037628195954725e+00	-5.457659324361110e+00
 7.194338984386750e-01	 1.052634725694217e+00	-4.360873903268049e+00
 6.976924355481020e-01	 1.067169276796399e+00	-3.617117655534662e+00
 9.103999807700000e-01	 9.103999807700000e-01	-2.604617170537052e+01
 8.913517724802530e-01	 9.290577310738252e-01	-2.237181209221894e+01
 8.719254820900674e-01	 9.473131497308210e-01	-1.896242188417738e+01
 8.521339609246068e-01	 9.651548904754556e-01	-1.583195207305555e+01
 8.319905074701465e-01	 9.825721578835326e-01	-1.299340908840853e+01
 8.115088377340296e-01	 9.995547289900545e-01	-1.045880701671945e+01
 7.907030543806044e-01	 1.016092972989435e+00	-8.239125135906118e+00
 7.695876147878296e-01	 1.032177868939832e+00	-6.344271007867089e+00
 7.481772981746633e-01	 1.047801021405781e+00	-4.783049324395407e+00
 7.264871719536298e-01	 1.062954673986194e+00	-3.563136652906028e+00
 7.045325574659680e-01	 1.077631720687823e+00	-2.691062178665393e+00
 9.192388155350000e-01	 9.192388155350000e-01	-2.578876290554423e+01
 9.000056731842259e-01	 9.380777090456406e-01	-2.212979595735587e+01
 8.803907780330109e-01	 9.565103647769959e-01	-1.871290710133963e+01
 8.604071061766667e-01	 9.745253263056164e-01	-1.555412890099385e+01
 8.400680852129850e-01	 9.921116933973620e-01	-1.266860991935494e+01
 8.193875643144292e-01	 1.009259143835148e+00	-1.007055763842334e+01
 7.983797830644193e-01	 1.025957953310421e+00	-7.773186477761541e+00
 7.770593392038057e-01	 1.042199013299377e+00	-5.788671219928116e+00
 7.554411554391103e-01	 1.057973846857472e+00	-4.128106103735987e+00
 7.335404454684151e-01	 1.073274622278753e+00	-2.801469797475511e+00
 7.113726793838446e-01	 1.088094164579742e+00	-1.817596413853375e+00
 9.280776503000001e-01	 9.280776503000001e-01	-2.543069278615528e+01
 9.086595738880183e-01	 9.470976870176407e-01	-2.180105779449520e+01
 8.888560739756349e-01	 9.657075798235105e-01	-1.839096142809599e+01
 8.686802514283077e-01	 9.838957621362414e-01	-1.521848985024175e+01
 8.481456629553463e-01	 1.001651228911750e+00	-1.230090501037904e+01
 8.272662908943332e-01	 1.018963558680864e+00	-9.654578368819148e+00
 8.060565117477597e-01	 1.035822933632063e+00	-7.294929507209870e+00
 7.845310636193695e-01	 1.052220157659584e+00	-5.236369996701325e+00
 7.627050127032463e-01	 1.068146672309799e+00	-3.492252849744479e+00
 7.405937189830302e-01	 1.083594570571890e+00	-2.074827832654240e+00
 7.182128013017320e-01	 1.098556608472156e+00	-9.952028650493059e-01
 9.369164850650002e-01	 9.369164850650001e-01	-2.497479610794742e+01
 9.173134745916314e-01	 9.561176649898259e-01	-2.138803771628681e+01
 8.973213699179396e-01	 9.749047948703653e-01	-1.799862039613485e+01
 8.769533966795300e-01	 9.932661979673313e-01	-1.482665672785064e+01
 8.562232406972300e-01	 1.011190764426698e+00	-1.189149411132541e+01
 8.351450174737411e-01	 1.028667973527204e+00	-9.211639398034029e+00
 8.137332404306261e-01	 1.045687913954363e+00	-6.804688198129220e+00
 7.920027880345210e-01	 1.062241302020452e+00	-4.687259298083386e+00
 7.699688699670710e-01	 1.078319497762762e+00	-2.874934579091626e+00
 7.476469924974758e-01	 1.093914518865608e+00	-1.382204777666534e+00
 7.250529232196300e-01	 1.109019052365064e+00	-2.224213782137134e-01
 9.457553198299999e-01	 9.457553198299999e-01	-2.442380165250271e+01
 9.259673752950643e-01	 9.651376429621963e-01	-2.089308461871670e+01
 9.057866658599246e-01	 9.841020099175595e-01	-1.753784345416327e+01
 8.852265419303337e-01	 1.002636633798885e+00	-1.438019073323169e+01
 8.643008184386362e-01	 1.020730299942204e+00	-1.144153215105440e+01
 8.430237440526532e-01	 1.038372388374167e+00	-8.742482162132529e+00
 8.214099691130180e-01	 1.055552894277321e+00	-6.302784085874739e+00
 7.994745124492595e-01	 1.072262446381982e+00	-4.141235177482575e+00
 7.772327272305850e-01	 1.088492323216360e+00	-2.275617118004075e+00
 7.547002660117512e-01	 1.104234467159906e+00	-7.226323286155996e-01
 7.318930451375383e-01	 1.119481496258467e+00	 5.021535380633804e-01
 9.545941545949999e-01	 9.545941545949999e-01	-2.378033712962896e+01
 9.346212759983176e-01	 9.741576209347513e-01	-2.031846040496701e+01
 9.142519618015904e-01	 9.932992249650935e-01	-1.701051749105245e+01
 8.934996871807190e-01	 1.012007069630904e+00	-1.388059526476967e+01
 8.723783961795650e-01	 1.030269835458270e+00	-1.095213131311183e+01
 8.509024706310692e-01	 1.048076803221754e+00	-8.247820674865011e+00
 8.290866977949357e-01	 1.065417874600936e+00	-5.789526843597010e+00
 8.069462368635854e-01	 1.082283590744173e+00	-3.598197592685418e+00
 7.844965844937880e-01	 1.098665148670594e+00	-1.693786139160547e+00
 7.617535395258571e-01	 1.114554415454784e+00	-9.517811440994528e-02
 7.387331670554576e-01	 1.129943940152365e+00	 1.179875243089382e+00
 9.634329893600002e-01	 9.634329893600002e-01	-2.304693381461328e+01
 9.432751767013909e-01	 9.831775989074915e-01	-1.966634397676738e+01
 9.227172577429366e-01	 1.002496440012967e+00	-1.641846016504809e+01
 9.017728324306855e-01	 1.021377505463388e+00	-1.332931857194232e+01
 8.804559739200162e-01	 1.039809370974894e+00	-1.042436299713895e+01
 8.587811972089889e-01	 1.057781218069964e+00	-7.728342786107219e+00
 8.367634264763789e-01	 1.075282854925208e+00	-5.265214826835401e+00
 8.144179612774990e-01	 1.092304735107027e+00	-3.058050227132473e+00
 7.917604417566800e-01	 1.108837974125464e+00	-1.128946251602242e+00
 7.688068130397931e-01	 1.124874363750241e+00	 5.010559513101924e-01
 7.455732889733871e-01	 1.140406384046757e+00	 1.812047355303072e+00
 9.722718241249999e-01	 9.722718241249999e-01	-2.222603093253057e+01
 9.519290774042841e-01	 9.921975768804165e-01	-1.893883500803214e+01
 9.311825536839636e-01	 1.011693655061181e+00	-1.576342305138128e+01
 9.100459776802337e-01	 1.030747941296336e+00	-1.272775626277612e+01
 8.885335516599900e-01	 1.049348906492078e+00	-9.859259673292586e+00
 8.666599237864129e-01	 1.067485632918797e+00	-7.184711371654297e+00
 8.444401551573482e-01	 1.085147835250138e+00	-4.730135588402952e+00
 8.218896856909996e-01	 1.102325879470541e+00	-2.520700320940456e+00
 7.990242990192610e-01	 1.119010799580969e+00	-5.806201402827345e-01
 7.758600865535591e-01	 1.135194312046279e+00	 1.066935228349305e+00
 7.524134108913274e-01	 1.150868827941644e+00	 2.399926013076410e+00
 6.840121917124017e-01	 1.046244389015035e+00	-5.633371641310114e+00
 6.624553352020789e-01	 1.060024966129602e+00	-3.969594055511437e+00
 6.406720486069893e-01	 1.073330949004241e+00	-2.854290393195004e+00
 6.186777433390788e-01	 1.086157378033213e+00	-2.306427545983079e+00
 5.964879413737916e-01	 1.098499948001280e+00	-2.343050238740826e+00
 5.741182412978680e-01	 1.110355008534519e+00	-2.979239871367223e+00
 5.515842846700593e-01	 1.121719562493458e+00	-4.228083916658381e+00
 5.289017228355563e-01	 1.132591262356013e+00	-6.100655843131838e+00
 5.060861843290325e-01	 1.142968404648257e+00	-8.606005448633745e+00
 4.831532429944511e-01	 1.152849922490885e+00	-1.175115941103150e+01
 4.601183869422882e-01	 1.162235376338345e+00	-1.554113178714188e+01
 6.908523136302465e-01	 1.056706832905469e+00	-4.597340521071421e+00
 6.690798885542670e-01	 1.070625215791757e+00	-2.960192345206464e+00
 6.470787690926667e-01	 1.084064258495567e+00	-1.910683730606507e+00
 6.248645207715108e-01	 1.097018951815105e+00	-1.464795500084183e+00
 6.024528207859987e-01	 1.109484947482980e+00	-1.636488385091647e+00
 5.798594237087384e-01	 1.121458558621532e+00	-2.437676400737681e+00
 5.571001275140695e-01	 1.132936758119894e+00	-3.878210926083636e+00
 5.341907400606344e-01	 1.143917174980766e+00	-5.965875359056660e+00
 5.111470461684543e-01	 1.154398088695481e+00	-8.706390134498255e+00
 4.879847754199321e-01	 1.164378421715942e+00	-1.210342781748285e+01
 4.647195708066494e-01	 1.173857730101146e+00	-1.615863791285735e+01
 6.976924355481020e-01	 1.067169276796399e+00	-3.617117655534662e+00
 6.757044419066557e-01	 1.081225465454312e+00	-1.984707230625820e+00
 6.534854895787137e-01	 1.094797567987208e+00	-9.784287071555458e-01
 6.310512982044615e-01	 1.107880525597236e+00	-6.113240419606605e-01
 6.084177001988532e-01	 1.120469946964856e+00	-8.943181964303406e-01
 5.856006061203651e-01	 1.132562108708666e+00	-1.836206861406440e+00
 5.626159703589236e-01	 1.144153953746409e+00	-3.443655036061799e+00
 5.394797572866252e-01	 1.155243087605563e+00	-5.721206231683626e+00
 5.162079080088372e-01	 1.165827772742723e+00	-8.671301992669800e+00
 4.928163078464036e-01	 1.175906920941005e+00	-1.229431135376574e+01
 4.693207546720107e-01	 1.185480083863948e+00	-1.658856978529378e+01
 7.045325574659680e-01	 1.077631720687823e+00	-2.691062178665393e+00
 6.823289952592447e-01	 1.091825715117267e+00	-1.042135443973383e+00
 6.598922100651304e-01	 1.105530877479165e+00	-5.717926579329813e-02
 6.372380756379310e-01	 1.118742099379610e+00	 2.536574391777755e-01
 6.143825796123554e-01	 1.131454946446909e+00	-1.175613371111446e-01
 5.913417885327474e-01	 1.143665658795923e+00	-1.176560590850249e+00
 5.681318132046224e-01	 1.155371149373001e+00	-2.926867205346024e+00
 5.447687745135287e-01	 1.166569000230403e+00	-5.369833525795915e+00
 5.212687698501816e-01	 1.177257456789986e+00	-8.504671207035031e+00
 4.976478402738654e-01	 1.187435420166072e+00	-1.232849486119173e+01
 4.739219385383718e-01	 1.197102437626749e+00	-1.683637496878487e+01
 7.113726793838446e-01	 1.088094164579742e+00	-1.817596413853375e+00
 6.889535486120340e-01	 1.102425964780622e+00	-1.315123912909613e-01
 6.662989305519171e-01	 1.116264186971437e+00	 8.533972469512179e-01
 6.434248530719193e-01	 1.129603673162223e+00	 1.129832122531147e+00
 6.203474590265048e-01	 1.142439945929137e+00	 6.927997165529689e-01
 5.970829709458856e-01	 1.154769208883302e+00	-4.604005262520090e-01
 5.736476560511651e-01	 1.166588344999672e+00	-2.330204243269183e+00
 5.500577917413448e-01	 1.177894912855286e+00	-4.914819927029818e+00
 5.263296316924875e-01	 1.188687140837267e+00	-8.210276928597263e+00
 5.024793727023174e-01	 1.198963919391144e+00	-1.221048312715449e+01
 4.785231224057330e-01	 1.208724791389550e+00	-1.690729164204756e+01
 7.182128013017320e-01	 1.098556608472156e+00	-9.952028650493059e-01
 6.955781019650238e-01	 1.113026214444376e+00	 7.480896890696780e-01
 6.727056510390736e-01	 1.126997496464024e+00	 1.753620719225497e+00
 6.496116305064261e-01	 1.140465246945077e+00	 2.016895157272231e+00
 6.263123384413014e-01	 1.153424945411542e+00	 1.535819810315562e+00
 6.028241533597797e-01	 1.165872758970803e+00	 3.106736337645124e-01
 5.791634988985525e-01	 1.177805540626420e+00	-1.655933292809088e+00
 5.553468089700738e-01	 1.189220825480215e+00	-4.359111569160515e+00
 5.313904935357544e-01	 1.200116824884568e+00	-7.791754467180269e+00
 5.073109051317600e-01	 1.210492418616221e+00	-1.194460945874550e+01
 4.831243062740943e-01	 1.220347145152352e+00	-1.680635856850786e+01
 7.250529232196300e-01	 1.109019052365064e+00	-2.224213782137134e-01
 7.022026553182140e-01	 1.123626464108531e+00	 1.597563463740936e+00
 6.791123715265995e-01	 1.137730805956926e+00	 2.643798875982094e+00
 6.557984079414519e-01	 1.151326820728172e+00	 2.914553097982811e+00
 6.322772178567455e-01	 1.164409944894123e+00	 2.410589351644475e+00
 6.085653357744295e-01	 1.176976309058425e+00	 1.135122446366807e+00
 5.846793417467839e-01	 1.189022736253246e+00	-9.062360598959067e-01
 5.606358261997154e-01	 1.200546738105186e+00	-3.705543531542681e+00
 5.364513553799830e-01	 1.211546508931889e+00	-7.252602076053424e+00
 5.121424375621928e-01	 1.222020917841302e+00	-1.153504377107128e+01
 4.877254901434555e-01	 1.231969498915153e+00	-1.653842450227123e+01
 7.318930451375383e-01	 1.119481496258467e+00	 5.021535380633804e-01
 7.088272086716046e-01	 1.134226713773085e+00	 2.417768144212763e+00
 6.855190920144951e-01	 1.148464115450143e+00	 3.524227847343948e+00
 6.619851853769962e-01	 1.162188394511507e+00	 3.822523371749178e+00
 6.382420972728374e-01	 1.175394944376881e+00	 3.316232648081204e+00
 6.143065181898355e-01	 1.188079859146170e+00	 2.011463909001929e+00
 5.901951845958594e-01	 1.200239931880150e+00	-8.321280556203448e-02
 5.659248434302697e-01	 1.211872650730201e+00	-2.956845028284068e+00
 5.415122172251726e-01	 1.222976192979229e+00	-6.596187356112978e+00
 5.169739699936161e-01	 1.233549417066389e+00	-1.098580022202092e+01
 4.923266740138165e-01	 1.243591852677954e+00	-1.610815706665522e+01
 7.387331670554576e-01	 1.129943940152365e+00	 1.179875243089382e+00
 7.154517620251952e-01	 1.144826963438039e+00	 3.209531035605171e+00
 6.919258125027606e-01	 1.159197424943675e+00	 4.395192705392770e+00
 6.681719628130595e-01	 1.173049968295084e+00	 4.740533774862563e+00
 6.442069766895764e-01	 1.186379943859815e+00	 4.251906337912299e+00
 6.200477006059973e-01	 1.199183409234037e+00	 2.938270800303123e+00
 5.957110274457796e-01	 1.211457127507132e+00	 8.111138836936540e-01
 5.712138606617366e-01	 1.223198563355260e+00	-2.115644309130786e+00
 5.465730790713239e-01	 1.234405877026588e+00	-5.825753304275221e+00
 5.218055024260299e-01	 1.245077916291480e+00	-1.030074442288057e+01
 4.969278578851778e-01	 1.255214206440755e+00	-1.552005113947094e+01
 7.455732889733871e-01	 1.140406384046757e+00	 1.812047355303072e+00
 7.220763153789865e-01	 1.155427213103392e+00	 3.973649000185091e+00
 6.983325329913959e-01	 1.169930734437522e+00	 5.256967971410685e+00
 6.743587402496412e-01	 1.183911542078901e+00	 5.668321997224908e+00
 6.501718561069627e-01	 1.197364943342925e+00	 5.216797907226709e+00
 6.257888830229149e-01	 1.210286959322026e+00	 3.914168167368494e+00
 6.012268702965438e-01	 1.222674323134191e+00	 1.774795533083868e+00
 5.765028778941165e-01	 1.234524475980362e+00	-1.184473290581348e+00
 5.516339409184363e-01	 1.245835561073966e+00	-4.944424028931032e+00
 5.266370348594338e-01	 1.256606415516577e+00	-9.483600252034041e+00
 5.015290417575390e-01	 1.266836560203556e+00	-1.477843677673052e+01
 7.524134108913274e-01	 1.150868827941644e+00	 2.399926013076410e+00
 7.287008687329781e-01	 1.166027462769146e+00	 4.710889841059171e+00
 7.047392534804007e-01	 1.180664043931685e+00	 6.109818095454852e+00
 6.805455176867415e-01	 1.194773115862958e+00	 6.605635172696605e+00
 6.561367355249966e-01	 1.208349942826211e+00	 6.210124287861269e+00
 6.315300654405884e-01	 1.221390509410137e+00	 4.937830950096128e+00
 6.067427131481523e-01	 1.233891518761329e+00	 2.805954411047303e+00
 5.817918951274087e-01	 1.245850388605507e+00	-1.657719343931241e-01
 5.566948027665101e-01	 1.257265245121364e+00	-3.955210153648970e+00
 5.314685672938282e-01	 1.268134914741677e+00	-8.537956297007231e+00
 5.061302256309000e-01	 1.278458913966357e+00	-1.388748670415293e+01
 4.601183869422882e-01	 1.162235376338345e+00	-1.554113178714188e+01
 4.369969884562961e-01	 1.171124942995283e+00	-2.234734866667083e+00
 4.138042749547273e-01	 1.179519403004286e+00	 9.304753381790258e+00
 3.905553010997264e-01	 1.187420126502869e+00	 1.910731164957344e+01
 3.672649221392484e-01	 1.194829057653032e+00	 2.720671208860064e+01
 3.439477685578608e-01	 1.201748697753768e+00	 3.364028446937078e+01
 3.206182221012706e-01	 1.208182087148427e+00	 3.844867209757942e+01
 2.972903932297764e-01	 1.214132786041956e+00	 4.167558126801674e+01
 2.739781000458337e-01	 1.219604854344699e+00	 4.336752600376731e+01
 2.506948487310247e-01	 1.224602830660197e+00	 4.357356978354489e+01
 2.274538155180211e-01	 1.229131710534368e+00	 4.234506590158276e+01
 4.647195708066494e-01	 1.173857730101146e+00	-1.615863791285735e+01
 4.413669583353180e-01	 1.182836192423920e+00	-2.923155628160494e+00
 4.179423176984929e-01	 1.191314597032411e+00	 8.612146649045306e+00
 3.944608541049377e-01	 1.199294327765508e+00	 1.847239289653331e+01
 3.709375713550830e-01	 1.206777348226831e+00	 2.668643563226755e+01
 3.473872462383391e-01	 1.213766184728358e+00	 3.328664122200814e+01
 3.238244043178661e-01	 1.220263908016873e+00	 3.830866642178785e+01
 3.002632971585618e-01	 1.226274113899371e+00	 4.179122782704729e+01
 2.767178810439023e-01	 1.231800902885296e+00	 4.377586587914214e+01
 2.532017972172816e-01	 1.236848858964223e+00	 4.430670504477496e+01
 2.297283536736934e-01	 1.241423027637528e+00	 4.343021173580363e+01
 4.693207546720107e-01	 1.185480083863948e+00	-1.658856978529378e+01
 4.457369282153291e-01	 1.194547441852557e+00	-3.457605688145197e+00
 4.220803604432159e-01	 1.203109791060537e+00	 8.038841258513354e+00
 3.983664071110528e-01	 1.211168529028148e+00	 1.792111562916030e+01
 3.746102205717478e-01	 1.218725638800630e+00	 2.621322643623999e+01
 3.508267239195530e-01	 1.225783671702948e+00	 3.294265331223000e+01
 3.270305865350828e-01	 1.232345728885319e+00	 3.814014340912323e+01
 3.032362010878344e-01	 1.238415441756786e+00	 4.183950058155762e+01
 2.794576620423047e-01	 1.243996951425893e+00	 4.407736840822696e+01
 2.557087457036998e-01	 1.249094887268250e+00	 4.489300858094370e+01
 2.320028918293363e-01	 1.253714344740687e+00	 4.432807615282260e+01
 4.739219385383718e-01	 1.197102437626749e+00	-1.683637496878487e+01
 4.501068980963295e-01	 1.206258691281194e+00	-3.842553778680202e+00
 4.262184031888958e-01	 1.214904985088661e+00	 7.581378367897095e+00
 4.022719601180718e-01	 1.223042730290787e+00	 1.745105975982069e+01
 3.782828697892422e-01	 1.230673929374427e+00	 2.578572981589140e+01
 3.542662016015024e-01	 1.237801158677538e+00	 3.260805587424287e+01
 3.302367687529205e-01	 1.244427549753766e+00	 3.794395018780325e+01
 3.062091050175939e-01	 1.250556769614200e+00	 4.182237858778873e+01
 2.821974430410407e-01	 1.256192999966490e+00	 4.427516227496709e+01
 2.582156941902795e-01	 1.261340915572276e+00	 4.533677418295114e+01
 2.342774299849499e-01	 1.266005661843847e+00	 4.504413132996096e+01
 4.785231224057330e-01	 1.208724791389550e+00	-1.690729164204756e+01
 4.544768679783190e-01	 1.217969940709831e+00	-4.082296896944673e+00
 4.303564459355328e-01	 1.226700179116788e+00	 7.236432024988574e+00
 4.061775131259946e-01	 1.234916931553427e+00	 1.705989813646573e+01
 3.819555190075666e-01	 1.242622219948226e+00	 2.540264304322006e+01
 3.577056792841872e-01	 1.249818645652129e+00	 3.228259408133204e+01
 3.334429509713793e-01	 1.256509370622212e+00	 3.772090115517582e+01
 3.091820089478404e-01	 1.262698097471615e+00	 4.174176463496349e+01
 2.849372240401104e-01	 1.268389048507087e+00	 4.437225567987961e+01
 2.607226426770205e-01	 1.273586943876302e+00	 4.564213034699912e+01
 2.365519681405341e-01	 1.278296978947007e+00	 4.558363882832049e+01
 4.831243062740943e-01	 1.220347145152352e+00	-1.680635856850786e+01
 4.588468378612978e-01	 1.229681190138469e+00	-4.180968482642818e+00
 4.344944886831269e-01	 1.238495373144913e+00	 7.000802840043118e+00
 4.100830661348214e-01	 1.246791132816067e+00	 1.674539211762009e+01
 3.856281682267209e-01	 1.254570510522024e+00	 2.506271287322876e+01
 3.611451569676077e-01	 1.261836132626718e+00	 3.196602266832252e+01
 3.366491331904594e-01	 1.268591191490658e+00	 3.747177953684718e+01
 3.121549128785740e-01	 1.274839425329030e+00	 4.159948887756040e+01
 2.876770050395138e-01	 1.280585097047684e+00	 4.437154207786054e+01
 2.632295911639229e-01	 1.285832972180329e+00	 4.581304814625418e+01
 2.388265062960890e-01	 1.290588296050166e+00	 4.595165962259327e+01
 4.877254901434555e-01	 1.231969498915153e+00	-1.653842450227123e+01
 4.632168077452659e-01	 1.241392439567105e+00	-4.142546132535895e+00
 4.386325314316782e-01	 1.250290567173038e+00	 6.871412016318029e+00
 4.139886191445520e-01	 1.258665334078706e+00	 1.650538739784063e+01
 3.893008174467052e-01	 1.266518801095822e+00	 2.476473321032130e+01
 3.645846346517638e-01	 1.273853619601308e+00	 3.165810548107135e+01
 3.398553154101606e-01	 1.280673012359104e+00	 3.719733885755583e+01
 3.151278168097947e-01	 1.286980753186445e+00	 4.139731226198694e+01
 2.904167860392506e-01	 1.292781145588281e+00	 4.427580559121042e+01
 2.657365396509867e-01	 1.298079000484355e+00	 4.585334865694249e+01
 2.411010444516146e-01	 1.302879613153326e+00	 4.615306356314402e+01
 4.923266740138165e-01	 1.243591852677954e+00	-1.610815706665522e+01
 4.675867776302232e-01	 1.253103688995743e+00	-3.970858882385439e+00
 4.427705741811864e-01	 1.262085761201164e+00	 6.845295715348716e+00
 4.178941721551864e-01	 1.270539535341346e+00	 1.633781006726214e+01
 3.929734666675194e-01	 1.278467091669621e+00	 2.450754290555338e+01
 3.680241123366553e-01	 1.285871106575899e+00	 3.135861505122006e+01
 3.430614976304829e-01	 1.292754833227551e+00	 3.689830432956859e+01
 3.181007207415024e-01	 1.299122081043860e+00	 4.113692976110070e+01
 2.931565670393215e-01	 1.304977194128878e+00	 4.408772611912517e+01
 2.682434881382119e-01	 1.310325028788381e+00	 4.576670996802886e+01
 2.433755826071108e-01	 1.315170930256486e+00	 4.619253830750922e+01
 4.969278578851778e-01	 1.255214206440755e+00	-1.552005113947094e+01
 4.719567475161696e-01	 1.264814938424380e+00	-3.669594084344823e+00
 4.469086169316517e-01	 1.273880955229289e+00	 6.919599735262246e+00
 4.217997251667246e-01	 1.282413736603985e+00	 1.624066289005454e+01
 3.966461158891635e-01	 1.290415382243419e+00	 2.429002367625842e+01
 3.714635900222824e-01	 1.297888593550488e+00	 3.106733219457148e+01
 3.462676798514263e-01	 1.304836654095997e+00	 3.657537416394016e+01
 3.210736246736973e-01	 1.311263408901275e+00	 4.081997342903563e+01
 2.958963480397257e-01	 1.317173242669475e+00	 4.380988416332417e+01
 2.707504366255986e-01	 1.322571057092408e+00	 4.555667380146754e+01
 2.456501207625777e-01	 1.327462247359646e+00	 4.607459775570108e+01
 5.015290417575390e-01	 1.266836560203556e+00	-1.477843677673052e+01
 4.763267174031054e-01	 1.276526187853017e+00	-3.242303905779206e+00
 4.510466596830741e-01	 1.285676149257414e+00	 7.091574482028246e+00
 4.257052781791671e-01	 1.294287937866625e+00	 1.621202178773660e+01
 4.003187651116374e-01	 1.302363672817217e+00	 2.411109814018776e+01
 3.749030677086451e-01	 1.309906080525078e+00	 3.078404563157353e+01
 3.494738620729909e-01	 1.316918474964443e+00	 3.622922080959495e+01
 3.240465286063789e-01	 1.323404736758689e+00	 4.044801528787185e+01
 2.986361290404637e-01	 1.329369291210072e+00	 4.344476538804845e+01
 2.732573851131466e-01	 1.334817085396434e+00	 4.522665176803673e+01
 2.479246589180153e-01	 1.339753564462806e+00	 4.580359002118230e+01
 5.061302256309000e-01	 1.278458913966357e+00	-1.388748670415293e+01
 4.806966872910303e-01	 1.288237437281654e+00	-2.692411473605564e+00
 4.551847024354536e-01	 1.297471343285539e+00	 7.358570215004331e+00
 4.296108311925131e-01	 1.306162139129264e+00	 1.625003251430765e+01
 4.039914143349413e-01	 1.314311963391015e+00	 2.396972795687938e+01
 3.783425453957433e-01	 1.321923567499668e+00	 3.050855162850305e+01
 3.526800442951766e-01	 1.329000295832889e+00	 3.586049212482029e+01
 3.270194325395477e-01	 1.335546064616104e+00	 4.002257005684900e+01
 3.013759100415353e-01	 1.341565339750669e+00	 4.299476493133167e+01
 2.757643336008559e-01	 1.347063113700460e+00	 4.477993128194268e+01
 2.501991970734234e-01	 1.352044881565965e+00	 4.538370496705966e+01
 2.274538155180211e-01	 1.229131710534368e+00	 4.234506590158276e+01
 2.042678302137041e-01	 1.233196924082991e+00	 2.375489708271976e+01
 1.811493612805352e-01	 1.236804313110804e+00	 8.152954448911338e+00
 1.581105024744471e-01	 1.239960107835634e+00	-4.467894494074503e+00
 1.351629610294562e-01	 1.242670903327850e+00	-1.412373871846824e+01
 1.123180473713980e-01	 1.244943635769421e+00	-2.083920282973011e+01
 8.958666633593650e-02	 1.246785558634639e+00	-2.464700641448530e+01
 6.697930985936418e-02	 1.248204218889501e+00	-2.558750716467493e+01
 4.450605110464890e-02	 1.249207433301722e+00	-2.370823126875161e+01
 2.217653997970472e-02	 1.249803264948056e+00	-1.906339444351315e+01
 0.000000000000000e+00	 1.250000000000000e+00	-1.171341684134979e+01
 2.297283536736934e-01	 1.241423027637528e+00	 4.343021173580363e+01
 2.063105085178029e-01	 1.245528893322062e+00	 2.529409904224528e+01
 1.829608548964180e-01	 1.249172356240531e+00	 9.961165307452257e+00
 1.596916075030363e-01	 1.252359708912939e+00	-2.574601316008678e+00
 1.365145906440207e-01	 1.255097612360361e+00	-1.232765313929907e+01
 1.134412278494712e-01	 1.257393072126586e+00	-1.932048800579414e+01
 9.048253300341476e-02	 1.259253414220649e+00	-2.358323562225108e+01
 6.764910296151375e-02	 1.260686261078208e+00	-2.515322852556854e+01
 4.495111161837246e-02	 1.261699507634656e+00	-2.407456097136296e+01
 2.239830538099112e-02	 1.262301297597516e+00	-2.039763892079463e+01
 0.000000000000000e+00	 1.262500000000000e+00	-1.417872417188792e+01
 2.320028918293363e-01	 1.253714344740687e+00	 4.432807615282260e+01
 2.083531868216939e-01	 1.257860862561134e+00	 2.661937359258357e+01
 1.847723485119567e-01	 1.261540399370259e+00	 1.153238831184724e+01
 1.612727125311870e-01	 1.264759309990245e+00	-9.377986467533930e-01
 1.378662202580929e-01	 1.267524321392872e+00	-1.080403789334647e+01
 1.145644083270384e-01	 1.269842508483751e+00	-1.808674230568574e+01
 9.137839967041286e-02	 1.271721269806659e+00	-2.281349996357245e+01
 6.831889606324743e-02	 1.273168303266915e+00	-2.501867256784463e+01
 4.539617213178213e-02	 1.274191581967590e+00	-2.474298242822927e+01
 2.262007078210258e-02	 1.274799330246976e+00	-2.203309100185378e+01
 0.000000000000000e+00	 1.275000000000000e+00	-1.694117184257634e+01
 2.342774299849499e-01	 1.266005661843847e+00	 4.504413132996096e+01
 2.103958651253771e-01	 1.270192831800205e+00	 2.773696926568616e+01
 1.865838421271515e-01	 1.273908442499986e+00	 1.287354393268176e+01
 1.628538175588991e-01	 1.277158911067550e+00	 4.500023149176897e-01
 1.392178498716727e-01	 1.279951030425384e+00	-9.544938439041349e+00
 1.156875888040997e-01	 1.282291944840916e+00	-1.712964682108944e+01
 9.227426633693080e-02	 1.284189125392670e+00	-2.232921613232617e+01
 6.898868916456520e-02	 1.285650345455622e+00	-2.517508997527256e+01
 4.584123264487796e-02	 1.286683656300524e+00	-2.570467695447521e+01
 2.284183618303908e-02	 1.287297362896436e+00	-2.396095737513918e+01
 0.000000000000000e+00	 1.287500000000000e+00	-1.999208461621974e+01
 2.365519681405341e-01	 1.278296978947007e+00	 4.558363882832049e+01
 2.124385434288524e-01	 1.282524801039276e+00	 2.865289411901799e+01
 1.883953357420022e-01	 1.286276485629713e+00	 1.399128632428002e+01
 1.644349225861726e-01	 1.289558512144856e+00	 1.596002197611284e+00
 1.405694794847602e-01	 1.292377739457896e+00	-8.542706317524548e+00
 1.168107692806550e-01	 1.294741381198081e+00	-1.644120273701775e+01
 9.317013300296850e-02	 1.296656980978679e+00	-2.212213108089780e+01
 6.965848226546710e-02	 1.298132387644329e+00	-2.561406807069581e+01
 4.628629315765993e-02	 1.299175730633459e+00	-2.695116516741818e+01
 2.306360158380064e-02	 1.299795395545896e+00	-2.617278305002653e+01
 0.000000000000000e+00	 1.300000000000000e+00	-2.332312102941178e+01
 2.388265062960890e-01	 1.290588296050166e+00	 4.595165962259327e+01
 2.144812217321199e-01	 1.294856770278347e+00	 2.937292718716139e+01
 1.902068293565090e-01	 1.298644528759439e+00	 1.489201600684105e+01
 1.660160276130074e-01	 1.301958113222162e+00	 2.507127180191862e+00
 1.419211090973555e-01	 1.304804448490407e+00	-7.789984576946949e+00
 1.179339497567045e-01	 1.307190817555246e+00	-1.601371608898643e+01
 9.406599966852608e-02	 1.309124836564689e+00	-2.218430629335116e+01
 7.032827536595314e-02	 1.310614429833036e+00	-2.632751478541626e+01
 4.673135367012803e-02	 1.311667804966393e+00	-2.847429082919285e+01
 2.328536698438725e-02	 1.312293428195356e+00	-2.866043524623456e+01
 0.000000000000000e+00	 1.312500000000000e+00	-2.692625749854435e+01
 2.411010444516146e-01	 1.302879613153326e+00	 4.615306356314402e+01
 2.165239000351797e-01	 1.307188739517419e+00	 2.990262928521799e+01
 1.920183229706717e-01	 1.311012571889167e+00	 1.558189183071435e+01
 1.675971326394038e-01	 1.314357714299468e+00	 3.190041937892509e+00
 1.432727387094584e-01	 1.317231157522919e+00	-7.279694021812656e+00
 1.190571302322480e-01	 1.319640253912411e+00	-1.583978338299264e+01
 9.496186633360344e-02	 1.321592692150699e+00	-2.250810294879464e+01
 7.099806846602327e-02	 1.323096472021744e+00	-2.730764353597520e+01
 4.717641418228224e-02	 1.324159879299327e+00	-3.026620560395099e+01
 2.350713238479890e-02	 1.324791460844816e+00	-3.141608819516043e+01
 0.000000000000000e+00	 1.325000000000000e+00	-3.079377332547640e+01
 2.433755826071108e-01	 1.315170930256486e+00	 4.619253830750922e+01
 2.185665783380317e-01	 1.319520708756490e+00	 3.024735320641007e+01
 1.938298165844906e-01	 1.323380615018894e+00	 1.606684226978466e+01
 1.691782376653614e-01	 1.326757315376773e+00	 3.651161862474247e+00
 1.446243683210689e-01	 1.329657866555430e+00	-7.005020233385782e+00
 1.201803107072856e-01	 1.332089690269576e+00	-1.591227802184742e+01
 9.585773299820063e-02	 1.334060547736709e+00	-2.308616791670854e+01
 7.166786156567753e-02	 1.335578514210451e+00	-2.854695894896232e+01
 4.762147469412262e-02	 1.336651953632262e+00	-3.231935466979109e+01
 2.372889778503561e-02	 1.337289493494276e+00	-3.443220879347588e+01
 0.000000000000000e+00	 1.337500000000000e+00	-3.491823654400690e+01
 2.456501207625777e-01	 1.327462247359646e+00	 4.607459775570108e+01
 2.206092566406758e-01	 1.331852677995562e+00	 3.041225335314886e+01
 1.956413101979653e-01	 1.335748658148621e+00	 1.635257608744326e+01
 1.707593426908806e-01	 1.339156916454079e+00	 3.896664603487924e+00
 1.459759979321872e-01	 1.342084575587941e+00	-6.959401311185914e+00
 1.213034911818173e-01	 1.344539126626741e+00	-1.622433748560170e+01
 9.675359966231767e-02	 1.346528403322719e+00	-2.391142053031064e+01
 7.233765466491589e-02	 1.348060556399157e+00	-3.003824337889168e+01
 4.806653520564912e-02	 1.349144027965196e+00	-3.462646313003037e+01
 2.395066318509738e-02	 1.349787526143736e+00	-3.770154305374609e+01
 0.000000000000000e+00	 1.350000000000000e+00	-3.929249055265450e+01
 2.479246589180153e-01	 1.339753564462806e+00	 4.580359002118230e+01
 2.226519349431121e-01	 1.344184647234633e+00	 3.040229483795171e+01
 1.974528038110961e-01	 1.348116701278348e+00	 1.644459241544263e+01
 1.723404477159611e-01	 1.351556517531384e+00	 3.932500974237955e+00
 1.473276275428132e-01	 1.354511284620453e+00	-7.136516289264318e+00
 1.224266716558430e-01	 1.356988562983906e+00	-1.676935121763713e+01
 9.764946632595450e-02	 1.358996258908729e+00	-2.497704008799281e+01
 7.300744776373835e-02	 1.360542598587865e+00	-3.177454416821531e+01
 4.851159571686176e-02	 1.361636102298130e+00	-3.718052317247758e+01
 2.417242858498419e-02	 1.362285558793196e+00	-4.121710330088844e+01
 0.000000000000000e+00	 1.362500000000000e+00	-4.390964148324775e+01
 2.501991970734234e-01	 1.352044881565965e+00	 4.538370496705966e+01
 2.246946132453406e-01	 1.356516616473704e+00	 3.022226208794464e+01
 1.992642974238829e-01	 1.360484744408075e+00	 1.634819028299574e+01
 1.739215527406030e-01	 1.363956118608690e+00	 3.764405262873545e+00
 1.486792571529468e-01	 1.366937993652964e+00	-7.530274184320019e+00
 1.235498521293628e-01	 1.369437999341071e+00	-1.754094917151665e+01
 9.854533298911115e-02	 1.371464114494739e+00	-2.627645403649753e+01
 7.367724086214492e-02	 1.373024640776572e+00	-3.374916160224157e+01
 4.895665622776053e-02	 1.374128176631064e+00	-3.997478192910918e+01
 2.439419398469604e-02	 1.374783591442656e+00	-4.497215606700087e+01
 0.000000000000000e+00	 1.375000000000000e+00	-4.876304625850116e+01
 1.375000000000000e+00	 0.000000000000000e+00	 1.285471415950633e+02
 1.374783591442656e+00	 2.439419398469526e-02	 1.124840010234738e+02
 1.374128176631064e+00	 4.895665622775984e-02	 9.619149213953922e+01
 1.373024640776572e+00	 7.367724086214431e-02	 7.968436603593148e+01
 1.371464114494739e+00	 9.854533298911061e-02	 6.297823860183299e+01
 1.369437999341071e+00	 1.235498521293624e-01	 4.608957824660496e+01
 1.366937993652964e+00	 1.486792571529464e-01	 2.903568953377090e+01
 1.363956118608690e+00	 1.739215527406027e-01	 1.183469259350824e+01
 1.360484744408075e+00	 1.992642974238827e-01	-5.494501796269522e+00
 1.356516616473704e+00	 2.246946132453406e-01	-2.293222154580373e+01
 1.352044881565965e+00	 2.501991970734234e-01	-4.045806706517796e+01
 1.387500000000000e+00	 0.000000000000000e+00	 1.266921373320081e+02
 1.387281624092118e+00	 2.461595938431963e-02	 1.108850801215598e+02
 1.386620250964008e+00	 4.940171673850166e-02	 9.482289693985801e+01
 1.385506682965300e+00	 7.434703396034295e-02	 7.852297371365378e+01
 1.383931970080787e+00	 9.944119965202716e-02	 6.200374382349118e+01
 1.381887435698295e+00	 1.246730326026292e-01	 4.528467334754090e+01
 1.379364702685561e+00	 1.500308867628339e-01	 2.838624121492165e+01
 1.376355719686112e+00	 1.755026577650253e-01	 1.132991409923239e+01
 1.372852787537955e+00	 2.010757910364976e-01	-5.861884089598287e+00
 1.368848585712971e+00	 2.267372915474652e-01	-2.316580822649750e+01
 1.364336198669367e+00	 2.524737352288170e-01	-4.055763358321978e+01
 1.400000000000000e+00	 0.000000000000000e+00	 1.245398677292451e+02
 1.399779656741585e+00	 2.483772478394402e-02	 1.090180387504613e+02
 1.399112325296970e+00	 4.984677724924350e-02	 9.321586914261998e+01
 1.397988725154069e+00	 7.501682705854158e-02	 7.715334598585886e+01
 1.396399825666909e+00	 1.003370663149437e-01	 6.085168423036493e+01
 1.394336872055636e+00	 1.257962130758961e-01	 4.433330948025846e+01
 1.391791411718328e+00	 1.513825163727214e-01	 2.762183469661721e+01
 1.388755320763768e+00	 1.770837627894480e-01	 1.074203061330345e+01
 1.385220830668143e+00	 2.028872846491123e-01	-6.280210307915579e+00
 1.381180554952629e+00	 2.287799698495898e-01	-2.341791651979531e+01
 1.376627515773255e+00	 2.547482733842105e-01	-4.064308672603622e+01
 1.412500000000000e+00	 0.000000000000000e+00	 1.220982020460148e+02
 1.412277689391056e+00	 2.505949018356840e-02	 1.068899740238592e+02
 1.411604399629950e+00	 5.029183775998533e-02	 9.137671928616102e+01
 1.410470767342881e+00	 7.568662015674019e-02	 7.558099327710384e+01
 1.408867681253106e+00	 1.012329329778603e-01	 5.952675754569331e+01
 1.406786308413095e+00	 1.269193935491629e-01	 4.323936008906119e+01
 1.404218120751266e+00	 1.527341459826088e-01	 2.674550863476129e+01
 1.401154921841658e+00	 1.786648678138706e-01	 1.007323661906144e+01
 1.397588873798637e+00	 2.046987782617271e-01	-6.748138343544634e+00
 1.393512524192677e+00	 2.308226481517144e-01	-2.368806366164494e+01
 1.388918832877628e+00	 2.570228115396040e-01	-4.071480875395197e+01
 1.425000000000000e+00	 0.000000000000000e+00	 1.193747336227951e+02
 1.424775722040532e+00	 2.528125558319277e-02	 1.045077342327312e+02
 1.424096473962949e+00	 5.073689827072717e-02	 8.931153668792918e+01
 1.422952809531734e+00	 7.635641325493886e-02	 7.381123286735102e+01
 1.421335536839377e+00	 1.021287996407769e-01	 5.803349686552654e+01
 1.419235744770672e+00	 1.280425740224298e-01	 4.200656291414818e+01
 1.416644829784374e+00	 1.540857755924963e-01	 2.576019527244004e+01
 1.413554522919780e+00	 1.802459728382932e-01	 9.325649807038570e+00
 1.409956916929438e+00	 2.065102718743419e-01	-7.264372974318193e+00
 1.405844493433116e+00	 2.328653264538391e-01	-2.397578362224709e+01
 1.401210149982486e+00	 2.592973496949976e-01	-4.077316831148542e+01
 1.437500000000000e+00	 0.000000000000000e+00	 1.163767918777695e+02
 1.437273754690013e+00	 2.550302098281715e-02	 1.018779296636209e+02
 1.436588548295966e+00	 5.118195878146901e-02	 8.702619906256594e+01
 1.435434851720629e+00	 7.702620635313746e-02	 7.184919728923393e+01
 1.433803392425724e+00	 1.030246663036934e-01	 5.637627781600030e+01
 1.431685181128366e+00	 1.291657544956966e-01	 4.063852589126088e+01
 1.429071538817652e+00	 1.554374052023837e-01	 2.466872506593536e+01
 1.425954123998137e+00	 1.818270778627159e-01	 8.501314413050345e+00
 1.422324960060546e+00	 2.083217654869567e-01	-7.827663825896773e+00
 1.418176462673946e+00	 2.349080047559637e-01	-2.428062637938580e+01
 1.413501467087830e+00	 2.615718878503911e-01	-4.081852102033047e+01
 1.450000000000000e+00	 0.000000000000000e+00	 1.131114536827875e+02
 1.449771787339498e+00	 2.572478638244153e-02	 9.900694285734009e+01
 1.449080622629002e+00	 5.162701929221086e-02	 8.452638164250001e+01
 1.447916893909566e+00	 7.769599945133610e-02	 6.969984229098186e+01
 1.446271248012145e+00	 1.039205329666100e-01	 5.455932534040587e+01
 1.444134617486178e+00	 1.302889349689635e-01	 3.913873274617571e+01
 1.441498247851101e+00	 1.567890348122712e-01	 2.347383107146219e+01
 1.438353725076727e+00	 1.834081828871385e-01	 7.602204383627409e+00
 1.434693003191961e+00	 2.101332590995715e-01	-8.436803439483455e+00
 1.430508431915167e+00	 2.369506830580883e-01	-2.460215722934426e+01
 1.425792784193659e+00	 2.638464260057847e-01	-4.085121004166553e+01
 1.462500000000000e+00	 0.000000000000000e+00	 1.095855541559428e+02
 1.462269819988988e+00	 2.594655178206591e-02	 9.590093834158448e+01
 1.461572696962056e+00	 5.207207980295267e-02	 8.181756583081894e+01
 1.460398936098544e+00	 7.836579254953473e-02	 6.736795439098962e+01
 1.458739103598641e+00	 1.048163996295265e-01	 5.258672013820624e+01
 1.456584053844107e+00	 1.314121154422303e-01	 3.751054830230032e+01
 1.453924956884720e+00	 1.581406644221587e-01	 2.217815310694542e+01
 1.450753326155549e+00	 1.849892879115611e-01	 6.630226379118238e+00
 1.447061046323683e+00	 2.119447527121864e-01	-9.090625438629289e+00
 1.442840401156778e+00	 2.389933613602129e-01	-2.493995613315709e+01
 1.438084101299973e+00	 2.661209641611783e-01	-4.087156660962507e+01
 1.475000000000000e+00	 0.000000000000000e+00	 1.058056969053765e+02
 1.474767852638482e+00	 2.616831718169029e-02	 9.256587186867034e+01
 1.474064771295128e+00	 5.251714031369450e-02	 7.890504741416393e+01
 1.472880978287565e+00	 7.903558564773337e-02	 6.485815804825680e+01
 1.471206959185211e+00	 1.057122662924431e-01	 5.046240477664430e+01
 1.469033490202154e+00	 1.325352959154971e-01	 3.575722351839221e+01
 1.466351665918510e+00	 1.594922940320462e-01	 2.078424170218132e+01
 1.463152927234607e+00	 1.865703929359837e-01	 5.587222624092174e+00
 1.459429089455712e+00	 2.137562463248012e-01	-9.788002789251392e+00
 1.455172370398780e+00	 2.410360396623376e-01	-2.529361709610319e+01
 1.450375418406773e+00	 2.683955023165718e-01	-4.087991053764396e+01
 1.487500000000000e+00	 0.000000000000000e+00	 1.017782637565857e+02
 1.487265885287981e+00	 2.639008258131467e-02	 8.900749918750313e+01
 1.486556845628220e+00	 5.296220082443635e-02	 7.579394436152928e+01
 1.485363020476627e+00	 7.970537874593198e-02	 6.217492247129204e+01
 1.483674814771857e+00	 1.066081329553596e-01	 4.819018949420327e+01
 1.481482926560319e+00	 1.336584763887640e-01	 3.388190027227514e+01
 1.478778374952471e+00	 1.608439236419336e-01	 1.929456184983186e+01
 1.475552528313897e+00	 1.881514979604064e-01	 4.474973614025475e+00
 1.471797132588047e+00	 2.155677399374159e-01	-1.052784614738023e+01
 1.467504339641173e+00	 2.430787179644622e-01	-2.566274757848364e+01
 1.462666735514058e+00	 2.706700404719652e-01	-4.087655069927118e+01
 1.500000000000000e+00	 0.000000000000000e+00	 9.750942399336697e+01
 1.499763917937484e+00	 2.661184798093904e-02	 8.523138437694779e+01
 1.499048919961329e+00	 5.340726133517817e-02	 7.248920423312229e+01
 1.497845062665731e+00	 8.037517184413061e-02	 5.932256808657264e+01
 1.496142670358577e+00	 1.075039996182762e-01	 4.577375771389413e+01
 1.493932362918601e+00	 1.347816568620308e-01	 3.188761590536982e+01
 1.491205083986601e+00	 1.621955532518211e-01	 1.771149656886962e+01
 1.487952129393420e+00	 1.897326029848289e-01	 3.295200686653417e+00
 1.484165175720690e+00	 2.173792335500308e-01	-1.130910228951895e+01
 1.479836308883957e+00	 2.451213962665869e-01	-2.604696793585977e+01
 1.474958052621828e+00	 2.729445786273588e-01	-4.086178548494108e+01
 1.352044881565965e+00	 2.501991970734234e-01	-4.045806706517796e+01
 1.347063113700461e+00	 2.757643336008552e-01	-3.772926672598646e+01
 1.341565339750669e+00	 3.013759100415347e-01	-3.501209972050875e+01
 1.335546064616104e+00	 3.270194325395472e-01	-3.232342085076991e+01
 1.329000295832889e+00	 3.526800442951761e-01	-2.968041964438568e+01
 1.321923567499668e+00	 3.783425453957430e-01	-2.710056438047937e+01
 1.314311963391016e+00	 4.039914143349411e-01	-2.460154257349697e+01
 1.306162139129264e+00	 4.296108311925129e-01	-2.220119813829488e+01
 1.297471343285539e+00	 4.551847024354536e-01	-1.991746549699072e+01
 1.288237437281654e+00	 4.806966872910303e-01	-1.776830092458564e+01
 1.278458913966357e+00	 5.061302256309002e-01	-1.577161146581881e+01
 1.364336198669367e+00	 2.524737352288170e-01	-4.055763358321978e+01
 1.359309142004773e+00	 2.782712820886430e-01	-3.793705966728582e+01
 1.353761388291581e+00	 3.041156910427638e-01	-3.531508619938577e+01
 1.347687392473848e+00	 3.299923364729382e-01	-3.270947602362432e+01
 1.341082116701665e+00	 3.558862265176344e-01	-3.013839922422452e+01
 1.333941054474572e+00	 3.817820230831492e-01	-2.762037574780663e+01
 1.326260253965098e+00	 4.076640635585734e-01	-2.517421406464524e+01
 1.318036340392143e+00	 4.335163842061925e-01	-2.281894608516883e+01
 1.309266537313843e+00	 4.593227451881562e-01	-2.057375858814832e+01
 1.299948686710394e+00	 4.850666571792523e-01	-1.845792145681574e+01
 1.290081267729169e+00	 5.107314095045163e-01	-1.649071305805694e+01
 1.376627515773255e+00	 2.547482733842105e-01	-4.064308672603622e+01
 1.371555170309656e+00	 2.807782305764259e-01	-3.813890115381259e+01
 1.365957436833121e+00	 3.068554720439740e-01	-3.562055021819195e+01
 1.359828720332250e+00	 3.329652404062867e-01	-3.310669504254807e+01
 1.353163937571098e+00	 3.590924087400163e-01	-3.061647563680084e+01
 1.345958541450105e+00	 3.852215007704358e-01	-2.816945212359883e+01
 1.338208544539750e+00	 4.113367127820325e-01	-2.578554158876655e+01
 1.329910541655500e+00	 4.374219372196355e-01	-2.348495076527597e+01
 1.321061731342504e+00	 4.634607879405481e-01	-2.128810480323051e+01
 1.311659936139337e+00	 4.894366270670794e-01	-1.921557242138345e+01
 1.301703621492001e+00	 5.153325933776431e-01	-1.728798777804051e+01
 1.388918832877628e+00	 2.570228115396040e-01	-4.071480875395197e+01
 1.383801198615110e+00	 2.832851790642043e-01	-3.833495540316520e+01
 1.378153485375291e+00	 3.095952530451653e-01	-3.592843089999436e+01
 1.371970048191311e+00	 3.359381443395925e-01	-3.351478514533782e+01
 1.365245758441190e+00	 3.622985909623221e-01	-3.111411772786670e+01
 1.357976028426266e+00	 3.886609784576026e-01	-2.874701776144619e+01
 1.350156835114969e+00	 4.150093620053185e-01	-2.643449893620071e+01
 1.341784742919335e+00	 4.413274902328413e-01	-2.419792998558647e+01
 1.332856925371522e+00	 4.675988306926294e-01	-2.205896081807809e+01
 1.323371185568486e+00	 4.938065969545113e-01	-2.003944460832630e+01
 1.313325975254853e+00	 5.199337772502799e-01	-1.816135618835661e+01
 1.401210149982486e+00	 2.592973496949976e-01	-4.077316831148542e+01
 1.396047226921136e+00	 2.857921275519781e-01	-3.852538066994234e+01
 1.390349533918090e+00	 3.123350340463378e-01	-3.623866930559733e+01
 1.384111376051029e+00	 3.389110482728556e-01	-3.393346364702056e+01
 1.377327579311940e+00	 3.655047731845517e-01	-3.163081278867528e+01
 1.369993515403056e+00	 3.921004561446497e-01	-2.935232394671184e+01
 1.362105125690758e+00	 4.186820112284312e-01	-2.712009572177132e+01
 1.353658944183649e+00	 4.452330432458106e-01	-2.495664636437015e+01
 1.344652119400897e+00	 4.717368734443999e-01	-2.288483728766879e+01
 1.335082434997839e+00	 4.981765668415484e-01	-2.092779212186355e+01
 1.324948329017727e+00	 5.245349611224271e-01	-1.910881165351398e+01
 1.413501467087830e+00	 2.615718878503911e-01	-4.081852102033047e+01
 1.408293255227734e+00	 2.882990760397471e-01	-3.871032950607285e+01
 1.402545582461518e+00	 3.150748150474914e-01	-3.655120835043559e+01
 1.396252703911406e+00	 3.418839522060762e-01	-3.436245750292439e+01
 1.389409400183348e+00	 3.687109554067051e-01	-3.216606575527654e+01
 1.382011002380474e+00	 3.955399338315773e-01	-2.998464782256848e+01
 1.374053416267115e+00	 4.223546604513709e-01	-2.784137582858145e+01
 1.365533145448441e+00	 4.491385962585428e-01	-2.575990538430679e+01
 1.356447313430629e+00	 4.758749161958595e-01	-2.376429650066422e+01
 1.346793684427397e+00	 5.025465367281904e-01	-2.187892962910437e+01
 1.336570682780620e+00	 5.291361449940847e-01	-2.012841717616629e+01
 1.425792784193659e+00	 2.638464260057847e-01	-4.085121004166553e+01
 1.420539283534902e+00	 2.908060245275114e-01	-3.888994900767867e+01
 1.414741631005576e+00	 3.178145960486264e-01	-3.686599272576458e+01
 1.408394031772441e+00	 3.448568561392540e-01	-3.480150289434709e+01
 1.401491221055414e+00	 3.719171376287824e-01	-3.271939844922655e+01
 1.394028489358520e+00	 3.989794115183852e-01	-3.064329127675484e+01
 1.386001706844041e+00	 4.260273096741372e-01	-2.859741593230052e+01
 1.377407346713711e+00	 4.530441492710384e-01	-2.660655354629388e+01
 1.368242507460718e+00	 4.800129589470085e-01	-2.469595015527030e+01
 1.358504933857160e+00	 5.069165066144373e-01	-2.289122975106032e+01
 1.348193036543535e+00	 5.337373288652523e-01	-2.121830239697543e+01
 1.438084101299973e+00	 2.661209641611783e-01	-4.087156660962507e+01
 1.432785311842642e+00	 2.933129730152711e-01	-3.906438104927683e+01
 1.426937679550262e+00	 3.205543770497423e-01	-3.718296882389043e+01
 1.420535359634135e+00	 3.478297600723892e-01	-3.525034483547039e+01
 1.413573041928139e+00	 3.751233198507835e-01	-3.329034885723242e+01
 1.406045976337195e+00	 4.024188892050735e-01	-3.132757988541912e+01
 1.397949997421535e+00	 4.296999588967306e-01	-2.938732410112573e+01
 1.389281547979460e+00	 4.569497022832971e-01	-2.749547661792862e+01
 1.380037701491165e+00	 4.841510016978469e-01	-2.567845724915275e+01
 1.370216183287127e+00	 5.112864765002894e-01	-2.396312058744887e+01
 1.359815390306469e+00	 5.383385127359304e-01	-2.237666074832448e+01
 1.450375418406773e+00	 2.683955023165718e-01	-4.087991053764396e+01
 1.445031340150954e+00	 2.958199215030261e-01	-3.923376250607127e+01
 1.439133728095578e+00	 3.232941580508395e-01	-3.750208466720022e+01
 1.432676687496486e+00	 3.508026640054819e-01	-3.570873680026008e+01
 1.425654862801522e+00	 3.783295020727082e-01	-3.387847044742362e+01
 1.418063463316499e+00	 4.058583668916420e-01	-3.203686191066295e+01
 1.409898287999598e+00	 4.333726081191508e-01	-3.021023846692933e+01
 1.401155749245687e+00	 4.608552552953189e-01	-2.842559797104677e+01
 1.391832895521968e+00	 4.882890444483744e-01	-2.671052207664209e+01
 1.381927432717298e+00	 5.156564463857464e-01	-2.509308336735072e+01
 1.371437744069425e+00	 5.429396966061187e-01	-2.360174675275325e+01
 1.462666735514058e+00	 2.706700404719652e-01	-4.087655069927118e+01
 1.457277368459836e+00	 2.983268699907763e-01	-3.939822546503549e+01
 1.451329776641522e+00	 3.260339390519178e-01	-3.782328984076885e+01
 1.444818015359496e+00	 3.537755679385318e-01	-3.617644036817556e+01
 1.437736683675562e+00	 3.815356842945568e-01	-3.448333152009452e+01
 1.430080950296430e+00	 4.092978445780909e-01	-3.277050734862672e+01
 1.421846578578230e+00	 4.370452573413978e-01	-3.106532596340434e+01
 1.413029950512391e+00	 4.647608083071040e-01	-2.939587700308038e+01
 1.403628089553128e+00	 4.924270871985911e-01	-2.779089232691636e+01
 1.393638682147674e+00	 5.200264162708083e-01	-2.627965021831819e+01
 1.383060097832401e+00	 5.475408804758173e-01	-2.489187345760375e+01
 1.474958052621828e+00	 2.729445786273588e-01	-4.086178548494108e+01
 1.469523396769290e+00	 3.008338184785218e-01	-3.955789742543941e+01
 1.463525825188096e+00	 3.287737200529772e-01	-3.814653542833391e+01
 1.456959343223164e+00	 3.567484718715391e-01	-3.665322488759223e+01
 1.449818504550261e+00	 3.847418665163292e-01	-3.510451459090800e+01
 1.442098437276991e+00	 4.127373222644202e-01	-3.352790702516860e+01
 1.433794869157430e+00	 4.407179065634715e-01	-3.195178112730006e+01
 1.424904151779575e+00	 4.686663613186522e-01	-3.040530763734469e+01
 1.415423283584646e+00	 4.965651299484973e-01	-2.891835727727203e+01
 1.405349931578255e+00	 5.243963861554752e-01	-2.752140204702480e+01
 1.394682451595397e+00	 5.521420643450261e-01	-2.624540999792958e+01
 1.278458913966357e+00	 5.061302256309002e-01	-1.577161146581881e+01
 1.268134914741677e+00	 5.314685672938273e-01	-1.892786452899698e+01
 1.257265245121364e+00	 5.566948027665093e-01	-2.189670452045257e+01
 1.245850388605507e+00	 5.817918951274083e-01	-2.466474963246660e+01
 1.233891518761329e+00	 6.067427131481519e-01	-2.721906064133941e+01
 1.221390509410137e+00	 6.315300654405880e-01	-2.954720257529488e+01
 1.208349942826211e+00	 6.561367355249965e-01	-3.163730537794985e+01
 1.194773115862958e+00	 6.805455176867415e-01	-3.347812314122118e+01
 1.180664043931685e+00	 7.047392534804008e-01	-3.505909147995135e+01
 1.166027462769146e+00	 7.287008687329783e-01	-3.637038262321217e+01
 1.150868827941644e+00	 7.524134108913275e-01	-3.740295780431894e+01
 1.290081267729169e+00	 5.107314095045163e-01	-1.649071305805694e+01
 1.279663413966696e+00	 5.363000997284292e-01	-1.948621511485631e+01
 1.268694929168601e+00	 5.617556646147478e-01	-2.231756266582540e+01
 1.257176301230428e+00	 5.870809123608272e-01	-2.496891192676890e+01
 1.245108714388191e+00	 6.122585559998535e-01	-2.742473341583870e+01
 1.232494059497939e+00	 6.372712478583265e-01	-2.966988157907103e+01
 1.219334942309169e+00	 6.621016149430717e-01	-3.168966425784441e+01
 1.205634689646682e+00	 6.867322951238657e-01	-3.346991153794521e+01
 1.191397353425526e+00	 7.111459739694163e-01	-3.499704351050824e+01
 1.176627712434604e+00	 7.353254220869723e-01	-3.625813647011546e+01
 1.161331271836279e+00	 7.592535328092679e-01	-3.724098707500860e+01
 1.301703621492001e+00	 5.153325933776431e-01	-1.728798777804051e+01
 1.291191913191545e+00	 5.411316321624557e-01	-2.010298582388885e+01
 1.280124613215495e+00	 5.668165264623538e-01	-2.277662970451313e+01
 1.268502213854855e+00	 5.923699295935861e-01	-2.529064525438261e+01
 1.256325910014428e+00	 6.177743988508976e-01	-2.762694594320522e+01
 1.243597609585001e+00	 6.430124302754390e-01	-2.976771037796652e+01
 1.230319941791294e+00	 6.680664943605835e-01	-3.169546048400115e+01
 1.216496263429501e+00	 6.929190725605179e-01	-3.339313987090330e+01
 1.202130662918409e+00	 7.175526944580828e-01	-3.484419187191365e+01
 1.187227962099074e+00	 7.419499754407718e-01	-3.603263673285340e+01
 1.171793715729913e+00	 7.660936547271976e-01	-3.694314741902183e+01
 1.313325975254853e+00	 5.199337772502799e-01	-1.816135618835661e+01
 1.302720412416223e+00	 5.459631645959069e-01	-2.077662073204250e+01
 1.291554297262048e+00	 5.718773883093278e-01	-2.327288544110677e+01
 1.279828126478787e+00	 5.976589468256857e-01	-2.562947652516018e+01
 1.267543105640037e+00	 6.232902417012837e-01	-2.782578273345437e+01
 1.254701159671323e+00	 6.487536126919254e-01	-2.984134065444559e+01
 1.241304941272585e+00	 6.740313737775310e-01	-3.165592152250651e+01
 1.227357837211414e+00	 6.991058499966986e-01	-3.324961900400672e+01
 1.212863972410334e+00	 7.239594149464007e-01	-3.460293741014667e+01
 1.197828211762553e+00	 7.485745287943757e-01	-3.569687976384819e+01
 1.182256159622547e+00	 7.729337766451166e-01	-3.651303513311050e+01
 1.324948329017727e+00	 5.245349611224271e-01	-1.910881165351398e+01
 1.314248911640731e+00	 5.507946970287825e-01	-2.150561835470541e+01
 1.302983981308260e+00	 5.769382501556699e-01	-2.380534532886208e+01
 1.291154039102225e+00	 6.029479640571251e-01	-2.598494910795320e+01
 1.278760301265018e+00	 6.288060845510121e-01	-2.802132519795853e+01
 1.265804709756905e+00	 6.544947951077862e-01	-2.989140109906002e+01
 1.252289940753044e+00	 6.799962531939144e-01	-3.157223165233657e+01
 1.238219410992422e+00	 7.052926274324078e-01	-3.304109615188861e+01
 1.223597281901301e+00	 7.303661354343699e-01	-3.427559662888358e+01
 1.208428461425044e+00	 7.551990821477844e-01	-3.525375668650356e+01
 1.192718603514182e+00	 7.797738985630251e-01	-3.595412024269891e+01
 1.336570682780620e+00	 5.291361449940847e-01	-2.012841717616629e+01
 1.325777410865070e+00	 5.556262294610830e-01	-2.228852928131782e+01
 1.314413665354130e+00	 5.819991120013793e-01	-2.437305892131483e+01
 1.302479951725169e+00	 6.082369812879048e-01	-2.635662211656723e+01
 1.289977496889373e+00	 6.343219274000825e-01	-2.821365178573460e+01
 1.276908259841745e+00	 6.602359775230207e-01	-2.991849841165507e+01
 1.263274940232669e+00	 6.859611326097342e-01	-3.144553384460344e+01
 1.249080984772522e+00	 7.114794048676448e-01	-3.276925764879050e+01
 1.234330591391309e+00	 7.367728559219902e-01	-3.386440535805811e+01
 1.219028711086545e+00	 7.618236355009983e-01	-3.470605797185308e+01
 1.203181047404816e+00	 7.866140204809229e-01	-3.526975199338028e+01
 1.348193036543535e+00	 5.337373288652523e-01	-2.121830239697543e+01
 1.337305910089237e+00	 5.604577618928078e-01	-2.312395393232737e+01
 1.325843349399657e+00	 5.870599738464568e-01	-2.497510840398023e+01
 1.313805864347619e+00	 6.135259985180249e-01	-2.674406973264557e+01
 1.301194692513100e+00	 6.398377702484953e-01	-2.840283811267726e+01
 1.288011809925847e+00	 6.659771599376293e-01	-2.992321825078462e+01
 1.274259939711461e+00	 6.919260120249896e-01	-3.127693154459396e+01
 1.259942558551717e+00	 7.176661823024106e-01	-3.243573157422735e+01
 1.245063900880360e+00	 7.431795764092617e-01	-3.337152223266359e+01
 1.229628960747055e+00	 7.684481888540168e-01	-3.405647777848111e+01
 1.213643491294451e+00	 7.934541423988104e-01	-3.446316405836571e+01
 1.359815390306469e+00	 5.383385127359304e-01	-2.237666074832448e+01
 1.348834409313236e+00	 5.652892943239575e-01	-2.401054043116875e+01
 1.337273033444844e+00	 5.921208356909020e-01	-2.561060720134627e+01
 1.325131776969575e+00	 6.188150157474851e-01	-2.714688056327320e+01
 1.312411888136201e+00	 6.453536130962503e-01	-2.858895708416087e+01
 1.299115360009208e+00	 6.717183423516120e-01	-2.990612613443340e+01
 1.285244939189419e+00	 6.978908914396811e-01	-3.106749036241707e+01
 1.270804132330007e+00	 7.238529597367049e-01	-3.204209024399683e+01
 1.255797210368453e+00	 7.495862968961844e-01	-3.279903199314958e+01
 1.240229210406577e+00	 7.750727422068403e-01	-3.330761806987763e+01
 1.224105935183085e+00	 8.002942643166867e-01	-3.353747947887953e+01
 1.371437744069425e+00	 5.429396966061187e-01	-2.360174675275325e+01
 1.360362908537064e+00	 5.701208267545316e-01	-2.494698258444353e+01
 1.348702717489688e+00	 5.971816975347151e-01	-2.627869865469347e+01
 1.336457689591036e+00	 6.241040329762855e-01	-2.756465703123986e+01
 1.323629083758674e+00	 6.508694559433473e-01	-2.877207901140294e+01
 1.310218910091828e+00	 6.774595247649685e-01	-2.986776829493565e+01
 1.296229938666545e+00	 7.038557708538085e-01	-3.081823967768196e+01
 1.281665706107390e+00	 7.300397371705269e-01	-3.158985257452331e+01
 1.266530519855588e+00	 7.559930173827586e-01	-3.214894861799775e+01
 1.250829460065109e+00	 7.816972955594688e-01	-3.246199252243277e+01
 1.234568379070720e+00	 8.071343862345530e-01	-3.249571535334302e+01
 1.383060097832401e+00	 5.475408804758173e-01	-2.489187345760375e+01
 1.371891407760723e+00	 5.749523591845306e-01	-2.593201796393614e+01
 1.360132401534192e+00	 6.022425593778959e-01	-2.697855476657527e+01
 1.347783602212004e+00	 6.293930502044260e-01	-2.799701479604277e+01
 1.334846279380521e+00	 6.563852987897866e-01	-2.895227172195582e+01
 1.321322460173709e+00	 6.832007071776993e-01	-2.980867249078384e+01
 1.307214938142837e+00	 7.098206502673718e-01	-3.053017416326300e+01
 1.292527279883867e+00	 7.362265146038777e-01	-3.108048632798636e+01
 1.277263829341764e+00	 7.623997378689840e-01	-3.142321829834776e+01
 1.261429709722652e+00	 7.883218489119022e-01	-3.152203023638338e+01
 1.245030822957354e+00	 8.139745081524086e-01	-3.134078729012440e+01
 1.394682451595397e+00	 5.521420643450261e-01	-2.624540999792958e+01
 1.383419906984210e+00	 5.797838916139538e-01	-2.696442608452521e+01
 1.371562085578352e+00	 6.073034212204445e-01	-2.770937500807049e+01
 1.359109514832477e+00	 6.346820674319068e-01	-2.844358220383441e+01
 1.346063475001740e+00	 6.619011416355681e-01	-2.912960066466998e+01
 1.332426010254849e+00	 6.889418895898038e-01	-2.972934877784261e+01
 1.318199937618296e+00	 7.157855296803712e-01	-3.020425523287179e+01
 1.303388853659439e+00	 7.424132920367565e-01	-3.051541024518777e+01
 1.287997138826982e+00	 7.688064583548604e-01	-3.062372226388689e+01
 1.272029959379205e+00	 7.949464022641402e-01	-3.049007926120839e+01
 1.255493266842989e+00	 8.208146300702533e-01	-3.007551363764609e+01
 1.150868827941644e+00	 7.524134108913275e-01	-3.740295780431894e+01
 1.135194312046280e+00	 7.758600865535584e-01	-3.596677794650285e+01
 1.119010799580969e+00	 7.990242990192602e-01	-3.453493680422154e+01
 1.102325879470541e+00	 8.218896856909992e-01	-3.309912324579395e+01
 1.085147835250138e+00	 8.444401551573477e-01	-3.165091874089690e+01
 1.067485632918797e+00	 8.666599237864125e-01	-3.018183453573948e+01
 1.049348906492078e+00	 8.885335516599897e-01	-2.868334969297765e+01
 1.030747941296336e+00	 9.100459776802332e-01	-2.714694974338165e+01
 1.011693655061181e+00	 9.311825536839639e-01	-2.556416568775084e+01
 9.921975768804164e-01	 9.519290774042841e-01	-2.392661308166804e+01
 9.722718241249999e-01	 9.722718241249999e-01	-2.222603093253057e+01
 1.161331271836279e+00	 7.592535328092679e-01	-3.724098707500860e+01
 1.145514260342112e+00	 7.829133600673248e-01	-3.574233376397684e+01
 1.129183625036312e+00	 8.062881562818414e-01	-3.423365995984724e+01
 1.112347023833931e+00	 8.293614101044999e-01	-3.270981971407918e+01
 1.095012815574977e+00	 8.521168838383165e-01	-3.116562192633159e+01
 1.077190047767566e+00	 8.745386503638365e-01	-2.959585443281971e+01
 1.058888442009220e+00	 8.966111293999636e-01	-2.799530856080296e+01
 1.040118377129261e+00	 9.183191229297812e-01	-2.635880398245482e+01
 1.020890870109385e+00	 9.396478496249905e-01	-2.468121369647024e+01
 1.001217554853339e+00	 9.605829781071776e-01	-2.295748896261596e+01
 9.811106588900002e-01	 9.811106588899999e-01	-2.118268401309487e+01
 1.171793715729913e+00	 7.660936547271976e-01	-3.694314741902183e+01
 1.155834208636955e+00	 7.899666335812606e-01	-3.540475199716388e+01
 1.139356450490695e+00	 8.135520135447331e-01	-3.384216983010354e+01
 1.122368168196411e+00	 8.368331345184133e-01	-3.225337733459187e+01
 1.104877795898975e+00	 8.597936125197603e-01	-3.063636729511541e+01
 1.086894462615585e+00	 8.824173769417563e-01	-2.898916001406350e+01
 1.068427977525723e+00	 9.046887071404149e-01	-2.730981453374708e+01
 1.049488812961676e+00	 9.265922681797479e-01	-2.559643984883807e+01
 1.030088085157229e+00	 9.481131455663370e-01	-2.384720602649240e+01
 1.010237532826072e+00	 9.692368788102509e-01	-2.206035515099288e+01
 9.899494936549997e-01	 9.899494936549997e-01	-2.023421201021446e+01
 1.182256159622547e+00	 7.729337766451166e-01	-3.651303513311050e+01
 1.166154156930807e+00	 7.970199070953664e-01	-3.495702503758808e+01
 1.149529275944117e+00	 8.208158708079358e-01	-3.336284982182354e+01
 1.132389312557980e+00	 8.443048589327393e-01	-3.173156658518181e+01
 1.114742776222132e+00	 8.674703412016775e-01	-3.006430960616440e+01
 1.096598877462853e+00	 8.902961035201722e-01	-2.836228869908141e+01
 1.077967513041584e+00	 9.127662848813437e-01	-2.662678725250758e+01
 1.058859248793580e+00	 9.348654134301332e-01	-2.485915995251712e+01
 1.039285300204712e+00	 9.565784415080028e-01	-2.306083019594254e+01
 1.019257510798614e+00	 9.778907795135040e-01	-2.123328720116169e+01
 9.987883284199998e-01	 9.987883284199998e-01	-1.937808282617455e+01
 1.192718603514182e+00	 7.797738985630251e-01	-3.595412024269891e+01
 1.176474105223669e+00	 8.040731806096418e-01	-3.440204020356725e+01
 1.159702101396579e+00	 8.280797280714499e-01	-3.279799964505733e+01
 1.142410456918639e+00	 8.517765833474782e-01	-3.114609576178628e+01
 1.124607756544448e+00	 8.751470698840697e-01	-2.945056304927454e+01
 1.106303292309371e+00	 8.981748300990842e-01	-2.771575900801761e+01
 1.087507048556805e+00	 9.208438626227500e-01	-2.594614914337713e+01
 1.068229684624973e+00	 9.431385586809372e-01	-2.414629134784472e+01
 1.048482515251834e+00	 9.650437374499877e-01	-2.232081975799539e+01
 1.028277488770966e+00	 9.865446802169371e-01	-2.047442818337919e+01
 1.007627163185000e+00	 1.007627163185000e+00	-1.861185320861209e+01
 1.203181047404816e+00	 7.866140204809229e-01	-3.526975199338028e+01
 1.186794053515542e+00	 8.111264541240873e-01	-3.374258431001223e+01
 1.169874926848081e+00	 8.353435853352749e-01	-3.214983895341638e+01
 1.152431601278387e+00	 8.592483077626292e-01	-3.049861368329668e+01
 1.134472736865924e+00	 8.828237985669359e-01	-2.879620301024831e+01
 1.116007707155137e+00	 9.060535566784921e-01	-2.705007138445980e+01
 1.097046584071386e+00	 9.289214403646335e-01	-2.526782529826514e+01
 1.077600120455857e+00	 9.514117039321597e-01	-2.345718447181147e+01
 1.057679730298597e+00	 9.735090333922922e-01	-2.162595230035424e+01
 1.037297466743129e+00	 9.951985809205499e-01	-1.978198574925668e+01
 1.016465997950000e+00	 1.016465997950000e+00	-1.793316488853776e+01
 1.213643491294451e+00	 7.934541423988104e-01	-3.446316405836571e+01
 1.197114001806424e+00	 8.181797276387025e-01	-3.298134800185220e+01
 1.180047752298623e+00	 8.426074425994110e-01	-3.142051079612035e+01
 1.162452745637224e+00	 8.667200321781930e-01	-2.979071225651311e+01
 1.144337717186559e+00	 8.905005272502764e-01	-2.810226774471674e+01
 1.125712122000154e+00	 9.139322832583960e-01	-2.636570897578142e+01
 1.106586119585325e+00	 9.369990181069947e-01	-2.459174336091951e+01
 1.086970556286230e+00	 9.596848491838008e-01	-2.279121213723061e+01
 1.066876945345000e+00	 9.819743293349166e-01	-2.097504754820150e+01
 1.046317444715101e+00	 1.003852481624343e+00	-1.915422934900369e+01
 1.025304832715000e+00	 1.025304832715000e+00	-1.733974091811173e+01
 1.224105935183085e+00	 8.002942643166867e-01	-3.353747947887953e+01
 1.207433950096316e+00	 8.252330011534879e-01	-3.212092986522882e+01
 1.190220577748204e+00	 8.498712998638577e-01	-3.061208489301041e+01
 1.172473889995152e+00	 8.741917565941695e-01	-2.902392890955935e+01
 1.154202697506354e+00	 8.981772559340911e-01	-2.736975996612037e+01
 1.135416536844419e+00	 9.218110098387959e-01	-2.566313837346062e+01
 1.116125655098625e+00	 9.450765958498334e-01	-2.391783341897955e+01
 1.096340992116092e+00	 9.679579944358603e-01	-2.214776857754930e+01
 1.076074160391042e+00	 9.904396252778599e-01	-2.036696556443054e+01
 1.055337422686883e+00	 1.012506382328315e+00	-1.858948759137311e+01
 1.034143667480000e+00	 1.034143667480000e+00	-1.682938219622286e+01
 1.234568379070720e+00	 8.071343862345530e-01	-3.249571535334302e+01
 1.217753898385218e+00	 8.322862746684426e-01	-3.116384032964118e+01
 1.200393403196825e+00	 8.571351571286158e-01	-2.972656074303217e+01
 1.182495034352168e+00	 8.816634810105580e-01	-2.819974890155814e+01
 1.164067677825308e+00	 9.058539846183804e-01	-2.659964835294018e+01
 1.145120951687934e+00	 9.296897364196918e-01	-2.494281031575278e+01
 1.125665190611283e+00	 9.531541735931494e-01	-2.324602790151427e+01
 1.105711427945443e+00	 9.762311396883390e-01	-2.152626854022546e+01
 1.085271375436723e+00	 9.989049212211228e-01	-1.980060504138618e+01
 1.064357400658475e+00	 1.021160283032468e+00	-1.808614573784256e+01
 1.042982502245000e+00	 1.042982502245000e+00	-1.639996417072936e+01
 1.245030822957354e+00	 8.139745081524086e-01	-3.134078729012440e+01
 1.228073846673131e+00	 8.393395481835675e-01	-3.011250537333921e+01
 1.210566228644485e+00	 8.643990143936846e-01	-2.876587057598355e+01
 1.192516178708275e+00	 8.891352054273600e-01	-2.731960751584986e+01
 1.173932658143422e+00	 9.135307133031441e-01	-2.579286897992988e+01
 1.154825366530698e+00	 9.375684630010837e-01	-2.420516035492899e+01
 1.135204726123301e+00	 9.612317513369427e-01	-2.257626148172067e+01
 1.115081863774285e+00	 9.845042849412358e-01	-2.092614642581178e+01
 1.094468590482045e+00	 1.007370217164705e+00	-1.927490167873308e+01
 1.073377378629877e+00	 1.029814183736800e+00	-1.764264332313659e+01
 1.051821337010000e+00	 1.051821337010000e+00	-1.604943370697003e+01
 1.255493266842989e+00	 8.208146300702533e-01	-3.007551363764609e+01
 1.238393794960052e+00	 8.463928216988620e-01	-2.896927004344332e+01
 1.220739054091186e+00	 8.716628716590645e-01	-2.773188215667034e+01
 1.202537323063470e+00	 8.966069298445739e-01	-2.638489214354411e+01
 1.183797638460694e+00	 9.212074419883817e-01	-2.495032667778179e+01
 1.164529781372711e+00	 9.454471895829715e-01	-2.345060949114807e+01
 1.144744261634678e+00	 9.693093290812137e-01	-2.190847098448478e+01
 1.124452299602615e+00	 9.927774301945512e-01	-2.034685547008256e+01
 1.103665805527006e+00	 1.015835513108607e+00	-1.878882664242647e+01
 1.082397356601088e+00	 1.038468084441313e+00	-1.725747189471851e+01
 1.060660171775000e+00	 1.060660171775000e+00	-1.577580611284621e+01
 9.722718241249999e-01	 9.722718241249999e-01	-2.222603093253057e+01
 9.519290774042841e-01	 9.921975768804165e-01	-1.893883500803214e+01
 9.311825536839636e-01	 1.011693655061181e+00	-1.576342305138128e+01
 9.100459776802337e-01	 1.030747941296336e+00	-1.272775626277612e+01
 8.885335516599900e-01	 1.049348906492078e+00	-9.859259673292586e+00
 8.666599237864129e-01	 1.067485632918797e+00	-7.184711371654297e+00
 8.444401551573482e-01	 1.085147835250138e+00	-4.730135588402952e+00
 8.218896856909996e-01	 1.102325879470541e+00	-2.520700320940456e+00
 7.990242990192610e-01	 1.119010799580969e+00	-5.806201402827345e-01
 7.758600865535591e-01	 1.135194312046279e+00	 1.066935228349305e+00
 7.524134108913274e-01	 1.150868827941644e+00	 2.399926013076410e+00
 9.811106588900002e-01	 9.811106588899999e-01	-2.118268401309487e+01
 9.605829781071776e-01	 1.001217554853339e+00	-1.804769367482790e+01
 9.396478496249905e-01	 1.020890870109385e+00	-1.501363817273272e+01
 9.183191229297815e-01	 1.040118377129261e+00	-1.210407822553029e+01
 8.966111293999636e-01	 1.058888442009220e+00	-9.342108100560848e+00
 8.745386503638366e-01	 1.077190047767566e+00	-6.750262949074922e+00
 8.521168838383170e-01	 1.095012815574976e+00	-4.350429447883963e+00
 8.293614101045006e-01	 1.112347023833931e+00	-2.163760316614391e+00
 8.062881562818418e-01	 1.129183625036312e+00	-2.105932435999307e-01
 7.829133600673254e-01	 1.145514260342112e+00	 1.489625287796077e+00
 7.592535328092677e-01	 1.161331271836278e+00	 2.918410826353782e+00
 9.899494936549997e-01	 9.899494936549997e-01	-2.023421201021446e+01
 9.692368788102508e-01	 1.010237532826071e+00	-1.721966819700697e+01
 9.481131455663370e-01	 1.030088085157229e+00	-1.429545177726666e+01
 9.265922681797482e-01	 1.049488812961676e+00	-1.148078342924677e+01
 9.046887071404153e-01	 1.068427977525723e+00	-8.794486201668414e+00
 8.824173769417565e-01	 1.086894462615585e+00	-6.254910748333240e+00
 8.597936125197605e-01	 1.104877795898974e+00	-3.879863324282907e+00
 8.368331345184140e-01	 1.122368168196410e+00	-1.686536999758772e+00
 8.135520135447336e-01	 1.139356450490694e+00	 3.085534816435604e-01
 7.899666335812616e-01	 1.155834208636955e+00	 2.089632808080747e+00
 7.660936547271977e-01	 1.171793715729913e+00	 3.641721812702141e+00
 9.987883284199998e-01	 9.987883284199998e-01	-1.937808282617455e+01
 9.778907795135039e-01	 1.019257510798614e+00	-1.645306956667530e+01
 9.565784415080025e-01	 1.039285300204712e+00	-1.360801155292873e+01
 9.348654134301334e-01	 1.058859248793580e+00	-1.085784825664688e+01
 9.127662848813437e-01	 1.077967513041584e+00	-8.217189469733817e+00
 8.902961035201726e-01	 1.096598877462853e+00	-5.700258234584040e+00
 8.674703412016779e-01	 1.114742776222131e+00	-3.320835997183249e+00
 8.443048589327401e-01	 1.132389312557980e+00	-1.092210327466349e+00
 8.208158708079366e-01	 1.149529275944116e+00	 9.728744721649605e-01
 7.970199070953669e-01	 1.166154156930806e+00	 2.862263575823334e+00
 7.729337766451166e-01	 1.182256159622547e+00	 4.564434395456484e+00
 1.007627163185000e+00	 1.007627163185000e+00	-1.861185320861209e+01
 9.865446802169368e-01	 1.028277488770966e+00	-1.574626804739984e+01
 9.650437374499879e-01	 1.048482515251834e+00	-1.295049510944596e+01
 9.431385586809371e-01	 1.068229684624974e+00	-1.023524994313826e+01
 9.208438626227501e-01	 1.087507048556805e+00	-7.610985517586757e+00
 8.981748300990846e-01	 1.106303292309370e+00	-5.087852650348407e+00
 8.751470698840700e-01	 1.124607756544448e+00	-2.675662125108529e+00
 8.517765833474784e-01	 1.142410456918638e+00	-3.838487331554372e-01
 8.280797280714506e-01	 1.159702101396579e+00	 1.778562544845107e+00
 8.040731806096427e-01	 1.176474105223669e+00	 3.802988019596334e+00
 7.797738985630250e-01	 1.192718603514182e+00	 5.681314260314405e+00
 1.016465997950000e+00	 1.016465997950000e+00	-1.793316488853776e+01
 9.951985809205498e-01	 1.037297466743129e+00	-1.509769059797904e+01
 9.735090333922922e-01	 1.057679730298597e+00	-1.232210867809857e+01
 9.514117039321597e-01	 1.077600120455857e+00	-9.612966540384972e+00
 9.289214403646335e-01	 1.097046584071385e+00	-6.976615290523800e+00
 9.060535566784923e-01	 1.116007707155137e+00	-4.419187460469721e+00
 8.828237985669360e-01	 1.134472736865924e+00	-1.946575903380445e+00
 8.592483077626301e-01	 1.152431601278386e+00	 4.355860242285328e-01
 8.353435853352754e-01	 1.169874926848081e+00	 2.721942879924859e+00
 8.111264541240881e-01	 1.186794053515541e+00	 4.907434051375834e+00
 7.866140204809230e-01	 1.203181047404816e+00	 6.987309082924821e+00
 1.025304832715000e+00	 1.025304832715000e+00	-1.733974091811173e+01
 1.003852481624343e+00	 1.046317444715101e+00	-1.450581842946412e+01
 9.819743293349165e-01	 1.066876945345000e+00	-1.172208587873958e+01
 9.596848491838006e-01	 1.086970556286229e+00	-8.990976881758939e+00
 9.369990181069949e-01	 1.106586119585325e+00	-6.314794216331718e+00
 9.139322832583963e-01	 1.125712122000153e+00	-3.695704670603594e+00
 8.905005272502765e-01	 1.144337717186559e+00	-1.135734532773387e+00
 8.667200321781937e-01	 1.162452745637224e+00	 1.363234261833208e+00
 8.426074425994116e-01	 1.180047752298622e+00	 3.799467315418495e+00
 8.181797276387035e-01	 1.197114001806424e+00	 6.171380278262355e+00
 7.934541423988104e-01	 1.213643491294451e+00	 8.477540684361173e+00
 1.034143667480000e+00	 1.034143667480000e+00	-1.682938219622286e+01
 1.012506382328315e+00	 1.055337422686883e+00	-1.396918468745783e+01
 9.904396252778600e-01	 1.076074160391042e+00	-1.114968655004294e+01
 9.679579944358603e-01	 1.096340992116092e+00	-8.369260549560465e+00
 9.450765958498334e-01	 1.116125655098624e+00	-5.626213296333322e+00
 9.218110098387960e-01	 1.135416536844419e+00	-2.918797026810762e+00
 8.981772559340918e-01	 1.154202697506354e+00	-2.452215102893920e-01
 8.741917565941700e-01	 1.172473889995151e+00	 2.396334010336140e+00
 8.498712998638585e-01	 1.190220577748203e+00	 5.007708934121018e+00
 8.252330011534884e-01	 1.207433950096316e+00	 7.590749562321331e+00
 8.002942643166867e-01	 1.224105935183085e+00	 1.014729758887779e+01
 1.042982502245000e+00	 1.042982502245000e+00	-1.639996417072936e+01
 1.021160283032468e+00	 1.064357400658475e+00	-1.348637225225887e+01
 9.989049212211227e-01	 1.085271375436723e+00	-1.060419563922685e+01
 9.762311396883389e-01	 1.105711427945443e+00	-7.747797843902967e+00
 9.531541735931496e-01	 1.125665190611283e+00	-4.911540140954076e+00
 9.296897364196920e-01	 1.145120951687934e+00	-2.089810103302686e+00
 9.058539846183808e-01	 1.164067677825307e+00	 7.229502473978915e-01
 8.816634810105588e-01	 1.182495034352168e+00	 3.532216873208299e+00
 8.571351571286164e-01	 1.200393403196824e+00	 6.343356925854119e+00
 8.322862746684434e-01	 1.217753898385218e+00	 9.161602907888744e+00
 8.071343862345530e-01	 1.234568379070720e+00	 1.199202796008730e+01
 1.051821337010000e+00	 1.051821337010000e+00	-1.604943370697003e+01
 1.029814183736800e+00	 1.073377378629877e+00	-1.305601164992095e+01
 1.007370217164705e+00	 1.094468590482045e+00	-1.008492214775462e+01
 9.845042849412359e-01	 1.115081863774285e+00	-7.126569753163389e+00
 9.612317513369429e-01	 1.135204726123301e+00	-4.171419953073257e+00
 9.375684630010840e-01	 1.154825366530698e+00	-1.210044284920757e+00
 9.135307133031443e-01	 1.173932658143421e+00	 1.766835437984264e+00
 8.891352054273607e-01	 1.192516178708274e+00	 4.768304094755702e+00
 8.643990143936855e-01	 1.210566228644485e+00	 7.803211708760752e+00
 8.393395481835683e-01	 1.228073846673130e+00	 1.088013365708261e+01
 8.139745081524083e-01	 1.245030822957354e+00	 1.400733289329741e+01
 1.060660171775000e+00	 1.060660171775000e+00	-1.577580611284621e+01
 1.038468084441312e+00	 1.082397356601088e+00	-1.267677906775510e+01
 1.015835513108607e+00	 1.103665805527006e+00	-9.591198129747463e+00
 9.927774301945514e-01	 1.124452299602615e+00	-6.505557925908608e+00
 9.693093290812139e-01	 1.144744261634678e+00	-3.406476462204313e+00
 9.454471895829717e-01	 1.164529781372711e+00	-2.807566504890886e-01
 9.212074419883821e-01	 1.183797638460694e+00	 2.884553555877295e+00
 8.966069298445744e-01	 1.202537323063470e+00	 6.102102824760708e+00
 8.716628716590653e-01	 1.220739054091185e+00	 9.384180294534874e+00
 8.463928216988629e-01	 1.238393794960052e+00	 1.274266197553749e+01
 8.208146300702533e-01	 1.255493266842989e+00	 1.618896004323206e+01
 7.524134108913274e-01	 1.150868827941644e+00	 2.399926013076410e+00
 7.287008687329781e-01	 1.166027462769146e+00	 4.710889841059171e+00
 7.047392534804007e-01	 1.180664043931685e+00	 6.109818095454852e+00
 6.805455176867415e-01	 1.194773115862958e+00	 6.605635172696605e+00
 6.561367355249966e-01	 1.208349942826211e+00	 6.210124287861269e+00
 6.315300654405884e-01	 1.221390509410137e+00	 4.937830950096128e+00
 6.067427131481523e-01	 1.233891518761329e+00	 2.805954411047303e+00
 5.817918951274087e-01	 1.245850388605507e+00	-1.657719343931241e-01
 5.566948027665101e-01	 1.257265245121364e+00	-3.955210153648970e+00
 5.314685672938282e-01	 1.268134914741677e+00	-8.537956297007231e+00
 5.061302256309000e-01	 1.278458913966357e+00	-1.388748670415293e+01
 7.592535328092677e-01	 1.161331271836278e+00	 2.918410826353782e+00
 7.353254220869722e-01	 1.176627712434605e+00	 5.453003619291735e+00
 7.111459739694163e-01	 1.191397353425526e+00	 7.030627860250782e+00
 6.867322951238658e-01	 1.205634689646682e+00	 7.655399410832164e+00
 6.621016149430722e-01	 1.219334942309169e+00	 7.334581382775745e+00
 6.372712478583268e-01	 1.232494059497939e+00	 6.078501067281199e+00
 6.122585559998541e-01	 1.245108714388192e+00	 3.900452971654410e+00
 5.870809123608277e-01	 1.257176301230428e+00	 8.165889117682177e-01
 5.617556646147485e-01	 1.268694929168600e+00	-3.154203812864566e+00
 5.363000997284300e-01	 1.279663413966696e+00	-7.990435068771387e+00
 5.107314095045163e-01	 1.290081267729169e+00	-1.366815421728396e+01
 7.660936547271977e-01	 1.171793715729913e+00	 3.641721812702141e+00
 7.419499754407716e-01	 1.187227962099074e+00	 6.362905299308203e+00
 7.175526944580827e-01	 1.202130662918409e+00	 8.083188922755745e+00
 6.929190725605181e-01	 1.216496263429501e+00	 8.801940473892767e+00
 6.680664943605837e-01	 1.230319941791294e+00	 8.521960045197506e+00
 6.430124302754393e-01	 1.243597609585001e+00	 7.249410266645132e+00
 6.177743988508980e-01	 1.256325910014428e+00	 4.993730802517014e+00
 5.923699295935869e-01	 1.268502213854855e+00	 1.767538027170389e+00
 5.668165264623545e-01	 1.280124613215495e+00	-2.413489107824748e+00
 5.411316321624565e-01	 1.291191913191544e+00	-7.530735921193603e+00
 5.153325933776431e-01	 1.301703621492001e+00	-1.356279040189569e+01
 7.729337766451166e-01	 1.182256159622547e+00	 4.564434395456484e+00
 7.485745287943755e-01	 1.197828211762553e+00	 7.436153577021432e+00
 7.239594149464007e-01	 1.212863972410334e+00	 9.264016659861202e+00
 6.991058499966988e-01	 1.227357837211414e+00	 1.004270222500976e+01
 6.740313737775313e-01	 1.241304941272586e+00	 9.770602916257658e+00
 6.487536126919259e-01	 1.254701159671323e+00	 8.449768839121905e+00
 6.232902417012843e-01	 1.267543105640036e+00	 6.085833393158214e+00
 5.976589468256861e-01	 1.279828126478787e+00	 2.687922425501952e+00
 5.718773883093287e-01	 1.291554297262048e+00	-1.731452296152149e+00
 5.459631645959077e-01	 1.302720412416223e+00	-7.156514195765336e+00
 5.199337772502799e-01	 1.313325975254853e+00	-1.356835640771764e+01
 7.797738985630250e-01	 1.192718603514182e+00	 5.681314260314405e+00
 7.551990821477842e-01	 1.208428461425044e+00	 8.668462903824349e+00
 7.303661354343698e-01	 1.223597281901301e+00	 1.056974863038548e+01
 7.052926274324078e-01	 1.238219410992421e+00	 1.137521812527516e+01
 6.799962531939148e-01	 1.252289940753043e+00	 1.107891069378628e+01
 6.544947951077865e-01	 1.265804709756905e+00	 9.678814683621912e+00
 6.288060845510125e-01	 1.278760301265018e+00	 7.176804531323654e+00
 6.029479640571257e-01	 1.291154039102225e+00	 3.578559290819133e+00
 5.769382501556705e-01	 1.302983981308259e+00	-1.106536371716537e+00
 5.507946970287833e-01	 1.314248911640731e+00	-6.865507619904584e+00
 5.245349611224271e-01	 1.324948329017727e+00	-1.368192013114903e+01
 7.866140204809230e-01	 1.203181047404816e+00	 6.987309082924821e+00
 7.618236355009980e-01	 1.219028711086544e+00	 1.005569671454412e+01
 7.367728559219902e-01	 1.234330591391309e+00	 1.199713926280891e+01
 7.114794048676450e-01	 1.249080984772522e+00	 1.279710733823235e+01
 6.859611326097343e-01	 1.263274940232669e+00	 1.244533960822086e+01
 6.602359775230212e-01	 1.276908259841746e+00	 1.093581210685174e+01
 6.343219274000830e-01	 1.289977496889372e+00	 8.266686377189298e+00
 6.082369812879054e-01	 1.302479951725169e+00	 4.440237274747602e+00
 5.819991120013801e-01	 1.314413665354129e+00	-5.372385975385043e-01
 5.556262294610839e-01	 1.325777410865069e+00	-6.655532724618350e+00
 5.291361449940846e-01	 1.336570682780620e+00	-1.390065157372552e+01
 7.934541423988104e-01	 1.213643491294451e+00	 8.477540684361173e+00
 7.684481888540168e-01	 1.229628960747055e+00	 1.159386100567623e+01
 7.431795764092617e-01	 1.245063900880360e+00	 1.354305481778466e+01
 7.176661823024110e-01	 1.259942558551717e+00	 1.430607103586063e+01
 6.919260120249895e-01	 1.274259939711460e+00	 1.386839902907142e+01
 6.659771599376296e-01	 1.288011809925846e+00	 1.222005068521232e+01
 6.398377702484958e-01	 1.301194692513100e+00	 9.355519533728561e+00
 6.135259985180255e-01	 1.313805864347619e+00	 5.273717726589894e+00
 5.870599738464576e-01	 1.325843349399657e+00	-2.210816630030266e-02
 5.604577618928086e-01	 1.337305910089237e+00	-6.524481447458225e+00
 5.337373288652524e-01	 1.348193036543535e+00	-1.422181844066601e+01
 8.002942643166867e-01	 1.224105935183085e+00	 1.014729758887779e+01
 7.750727422068404e-01	 1.240229210406577e+00	 1.327909824293739e+01
 7.495862968961846e-01	 1.255797210368453e+00	 1.520446860898264e+01
 7.238529597367048e-01	 1.270804132330007e+00	 1.589988889399612e+01
 6.978908914396812e-01	 1.285244939189419e+00	 1.534664919413144e+01
 6.717183423516123e-01	 1.299115360009208e+00	 1.353084418506026e+01
 6.453536130962506e-01	 1.312411888136201e+00	 1.044334311347311e+01
 6.188150157474855e-01	 1.325131776969574e+00	 6.079735860346808e+00
 5.921208356909027e-01	 1.337273033444843e+00	 4.402560191684373e-01
 5.652892943239584e-01	 1.348834409313236e+00	-6.470317909684535e+00
 5.383385127359304e-01	 1.359815390306469e+00	-1.464278196513614e+01
 8.071343862345530e-01	 1.234568379070720e+00	 1.199202796008730e+01
 7.816972955594687e-01	 1.250829460065110e+00	 1.510768157860826e+01
 7.559930173827586e-01	 1.266530519855587e+00	 1.697845646693930e+01
 7.300397371705273e-01	 1.281665706107390e+00	 1.757641576595203e+01
 7.038557708538088e-01	 1.296229938666545e+00	 1.687869905415132e+01
 6.774595247649688e-01	 1.310218910091828e+00	 1.486752953787293e+01
 6.508694559433478e-01	 1.323629083758674e+00	 1.153019480187620e+01
 6.241040329762860e-01	 1.336457689591036e+00	 6.859001862401339e+00
 5.971816975347158e-01	 1.348702717489688e+00	 8.512074525466353e-01
 5.701208267545327e-01	 1.360362908537064e+00	-6.491075357304354e+00
 5.429396966061187e-01	 1.371437744069425e+00	-1.516099294483707e+01
 8.139745081524083e-01	 1.245030822957354e+00	 1.400733289329741e+01
 7.883218489119019e-01	 1.261429709722652e+00	 1.707600936043564e+01
 7.623997378689837e-01	 1.277263829341764e+00	 1.886219243162424e+01
 7.362265146038778e-01	 1.292527279883868e+00	 1.933357852385502e+01
 7.098206502673721e-01	 1.307214938142837e+00	 1.846320422618480e+01
 6.832007071776995e-01	 1.321322460173709e+00	 1.622946586708295e+01
 6.563852987897871e-01	 1.334846279380521e+00	 1.261611091748212e+01
 6.293930502044267e-01	 1.347783602212004e+00	 7.612201943350151e+00
 6.022425593778966e-01	 1.360132401534191e+00	 1.212054024460993e+00
 5.749523591845315e-01	 1.371891407760722e+00	-6.584853256342615e+00
 5.475408804758173e-01	 1.383060097832401e+00	-1.577398797843214e+01
 8.208146300702533e-01	 1.255493266842989e+00	 1.618896004323206e+01
 7.949464022641402e-01	 1.272029959379205e+00	 1.918059991509337e+01
 7.688064583548604e-01	 1.287997138826982e+00	 2.085294466037688e+01
 7.424132920367567e-01	 1.303388853659439e+00	 2.116937305791619e+01
 7.157855296803717e-01	 1.318199937618296e+00	 2.009886504926818e+01
 6.889418895898042e-01	 1.332426010254849e+00	 1.761603356357329e+01
 6.619011416355685e-01	 1.346063475001740e+00	 1.370112646908773e+01
 6.346820674319077e-01	 1.359109514832477e+00	 8.339999337245089e+00
 6.073034212204453e-01	 1.371562085578352e+00	 1.524059922902033e+00
 5.797838916139548e-01	 1.383419906984210e+00	-6.749814533351230e+00
 5.521420643450261e-01	 1.394682451595397e+00	-1.647938589015125e+01
 5.061302256309000e-01	 1.278458913966357e+00	-1.388748670415293e+01
 4.806966872910303e-01	 1.288237437281654e+00	-2.692411473605564e+00
 4.551847024354536e-01	 1.297471343285539e+00	 7.358570215004331e+00
 4.296108311925131e-01	 1.306162139129264e+00	 1.625003251430765e+01
 4.039914143349413e-01	 1.314311963391015e+00	 2.396972795687938e+01
 3.783425453957433e-01	 1.321923567499668e+00	 3.050855162850305e+01
 3.526800442951766e-01	 1.329000295832889e+00	 3.586049212482029e+01
 3.270194325395477e-01	 1.335546064616104e+00	 4.002257005684900e+01
 3.013759100415353e-01	 1.341565339750669e+00	 4.299476493133167e+01
 2.757643336008559e-01	 1.347063113700460e+00	 4.477993128194268e+01
 2.501991970734234e-01	 1.352044881565965e+00	 4.538370496705966e+01
 5.107314095045163e-01	 1.290081267729169e+00	-1.366815421728396e+01
 4.850666571792522e-01	 1.299948686710393e+00	-3.083861312384879e+00
 4.593227451881562e-01	 1.309266537313843e+00	 6.491989750531044e+00
 4.335163842061927e-01	 1.318036340392143e+00	 1.504445973545872e+01
 4.076640635585735e-01	 1.326260253965098e+00	 2.256129071904181e+01
 3.817820230831497e-01	 1.333941054474572e+00	 2.903288551635206e+01
 3.558862265176348e-01	 1.341082116701665e+00	 3.445227575368127e+01
 3.299923364729388e-01	 1.347687392473848e+00	 3.881507917404671e+01
 3.041156910427644e-01	 1.353761388291580e+00	 4.211944681652946e+01
 2.782712820886437e-01	 1.359309142004772e+00	 4.436600075757852e+01
 2.524737352288170e-01	 1.364336198669367e+00	 4.555776314093147e+01
 5.153325933776431e-01	 1.301703621492001e+00	-1.356279040189569e+01
 4.894366270670793e-01	 1.311659936139338e+00	-3.569943296617680e+00
 4.634607879405481e-01	 1.321061731342504e+00	 5.547579961840125e+00
 4.374219372196355e-01	 1.329910541655500e+00	 1.377533022550250e+01
 4.113367127820329e-01	 1.338208544539750e+00	 2.110104858802291e+01
 3.852215007704361e-01	 1.345958541450105e+00	 2.751466087371947e+01
 3.590924087400167e-01	 1.353163937571098e+00	 3.300826261722893e+01
 3.329652404062873e-01	 1.359828720332250e+00	 3.757609494165021e+01
 3.068554720439746e-01	 1.365957436833121e+00	 4.121451179347454e+01
 2.807782305764268e-01	 1.371555170309656e+00	 4.392193903656987e+01
 2.547482733842105e-01	 1.376627515773255e+00	 4.569882594487110e+01
 5.199337772502799e-01	 1.313325975254853e+00	-1.356835640771764e+01
 4.938065969545112e-01	 1.323371185568486e+00	-4.148131884368578e+00
 4.675988306926293e-01	 1.332856925371522e+00	 4.527420366352679e+00
 4.413274902328415e-01	 1.341784742919335e+00	 1.244434466976317e+01
 4.150093620053187e-01	 1.350156835114969e+00	 1.959039035873385e+01
 3.886609784576029e-01	 1.357976028426266e+00	 2.595502114174758e+01
 3.622985909623225e-01	 1.365245758441190e+00	 3.152941678568794e+01
 3.359381443395930e-01	 1.371970048191310e+00	 3.630646734531325e+01
 3.095952530451660e-01	 1.378153485375291e+00	 4.028076021684095e+01
 2.832851790642052e-01	 1.383801198615110e+00	 4.344856033403441e+01
 2.570228115396040e-01	 1.388918832877628e+00	 4.580778386143605e+01
 5.245349611224271e-01	 1.324948329017727e+00	-1.368192013114903e+01
 4.981765668415482e-01	 1.335082434997839e+00	-4.815990272320949e+00
 4.717368734443999e-01	 1.344652119400897e+00	 3.433517390459940e+00
 4.452330432458106e-01	 1.353658944183649e+00	 1.105314395287652e+01
 4.186820112284315e-01	 1.362105125690758e+00	 1.803065596729288e+01
 3.921004561446502e-01	 1.369993515403056e+00	 2.435506951045002e+01
 3.655047731845522e-01	 1.377327579311940e+00	 3.001666837102424e+01
 3.389110482728562e-01	 1.384111376051029e+00	 3.500701641494771e+01
 3.123350340463384e-01	 1.390349533918090e+00	 3.931896422694721e+01
 2.857921275519789e-01	 1.396047226921136e+00	 4.294665016475237e+01
 2.592973496949976e-01	 1.401210149982486e+00	 4.588549599754796e+01
 5.291361449940846e-01	 1.336570682780620e+00	-1.390065157372552e+01
 5.025465367281904e-01	 1.346793684427397e+00	-5.571166537175113e+00
 4.758749161958596e-01	 1.356447313430629e+00	 2.267807547818961e+00
 4.491385962585430e-01	 1.365533145448441e+00	 9.603311759260766e+00
 4.223546604513710e-01	 1.374053416267115e+00	 1.642313861577330e+01
 3.955399338315778e-01	 1.382011002380474e+00	 2.271587066922151e+01
 3.687109554067056e-01	 1.389409400183348e+00	 2.847091500385408e+01
 3.418839522060768e-01	 1.396252703911406e+00	 3.367853352760719e+01
 3.150748150474922e-01	 1.402545582461518e+00	 3.832986897691975e+01
 2.882990760397479e-01	 1.408293255227734e+00	 4.241696659144647e+01
 2.615718878503911e-01	 1.413501467087830e+00	 4.593279144907127e+01
 5.337373288652524e-01	 1.348193036543535e+00	-1.422181844066601e+01
 5.069165066144372e-01	 1.358504933857160e+00	-6.411389976629692e+00
 4.800129589470085e-01	 1.368242507460719e+00	 1.032160453250931e+00
 4.530441492710384e-01	 1.377407346713711e+00	 8.096377039080913e+00
 4.260273096741375e-01	 1.386001706844041e+00	 1.476908678705152e+01
 3.989794115183856e-01	 1.394028489358520e+00	 2.103845246680391e+01
 3.719171376287828e-01	 1.401491221055414e+00	 2.689302323396046e+01
 3.448568561392546e-01	 1.408394031772441e+00	 3.232178264297990e+01
 3.178145960486270e-01	 1.414741631005575e+00	 3.731419379638082e+01
 2.908060245275123e-01	 1.420539283534902e+00	 4.186024140849377e+01
 2.638464260057847e-01	 1.425792784193659e+00	 4.595047059480933e+01
 5.383385127359304e-01	 1.359815390306469e+00	-1.464278196513614e+01
 5.112864765002892e-01	 1.370216183287127e+00	-7.334467638006572e+00
 4.841510016978469e-01	 1.380037701491165e+00	-2.716183179184597e-01
 4.569497022832972e-01	 1.389281547979459e+00	 6.533816347750673e+00
 4.296999588967309e-01	 1.397949997421536e+00	 1.306970615632818e+01
 4.024188892050738e-01	 1.406045976337196e+00	 1.932380748612443e+01
 3.751233198507839e-01	 1.413573041928139e+00	 2.528382985898780e+01
 3.478297600723899e-01	 1.420535359634134e+00	 3.093750147552117e+01
 3.205543770497430e-01	 1.426937679550262e+00	 3.627263329546020e+01
 2.933129730152719e-01	 1.432785311842642e+00	 4.127718126493496e+01
 2.661209641611783e-01	 1.438084101299974e+00	 4.593930632414086e+01
 5.429396966061187e-01	 1.371437744069425e+00	-1.516099294483707e+01
 5.156564463857463e-01	 1.381927432717298e+00	-8.338281023385925e+00
 4.882890444483744e-01	 1.391832895521968e+00	-1.641784515910913e+00
 4.608552552953190e-01	 1.401155749245686e+00	 4.917056066477434e+00
 4.333726081191510e-01	 1.409898287999599e+00	 1.132616140545282e+01
 4.058583668916424e-01	 1.418063463316499e+00	 1.757289453905723e+01
 3.783295020727088e-01	 1.425654862801521e+00	 2.364414318557510e+01
 3.508026640054825e-01	 1.432676687496486e+00	 2.952640260698633e+01
 3.232941580508401e-01	 1.439133728095577e+00	 3.520585841266961e+01
 2.958199215030269e-01	 1.445031340150954e+00	 4.066846873038006e+01
 2.683955023165718e-01	 1.450375418406773e+00	 4.590004520223462e+01
 5.475408804758173e-01	 1.383060097832401e+00	-1.577398797843214e+01
 5.200264162708083e-01	 1.393638682147674e+00	-9.420782960870497e+00
 4.924270871985911e-01	 1.403628089553128e+00	-3.076652639384825e+00
 4.647608083071041e-01	 1.413029950512392e+00	 3.247474510845311e+00
 4.370452573413979e-01	 1.421846578578230e+00	 9.539577945769006e+00
 4.092978445780913e-01	 1.430080950296430e+00	 1.578664008581762e+01
 3.815356842945573e-01	 1.437736683675562e+00	 2.197474422690167e+01
 3.537755679385325e-01	 1.444818015359496e+00	 2.808917454286803e+01
 3.260339390519186e-01	 1.451329776641522e+00	 3.411451740994247e+01
 2.983268699907771e-01	 1.457277368459836e+00	 4.003476330717071e+01
 2.706700404719653e-01	 1.462666735514058e+00	 4.583340857651238e+01
 5.521420643450261e-01	 1.394682451595397e+00	-1.647938589015125e+01
 5.243963861554752e-01	 1.405349931578255e+00	-1.057999463228728e+01
 4.965651299484972e-01	 1.415423283584646e+00	-4.574593487181687e+00
 4.686663613186524e-01	 1.424904151779574e+00	 1.526403933969091e+00
 4.407179065634718e-01	 1.433794869157430e+00	 7.711043554816477e+00
 4.127373222644204e-01	 1.442098437276991e+00	 1.396593958338652e+01
 3.847418665163297e-01	 1.449818504550261e+00	 2.027638784035451e+01
 3.567484718715399e-01	 1.456959343223164e+00	 2.662648271601186e+01
 3.287737200529779e-01	 1.463525825188096e+00	 3.299923681792184e+01
 3.008338184785227e-01	 1.469523396769290e+00	 3.937670239193443e+01
 2.729445786273588e-01	 1.474958052621828e+00	 4.574009362778946e+01
 2.501991970734234e-01	 1.352044881565965e+00	 4.538370496705966e+01
 2.246946132453406e-01	 1.356516616473704e+00	 3.022226208794464e+01
 1.992642974238829e-01	 1.360484744408075e+00	 1.634819028299574e+01
 1.739215527406030e-01	 1.363956118608690e+00	 3.764405262873545e+00
 1.486792571529468e-01	 1.366937993652964e+00	-7.530274184320019e+00
 1.235498521293628e-01	 1.369437999341071e+00	-1.754094917151665e+01
 9.854533298911115e-02	 1.371464114494739e+00	-2.627645403649753e+01
 7.367724086214492e-02	 1.373024640776572e+00	-3.374916160224157e+01
 4.895665622776053e-02	 1.374128176631064e+00	-3.997478192910918e+01
 2.439419398469604e-02	 1.374783591442656e+00	-4.497215606700087e+01
 0.000000000000000e+00	 1.375000000000000e+00	-4.876304625850116e+01
 2.524737352288170e-01	 1.364336198669367e+00	 4.555776314093147e+01
 2.267372915474652e-01	 1.368848585712971e+00	 3.122056527878210e+01
 2.010757910364978e-01	 1.372852787537955e+00	 1.793927063555352e+01
 1.755026577650256e-01	 1.376355719686112e+00	 5.722342569829680e+00
 1.500308867628343e-01	 1.379364702685561e+00	-5.425316409048955e+00
 1.246730326026296e-01	 1.381887435698295e+00	-1.550223223997454e+01
 9.944119965202770e-02	 1.383931970080786e+00	-2.451021746916802e+01
 7.434703396034356e-02	 1.385506682965300e+00	-3.245422128760498e+01
 4.940171673850238e-02	 1.386620250964008e+00	-3.934217274550600e+01
 2.461595938432043e-02	 1.387281624092119e+00	-4.518481841309075e+01
 0.000000000000000e+00	 1.387500000000000e+00	-4.999555571816664e+01
 2.547482733842105e-01	 1.376627515773255e+00	 4.569882594487110e+01
 2.287799698495900e-01	 1.381180554952629e+00	 3.219494513462990e+01
 2.028872846491126e-01	 1.385220830668143e+00	 1.951944351244989e+01
 1.770837627894483e-01	 1.388755320763768e+00	 7.686239479680046e+00
 1.513825163727218e-01	 1.391791411718328e+00	-3.293779365587616e+00
 1.257962130758965e-01	 1.394336872055636e+00	-1.341266792405598e+01
 1.003370663149443e-01	 1.396399825666909e+00	-2.266532606484319e+01
 7.501682705854221e-02	 1.397988725154069e+00	-3.104939291732781e+01
 4.984677724924420e-02	 1.399112325296969e+00	-3.856513403014654e+01
 2.483772478394482e-02	 1.399779656741585e+00	-4.521532243011397e+01
 0.000000000000000e+00	 1.400000000000000e+00	-5.100511459356174e+01
 2.570228115396040e-01	 1.388918832877628e+00	 4.580778386143605e+01
 2.308226481517145e-01	 1.393512524192677e+00	 3.314605153550247e+01
 2.046987782617274e-01	 1.397588873798637e+00	 2.108901350805060e+01
 1.786648678138709e-01	 1.401154921841657e+00	 9.655953076165744e+00
 1.527341459826092e-01	 1.404218120751266e+00	-1.136353087760215e+00
 1.269193935491633e-01	 1.406786308413095e+00	-1.127359021805984e+01
 1.012329329778609e-01	 1.408867681253106e+00	-2.074385172509277e+01
 7.568662015674081e-02	 1.410470767342880e+00	-2.953757723273677e+01
 5.029183775998605e-02	 1.411604399629950e+00	-3.764748317782160e+01
 2.505949018356920e-02	 1.412277689391056e+00	-4.506848677033965e+01
 0.000000000000000e+00	 1.412500000000000e+00	-5.179762411111643e+01
 2.592973496949976e-01	 1.401210149982486e+00	 4.588549599754796e+01
 2.328653264538391e-01	 1.405844493433116e+00	 3.407451142912840e+01
 2.065102718743421e-01	 1.409956916929438e+00	 2.264827440128073e+01
 1.802459728382935e-01	 1.413554522919780e+00	 1.163134533167752e+01
 1.540857755924967e-01	 1.416644829784374e+00	 1.046296478729728e+00
 1.280425740224302e-01	 1.419235744770672e+00	-9.086286430291764e+00
 1.021287996407774e-01	 1.421335536839377e+00	-1.874779377084594e+01
 7.635641325493947e-02	 1.422952809531733e+00	-2.792157330886065e+01
 5.073689827072789e-02	 1.424096473962949e+00	-3.659290374979364e+01
 2.528125558319359e-02	 1.424775722040532e+00	-4.474896111632415e+01
 0.000000000000000e+00	 1.425000000000000e+00	-5.237877853776732e+01
 2.615718878503911e-01	 1.413501467087830e+00	 4.593279144907127e+01
 2.349080047559638e-01	 1.418176462673946e+00	 3.498092982840333e+01
 2.083217654869569e-01	 1.422324960060546e+00	 2.419750962623076e+01
 1.818270778627161e-01	 1.425954123998136e+00	 1.361228289504165e+01
 1.554374052023842e-01	 1.429071538817652e+00	 3.253526429291890e+00
 1.291657544956971e-01	 1.431685181128366e+00	-6.851999212631751e+00
 1.030246663036940e-01	 1.433803392425723e+00	-1.667908209785784e+01
 7.702620635313809e-02	 1.435434851720629e+00	-2.620408297453875e+01
 5.118195878146975e-02	 1.436588548295966e+00	-3.540495129252908e+01
 2.550302098281797e-02	 1.437273754690013e+00	-4.426123352736420e+01
 0.000000000000000e+00	 1.437500000000000e+00	-5.275407417919619e+01
 2.638464260057847e-01	 1.425792784193659e+00	 4.595047059480933e+01
 2.369506830580884e-01	 1.430508431915166e+00	 3.586589075725051e+01
 2.101332590995718e-01	 1.434693003191961e+00	 2.573699271841963e+01
 1.834081828871388e-01	 1.438353725076726e+00	 1.559863689028367e+01
 1.567890348122716e-01	 1.441498247851101e+00	 5.484715907593079e+00
 1.302889349689639e-01	 1.444134617486177e+00	-4.571928485123975e+00
 1.039205329666105e-01	 1.446271248012144e+00	-1.453958016896162e+01
 7.769599945133675e-02	 1.447916893909566e+00	-2.438771500390329e+01
 5.162701929221158e-02	 1.449080622629002e+00	-3.408705885546821e+01
 2.572478638244236e-02	 1.449771787339498e+00	-4.360963740595728e+01
 0.000000000000000e+00	 1.450000000000000e+00	-5.292881791264277e+01
 2.661209641611783e-01	 1.438084101299974e+00	 4.593930632414086e+01
 2.389933613602131e-01	 1.442840401156778e+00	 3.672995814797450e+01
 2.119447527121866e-01	 1.447061046323683e+00	 2.726698773817346e+01
 1.849892879115614e-01	 1.450753326155550e+00	 1.759028272571064e+01
 1.581406644221591e-01	 1.453924956884721e+00	 7.739265163619834e+00
 1.314121154422308e-01	 1.456584053844107e+00	-2.247233261869070e+00
 1.048163996295271e-01	 1.458739103598640e+00	-1.233108785287127e+01
 7.836579254953538e-02	 1.460398936098545e+00	-2.247498909291397e+01
 5.207207980295342e-02	 1.461572696962056e+00	-3.264254222582719e+01
 2.594655178206674e-02	 1.462269819988988e+00	-4.279835810701006e+01
 0.000000000000000e+00	 1.462500000000000e+00	-5.290813528213749e+01
 2.683955023165718e-01	 1.450375418406773e+00	 4.590004520223462e+01
 2.410360396623377e-01	 1.455172370398780e+00	 3.757367669298695e+01
 2.137562463248014e-01	 1.459429089455712e+00	 2.878774967247506e+01
 1.865703929359840e-01	 1.463152927234606e+00	 1.958709991270107e+01
 1.594922940320465e-01	 1.466351665918511e+00	 1.001659465963326e+01
 1.325352959154976e-01	 1.469033490202154e+00	 1.209666159253739e-01
 1.057122662924437e-01	 1.471206959185211e+00	-1.005534411864066e+01
 7.903558564773400e-02	 1.472880978287564e+00	-2.046833963369527e+01
 5.251714031369526e-02	 1.474064771295128e+00	-3.107460489722812e+01
 2.616831718169113e-02	 1.474767852638482e+00	-4.183143921098483e+01
 0.000000000000000e+00	 1.475000000000000e+00	-5.269697818211138e+01
 2.706700404719653e-01	 1.462666735514058e+00	 4.583340857651238e+01
 2.430787179644623e-01	 1.467504339641174e+00	 3.839757265358699e+01
 2.155677399374162e-01	 1.471797132588047e+00	 3.029952481655213e+01
 1.881514979604067e-01	 1.475552528313897e+00	 2.158897189363170e+01
 1.608439236419340e-01	 1.478778374952471e+00	 1.231614422120409e+01
 1.336584763887645e-01	 1.481482926560319e+00	 2.531588834274142e+00
 1.066081329553602e-01	 1.483674814771857e+00	-7.714029594265551e+00
 7.970537874593264e-02	 1.485363020476627e+00	-1.837011929857206e+01
 5.296220082443710e-02	 1.486556845628219e+00	-2.938634278780539e+01
 2.639008258131552e-02	 1.487265885287981e+00	-4.071278848075328e+01
 0.000000000000000e+00	 1.487500000000000e+00	-5.230013215359815e+01
 2.729445786273588e-01	 1.474958052621828e+00	 4.574009362778946e+01
 2.451213962665869e-01	 1.479836308883957e+00	 3.920215462830357e+01
 2.173792335500309e-01	 1.484165175720690e+00	 3.180255113638653e+01
 1.897326029848293e-01	 1.487952129393421e+00	 2.359578587840659e+01
 1.621955532518215e-01	 1.491205083986602e+00	 1.463737223069300e+01
 1.347816568620313e-01	 1.493932362918601e+00	 4.983587043027442e+00
 1.075039996182768e-01	 1.496142670358577e+00	-5.308768997356959e+00
 8.037517184413129e-02	 1.497845062665731e+00	-1.618260244490270e+01
 5.340726133517893e-02	 1.499048919961328e+00	-2.758074872241082e+01
 2.661184798093990e-02	 1.499763917937484e+00	-3.944618352060478e+01
 0.000000000000000e+00	 1.500000000000000e+00	-5.172222331562545e+01
 1.500000000000000e+00	 0.000000000000000e+00	 9.750942399336697e+01
 1.499763917937484e+00	 2.661184798093904e-02	 8.523138437694779e+01
 1.499048919961329e+00	 5.340726133517817e-02	 7.248920423312229e+01
 1.497845062665731e+00	 8.037517184413061e-02	 5.932256808657264e+01
 1.496142670358577e+00	 1.075039996182762e-01	 4.577375771389413e+01
 1.493932362918601e+00	 1.347816568620308e-01	 3.188761590536982e+01
 1.491205083986601e+00	 1.621955532518211e-01	 1.771149656886962e+01
 1.487952129393420e+00	 1.897326029848289e-01	 3.295200686653417e+00
 1.484165175720690e+00	 2.173792335500308e-01	-1.130910228951895e+01
 1.479836308883957e+00	 2.451213962665869e-01	-2.604696793585977e+01
 1.474958052621828e+00	 2.729445786273588e-01	-4.086178548494108e+01
 1.512500000000000e+00	 0.000000000000000e+00	 9.649931644738133e+01
 1.512261950586988e+00	 2.683361338056342e-02	 8.420046914122335e+01
 1.511540994294438e+00	 5.385232184592000e-02	 7.158419135432800e+01
 1.510327104854835e+00	 8.104496494232924e-02	 5.866641727813487e+01
 1.508610525945297e+00	 1.083998662811928e-01	 4.546431375185281e+01
 1.506381799276883e+00	 1.359048373352977e-01	 3.199627622891231e+01
 1.503631793020732e+00	 1.635471828617086e-01	 1.828191916217052e+01
 1.500351730472945e+00	 1.913137080092516e-01	 4.342060548639231e+00
 1.496533218853332e+00	 2.191907271626456e-01	-9.801299599087333e+00
 1.492168278126741e+00	 2.471640745687115e-01	-2.412500705717915e+01
 1.487249369729599e+00	 2.752191167827523e-01	-3.860478763888872e+01
 1.525000000000000e+00	 0.000000000000000e+00	 9.694307210077781e+01
 1.524759983236486e+00	 2.705537878018779e-02	 8.439741174359149e+01
 1.524033068627529e+00	 5.429738235666183e-02	 7.167775362448775e+01
 1.522809147043897e+00	 8.171475804052787e-02	 5.877656140659045e+01
 1.521078381531942e+00	 1.092957329441093e-01	 4.568618271830361e+01
 1.518831235635048e+00	 1.370280178085645e-01	 3.239887705654494e+01
 1.516058502054693e+00	 1.648988124715960e-01	 1.890684610520192e+01
 1.512751331552235e+00	 1.928948130336742e-01	 5.202266437082894e+00
 1.508901261985667e+00	 2.210022207752603e-01	-8.722675453751938e+00
 1.504500247369134e+00	 2.492067528708361e-01	-2.287574586490528e+01
 1.499540686836884e+00	 2.774936549381459e-01	-3.726462444289702e+01
 1.537500000000000e+00	 0.000000000000000e+00	 9.880521179633486e+01
 1.537258015885981e+00	 2.727714417981218e-02	 8.579224685905270e+01
 1.536525142960601e+00	 5.474244286740368e-02	 7.274551946788982e+01
 1.535291189232917e+00	 8.238455113872650e-02	 5.963429573546950e+01
 1.533546237118513e+00	 1.101915996070258e-01	 4.642639259059051e+01
 1.531280671993095e+00	 1.381511982818314e-01	 3.308823735688275e+01
 1.528485211088482e+00	 1.662504420814835e-01	 1.958493766496327e+01
 1.525150932631292e+00	 1.944759180580968e-01	 5.880361891420700e+00
 1.521269305117696e+00	 2.228137143878751e-01	-8.062769750783602e+00
 1.516832216611136e+00	 2.512494311729607e-01	-2.228278342080753e+01
 1.511832003943683e+00	 2.797681930935394e-01	-3.681893918831015e+01
 1.550000000000000e+00	 0.000000000000000e+00	 1.020514010455935e+02
 1.549756048535470e+00	 2.749890957943656e-02	 8.835597596776950e+01
 1.549017217293655e+00	 5.518750337814550e-02	 7.476390367191836e+01
 1.547773231421895e+00	 8.305434423692513e-02	 6.122151909109998e+01
 1.546014092705009e+00	 1.110874662699424e-01	 4.767238998308063e+01
 1.543730108351024e+00	 1.392743787550982e-01	 3.405740792938740e+01
 1.540911920122102e+00	 1.676020716913709e-01	 2.031489750983588e+01
 1.537550533710115e+00	 1.960570230825194e-01	 6.380744068534386e+00
 1.533637348249418e+00	 2.246252080004899e-01	-7.811459628303112e+00
 1.529164185852748e+00	 2.532921094750853e-01	-2.233024766922511e+01
 1.524123321049998e+00	 2.820427312489329e-01	-3.724609617297185e+01
 1.562500000000000e+00	 0.000000000000000e+00	 1.066484042421066e+02
 1.562254081184955e+00	 2.772067497906093e-02	 9.206052868275879e+01
 1.561509291626691e+00	 5.563256388888735e-02	 7.771007593233000e+01
 1.560255273610832e+00	 8.372413733512374e-02	 6.352070971979767e+01
 1.558481948291430e+00	 1.119833329328590e-01	 4.941202340129026e+01
 1.556179544708835e+00	 1.403975592283651e-01	 3.529966213064719e+01
 1.553338629155550e+00	 1.689537013012584e-01	 2.109547097295162e+01
 1.549950134788705e+00	 1.976381281069421e-01	 6.707669597390903e+00
 1.546005391380833e+00	 2.264367016131047e-01	-7.958945976392911e+00
 1.541496155093968e+00	 2.553347877772099e-01	-2.300277428258919e+01
 1.536414638155826e+00	 2.843172694043264e-01	-3.852515186186518e+01
 1.575000000000000e+00	 0.000000000000000e+00	 1.125640410550097e+02
 1.574752113834436e+00	 2.794244037868531e-02	 9.687872591912289e+01
 1.574001365959708e+00	 5.607762439962918e-02	 8.156193089637348e+01
 1.572737315799726e+00	 8.439393043332238e-02	 6.651490229471409e+01
 1.570949803877776e+00	 1.128791995957756e-01	 5.163352729343307e+01
 1.568628981066530e+00	 1.415207397016319e-01	 3.680848704226283e+01
 1.565765338188829e+00	 1.703053309111458e-01	 2.192544339825871e+01
 1.562349735867061e+00	 1.992192331313647e-01	 6.865260154889876e+00
 1.558373434511941e+00	 2.282481952257195e-01	-8.495740590536036e+00
 1.553828124334798e+00	 2.573774660793345e-01	-2.428548651429988e+01
 1.548705955261170e+00	 2.865918075597200e-01	-4.063582742105391e+01
 1.587500000000000e+00	 0.000000000000000e+00	 1.197671448827384e+02
 1.587250146483912e+00	 2.816420577830969e-02	 1.027842448033168e+02
 1.586493440292707e+00	 5.652268491037100e-02	 8.629805962119487e+01
 1.585219357988580e+00	 8.506372353152102e-02	 7.018766600897473e+01
 1.583417659464048e+00	 1.137750662586921e-01	 5.432550685543919e+01
 1.581078417424106e+00	 1.426439201748988e-01	 3.857757505599910e+01
 1.578192047221937e+00	 1.716569605210333e-01	 2.280363856472667e+01
 1.574749336945184e+00	 2.008003381557873e-01	 6.857507778286220e+00
 1.570741477642742e+00	 2.300596888383343e-01	-9.412653931978337e+00
 1.566160093575237e+00	 2.594201443814592e-01	-2.616397600343507e+01
 1.560997272366028e+00	 2.888663457151135e-01	-4.355848254923172e+01
 1.600000000000000e+00	 0.000000000000000e+00	 1.282275232542269e+02
 1.599748179133383e+00	 2.838597117793407e-02	 1.097515852272937e+02
 1.598985514625687e+00	 5.696774542111284e-02	 9.189772237013072e+01
 1.597701400177391e+00	 8.573351662971965e-02	 7.452308369570217e+01
 1.595885515050245e+00	 1.146709329216086e-01	 5.747692354823872e+01
 1.593527853781565e+00	 1.437671006481656e-01	 4.060081585338261e+01
 1.590618756254874e+00	 1.730085901309208e-01	 2.372891718441699e+01
 1.587148938023073e+00	 2.023814431802099e-01	 6.688279928593404e+00
 1.583109520773236e+00	 2.318711824509491e-01	-1.070078346182333e+01
 1.578492062815286e+00	 2.614628226835838e-01	-2.862428447923758e+01
 1.573288589470401e+00	 2.911408838705071e-01	-4.727409053591684e+01
 1.612500000000000e+00	 0.000000000000000e+00	 1.379159200719124e+02
 1.612246211782850e+00	 2.860773657755843e-02	 1.177560379582715e+02
 1.611477588958649e+00	 5.741280593185468e-02	 9.834082267428894e+01
 1.610183442366161e+00	 8.640330972791826e-02	 7.950573191920049e+01
 1.608353370636367e+00	 1.155667995845252e-01	 6.107708128866020e+01
 1.605977290138907e+00	 1.448902811214324e-01	 4.287228875834195e+01
 1.603045465287642e+00	 1.743602197408082e-01	 2.470017547041129e+01
 1.599548539100729e+00	 2.039625482046325e-01	 6.361324318479743e+00
 1.595477563903424e+00	 2.336826760635639e-01	-1.235150251772603e+01
 1.590824032054943e+00	 2.635055009857084e-01	-3.165288631655539e+01
 1.585579906574289e+00	 2.934154220259006e-01	-5.176421447972918e+01
 1.625000000000000e+00	 0.000000000000000e+00	 1.488039795973696e+02
 1.624744244432312e+00	 2.882950197718282e-02	 1.267736542203567e+02
 1.623969663291593e+00	 5.785786644259652e-02	 1.056078825912896e+02
 1.622665484554890e+00	 8.707310282611692e-02	 8.512066198500899e+01
 1.620821226222414e+00	 1.164626662474418e-01	 6.511561327767329e+01
 1.618426726496131e+00	 1.460134615946994e-01	 4.538625544280289e+01
 1.615472174320238e+00	 1.757118493506957e-01	 2.571634377083600e+01
 1.611948140178151e+00	 2.055436532290552e-01	 5.880273517340097e+00
 1.607845607033305e+00	 2.354941696761788e-01	-1.435644970396996e+01
 1.603156001294210e+00	 2.655481792878331e-01	-3.523667189641486e+01
 1.597871223677692e+00	 2.956899601812942e-01	-5.701098460428452e+01
 1.474958052621828e+00	 2.729445786273588e-01	-4.086178548494108e+01
 1.469523396769290e+00	 3.008338184785218e-01	-3.955789742543941e+01
 1.463525825188096e+00	 3.287737200529772e-01	-3.814653542833391e+01
 1.456959343223164e+00	 3.567484718715391e-01	-3.665322488759223e+01
 1.449818504550261e+00	 3.847418665163292e-01	-3.510451459090800e+01
 1.442098437276991e+00	 4.127373222644202e-01	-3.352790702516860e+01
 1.433794869157430e+00	 4.407179065634715e-01	-3.195178112730006e+01
 1.424904151779575e+00	 4.686663613186522e-01	-3.040530763734469e+01
 1.415423283584646e+00	 4.965651299484973e-01	-2.891835727727203e+01
 1.405349931578255e+00	 5.243963861554752e-01	-2.752140204702480e+01
 1.394682451595397e+00	 5.521420643450261e-01	-2.624540999792958e+01
 1.487249369729599e+00	 2.752191167827523e-01	-3.860478763888872e+01
 1.481769425078744e+00	 3.033407669662652e-01	-3.745712838845824e+01
 1.475721873734670e+00	 3.315135010540273e-01	-3.627216116746365e+01
 1.469100671086833e+00	 3.597213758045253e-01	-3.505690603713762e+01
 1.461900325424960e+00	 3.879480487380636e-01	-3.381866136728190e+01
 1.454115924257551e+00	 4.161767999506894e-01	-3.256498506014479e+01
 1.445743159736630e+00	 4.443905557854587e-01	-3.130367379104578e+01
 1.436778353046758e+00	 4.725719143300821e-01	-3.004274031079634e+01
 1.427218477616163e+00	 5.007031726982478e-01	-2.879038887233682e+01
 1.417061181008836e+00	 5.287663560399447e-01	-2.755498886167951e+01
 1.406304805358394e+00	 5.567432482139901e-01	-2.634504673102373e+01
 1.499540686836884e+00	 2.774936549381459e-01	-3.726462444289702e+01
 1.494015453387626e+00	 3.058477154540085e-01	-3.612741607034580e+01
 1.487917922280615e+00	 3.342532820550773e-01	-3.502165656226334e+01
 1.481241998949843e+00	 3.626942797375113e-01	-3.393608606038759e+01
 1.473982146299001e+00	 3.911542309597980e-01	-3.285898660956872e+01
 1.466133411237483e+00	 4.196162776369589e-01	-3.177821379840042e+01
 1.457691450315262e+00	 4.480632050074460e-01	-3.068123193192499e+01
 1.448652554313463e+00	 4.764774673415118e-01	-2.955515267058842e+01
 1.439013671647323e+00	 5.048412154479985e-01	-2.838677703818476e+01
 1.428772430439212e+00	 5.331363259244142e-01	-2.716264066934212e+01
 1.417927159121370e+00	 5.613444320829541e-01	-2.586906213450835e+01
 1.511832003943683e+00	 2.797681930935394e-01	-3.681893918831015e+01
 1.506261481695937e+00	 3.083546639417515e-01	-3.554995810086474e+01
 1.500113970825930e+00	 3.369930630561272e-01	-3.437980798989968e+01
 1.493383326812194e+00	 3.656671836704973e-01	-3.327916899460173e+01
 1.486063967172383e+00	 3.943604131815324e-01	-3.221753521966632e+01
 1.478150898216786e+00	 4.230557553232283e-01	-3.116329630325649e+01
 1.469639740893325e+00	 4.517358542294331e-01	-3.008382797768555e+01
 1.460526755579689e+00	 4.803830203529415e-01	-2.894559144703950e+01
 1.450808865678127e+00	 5.089792581977491e-01	-2.771424132616240e+01
 1.440483679869384e+00	 5.375062958088838e-01	-2.635474180384869e+01
 1.429549512884325e+00	 5.659456159519182e-01	-2.483149061059068e+01
 1.524123321049998e+00	 2.820427312489329e-01	-3.724609617297185e+01
 1.518507510003678e+00	 3.108616124294948e-01	-3.570655846292968e+01
 1.512310019370616e+00	 3.397328440571772e-01	-3.433189241778768e+01
 1.505524654673888e+00	 3.686400876034834e-01	-3.307493277211264e+01
 1.498145788045108e+00	 3.975665954032666e-01	-3.188660855121631e+01
 1.490168385195461e+00	 4.264952330094976e-01	-3.071607408885015e+01
 1.481588031470819e+00	 4.554085034514203e-01	-2.951085444492149e+01
 1.472400956845438e+00	 4.842885733643713e-01	-2.821700493837550e+01
 1.462604059708573e+00	 5.131173009474997e-01	-2.677928438268374e+01
 1.452194929299351e+00	 5.418762656933532e-01	-2.514134148085791e+01
 1.441171866647260e+00	 5.705467998208821e-01	-2.324591370497196e+01
 1.536414638155826e+00	 2.843172694043264e-01	-3.852515186186518e+01
 1.530753538310847e+00	 3.133685609172381e-01	-3.657960323945116e+01
 1.524506067914674e+00	 3.424726250582273e-01	-3.486365778101621e+01
 1.517665982534923e+00	 3.716129915364694e-01	-3.331251426561920e+01
 1.510227608917174e+00	 4.007727776250010e-01	-3.185875415268581e+01
 1.502185872173508e+00	 4.299347106957671e-01	-3.043252158330390e+01
 1.493536322047746e+00	 4.590811526734075e-01	-2.896172313676561e+01
 1.484275158110709e+00	 4.881941263758013e-01	-2.737224694929902e+01
 1.474399253738662e+00	 5.172553436972505e-01	-2.558820062674622e+01
 1.463906178729113e+00	 5.462462355778226e-01	-2.353216720392450e+01
 1.452794220410174e+00	 5.751479836898462e-01	-2.112547822247610e+01
 1.548705955261170e+00	 2.865918075597200e-01	-4.063582742105391e+01
 1.542999566617443e+00	 3.158755094049813e-01	-3.815203751509036e+01
 1.536702116458102e+00	 3.452124060592773e-01	-3.596130429418047e+01
 1.529807310395300e+00	 3.745858954694554e-01	-3.398139504560699e+01
 1.522309429788582e+00	 4.039789598467353e-01	-3.212675599887223e+01
 1.514203359150925e+00	 4.333741883820365e-01	-3.030874085555105e+01
 1.505484612624103e+00	 4.627538018953948e-01	-2.843586437878468e+01
 1.496149359375500e+00	 4.920996793872311e-01	-2.641408054200470e+01
 1.486194447768395e+00	 5.213933864470012e-01	-2.414708451422906e+01
 1.475617428158671e+00	 5.506162054622920e-01	-2.153663753218527e+01
 1.464416574173068e+00	 5.797491675588102e-01	-1.848291348002586e+01
 1.560997272366028e+00	 2.888663457151135e-01	-4.355848254923172e+01
 1.555245594923469e+00	 3.183824578927246e-01	-4.040734336926826e+01
 1.548898165000901e+00	 3.479521870603273e-01	-3.761146664611827e+01
 1.541948638255018e+00	 3.775587994024414e-01	-3.507138781064462e+01
 1.534391250659332e+00	 4.071851420684697e-01	-3.268362518390948e+01
 1.526220846127715e+00	 4.368136660683060e-01	-3.034095659128542e+01
 1.517432903199891e+00	 4.664264511173821e-01	-2.793272629097171e+01
 1.508023560639813e+00	 4.960052323986609e-01	-2.534518160997897e+01
 1.497989641797769e+00	 5.255314291967518e-01	-2.246183841174913e+01
 1.487328677588024e+00	 5.549861753467614e-01	-1.916387424484407e+01
 1.476038927935941e+00	 5.843503514277741e-01	-1.533054774451439e+01
 1.573288589470401e+00	 2.911408838705071e-01	-4.727409053591684e+01
 1.567491623228924e+00	 3.208894063804678e-01	-4.332951890075106e+01
 1.561094213543070e+00	 3.506919680613774e-01	-3.980119702926670e+01
 1.554089966114079e+00	 3.805317033354274e-01	-3.657262345375830e+01
 1.546473071529424e+00	 4.103913242902040e-01	-3.352259105053756e+01
 1.538238333103876e+00	 4.402531437545753e-01	-3.052551130441108e+01
 1.529381193775111e+00	 4.700991003393692e-01	-2.745177409386098e+01
 1.519897761903649e+00	 4.999107854100907e-01	-2.416814228427489e+01
 1.509784835826787e+00	 5.296694719465024e-01	-2.053818010142696e+01
 1.499039927017173e+00	 5.593561452312309e-01	-1.642271393544350e+01
 1.487661281698794e+00	 5.889515352967382e-01	-1.168032390014821e+01
 1.585579906574289e+00	 2.934154220259006e-01	-5.176421447972918e+01
 1.579737651533808e+00	 3.233963548682111e-01	-4.690305822783498e+01
 1.573290262084611e+00	 3.534317490624274e-01	-4.251794895834951e+01
 1.566231293972480e+00	 3.835046072684134e-01	-3.847553873036851e+01
 1.558554892398857e+00	 4.135975065119385e-01	-3.463709273196235e+01
 1.550255820079409e+00	 4.436926214408446e-01	-3.085886077121310e+01
 1.541329484349762e+00	 4.737717495613564e-01	-2.699248944691440e+01
 1.531771963167006e+00	 5.038163384215205e-01	-2.288547418135305e+01
 1.521580029855448e+00	 5.338075146962531e-01	-1.838164993659099e+01
 1.510751176446117e+00	 5.637261151157004e-01	-1.332171906686498e+01
 1.499283635461626e+00	 5.935527191657022e-01	-7.543814387073230e+00
 1.597871223677692e+00	 2.956899601812942e-01	-5.701098460428452e+01
 1.591983679838119e+00	 3.259033033559543e-01	-5.111293241159856e+01
 1.585486310625523e+00	 3.561715300634776e-01	-4.574956183589270e+01
 1.578372621830225e+00	 3.864775112013996e-01	-4.077086449539720e+01
 1.570636713267633e+00	 4.168036887336729e-01	-3.602077108408913e+01
 1.562273307054313e+00	 4.471320991271141e-01	-3.133756967525683e+01
 1.553277774923845e+00	 4.774443987833438e-01	-2.655436981744144e+01
 1.543646164429884e+00	 5.077218914329503e-01	-2.149961150101945e+01
 1.533375223883753e+00	 5.379455574460040e-01	-1.599761766721547e+01
 1.522462425874856e+00	 5.680960850001699e-01	-9.869188516094685e+00
 1.510905989224438e+00	 5.981539030346663e-01	-2.932235450522269e+00
 1.394682451595397e+00	 5.521420643450261e-01	-2.624540999792958e+01
 1.383419906984210e+00	 5.797838916139538e-01	-2.696442608452521e+01
 1.371562085578352e+00	 6.073034212204445e-01	-2.770937500807049e+01
 1.359109514832477e+00	 6.346820674319068e-01	-2.844358220383441e+01
 1.346063475001740e+00	 6.619011416355681e-01	-2.912960066466998e+01
 1.332426010254849e+00	 6.889418895898038e-01	-2.972934877784261e+01
 1.318199937618296e+00	 7.157855296803712e-01	-3.020425523287179e+01
 1.303388853659439e+00	 7.424132920367565e-01	-3.051541024518777e+01
 1.287997138826982e+00	 7.688064583548604e-01	-3.062372226388689e+01
 1.272029959379205e+00	 7.949464022641402e-01	-3.049007926120839e+01
 1.255493266842989e+00	 8.208146300702533e-01	-3.007551363764609e+01
 1.406304805358394e+00	 5.567432482139901e-01	-2.634504673102373e+01
 1.394948406207697e+00	 5.846154240430896e-01	-2.673003701447595e+01
 1.382991769622504e+00	 6.123642830626772e-01	-2.711466609031669e+01
 1.370435427452928e+00	 6.399710846590581e-01	-2.747700074207074e+01
 1.357280670622920e+00	 6.674169844810206e-01	-2.779466443418755e+01
 1.343529560335928e+00	 6.946830720015954e-01	-2.804491990308728e+01
 1.329184937093667e+00	 7.217504090930887e-01	-2.820475593310944e+01
 1.314250427434890e+00	 7.486000694693998e-01	-2.825097786454927e+01
 1.298730448312043e+00	 7.752131788405625e-01	-2.816030133533233e+01
 1.282630209035559e+00	 8.015709556162806e-01	-2.790944871576448e+01
 1.265955710728375e+00	 8.276547519880928e-01	-2.747524765783863e+01
 1.417927159121370e+00	 5.613444320829541e-01	-2.586906213450835e+01
 1.406476905431348e+00	 5.894469564722256e-01	-2.602210147190527e+01
 1.394421453666978e+00	 6.174251449049096e-01	-2.614892949827434e+01
 1.381761340073830e+00	 6.452601018862087e-01	-2.624217202602086e+01
 1.368497866244649e+00	 6.729328273264731e-01	-2.629433682184009e+01
 1.354633110417626e+00	 7.004242544133872e-01	-2.629784151899836e+01
 1.340169936569694e+00	 7.277152885058061e-01	-2.624504285791967e+01
 1.325112001211006e+00	 7.547868469020427e-01	-2.612826710175942e+01
 1.309463757797747e+00	 7.816198993262644e-01	-2.593984145860734e+01
 1.293230458692502e+00	 8.081955089684213e-01	-2.567212632810913e+01
 1.276418154614268e+00	 8.344948739059324e-01	-2.531754817785229e+01
 1.429549512884325e+00	 5.659456159519182e-01	-2.483149061059068e+01
 1.418005404655163e+00	 5.942784889013609e-01	-2.485216345927768e+01
 1.405851137711774e+00	 6.224860067471424e-01	-2.482120805538734e+01
 1.393087252695183e+00	 6.505491191133597e-01	-2.474563136756907e+01
 1.379715061866928e+00	 6.784486701719254e-01	-2.463264383587813e+01
 1.365736660499942e+00	 7.061654368251790e-01	-2.448963315848114e+01
 1.351154936046379e+00	 7.336801679185235e-01	-2.432413657886381e+01
 1.335973574987789e+00	 7.609736243346858e-01	-2.414381181690608e+01
 1.320197067284093e+00	 7.880266198119669e-01	-2.395640680245323e+01
 1.303830708350034e+00	 8.148200623205618e-01	-2.376972838415566e+01
 1.286880598500666e+00	 8.413349958237717e-01	-2.359161019916770e+01
 1.441171866647260e+00	 5.705467998208821e-01	-2.324591370497196e+01
 1.429533903879145e+00	 5.991100213304970e-01	-2.323139446409298e+01
 1.417280821756893e+00	 6.275468685893746e-01	-2.314025275962233e+01
 1.404413165316985e+00	 6.558381363405106e-01	-2.299370314709207e+01
 1.390932257489756e+00	 6.839645130173780e-01	-2.281348150500861e+01
 1.376840210582875e+00	 7.119066192369704e-01	-2.262176523579111e+01
 1.362139935523721e+00	 7.396450473312408e-01	-2.244108916750501e+01
 1.346835148765235e+00	 7.671604017673291e-01	-2.229425759369640e+01
 1.330930376771083e+00	 7.944333402976689e-01	-2.220425293391494e+01
 1.314430958008157e+00	 8.214446156727025e-01	-2.219414153938791e+01
 1.297343042387568e+00	 8.481751177416111e-01	-2.228697720615313e+01
 1.452794220410174e+00	 5.751479836898462e-01	-2.112547822247610e+01
 1.441062403103291e+00	 6.039415537596327e-01	-2.117060836086910e+01
 1.428710505802334e+00	 6.326077304316072e-01	-2.111453445788193e+01
 1.415739077939239e+00	 6.611271535676618e-01	-2.099250925211729e+01
 1.402149453113134e+00	 6.894803558628307e-01	-2.084062107897384e+01
 1.387943760666427e+00	 7.176478016487620e-01	-2.069566101267073e+01
 1.373124935001719e+00	 7.456099267439583e-01	-2.059498293678584e+01
 1.357696722543348e+00	 7.733471791999721e-01	-2.057635727187261e+01
 1.341663686258716e+00	 8.008400607833710e-01	-2.067781916374714e+01
 1.325031207666869e+00	 8.280691690248431e-01	-2.093751200538805e+01
 1.307805486274977e+00	 8.550152396594507e-01	-2.139352722802789e+01
 1.464416574173068e+00	 5.797491675588102e-01	-1.848291348002586e+01
 1.452590902327603e+00	 6.087730861887682e-01	-1.868027560350305e+01
 1.440140189848097e+00	 6.376685922738400e-01	-1.875225496448998e+01
 1.427064990561943e+00	 6.664161707948125e-01	-1.874797711413752e+01
 1.413366648737060e+00	 6.949961987082831e-01	-1.871771398147957e+01
 1.399047310750597e+00	 7.233889840605537e-01	-1.871269847085565e+01
 1.384109934480375e+00	 7.515748061566756e-01	-1.878492924233667e+01
 1.368558296322125e+00	 7.795339566326149e-01	-1.898696669236559e+01
 1.352396995746991e+00	 8.072467812690729e-01	-1.937172125631992e+01
 1.335631457326171e+00	 8.346937223769836e-01	-1.999223525128734e+01
 1.318267930162891e+00	 8.618553615772905e-01	-2.090145956453665e+01
 1.476038927935941e+00	 5.843503514277741e-01	-1.533054774451439e+01
 1.464119401552080e+00	 6.136046186179041e-01	-1.577053674712303e+01
 1.451569873894183e+00	 6.427294541160723e-01	-1.606135765438984e+01
 1.438390903185097e+00	 6.717051880219633e-01	-1.626584736572850e+01
 1.424583844361535e+00	 7.005120415537357e-01	-1.644829652912284e+01
 1.410150860835385e+00	 7.291301664723454e-01	-1.667421209611230e+01
 1.395094933959687e+00	 7.575396855693931e-01	-1.701006734041060e+01
 1.379419870101568e+00	 7.857207340652584e-01	-1.752304064346017e+01
 1.363130305235910e+00	 8.136535017547750e-01	-1.828074448393446e+01
 1.346231706986062e+00	 8.413182757291240e-01	-1.935094619175782e+01
 1.328730374051309e+00	 8.686954834951300e-01	-2.080128213875328e+01
 1.487661281698794e+00	 5.889515352967382e-01	-1.168032390014821e+01
 1.475647900776722e+00	 6.184361510470401e-01	-1.245121533610011e+01
 1.462999557940591e+00	 6.477903159583051e-01	-1.304953755978354e+01
 1.449716815808702e+00	 6.769942052491146e-01	-1.355168113873594e+01
 1.435801039986560e+00	 7.060278843991882e-01	-1.403579442911540e+01
 1.421254410920791e+00	 7.348713488841370e-01	-1.458149457864473e+01
 1.406079933439656e+00	 7.635045649821103e-01	-1.526956329934784e+01
 1.390281443881676e+00	 7.919075114979012e-01	-1.618162899697999e+01
 1.373863614725471e+00	 8.200602222404771e-01	-1.739983700671257e+01
 1.356831956646543e+00	 8.479428290812646e-01	-1.900650983493702e+01
 1.339192817940233e+00	 8.755356054129694e-01	-2.108379944271709e+01
 1.499283635461626e+00	 5.935527191657022e-01	-7.543814387073230e+00
 1.487176400001530e+00	 6.232676834761757e-01	-8.731830192614048e+00
 1.474429241987322e+00	 6.528511778005376e-01	-9.724250997154734e+00
 1.461042728432757e+00	 6.822832224762654e-01	-1.061086702300772e+01
 1.447018235612134e+00	 7.115437272446408e-01	-1.148352706780743e+01
 1.432357961006815e+00	 7.406125312959287e-01	-1.243579843440792e+01
 1.417064932920283e+00	 7.694694443948278e-01	-1.356260896166663e+01
 1.401143017662449e+00	 7.980942889305445e-01	-1.495987302418014e+01
 1.384596924215675e+00	 8.264669427261790e-01	-1.672410356039445e+01
 1.367432206307614e+00	 8.545673824334052e-01	-1.895201236532943e+01
 1.349655261829663e+00	 8.823757273308089e-01	-2.174010104373322e+01
 1.510905989224438e+00	 5.981539030346663e-01	-2.932235450522269e+00
 1.498704899226502e+00	 6.280992159053116e-01	-4.621607138050857e+00
 1.485858926034374e+00	 6.579120396427700e-01	-6.092724749965500e+00
 1.472368641057263e+00	 6.875722397034166e-01	-7.448627703950116e+00
 1.458235431238258e+00	 7.170595700900936e-01	-8.794711601274471e+00
 1.443461511093458e+00	 7.463537137077204e-01	-1.023833755158762e+01
 1.428049932401566e+00	 7.754343238075454e-01	-1.188842095405231e+01
 1.412004591443889e+00	 8.042810663631879e-01	-1.385500188167094e+01
 1.395330233706523e+00	 8.328736632118814e-01	-1.624879943546429e+01
 1.378032455969274e+00	 8.611919357855460e-01	-1.918075263826164e+01
 1.360117705719598e+00	 8.892158492486488e-01	-2.276155062114674e+01
 1.255493266842989e+00	 8.208146300702533e-01	-3.007551363764609e+01
 1.238393794960052e+00	 8.463928216988620e-01	-2.896927004344332e+01
 1.220739054091186e+00	 8.716628716590645e-01	-2.773188215667034e+01
 1.202537323063470e+00	 8.966069298445739e-01	-2.638489214354411e+01
 1.183797638460694e+00	 9.212074419883817e-01	-2.495032667778179e+01
 1.164529781372711e+00	 9.454471895829715e-01	-2.345060949114807e+01
 1.144744261634678e+00	 9.693093290812137e-01	-2.190847098448478e+01
 1.124452299602615e+00	 9.927774301945512e-01	-2.034685547008256e+01
 1.103665805527006e+00	 1.015835513108607e+00	-1.878882664242647e+01
 1.082397356601088e+00	 1.038468084441313e+00	-1.725747189471851e+01
 1.060660171775000e+00	 1.060660171775000e+00	-1.577580611284621e+01
 1.265955710728375e+00	 8.276547519880928e-01	-2.747524765783863e+01
 1.248713743246684e+00	 8.534460952142418e-01	-2.669384178383872e+01
 1.230911879537568e+00	 8.789267289246001e-01	-2.577318209126517e+01
 1.212558467418335e+00	 9.040786542619943e-01	-2.472202338951672e+01
 1.193662618777638e+00	 9.288841706738568e-01	-2.354959222864609e+01
 1.174234196214413e+00	 9.533259161651070e-01	-2.226555391346314e+01
 1.154283797145776e+00	 9.773869068257236e-01	-2.087997693731960e+01
 1.133822735430714e+00	 1.001050575448077e+00	-1.940329504071487e+01
 1.112863020571797e+00	 1.024300809052669e+00	-1.784626712176090e+01
 1.091417334572207e+00	 1.047121985145915e+00	-1.621993524540719e+01
 1.069499006540000e+00	 1.069499006540000e+00	-1.453558101588244e+01
 1.276418154614268e+00	 8.344948739059324e-01	-2.531754817785229e+01
 1.259033691533726e+00	 8.604993687296211e-01	-2.477893414510027e+01
 1.241084704984276e+00	 8.861905861901355e-01	-2.409323685456664e+01
 1.222579611773449e+00	 9.115503786794145e-01	-2.325658137247929e+01
 1.203527599094765e+00	 9.365608993593316e-01	-2.226555187380089e+01
 1.183938611056242e+00	 9.612046427472428e-01	-2.111721255895011e+01
 1.163823332656955e+00	 9.854644845702333e-01	-1.980912634565107e+01
 1.143193171258858e+00	 1.009323720701601e+00	-1.833937117885079e+01
 1.122060235616609e+00	 1.032766104996730e+00	-1.670655381930460e+01
 1.100437312543332e+00	 1.055775885850517e+00	-1.490982099079612e+01
 1.078337841305000e+00	 1.078337841305000e+00	-1.294886778677194e+01
 1.286880598500666e+00	 8.413349958237717e-01	-2.359161019916770e+01
 1.269353639821178e+00	 8.675526422450008e-01	-2.321574294024914e+01
 1.251257530431308e+00	 8.934544434556709e-01	-2.268523627999775e+01
 1.232600756128812e+00	 9.190221030968349e-01	-2.198373930922157e+01
 1.213392579412076e+00	 9.442376280448065e-01	-2.109534772705999e+01
 1.193643025898199e+00	 9.690833693293788e-01	-2.000467811307189e+01
 1.173362868168216e+00	 9.935420623147427e-01	-1.869694032624691e+01
 1.152563607087049e+00	 1.017596865955126e+00	-1.715800751509752e+01
 1.131257450661441e+00	 1.041231400940791e+00	-1.537448323647742e+01
 1.109457290514461e+00	 1.064429786555119e+00	-1.333376519962704e+01
 1.087176676070000e+00	 1.087176676070000e+00	-1.102410517601056e+01
 1.297343042387568e+00	 8.481751177416111e-01	-2.228697720615313e+01
 1.279673588109040e+00	 8.746059157603802e-01	-2.199574793030142e+01
 1.261430355878664e+00	 9.007183007212065e-01	-2.154258983317719e+01
 1.242621900484424e+00	 9.264938275142550e-01	-2.089882607606735e+01
 1.223257559729569e+00	 9.519143567302811e-01	-2.003621405639791e+01
 1.203347440740282e+00	 9.769620959115145e-01	-1.892707250119172e+01
 1.182902403679558e+00	 1.001619640059252e+00	-1.754440703567174e+01
 1.161934042915285e+00	 1.025870011208651e+00	-1.586203335574049e+01
 1.140454665706294e+00	 1.049696696884853e+00	-1.385469714240527e+01
 1.118477268485596e+00	 1.073083687259721e+00	-1.149818987458744e+01
 1.096015510835000e+00	 1.096015510835000e+00	-8.769459724026630e+00
 1.307805486274977e+00	 8.550152396594507e-01	-2.139352722802789e+01
 1.289993536397313e+00	 8.816591892757599e-01	-2.111070146759018e+01
 1.271603181326345e+00	 9.079821579867418e-01	-2.065891782783326e+01
 1.252643044840285e+00	 9.339655519316756e-01	-1.999731998364921e+01
 1.233122540047246e+00	 9.595910854157564e-01	-1.908547359889247e+01
 1.213051855582494e+00	 9.848408224936503e-01	-1.788354572003347e+01
 1.192441939190983e+00	 1.009697217803762e+00	-1.635248298969817e+01
 1.171304478743568e+00	 1.034143156462176e+00	-1.445418745666126e+01
 1.149651880751167e+00	 1.058161992828914e+00	-1.215168876409797e+01
 1.127497246456736e+00	 1.081737587964323e+00	-9.409311515777231e+00
 1.104854345600000e+00	 1.104854345600000e+00	-6.192836650345344e+00
 1.318267930162891e+00	 8.618553615772905e-01	-2.090145956453665e+01
 1.300313484685995e+00	 8.887124627911391e-01	-2.055261767987716e+01
 1.281776006774351e+00	 9.152460152522772e-01	-2.002804306000240e+01
 1.262664189196394e+00	 9.414372763490958e-01	-1.927484284811927e+01
 1.242987520365106e+00	 9.672678141012309e-01	-1.824053405114146e+01
 1.222756270424832e+00	 9.927195490757862e-01	-1.687327472478419e+01
 1.201981474702488e+00	 1.017774795548272e+00	-1.512209431988395e+01
 1.180674914571895e+00	 1.042416301715701e+00	-1.293712161754233e+01
 1.158849095796060e+00	 1.066627288772976e+00	-1.026980868185391e+01
 1.136517224427881e+00	 1.090391488668925e+00	-7.073149276388629e+00
 1.113693180365000e+00	 1.113693180365000e+00	-3.301890224218451e+00
 1.328730374051309e+00	 8.686954834951300e-01	-2.080128213875328e+01
 1.310633432975088e+00	 8.957657363065190e-01	-2.031376216544771e+01
 1.291948832222681e+00	 9.225098725178128e-01	-1.964398283745852e+01
 1.272685333552753e+00	 9.489090007665163e-01	-1.872715434245497e+01
 1.252852500683149e+00	 9.749445427867061e-01	-1.749888472548241e+01
 1.232460685267298e+00	 1.000598275657922e+00	-1.589546236876924e+01
 1.211521010214075e+00	 1.025852373292782e+00	-1.385413797078116e+01
 1.190045350400269e+00	 1.050689446969226e+00	-1.131340410626261e+01
 1.168046310840973e+00	 1.075092584717037e+00	-8.213270446136958e+00
 1.145537202399030e+00	 1.099045389373528e+00	-4.495532733074880e+00
 1.122532015130000e+00	 1.122532015130000e+00	-1.040336453001913e-01
 1.339192817940233e+00	 8.755356054129694e-01	-2.108379944271709e+01
 1.320953381264590e+00	 9.028190098218986e-01	-2.038664217124267e+01
 1.302121657671336e+00	 9.297737297833478e-01	-1.950094138275840e+01
 1.282706477909361e+00	 9.563807251839367e-01	-1.835014661254417e+01
 1.262717481001375e+00	 9.826212714721810e-01	-1.685809336294761e+01
 1.242165100109891e+00	 1.008477002240058e+00	-1.494933639282634e+01
 1.221060545725744e+00	 1.033929951037291e+00	-1.254948284101970e+01
 1.199415786228689e+00	 1.058962592222751e+00	-9.585522922770618e+00
 1.177243525885908e+00	 1.083557880661099e+00	-5.986155931159242e+00
 1.154557180370186e+00	 1.107699290078130e+00	-1.682109292078503e+00
 1.131370849895000e+00	 1.131370849895000e+00	 3.393551538837357e+00
 1.349655261829663e+00	 8.823757273308089e-01	-2.174010104373322e+01
 1.331273329554503e+00	 9.098722833372782e-01	-2.076399722781737e+01
 1.312294483120316e+00	 9.370375870488835e-01	-1.959330258962907e+01
 1.292727622266217e+00	 9.638524496013569e-01	-1.813983914367962e+01
 1.272582461319784e+00	 9.902980001576561e-01	-1.631580309444996e+01
 1.251869514952611e+00	 1.016355728822194e+00	-1.403414846168183e+01
 1.230600081237495e+00	 1.042007528781801e+00	-1.120897087131550e+01
 1.208786222057155e+00	 1.067235737476276e+00	-7.755888911146497e+00
 1.186440740930863e+00	 1.092023176605160e+00	-3.592420439456448e+00
 1.163577158341345e+00	 1.116353190782732e+00	 1.361648749113777e+00
 1.140209684660000e+00	 1.140209684660000e+00	 7.183906453215490e+00
 1.360117705719598e+00	 8.892158492486488e-01	-2.276155062114674e+01
 1.341593277844827e+00	 9.169255568526578e-01	-2.143879021652909e+01
 1.322467308569620e+00	 9.443014443144191e-01	-1.991562311367235e+01
 1.302748766623323e+00	 9.713241740187775e-01	-1.809237386398081e+01
 1.282447441638377e+00	 9.979747288431313e-01	-1.586972954221719e+01
 1.261573929795459e+00	 1.024234455404330e+00	-1.314917324479720e+01
 1.240139616749326e+00	 1.050085106526311e+00	-9.833418082257879e+00
 1.218156657885667e+00	 1.075508882729801e+00	-5.826838728025139e+00
 1.195637955975838e+00	 1.100488472549222e+00	-1.035897570863960e+00
 1.172597136312511e+00	 1.125007091487334e+00	 4.630437466042144e+00
 1.149048519425000e+00	 1.149048519425000e+00	 1.126028633040122e+01
 1.060660171775000e+00	 1.060660171775000e+00	-1.577580611284621e+01
 1.038468084441312e+00	 1.082397356601088e+00	-1.267677906775510e+01
 1.015835513108607e+00	 1.103665805527006e+00	-9.591198129747463e+00
 9.927774301945514e-01	 1.124452299602615e+00	-6.505557925908608e+00
 9.693093290812139e-01	 1.144744261634678e+00	-3.406476462204313e+00
 9.454471895829717e-01	 1.164529781372711e+00	-2.807566504890886e-01
 9.212074419883821e-01	 1.183797638460694e+00	 2.884553555877295e+00
 8.966069298445744e-01	 1.202537323063470e+00	 6.102102824760708e+00
 8.716628716590653e-01	 1.220739054091185e+00	 9.384180294534874e+00
 8.463928216988629e-01	 1.238393794960052e+00	 1.274266197553749e+01
 8.208146300702533e-01	 1.255493266842989e+00	 1.618896004323206e+01
 1.069499006540000e+00	 1.069499006540000e+00	-1.453558101588244e+01
 1.047121985145914e+00	 1.091417334572208e+00	-1.102334975216641e+01
 1.024300809052668e+00	 1.112863020571797e+00	-7.564662003667787e+00
 1.001050575448077e+00	 1.133822735430714e+00	-4.156956878467135e+00
 9.773869068257237e-01	 1.154283797145776e+00	-7.975453843556819e-01
 9.533259161651076e-01	 1.174234196214413e+00	 2.516372366310108e+00
 9.288841706738570e-01	 1.193662618777638e+00	 5.787689534610967e+00
 9.040786542619949e-01	 1.212558467418335e+00	 9.019374649707428e+00
 8.789267289246008e-01	 1.230911879537568e+00	 1.221445355472134e+01
 8.534460952142426e-01	 1.248713743246684e+00	 1.537599133781034e+01
 8.276547519880928e-01	 1.265955710728375e+00	 1.850707438034430e+01
 1.078337841305000e+00	 1.078337841305000e+00	-1.294886778677194e+01
 1.055775885850517e+00	 1.100437312543332e+00	-9.093406975912714e+00
 1.032766104996730e+00	 1.122060235616609e+00	-5.330681620986320e+00
 1.009323720701601e+00	 1.143193171258858e+00	-1.668942946352291e+00
 9.854644845702336e-01	 1.163823332656955e+00	 1.883934472432289e+00
 9.612046427472433e-01	 1.183938611056242e+00	 5.320479373679252e+00
 9.365608993593318e-01	 1.203527599094765e+00	 8.633648267210804e+00
 9.115503786794150e-01	 1.222579611773449e+00	 1.181684754780540e+01
 8.861905861901361e-01	 1.241084704984275e+00	 1.486395314786173e+01
 8.604993687296220e-01	 1.259033691533725e+00	 1.776932763379440e+01
 8.344948739059326e-01	 1.276418154614268e+00	 2.052783467242835e+01
 1.087176676070000e+00	 1.087176676070000e+00	-1.102410517601056e+01
 1.064429786555119e+00	 1.109457290514461e+00	-6.893682797948816e+00
 1.041231400940791e+00	 1.131257450661441e+00	-2.894304453065605e+00
 1.017596865955126e+00	 1.152563607087049e+00	 9.550956567132509e-01
 9.935420623147430e-01	 1.173362868168216e+00	 4.636205667612449e+00
 9.690833693293790e-01	 1.193643025898198e+00	 8.131406147779012e+00
 9.442376280448070e-01	 1.213392579412075e+00	 1.142383621115537e+01
 9.190221030968353e-01	 1.232600756128811e+00	 1.449745524668464e+01
 8.934544434556715e-01	 1.251257530431307e+00	 1.733709989744073e+01
 8.675526422450017e-01	 1.269353639821178e+00	 1.992853596691576e+01
 8.413349958237718e-01	 1.286880598500666e+00	 2.225850497504538e+01
 1.096015510835000e+00	 1.096015510835000e+00	-8.769459724026630e+00
 1.073083687259721e+00	 1.118477268485596e+00	-4.430692128614629e+00
 1.049696696884853e+00	 1.140454665706294e+00	-2.604151709383533e-01
 1.025870011208651e+00	 1.161934042915285e+00	 3.711879986297935e+00
 1.001619640059253e+00	 1.182902403679558e+00	 7.457567417907576e+00
 9.769620959115149e-01	 1.203347440740282e+00	 1.094899952814271e+01
 9.519143567302818e-01	 1.223257559729569e+00	 1.415961440763009e+01
 9.264938275142555e-01	 1.242621900484423e+00	 1.706403678502690e+01
 9.007183007212070e-01	 1.261430355878663e+00	 1.963817196148927e+01
 8.746059157603812e-01	 1.279673588109040e+00	 2.185929218001666e+01
 8.481751177416113e-01	 1.297343042387569e+00	 2.370611495045646e+01
 1.104854345600000e+00	 1.104854345600000e+00	-6.192836650345344e+00
 1.081737587964323e+00	 1.127497246456736e+00	-1.710741416277221e+00
 1.058161992828914e+00	 1.149651880751166e+00	 2.566257842047579e+00
 1.034143156462176e+00	 1.171304478743567e+00	 6.598235995924229e+00
 1.009697217803762e+00	 1.192441939190982e+00	 1.034637333051821e+01
 9.848408224936508e-01	 1.213051855582493e+00	 1.377311121470843e+01
 9.595910854157568e-01	 1.233122540047245e+00	 1.684230029781261e+01
 9.339655519316761e-01	 1.252643044840284e+00	 1.951934029981930e+01
 9.079821579867426e-01	 1.271603181326344e+00	 2.177131053896306e+01
 8.816591892757606e-01	 1.289993536397312e+00	 2.356709042560197e+01
 8.550152396594509e-01	 1.307805486274977e+00	 2.487746924323661e+01
 1.113693180365000e+00	 1.113693180365000e+00	-3.301890224218451e+00
 1.090391488668925e+00	 1.136517224427881e+00	 1.260063079678812e+00
 1.066627288772976e+00	 1.158849095796060e+00	 5.581136287712127e+00
 1.042416301715701e+00	 1.180674914571895e+00	 9.611090373890528e+00
 1.017774795548272e+00	 1.201981474702488e+00	 1.330102924427791e+01
 9.927195490757867e-01	 1.222756270424832e+00	 1.660359757451629e+01
 9.672678141012316e-01	 1.242987520365105e+00	 1.947316945266627e+01
 9.414372763490964e-01	 1.262664189196394e+00	 2.186602663326496e+01
 9.152460152522779e-01	 1.281776006774350e+00	 2.374052530439060e+01
 8.887124627911401e-01	 1.300313484685995e+00	 2.505725037559867e+01
 8.618553615772904e-01	 1.318267930162891e+00	 2.577915640943468e+01
 1.122532015130000e+00	 1.122532015130000e+00	-1.040336453001913e-01
 1.099045389373527e+00	 1.145537202399030e+00	 4.475807406715434e+00
 1.075092584717037e+00	 1.168046310840974e+00	 8.779786043560831e+00
 1.050689446969226e+00	 1.190045350400269e+00	 1.274746657678394e+01
 1.025852373292782e+00	 1.211521010214075e+00	 1.631999117280023e+01
 1.000598275657922e+00	 1.232460685267297e+00	 1.944031945754084e+01
 9.749445427867065e-01	 1.252852500683148e+00	 2.205345722101521e+01
 9.489090007665166e-01	 1.272685333552752e+00	 2.410667276928985e+01
 9.225098725178134e-01	 1.291948832222681e+00	 2.554969958576550e+01
 8.957657363065197e-01	 1.310633432975087e+00	 2.633492409049748e+01
 8.686954834951300e-01	 1.328730374051309e+00	 2.641755742388153e+01
 1.131370849895000e+00	 1.131370849895000e+00	 3.393551538837357e+00
 1.107699290078130e+00	 1.154557180370186e+00	 7.930762406482344e+00
 1.083557880661099e+00	 1.177243525885908e+00	 1.215791153031340e+01
 1.058962592222751e+00	 1.199415786228689e+00	 1.600448104892184e+01
 1.033929951037292e+00	 1.221060545725744e+00	 1.940176334404574e+01
 1.008477002240058e+00	 1.242165100109890e+00	 2.228314202115860e+01
 9.826212714721815e-01	 1.262717481001375e+00	 2.458436030036721e+01
 9.563807251839371e-01	 1.282706477909361e+00	 2.624377510896454e+01
 9.297737297833488e-01	 1.302121657671336e+00	 2.720259529972919e+01
 9.028190098218994e-01	 1.320953381264590e+00	 2.740510256650315e+01
 8.755356054129694e-01	 1.339192817940233e+00	 2.679885378872045e+01
 1.140209684660000e+00	 1.140209684660000e+00	 7.183906453215490e+00
 1.116353190782732e+00	 1.163577158341346e+00	 1.161937655158665e+01
 1.092023176605160e+00	 1.186440740930862e+00	 1.571135034140911e+01
 1.067235737476276e+00	 1.208786222057155e+00	 1.937933961763831e+01
 1.042007528781801e+00	 1.230600081237494e+00	 2.254489633107139e+01
 1.016355728822194e+00	 1.251869514952611e+00	 2.513193456278156e+01
 9.902980001576563e-01	 1.272582461319784e+00	 2.706703823467604e+01
 9.638524496013575e-01	 1.292727622266217e+00	 2.827975259358198e+01
 9.370375870488843e-01	 1.312294483120315e+00	 2.870285765720837e+01
 9.098722833372790e-01	 1.331273329554503e+00	 2.827262197817044e+01
 8.823757273308089e-01	 1.349655261829663e+00	 2.692903526479661e+01
 1.149048519425000e+00	 1.149048519425000e+00	 1.126028633040122e+01
 1.125007091487334e+00	 1.172597136312511e+00	 1.553626911297775e+01
 1.100488472549222e+00	 1.195637955975838e+00	 1.943606812038504e+01
 1.075508882729801e+00	 1.218156657885667e+00	 2.286933405494294e+01
 1.050085106526311e+00	 1.240139616749326e+00	 2.574798526905836e+01
 1.024234455404330e+00	 1.261573929795459e+00	 2.798657036021702e+01
 9.979747288431317e-01	 1.282447441638376e+00	 2.950261484297754e+01
 9.713241740187781e-01	 1.302748766623323e+00	 3.021694968359594e+01
 9.443014443144199e-01	 1.322467308569620e+00	 3.005401965187255e+01
 9.169255568526588e-01	 1.341593277844826e+00	 2.894216963291629e+01
 8.892158492486486e-01	 1.360117705719598e+00	 2.681390724621441e+01
 8.208146300702533e-01	 1.255493266842989e+00	 1.618896004323206e+01
 7.949464022641402e-01	 1.272029959379205e+00	 1.918059991509337e+01
 7.688064583548604e-01	 1.287997138826982e+00	 2.085294466037688e+01
 7.424132920367567e-01	 1.303388853659439e+00	 2.116937305791619e+01
 7.157855296803717e-01	 1.318199937618296e+00	 2.009886504926818e+01
 6.889418895898042e-01	 1.332426010254849e+00	 1.761603356357329e+01
 6.619011416355685e-01	 1.346063475001740e+00	 1.370112646908773e+01
 6.346820674319077e-01	 1.359109514832477e+00	 8.339999337245089e+00
 6.073034212204453e-01	 1.371562085578352e+00	 1.524059922902033e+00
 5.797838916139548e-01	 1.383419906984210e+00	-6.749814533351230e+00
 5.521420643450261e-01	 1.394682451595397e+00	-1.647938589015125e+01
 8.276547519880928e-01	 1.265955710728375e+00	 1.850707438034430e+01
 8.015709556162803e-01	 1.282630209035559e+00	 2.081846684186827e+01
 7.752131788405626e-01	 1.298730448312043e+00	 2.195168894165814e+01
 7.486000694693997e-01	 1.314250427434890e+00	 2.187579038939795e+01
 7.217504090930887e-01	 1.329184937093667e+00	 2.056478758036113e+01
 6.946830720015958e-01	 1.343529560335928e+00	 1.799768587349455e+01
 6.674169844810209e-01	 1.357280670622919e+00	 1.415847553034849e+01
 6.399710846590586e-01	 1.370435427452928e+00	 9.036101956585384e+00
 6.123642830626780e-01	 1.382991769622504e+00	 2.624411078551486e+00
 5.846154240430909e-01	 1.394948406207696e+00	-5.077929135905414e+00
 5.567432482139901e-01	 1.406304805358394e+00	-1.406752984215031e+01
 8.344948739059326e-01	 1.276418154614268e+00	 2.052783467242835e+01
 8.081955089684212e-01	 1.293230458692502e+00	 2.220567088586489e+01
 7.816198993262644e-01	 1.309463757797747e+00	 2.284385993694224e+01
 7.547868469020430e-01	 1.325112001211007e+00	 2.241705864085387e+01
 7.277152885058064e-01	 1.340169936569694e+00	 2.090426346304501e+01
 7.004242544133874e-01	 1.354633110417626e+00	 1.828882333328287e+01
 6.729328273264735e-01	 1.368497866244649e+00	 1.455842961793910e+01
 6.452601018862094e-01	 1.381761340073830e+00	 9.705083848634629e+00
 6.174251449049104e-01	 1.394421453666977e+00	 3.725043969359032e+00
 5.894469564722263e-01	 1.406476905431347e+00	-3.381249984395744e+00
 5.613444320829541e-01	 1.417927159121370e+00	-1.160926972341373e+01
 8.413349958237718e-01	 1.286880598500666e+00	 2.225850497504538e+01
 8.148200623205618e-01	 1.303830708350034e+00	 2.334833719937308e+01
 7.880266198119669e-01	 1.320197067284093e+00	 2.353450735185481e+01
 7.609736243346860e-01	 1.335973574987789e+00	 2.279721708659020e+01
 7.336801679185236e-01	 1.351154936046379e+00	 2.112038793278847e+01
 7.061654368251792e-01	 1.365736660499941e+00	 1.849166472556431e+01
 6.784486701719261e-01	 1.379715061866928e+00	 1.490239965640176e+01
 6.505491191133607e-01	 1.393087252695183e+00	 1.034761749837957e+01
 6.224860067471428e-01	 1.405851137711774e+00	 4.825962698682524e+00
 5.942784889013624e-01	 1.418005404655163e+00	-1.660370842673551e+00
 5.659456159519182e-01	 1.429549512884325e+00	-9.105726374723702e+00
 8.481751177416113e-01	 1.297343042387569e+00	 2.370611495045646e+01
 8.214446156727022e-01	 1.314430958008157e+00	 2.425239327520002e+01
 7.944333402976689e-01	 1.330930376771083e+00	 2.402851791961199e+01
 7.671604017673291e-01	 1.346835148765235e+00	 2.302017461855622e+01
 7.396450473312413e-01	 1.362139935523721e+00	 2.121615629131936e+01
 7.119066192369707e-01	 1.376840210582875e+00	 1.860835716791105e+01
 6.839645130173785e-01	 1.390932257489756e+00	 1.519175096144670e+01
 6.558381363405112e-01	 1.404413165316985e+00	 1.096435359916328e+01
 6.275468685893755e-01	 1.417280821756893e+00	 5.927171135771800e+00
 5.991100213304978e-01	 1.429533903879145e+00	 8.413357446461589e-02
 5.705467998208821e-01	 1.441171866647260e+00	-6.557984587910656e+00
 8.550152396594509e-01	 1.307805486274977e+00	 2.487746924323661e+01
 8.280691690248427e-01	 1.325031207666869e+00	 2.492357685299167e+01
 8.008400607833710e-01	 1.341663686258716e+00	 2.433062191991520e+01
 7.733471791999721e-01	 1.357696722543348e+00	 2.308971496169116e+01
 7.456099267439583e-01	 1.373124935001719e+00	 2.119446790407857e+01
 7.176478016487626e-01	 1.387943760666427e+00	 1.864097897959516e+01
 6.894803558628312e-01	 1.402149453113133e+00	 1.542780506450058e+01
 6.611271535676622e-01	 1.415739077939239e+00	 1.155592192458765e+01
 6.326077304316081e-01	 1.428710505802333e+00	 7.028672925407978e+00
 6.039415537596337e-01	 1.441062403103291e+00	 1.851706839623720e+00
 5.751479836898462e-01	 1.452794220410174e+00	-3.967094547474399e+00
 8.618553615772904e-01	 1.318267930162891e+00	 2.577915640943468e+01
 8.346937223769834e-01	 1.335631457326171e+00	 2.536744344906381e+01
 8.072467812690728e-01	 1.352396995746991e+00	 2.444539938742328e+01
 7.795339566326152e-01	 1.368558296322125e+00	 2.300950164092263e+01
 7.515748061566757e-01	 1.384109934480375e+00	 2.105813000731968e+01
 7.233889840605542e-01	 1.399047310750597e+00	 1.859154241183040e+01
 6.949961987082838e-01	 1.413366648737060e+00	 1.561184145037364e+01
 6.664161707948132e-01	 1.427064990561942e+00	 1.212293215889835e+01
 6.376685922738407e-01	 1.440140189848097e+00	 8.130471497083477e+00
 6.087730861887695e-01	 1.452590902327603e+00	 3.641810087424563e+00
 5.797491675588102e-01	 1.464416574173068e+00	-1.334073203556997e+00
 8.686954834951300e-01	 1.328730374051309e+00	 2.641755742388153e+01
 8.413182757291239e-01	 1.346231706986062e+00	 2.558937353049270e+01
 8.136535017547751e-01	 1.363130305235910e+00	 2.437728602691130e+01
 7.857207340652586e-01	 1.379419870101568e+00	 2.278308271350154e+01
 7.575396855693932e-01	 1.395094933959687e+00	 2.080986133534295e+01
 7.291301664723457e-01	 1.410150860835385e+00	 1.846199624902665e+01
 7.005120415537363e-01	 1.424583844361535e+00	 1.574509921283021e+01
 6.717051880219642e-01	 1.438390903185097e+00	 1.266597468813554e+01
 6.427294541160733e-01	 1.451569873894183e+00	 9.232570073747148e+00
 6.136046186179049e-01	 1.464119401552080e+00	 5.453921323387966e+00
 5.843503514277741e-01	 1.476038927935941e+00	 1.340094419948979e+00
 8.755356054129694e-01	 1.339192817940233e+00	 2.679885378872045e+01
 8.479428290812644e-01	 1.356831956646543e+00	 2.559457935292240e+01
 8.200602222404771e-01	 1.373863614725471e+00	 2.413057885115596e+01
 7.919075114979014e-01	 1.390281443881676e+00	 2.241389527951103e+01
 7.635045649821107e-01	 1.406079933439657e+00	 2.045229557770490e+01
 7.348713488841375e-01	 1.421254410920791e+00	 1.825422828810798e+01
 7.060278843991887e-01	 1.435801039986560e+00	 1.582877863255578e+01
 6.769942052491154e-01	 1.449716815808702e+00	 1.318562135420311e+01
 6.477903159583056e-01	 1.462999557940591e+00	 1.033497168013865e+01
 6.184361510470409e-01	 1.475647900776722e+00	 7.287534765214168e+00
 5.889515352967382e-01	 1.487661281698794e+00	 4.054453978608297e+00
 8.823757273308089e-01	 1.349655261829663e+00	 2.692903526479661e+01
 8.545673824334050e-01	 1.367432206307614e+00	 2.538811148033309e+01
 8.264669427261790e-01	 1.384596924215675e+00	 2.370944155659599e+01
 7.980942889305445e-01	 1.401143017662449e+00	 2.190526978258330e+01
 7.694694443948279e-01	 1.417064932920282e+00	 1.998798467562772e+01
 7.406125312959290e-01	 1.432357961006815e+00	 1.797006770251746e+01
 7.115437272446413e-01	 1.447018235612134e+00	 1.586404268172847e+01
 6.822832224762662e-01	 1.461042728432757e+00	 1.368242617385944e+01
 6.528511778005384e-01	 1.474429241987322e+00	 1.143767915073618e+01
 6.232676834761766e-01	 1.487176400001529e+00	 9.142160214699960e+00
 5.935527191657022e-01	 1.499283635461626e+00	 6.808080618641945e+00
 8.892158492486486e-01	 1.360117705719598e+00	 2.681390724621441e+01
 8.611919357855461e-01	 1.378032455969275e+00	 2.497486500389875e+01
 8.328736632118816e-01	 1.395330233706523e+00	 2.311790965088323e+01
 8.042810663631879e-01	 1.412004591443889e+00	 2.126043411212335e+01
 7.754343238075456e-01	 1.428049932401566e+00	 1.941940196626476e+01
 7.463537137077207e-01	 1.443461511093458e+00	 1.761128729711008e+01
 7.170595700900940e-01	 1.458235431238257e+00	 1.585201845914906e+01
 6.875722397034173e-01	 1.472368641057263e+00	 1.415692602452855e+01
 6.579120396427711e-01	 1.485858926034374e+00	 1.254069513733549e+01
 6.280992159053126e-01	 1.498704899226502e+00	 1.101732245864431e+01
 5.981539030346663e-01	 1.510905989224438e+00	 9.600077842991166e+00
 5.521420643450261e-01	 1.394682451595397e+00	-1.647938589015125e+01
 5.243963861554752e-01	 1.405349931578255e+00	-1.057999463228728e+01
 4.965651299484972e-01	 1.415423283584646e+00	-4.574593487181687e+00
 4.686663613186524e-01	 1.424904151779574e+00	 1.526403933969091e+00
 4.407179065634718e-01	 1.433794869157430e+00	 7.711043554816477e+00
 4.127373222644204e-01	 1.442098437276991e+00	 1.396593958338652e+01
 3.847418665163297e-01	 1.449818504550261e+00	 2.027638784035451e+01
 3.567484718715399e-01	 1.456959343223164e+00	 2.662648271601186e+01
 3.287737200529779e-01	 1.463525825188096e+00	 3.299923681792184e+01
 3.008338184785227e-01	 1.469523396769290e+00	 3.937670239193443e+01
 2.729445786273588e-01	 1.474958052621828e+00	 4.574009362778946e+01
 5.567432482139901e-01	 1.406304805358394e+00	-1.406752984215031e+01
 5.287663560399445e-01	 1.417061181008836e+00	-7.435502940856164e+00
 5.007031726982477e-01	 1.427218477616163e+00	-1.018540364249823e+00
 4.725719143300822e-01	 1.436778353046758e+00	 5.178041753070968e+00
 4.443905557854591e-01	 1.445743159736631e+00	 1.114838060897613e+01
 4.161767999506898e-01	 1.454115924257551e+00	 1.688612129736423e+01
 3.879480487380641e-01	 1.461900325424960e+00	 2.238447313740943e+01
 3.597213758045257e-01	 1.469100671086833e+00	 2.763626728377242e+01
 3.315135010540280e-01	 1.475721873734670e+00	 3.263401514274440e+01
 3.033407669662659e-01	 1.481769425078743e+00	 3.736996713337205e+01
 2.752191167827523e-01	 1.487249369729599e+00	 4.183617135064007e+01
 5.613444320829541e-01	 1.417927159121370e+00	-1.160926972341373e+01
 5.331363259244141e-01	 1.428772430439212e+00	-4.241425581766880e+00
 5.048412154479984e-01	 1.439013671647323e+00	 2.595479033442704e+00
 4.764774673415119e-01	 1.448652554313463e+00	 8.901142635598552e+00
 4.480632050074462e-01	 1.457691450315262e+00	 1.467570030022246e+01
 4.196162776369592e-01	 1.466133411237483e+00	 1.991972463150392e+01
 3.911542309597985e-01	 1.473982146299001e+00	 2.463422570754184e+01
 3.626942797375119e-01	 1.481241998949842e+00	 2.882064998035241e+01
 3.342532820550780e-01	 1.487917922280614e+00	 3.248087811407849e+01
 3.058477154540093e-01	 1.494015453387626e+00	 3.561722175237969e+01
 2.774936549381459e-01	 1.499540686836884e+00	 3.823241921359755e+01
 5.659456159519182e-01	 1.429549512884325e+00	-9.105726374723702e+00
 5.375062958088834e-01	 1.440483679869384e+00	-9.989609735821183e-01
 5.089792581977491e-01	 1.450808865678127e+00	 6.266061923601811e+00
 4.803830203529417e-01	 1.460526755579689e+00	 1.269397467065830e+01
 4.517358542294334e-01	 1.469639740893325e+00	 1.829081910289859e+01
 4.230557553232287e-01	 1.478150898216786e+00	 2.306399448118776e+01
 3.943604131815328e-01	 1.486063967172383e+00	 2.702220165319868e+01
 3.656671836704979e-01	 1.493383326812194e+00	 3.017538386424885e+01
 3.369930630561280e-01	 1.500113970825930e+00	 3.253466465521010e+01
 3.083546639417524e-01	 1.506261481695937e+00	 3.411228328607390e+01
 2.797681930935394e-01	 1.511832003943683e+00	 3.492152812105871e+01
 5.705467998208821e-01	 1.441171866647260e+00	-6.557984587910656e+00
 5.418762656933529e-01	 1.452194929299350e+00	 2.290731014305031e+00
 5.131173009474997e-01	 1.462604059708573e+00	 9.991850663489739e+00
 4.842885733643716e-01	 1.472400956845438e+00	 1.655486170227494e+01
 4.554085034514207e-01	 1.481588031470819e+00	 2.199162381310318e+01
 4.264952330094980e-01	 1.490168385195461e+00	 2.631626450051339e+01
 3.975665954032672e-01	 1.498145788045108e+00	 2.954506805391235e+01
 3.686400876034840e-01	 1.505524654673887e+00	 3.169635887524661e+01
 3.397328440571781e-01	 1.512310019370616e+00	 3.279038005882342e+01
 3.108616124294957e-01	 1.518507510003677e+00	 3.284916810523987e+01
 2.820427312489330e-01	 1.524123321049998e+00	 3.189642463847486e+01
 5.751479836898462e-01	 1.452794220410174e+00	-3.967094547474399e+00
 5.462462355778224e-01	 1.463906178729113e+00	 5.626527520066517e+00
 5.172553436972506e-01	 1.474399253738663e+00	 1.377153094472528e+01
 4.881941263758014e-01	 1.484275158110708e+00	 2.048218109959516e+01
 4.590811526734078e-01	 1.493536322047745e+00	 2.577606873623066e+01
 4.299347106957674e-01	 1.502185872173508e+00	 2.967395355236221e+01
 4.007727776250016e-01	 1.510227608917174e+00	 3.219959852763562e+01
 3.716129915364700e-01	 1.517665982534923e+00	 3.337959635958313e+01
 3.424726250582280e-01	 1.524506067914673e+00	 3.324318933263500e+01
 3.133685609172390e-01	 1.530753538310846e+00	 3.182208394138259e+01
 2.843172694043264e-01	 1.536414638155826e+00	 2.915026156629175e+01
 5.797491675588102e-01	 1.464416574173068e+00	-1.334073203556997e+00
 5.506162054622918e-01	 1.475617428158671e+00	 9.007341221243472e+00
 5.213933864470012e-01	 1.486194447768394e+00	 1.760383007404548e+01
 4.920996793872311e-01	 1.496149359375500e+00	 2.447436163326831e+01
 4.627538018953951e-01	 1.505484612624103e+00	 2.964217300843715e+01
 4.333741883820368e-01	 1.514203359150925e+00	 3.313456232751180e+01
 4.039789598467358e-01	 1.522309429788582e+00	 3.498266900344228e+01
 3.745858954694560e-01	 1.529807310395299e+00	 3.522124385581959e+01
 3.452124060592781e-01	 1.536702116458102e+00	 3.388841086190112e+01
 3.158755094049823e-01	 1.542999566617443e+00	 3.102542229344222e+01
 2.865918075597200e-01	 1.548705955261170e+00	 2.667640896274912e+01
 5.843503514277741e-01	 1.476038927935941e+00	 1.340094419948979e+00
 5.549861753467613e-01	 1.487328677588024e+00	 1.243211893591387e+01
 5.255314291967518e-01	 1.497989641797769e+00	 2.148751533529079e+01
 4.960052323986610e-01	 1.508023560639814e+00	 2.852988145215766e+01
 4.664264511173823e-01	 1.517432903199891e+00	 3.358801804465081e+01
 4.368136660683061e-01	 1.526220846127715e+00	 3.669567012347466e+01
 4.071851420684702e-01	 1.534391250659332e+00	 3.789125369394171e+01
 3.775587994024420e-01	 1.541948638255018e+00	 3.721757012704897e+01
 3.479521870603281e-01	 1.548898165000901e+00	 3.472151037133561e+01
 3.183824578927254e-01	 1.555245594923469e+00	 3.045375119324690e+01
 2.888663457151135e-01	 1.560997272366028e+00	 2.446844559079918e+01
 5.889515352967382e-01	 1.487661281698794e+00	 4.054453978608297e+00
 5.593561452312308e-01	 1.499039927017173e+00	 1.589984028942965e+01
 5.296694719465024e-01	 1.509784835826787e+00	 2.542139242817073e+01
 4.999107854100908e-01	 1.519897761903649e+00	 3.264726615489011e+01
 4.700991003393695e-01	 1.529381193775111e+00	 3.761174510620608e+01
 4.402531437545756e-01	 1.538238333103876e+00	 4.035493177432749e+01
 4.103913242902046e-01	 1.546473071529423e+00	 4.092242125648621e+01
 3.805317033354282e-01	 1.554089966114078e+00	 3.936496042596795e+01
 3.506919680613781e-01	 1.561094213543070e+00	 3.573809517005956e+01
 3.208894063804688e-01	 1.567491623228924e+00	 3.010180831008406e+01
 2.911408838705071e-01	 1.573288589470401e+00	 2.252015076595101e+01
 5.935527191657022e-01	 1.499283635461626e+00	 6.808080618641945e+00
 5.637261151157001e-01	 1.510751176446117e+00	 1.940951644316473e+01
 5.338075146962531e-01	 1.521580029855448e+00	 2.940430397964472e+01
 5.038163384215206e-01	 1.531771963167005e+00	 3.682508695110270e+01
 4.737717495613566e-01	 1.541329484349762e+00	 4.171155298160972e+01
 4.436926214408450e-01	 1.550255820079409e+00	 4.411007472333959e+01
 4.135975065119389e-01	 1.558554892398857e+00	 4.407333113292552e+01
 3.835046072684140e-01	 1.566231293972480e+00	 4.165991198017750e+01
 3.534317490624282e-01	 1.573290262084611e+00	 3.693390866422985e+01
 3.233963548682120e-01	 1.579737651533807e+00	 2.996449437598889e+01
 2.934154220259006e-01	 1.585579906574289e+00	 2.082549658328380e+01
 5.981539030346663e-01	 1.510905989224438e+00	 9.600077842991166e+00
 5.680960850001699e-01	 1.522462425874857e+00	 2.296018888193707e+01
 5.379455574460040e-01	 1.533375223883753e+00	 3.343512812400925e+01
 5.077218914329504e-01	 1.543646164429884e+00	 4.106195890755262e+01
 4.774443987833440e-01	 1.553277774923845e+00	 4.588569577434949e+01
 4.471320991271144e-01	 1.562273307054313e+00	 4.795889623070946e+01
 4.168036887336734e-01	 1.570636713267633e+00	 4.734123005829625e+01
 3.864775112014002e-01	 1.578372621830225e+00	 4.409902968585415e+01
 3.561715300634782e-01	 1.585486310625523e+00	 3.830482512292831e+01
 3.259033033559552e-01	 1.591983679838119e+00	 3.003686691448101e+01
 2.956899601812942e-01	 1.597871223677692e+00	 1.937864050321310e+01
 2.729445786273588e-01	 1.474958052621828e+00	 4.574009362778946e+01
 2.451213962665869e-01	 1.479836308883957e+00	 3.920215462830357e+01
 2.173792335500309e-01	 1.484165175720690e+00	 3.180255113638653e+01
 1.897326029848293e-01	 1.487952129393421e+00	 2.359578587840659e+01
 1.621955532518215e-01	 1.491205083986602e+00	 1.463737223069300e+01
 1.347816568620313e-01	 1.493932362918601e+00	 4.983587043027442e+00
 1.075039996182768e-01	 1.496142670358577e+00	-5.308768997356959e+00
 8.037517184413129e-02	 1.497845062665731e+00	-1.618260244490270e+01
 5.340726133517893e-02	 1.499048919961328e+00	-2.758074872241082e+01
 2.661184798093990e-02	 1.499763917937484e+00	-3.944618352060478e+01
 0.000000000000000e+00	 1.500000000000000e+00	-5.172222331562545e+01
 2.752191167827523e-01	 1.487249369729599e+00	 4.183617135064007e+01
 2.471640745687116e-01	 1.492168278126741e+00	 3.393820630580776e+01
 2.191907271626458e-01	 1.496533218853332e+00	 2.581816137571833e+01
 1.913137080092519e-01	 1.500351730472944e+00	 1.751123701851379e+01
 1.635471828617090e-01	 1.503631793020732e+00	 9.052265520096785e+00
 1.359048373352982e-01	 1.506381799276883e+00	 4.755977078124918e-01
 1.083998662811933e-01	 1.508610525945297e+00	-8.185003172915144e+00
 8.104496494232989e-02	 1.510327104854834e+00	-1.689646016480470e+01
 5.385232184592077e-02	 1.511540994294438e+00	-2.562647370153720e+01
 2.683361338056428e-02	 1.512261950586988e+00	-3.434360498613413e+01
 0.000000000000000e+00	 1.512500000000000e+00	-4.301735158587024e+01
 2.774936549381459e-01	 1.499540686836884e+00	 3.823241921359755e+01
 2.492067528708362e-01	 1.504500247369135e+00	 2.891840697407303e+01
 2.210022207752605e-01	 1.508901261985668e+00	 2.001206308325616e+01
 1.928948130336745e-01	 1.512751331552235e+00	 1.152957073472072e+01
 1.648988124715964e-01	 1.516058502054692e+00	 3.485379500459938e+00
 1.370280178085651e-01	 1.518831235635048e+00	-4.107775476459123e+00
 1.092957329441099e-01	 1.521078381531942e+00	-1.123884749392700e+01
 8.171475804052857e-02	 1.522809147043897e+00	-1.789844600832738e+01
 5.429738235666262e-02	 1.524033068627529e+00	-2.407879857398497e+01
 2.705537878018867e-02	 1.524759983236486e+00	-2.977370753100547e+01
 0.000000000000000e+00	 1.525000000000000e+00	-3.497850197287243e+01
 2.797681930935394e-01	 1.511832003943683e+00	 3.492152812105871e+01
 2.512494311729608e-01	 1.516832216611136e+00	 2.413681414452154e+01
 2.228137143878753e-01	 1.521269305117696e+00	 1.437992031108762e+01
 1.944759180580971e-01	 1.525150932631291e+00	 5.648290601735346e+00
 1.662504420814838e-01	 1.528485211088482e+00	-2.063717026896088e+00
 1.381511982818319e-01	 1.531280671993094e+00	-8.764680347672392e+00
 1.101915996070264e-01	 1.533546237118513e+00	-1.446595613078243e+01
 8.238455113872716e-02	 1.535291189232917e+00	-1.918151822304653e+01
 5.474244286740446e-02	 1.536525142960601e+00	-2.292779165128888e+01
 2.727714417981305e-02	 1.537258015885981e+00	-2.572348391783038e+01
 0.000000000000000e+00	 1.537500000000000e+00	-2.758941460444004e+01
 2.820427312489330e-01	 1.524123321049998e+00	 3.189642463847486e+01
 2.532921094750855e-01	 1.529164185852748e+00	 1.958767690638258e+01
 2.246252080004902e-01	 1.533637348249418e+00	 8.917536866393762e+00
 1.960570230825197e-01	 1.537550533710115e+00	-1.350193885737330e-01
 1.676020716913713e-01	 1.540911920122102e+00	-7.595441461867248e+00
 1.392743787550988e-01	 1.543730108351024e+00	-1.349332459956333e+01
 1.110874662699430e-01	 1.546014092705009e+00	-1.786212354811504e+01
 8.305434423692580e-02	 1.547773231421895e+00	-2.073886231320834e+01
 5.518750337814630e-02	 1.549017217293655e+00	-2.216384172224427e+01
 2.749890957943743e-02	 1.549756048535470e+00	-2.218034659425818e+01
 0.000000000000000e+00	 1.550000000000000e+00	-2.083435421331736e+01
 2.843172694043264e-01	 1.536414638155826e+00	 2.915026156629175e+01
 2.553347877772101e-01	 1.541496155093969e+00	 1.526542826394262e+01
 2.264367016131050e-01	 1.546005391380833e+00	 3.620850721581357e+00
 1.976381281069424e-01	 1.549950134788705e+00	-5.822698043556519e+00
 1.689537013012588e-01	 1.553338629155550e+00	-1.311019795724340e+01
 1.403975592283656e-01	 1.556179544708835e+00	-1.829197338724836e+01
 1.119833329328596e-01	 1.558481948291430e+00	-2.142327889283463e+01
 8.372413733512445e-02	 1.560255273610832e+00	-2.256388194931097e+01
 5.563256388888813e-02	 1.561509291626691e+00	-2.177764523371323e+01
 2.772067497906182e-02	 1.562254081184955e+00	-1.913211090552037e+01
 0.000000000000000e+00	 1.562500000000000e+00	-1.469808915298657e+01
 2.865918075597200e-01	 1.548705955261170e+00	 2.667640896274912e+01
 2.573774660793346e-01	 1.553828124334798e+00	 1.116467783868659e+01
 2.282481952257197e-01	 1.558373434511941e+00	-1.514071309399997e+00
 1.992192331313650e-01	 1.562349735867061e+00	-1.141701003300090e+01
 1.703053309111463e-01	 1.565765338188829e+00	-1.860837794411632e+01
 1.415207397016324e-01	 1.568628981066530e+00	-2.315894704677586e+01
 1.128791995957761e-01	 1.570949803877776e+00	-2.514548064939979e+01
 8.439393043332308e-02	 1.572737315799727e+00	-2.465019031056275e+01
 5.607762439962997e-02	 1.574001365959708e+00	-2.176019408186695e+01
 2.794244037868620e-02	 1.574752113834436e+00	-1.656697910637714e+01
 0.000000000000000e+00	 1.575000000000000e+00	-9.165871412718278e+00
 2.888663457151135e-01	 1.560997272366028e+00	 2.446844559079918e+01
 2.594201443814593e-01	 1.566160093575237e+00	 7.280204916219660e+00
 2.300596888383345e-01	 1.570741477642742e+00	-6.491038643229958e+00
 2.008003381557876e-01	 1.574749336945183e+00	-1.692014880763192e+01
 1.716569605210337e-01	 1.578192047221936e+00	-2.409036063246478e+01
 1.426439201748993e-01	 1.581078417424107e+00	-2.809261892241585e+01
 1.137750662586927e-01	 1.583417659464048e+00	-2.902491154759471e+01
 8.506372353152170e-02	 1.585219357988580e+00	-2.699160183635971e+01
 5.652268491037181e-02	 1.586493440292707e+00	-2.210276398022226e+01
 2.816420577831059e-02	 1.587250146483912e+00	-1.447352512840735e+01
 0.000000000000000e+00	 1.587500000000000e+00	-4.223417576792510e+00
 2.911408838705071e-01	 1.573288589470401e+00	 2.252015076595101e+01
 2.614628226835839e-01	 1.578492062815286e+00	 3.606951819114167e+00
 2.318711824509493e-01	 1.583109520773236e+00	-1.131374176162971e+01
 2.023814431802102e-01	 1.587148938023073e+00	-2.233423938080671e+01
 1.730085901309212e-01	 1.590618756254874e+00	-2.955651348827345e+01
 1.437671006481662e-01	 1.593527853781566e+00	-3.309141329579654e+01
 1.146709329216093e-01	 1.595885515050245e+00	-3.305787370900499e+01
 8.573351662972034e-02	 1.597701400177391e+00	-2.958212436441020e+01
 5.696774542111365e-02	 1.598985514625687e+00	-2.279690337292329e+01
 2.838597117793497e-02	 1.599748179133383e+00	-1.284068006133085e+01
 0.000000000000000e+00	 1.600000000000000e+00	 1.431093237442109e-01
 2.934154220259006e-01	 1.585579906574289e+00	 2.082549658328380e+01
 2.635055009857086e-01	 1.590824032054943e+00	 1.400175879967449e-01
 2.336826760635642e-01	 1.595477563903424e+00	-1.598575682092099e+01
 2.039625482046329e-01	 1.599548539100729e+00	-2.766134098082944e+01
 1.743602197408086e-01	 1.603045465287642e+00	-3.500719268846408e+01
 1.448902811214330e-01	 1.605977290138907e+00	-3.815380341135613e+01
 1.155667995845258e-01	 1.608353370636367e+00	-3.724078401923983e+01
 8.640330972791899e-02	 1.610183442366161e+00	-3.241595163453075e+01
 5.741280593185549e-02	 1.611477588958649e+00	-2.383442286368754e+01
 2.860773657755936e-02	 1.612246211782850e+00	-1.165771830961658e+01
 0.000000000000000e+00	 1.612500000000000e+00	 3.947117115217120e+00
 2.956899601812942e-01	 1.597871223677692e+00	 1.937864050321310e+01
 2.655481792878332e-01	 1.603156001294210e+00	-3.125348045724316e+00
 2.354941696761790e-01	 1.607845607033304e+00	-2.051055004883296e+01
 2.055436532290555e-01	 1.611948140178152e+00	-3.290344958085241e+01
 1.757118493506961e-01	 1.615472174320239e+00	-4.044274355482630e+01
 1.460134615946999e-01	 1.618426726496131e+00	-4.327830959293528e+01
 1.164626662474424e-01	 1.620821226222415e+00	-4.157016971374276e+01
 8.707310282611763e-02	 1.622665484554889e+00	-3.548745613841881e+01
 5.785786644259734e-02	 1.623969663291593e+00	-2.520738513264479e+01
 2.882950197718375e-02	 1.624744244432313e+00	-1.091424438801899e+01
 0.000000000000000e+00	 1.625000000000000e+00	 7.201600986808710e+00
 1.625000000000000e+00	 0.000000000000000e+00	 1.488039795973696e+02
 1.624744244432312e+00	 2.882950197718282e-02	 1.267736542203567e+02
 1.623969663291593e+00	 5.785786644259652e-02	 1.056078825912896e+02
 1.622665484554890e+00	 8.707310282611692e-02	 8.512066198500899e+01
 1.620821226222414e+00	 1.164626662474418e-01	 6.511561327767329e+01
 1.618426726496131e+00	 1.460134615946994e-01	 4.538625544280289e+01
 1.615472174320238e+00	 1.757118493506957e-01	 2.571634377083600e+01
 1.611948140178151e+00	 2.055436532290552e-01	 5.880273517340097e+00
 1.607845607033305e+00	 2.354941696761788e-01	-1.435644970396996e+01
 1.603156001294210e+00	 2.655481792878331e-01	-3.523667189641486e+01
 1.597871223677692e+00	 2.956899601812942e-01	-5.701098460428452e+01
 1.637500000000000e+00	 0.000000000000000e+00	 1.370869172041801e+02
 1.637242277081775e+00	 2.905126737680721e-02	 1.178716232035796e+02
 1.636461737624536e+00	 5.830292695333835e-02	 9.866549216056100e+01
 1.635147526743617e+00	 8.774289592431556e-02	 7.934846893852560e+01
 1.633289081808462e+00	 1.173585329103583e-01	 5.979541323438444e+01
 1.630876162853355e+00	 1.471366420679662e-01	 3.987634785050745e+01
 1.627898883352835e+00	 1.770634789605832e-01	 1.945674407315754e+01
 1.624347741255574e+00	 2.071247582534779e-01	-1.602155379603019e+00
 1.620213650163185e+00	 2.373056632887935e-01	-2.344297563527963e+01
 1.615487970533477e+00	 2.675908575899578e-01	-4.621181124248945e+01
 1.610162540781094e+00	 2.979644983366877e-01	-7.005779041458207e+01
 1.650000000000000e+00	 0.000000000000000e+00	 1.204452682719189e+02
 1.649740309731242e+00	 2.927303277643158e-02	 1.047092548056769e+02
 1.648953811957498e+00	 5.874798746408018e-02	 8.814250699914895e+01
 1.647629568932387e+00	 8.841268902251417e-02	 7.069021251666570e+01
 1.645756937394584e+00	 1.182543995732749e-01	 5.229770900760882e+01
 1.643325599210696e+00	 1.482598225412330e-01	 3.291070621734424e+01
 1.640325592385603e+00	 1.784151085704706e-01	 1.247551883071460e+01
 1.636747342333229e+00	 2.087058632779004e-01	-9.060690719262036e+00
 1.632581693293372e+00	 2.391171569014083e-01	-3.174966037241892e+01
 1.627819939773135e+00	 2.696335358920823e-01	-5.564176851555744e+01
 1.622453857884982e+00	 3.002390364920812e-01	-8.078576716091585e+01
 1.662500000000000e+00	 0.000000000000000e+00	 9.899009773167779e+01
 1.662238342380713e+00	 2.949479817605596e-02	 8.738263230111698e+01
 1.661445886290478e+00	 5.919304797482201e-02	 7.411967922665548e+01
 1.660111611121198e+00	 8.908248212071281e-02	 5.921098008101335e+01
 1.658224792980781e+00	 1.191502662361914e-01	 4.267160675789866e+01
 1.655775035568156e+00	 1.493830030144999e-01	 2.452215748358883e+01
 1.652752301418540e+00	 1.797667381803581e-01	 4.788937424764866e+00
 1.649146943411119e+00	 2.102869683023231e-01	-1.649587809354885e+01
 1.644949736423866e+00	 2.409286505140231e-01	-3.929409974458461e+01
 1.640151909013183e+00	 2.716762141942070e-01	-6.356140169557719e+01
 1.634745174989355e+00	 3.025135746474747e-01	-8.924722236747176e+01
 1.675000000000000e+00	 0.000000000000000e+00	 7.282915530987479e+01
 1.674736375030189e+00	 2.971656357568033e-02	 6.598497097419177e+01
 1.673937960623477e+00	 5.963810848556386e-02	 5.667535061934372e+01
 1.672593653310052e+00	 8.975227521891144e-02	 4.497391625451709e+01
 1.670692648567052e+00	 1.200461328991080e-01	 3.096474695750268e+01
 1.668224471925732e+00	 1.505061834877667e-01	 1.474254884721957e+01
 1.665179010451648e+00	 1.811183677902456e-01	-3.587216251519454e+00
 1.661546544489242e+00	 2.118680733267457e-01	-2.390824664464708e+01
 1.657317779554668e+00	 2.427401441266379e-01	-4.609336417101301e+01
 1.652483878253622e+00	 2.737188924963316e-01	-7.000452806691740e+01
 1.647036492094213e+00	 3.047881128028683e-01	-9.549290198374673e+01
 1.687500000000000e+00	 0.000000000000000e+00	 4.206699831361166e+01
 1.687234407679670e+00	 2.993832897530471e-02	 4.060672434078225e+01
 1.686430034956494e+00	 6.008316899630568e-02	 3.588554188192873e+01
 1.685075695498947e+00	 9.042206831711005e-02	 2.804029487449738e+01
 1.683160504153399e+00	 1.209419995620246e-01	 1.722335867475572e+01
 1.680673908283426e+00	 1.516293639610336e-01	 3.602784050221942e+00
 1.677605719484926e+00	 1.824699974001330e-01	-1.263762581254052e+01
 1.673946145567598e+00	 2.134491783511683e-01	-3.129830967486935e+01
 1.669685822685775e+00	 2.445516377392527e-01	-5.216401812129199e+01
 1.664815847494452e+00	 2.757615707984562e-01	-7.500396276339374e+01
 1.659327809199556e+00	 3.070626509582619e-01	-9.957204822147068e+01
 1.700000000000000e+00	 0.000000000000000e+00	 6.805108999031205e+00
 1.699732440329154e+00	 3.016009437492909e-02	 1.133568568386714e+01
 1.698922109289530e+00	 6.052822950704752e-02	 1.182403798090631e+01
 1.697557737687883e+00	 9.109186141530867e-02	 8.469587771257913e+00
 1.695628359739820e+00	 1.218378662249411e-01	 1.492311463568768e+00
 1.693123344641237e+00	 1.527525444343004e-01	-8.867141935973422e+00
 1.690032428518375e+00	 1.838216270100204e-01	-2.234742519302172e+01
 1.686345746646188e+00	 2.150302833755909e-01	-3.866656522960881e+01
 1.682053865817190e+00	 2.463631313518675e-01	-5.752213871712797e+01
 1.677147816735672e+00	 2.778042491005809e-01	-7.859155561278703e+01
 1.671619126305386e+00	 3.093371891136554e-01	-1.015324548398988e+02
 1.712500000000000e+00	 0.000000000000000e+00	-3.285799320054555e+01
 1.712230472978644e+00	 3.038185977455347e-02	-2.174291485777427e+01
 1.711414183622584e+00	 6.097329001778935e-02	-1.543753025934380e+01
 1.710039779876862e+00	 9.176165451350732e-02	-1.368046946550641e+01
 1.708096215326316e+00	 1.227337328878577e-01	-1.618483501961244e+01
 1.705572780999167e+00	 1.538757249075673e-01	-2.263810974412120e+01
 1.702459137551995e+00	 1.851732566199080e-01	-3.270218221348002e+01
 1.698745347725011e+00	 2.166113884000136e-01	-4.601349665475921e+01
 1.694421908948913e+00	 2.481746249644823e-01	-6.218333351943879e+01
 1.689479785977284e+00	 2.798469274027054e-01	-8.079822636773392e+01
 1.683910443411700e+00	 3.116117272690490e-01	-1.014205200098500e+02
 1.725000000000000e+00	 0.000000000000000e+00	-7.682664432596701e+01
 1.724728505628139e+00	 3.060362517417785e-02	-5.854631742211275e+01
 1.723906257955657e+00	 6.141835052853120e-02	-4.582960810811237e+01
 1.722521822065882e+00	 9.243144761170595e-02	-3.835381457970881e+01
 1.720564070912886e+00	 1.236295995507742e-01	-3.576578355610918e+01
 1.718022217357214e+00	 1.549989053808341e-01	-3.768184388681061e+01
 1.714885846585785e+00	 1.865248862297954e-01	-4.368788286024267e+01
 1.711144948804068e+00	 2.181924934244362e-01	-5.333957312989810e+01
 1.706789952080941e+00	 2.499861185770972e-01	-6.616275754209013e+01
 1.701811755219286e+00	 2.818896057048301e-01	-8.165399840483700e+01
 1.696201760518499e+00	 3.138862654244425e-01	-9.928129687930563e+01
 1.737499999999999e+00	 0.000000000000000e+00	-1.250079331773529e+02
 1.737226538277637e+00	 3.082539057380222e-02	-9.899414356508308e+01
 1.736398332288748e+00	 6.186341103927302e-02	-7.928464224891135e+01
 1.735003864254944e+00	 9.310124070990457e-02	-6.549599845728135e+01
 1.733031926499532e+00	 1.245254662136908e-01	-5.720945395393009e+01
 1.730471653715378e+00	 1.561220858541010e-01	-5.397088240150751e+01
 1.727312555619745e+00	 1.878765158396829e-01	-5.529091624402503e+01
 1.723544549883358e+00	 2.197735984488587e-01	-6.064525017845658e+01
 1.719157995213276e+00	 2.517976121897119e-01	-6.947512953122970e+01
 1.714143724461679e+00	 2.839322840069546e-01	-8.118803096913729e+01
 1.708493077625785e+00	 3.161608035798360e-01	-9.515854195632194e+01
 1.750000000000000e+00	 0.000000000000000e+00	-1.773116030012653e+02
 1.749724570927141e+00	 3.104715597342660e-02	-1.430083112100333e+02
 1.748890406621857e+00	 6.230847155001488e-02	-1.157370093005736e+02
 1.747485906444049e+00	 9.377103380810323e-02	-9.505412751422671e+01
 1.745499782086252e+00	 1.254213328766073e-01	-8.047593958288137e+01
 1.742921090073661e+00	 1.572452663273678e-01	-7.147854779652570e+01
 1.739739264653876e+00	 1.892281454495704e-01	-6.749806020313835e+01
 1.735944150962882e+00	 2.213547034732815e-01	-6.793097015602135e+01
 1.731526038345919e+00	 2.536091058023268e-01	-7.213474754693114e+01
 1.726475693704463e+00	 2.859749623090794e-01	-7.942865003667958e+01
 1.720784394733555e+00	 3.184353417352296e-01	-8.909476141838645e+01
 1.597871223677692e+00	 2.956899601812942e-01	-5.701098460428452e+01
 1.591983679838119e+00	 3.259033033559543e-01	-5.111293241159856e+01
 1.585486310625523e+00	 3.561715300634776e-01	-4.574956183589270e+01
 1.578372621830225e+00	 3.864775112013996e-01	-4.077086449539720e+01
 1.570636713267633e+00	 4.168036887336729e-01	-3.602077108408913e+01
 1.562273307054313e+00	 4.471320991271141e-01	-3.133756967525683e+01
 1.553277774923845e+00	 4.774443987833438e-01	-2.655436981744144e+01
 1.543646164429884e+00	 5.077218914329503e-01	-2.149961150101945e+01
 1.533375223883753e+00	 5.379455574460040e-01	-1.599761766721547e+01
 1.522462425874856e+00	 5.680960850001699e-01	-9.869188516094685e+00
 1.510905989224438e+00	 5.981539030346663e-01	-2.932235450522269e+00
 1.610162540781094e+00	 2.979644983366877e-01	-7.005779041458207e+01
 1.604229708142434e+00	 3.284102518436999e-01	-6.376248425951256e+01
 1.597682359166444e+00	 3.589113110645371e-01	-5.773149765538626e+01
 1.590513949687990e+00	 3.894504151344069e-01	-5.186038437499603e+01
 1.582718534136446e+00	 4.200098709554452e-01	-4.604079906189872e+01
 1.574290794029277e+00	 4.505715768134433e-01	-4.016080074967212e+01
 1.565226065498014e+00	 4.811170480054174e-01	-3.410518720280031e+01
 1.555520365692882e+00	 5.116274444444987e-01	-2.775585931697578e+01
 1.545170417912212e+00	 5.420836001959101e-01	-2.099221453660687e+01
 1.534173675303793e+00	 5.724660548848370e-01	-1.369156796251977e+01
 1.522528342987494e+00	 6.027550869038752e-01	-5.729599536369579e+00
 1.622453857884982e+00	 3.002390364920812e-01	-8.078576716091585e+01
 1.616475736447324e+00	 3.309172003314502e-01	-7.443919652227747e+01
 1.609878407708013e+00	 3.616510920656152e-01	-6.809121192620736e+01
 1.602655277546456e+00	 3.924233190674569e-01	-6.168241387068898e+01
 1.594800355005993e+00	 4.232160531772940e-01	-5.515164232627323e+01
 1.586308281004989e+00	 4.540110544998922e-01	-4.843616652158853e+01
 1.577174356072925e+00	 4.847896972276646e-01	-4.147189071991846e+01
 1.567394566956594e+00	 5.155329974562836e-01	-3.419357538303947e+01
 1.556965611941338e+00	 5.462216429461266e-01	-2.653507296387333e+01
 1.545884924733330e+00	 5.768360247698988e-01	-1.842957741400047e+01
 1.534150696751060e+00	 6.073562707735738e-01	-9.809886337519192e+00
 1.634745174989355e+00	 3.025135746474747e-01	-8.924722236747176e+01
 1.628721764752790e+00	 3.334241488192052e-01	-8.318757134946436e+01
 1.622074456250230e+00	 3.643908730667124e-01	-7.686529706029430e+01
 1.614796605405623e+00	 3.953962230005494e-01	-7.026554292131003e+01
 1.606882175876277e+00	 4.264222353992188e-01	-6.337380775802804e+01
 1.598325767981450e+00	 4.574505321864608e-01	-5.617602287875611e+01
 1.589122646648578e+00	 4.884623464500846e-01	-4.865863045074779e+01
 1.579268768221021e+00	 5.194385504683054e-01	-4.080866272739225e+01
 1.568760805971133e+00	 5.503596856966543e-01	-3.261382164957600e+01
 1.557596174163466e+00	 5.812059946553559e-01	-2.406255831701629e+01
 1.545773050515137e+00	 6.119574546437619e-01	-1.514415180156095e+01
 1.647036492094213e+00	 3.047881128028683e-01	-9.549290198374673e+01
 1.640967793058833e+00	 3.359310973069648e-01	-9.005078231539112e+01
 1.634270504793095e+00	 3.671306540678284e-01	-8.408925300941719e+01
 1.626937933265491e+00	 3.983691269336848e-01	-7.763750788915094e+01
 1.618963996747293e+00	 4.296284176212197e-01	-7.072718995088385e+01
 1.610343254958658e+00	 4.608900098731490e-01	-6.339235673947341e+01
 1.601070937224973e+00	 4.921349956726779e-01	-5.566943246189894e+01
 1.591142969486164e+00	 5.233441034805641e-01	-4.759714654851513e+01
 1.580556000001596e+00	 5.544977284474926e-01	-3.921645846459092e+01
 1.569307423594202e+00	 5.855759645412079e-01	-3.057046867445173e+01
 1.557395404279724e+00	 6.165586385144400e-01	-2.170431576637829e+01
 1.659327809199556e+00	 3.070626509582619e-01	-9.957204822147068e+01
 1.653213821365451e+00	 3.384380457947292e-01	-9.507072362649956e+01
 1.646466553336608e+00	 3.698704350689632e-01	-8.979752772761003e+01
 1.639079261126060e+00	 4.013420308668626e-01	-8.382522317490594e+01
 1.631045817619043e+00	 4.328345998432970e-01	-7.723109388981368e+01
 1.622360741936615e+00	 4.643294875599568e-01	-7.009679971921406e+01
 1.613019227802109e+00	 4.958076448954443e-01	-6.250820339893264e+01
 1.603017170752021e+00	 5.272496564930599e-01	-5.455516969152783e+01
 1.592351194032726e+00	 5.586357711986414e-01	-4.633133677832763e+01
 1.581018673025537e+00	 5.899459344274548e-01	-3.793386021139136e+01
 1.569017758044822e+00	 6.211598223856076e-01	-2.946312996544723e+01
 1.671619126305386e+00	 3.093371891136554e-01	-1.015324548398988e+02
 1.665459849672645e+00	 3.409449942824981e-01	-9.828805715781645e+01
 1.658662601880769e+00	 3.726102160701169e-01	-9.402355584849354e+01
 1.651220588987329e+00	 4.043149348000832e-01	-8.885481143783623e+01
 1.643127638491529e+00	 4.360407820654503e-01	-8.290425662887263e+01
 1.634378228915319e+00	 4.677689652468843e-01	-7.630064119431218e+01
 1.624967518379987e+00	 4.994802941183839e-01	-6.917873487795970e+01
 1.614891372018594e+00	 5.311552095057921e-01	-6.167898832409793e+01
 1.604146388064525e+00	 5.627738139501012e-01	-5.394715239011265e+01
 1.592729922457472e+00	 5.943159043140966e-01	-4.613385654830307e+01
 1.580640111810430e+00	 6.257610062572652e-01	-3.839414744466382e+01
 1.683910443411700e+00	 3.116117272690490e-01	-1.014205200098500e+02
 1.677705877980416e+00	 3.434519427702719e-01	-9.974225742942319e+01
 1.670858650425578e+00	 3.753499970712894e-01	-9.679979566870003e+01
 1.663361916849300e+00	 4.072878387333462e-01	-9.275163249242421e+01
 1.655209459364748e+00	 4.392469642876800e-01	-8.776486801963229e+01
 1.646395715894772e+00	 4.712084429339317e-01	-8.201484079351334e+01
 1.636915808958608e+00	 5.031529433414967e-01	-7.568470768490553e+01
 1.626765573285881e+00	 5.350607625187611e-01	-6.896496780172481e+01
 1.615941582096990e+00	 5.669118567018717e-01	-6.205293103291832e+01
 1.604441171890006e+00	 5.986858742011337e-01	-5.515213233013817e+01
 1.592262465576548e+00	 6.303621901294124e-01	-4.847169331857593e+01
 1.696201760518499e+00	 3.138862654244425e-01	-9.928129687930563e+01
 1.689951906288762e+00	 3.459588912580502e-01	-9.947165462742547e+01
 1.683054698971034e+00	 3.780897780724807e-01	-9.815776452332149e+01
 1.675503244711972e+00	 4.102607426666521e-01	-9.554031094864783e+01
 1.667291280238703e+00	 4.424531465099858e-01	-9.183059053837667e+01
 1.658413202874972e+00	 4.746479206210985e-01	-8.725004034641221e+01
 1.648864099537969e+00	 5.068255925647827e-01	-8.202969579219616e+01
 1.638639774553884e+00	 5.389663155319671e-01	-7.640957871278974e+01
 1.627736776130124e+00	 5.710498994539528e-01	-7.063801642040403e+01
 1.616152421323140e+00	 6.030558440885657e-01	-6.497089326285762e+01
 1.603884819343176e+00	 6.349633740020493e-01	-5.967083679808244e+01
 1.708493077625785e+00	 3.161608035798360e-01	-9.515854195632194e+01
 1.702197934597685e+00	 3.484658397458333e-01	-9.751347576790093e+01
 1.695250747517139e+00	 3.808295590736910e-01	-9.812807263435749e+01
 1.687644572575343e+00	 4.132336466000003e-01	-9.724476265914890e+01
 1.679373101113391e+00	 4.456593287323678e-01	-9.511857825744536e+01
 1.670430689855921e+00	 4.780873983083849e-01	-9.201657531612858e+01
 1.660812390118072e+00	 5.104982417882418e-01	-8.821717020205887e+01
 1.650513975822603e+00	 5.428718685454100e-01	-8.400939309432296e+01
 1.639531970163926e+00	 5.751879422063448e-01	-7.969205880991082e+01
 1.627863670756874e+00	 6.074258139763927e-01	-7.557285701168929e+01
 1.615507173110314e+00	 6.395645578751757e-01	-7.196736442556420e+01
 1.720784394733555e+00	 3.184353417352296e-01	-8.909476141838645e+01
 1.714443962907183e+00	 3.509727882336210e-01	-9.390388409667690e+01
 1.707446796063893e+00	 3.835693400749201e-01	-9.674045550851578e+01
 1.699785900439417e+00	 4.162065505333916e-01	-9.788822003295010e+01
 1.691454921988814e+00	 4.488655109548259e-01	-9.764549500351896e+01
 1.682448176837619e+00	 4.815268759957912e-01	-9.632448574201091e+01
 1.672760680698918e+00	 5.141708910118742e-01	-9.425050262510939e+01
 1.662388177092036e+00	 5.467774215590895e-01	-9.176108080994763e+01
 1.651327164198396e+00	 5.793259849590476e-01	-8.920500405561181e+01
 1.639574920191208e+00	 6.117957838646149e-01	-8.694123491802800e+01
 1.627129526877964e+00	 6.441657417487923e-01	-8.533775445707978e+01
 1.510905989224438e+00	 5.981539030346663e-01	-2.932235450522269e+00
 1.498704899226502e+00	 6.280992159053116e-01	-4.621607138050857e+00
 1.485858926034374e+00	 6.579120396427700e-01	-6.092724749965500e+00
 1.472368641057263e+00	 6.875722397034166e-01	-7.448627703950116e+00
 1.458235431238258e+00	 7.170595700900936e-01	-8.794711601274471e+00
 1.443461511093458e+00	 7.463537137077204e-01	-1.023833755158762e+01
 1.428049932401566e+00	 7.754343238075454e-01	-1.188842095405231e+01
 1.412004591443889e+00	 8.042810663631879e-01	-1.385500188167094e+01
 1.395330233706523e+00	 8.328736632118814e-01	-1.624879943546429e+01
 1.378032455969274e+00	 8.611919357855460e-01	-1.918075263826164e+01
 1.360117705719598e+00	 8.892158492486488e-01	-2.276155062114674e+01
 1.522528342987494e+00	 6.027550869038752e-01	-5.729599536369579e+00
 1.510233398451768e+00	 6.329307483347351e-01	-8.056325476585972e+00
 1.497288610081763e+00	 6.629729014853188e-01	-1.024301130334112e+01
 1.483694553682143e+00	 6.928612569308974e-01	-1.235392928233141e+01
 1.469452626864788e+00	 7.225754129358748e-01	-1.445477958817799e+01
 1.454565061180536e+00	 7.520948961198251e-01	-1.661244362556703e+01
 1.439034931883308e+00	 7.813992032205446e-01	-1.889472473012939e+01
 1.422866165225804e+00	 8.104678437960667e-01	-2.137007761733920e+01
 1.406063543197860e+00	 8.392803836977581e-01	-2.410732808381047e+01
 1.388632705631432e+00	 8.678164891377840e-01	-2.717538459069405e+01
 1.370580149610033e+00	 8.960559711664935e-01	-3.064294347150717e+01
 1.534150696751060e+00	 6.073562707735738e-01	-9.809886337519192e+00
 1.521761897677453e+00	 6.377622807647338e-01	-1.252426579265030e+01
 1.508718294129500e+00	 6.680337633284998e-01	-1.517543711716709e+01
 1.495020466307320e+00	 6.981502741590380e-01	-1.778934833046653e+01
 1.480669822491582e+00	 7.280912557823142e-01	-2.039245718654254e+01
 1.465668611267865e+00	 7.578360785325557e-01	-2.301162712794058e+01
 1.450019931365309e+00	 7.873640826341082e-01	-2.567401846791735e+01
 1.433727739008006e+00	 8.166546212294172e-01	-2.840697539736350e+01
 1.416796852689532e+00	 8.456871041839829e-01	-3.123790946617410e+01
 1.399232955293995e+00	 8.744410424902175e-01	-3.419418023700157e+01
 1.381042593500962e+00	 9.028960930843489e-01	-3.730297385193013e+01
 1.545773050515137e+00	 6.119574546437619e-01	-1.514415180156095e+01
 1.533290396903557e+00	 6.425938131953080e-01	-1.800211572718439e+01
 1.520147978177585e+00	 6.730946251723129e-01	-2.087235274499357e+01
 1.506346378932792e+00	 7.034392913878383e-01	-2.374291954316172e+01
 1.491887018118640e+00	 7.336070986294112e-01	-2.660147424247431e+01
 1.476772161355447e+00	 7.635772609459125e-01	-2.943531365032328e+01
 1.461004930847569e+00	 7.933289620482357e-01	-3.223141351813234e+01
 1.444589312790497e+00	 8.228413986632396e-01	-3.497647163373966e+01
 1.427530162181541e+00	 8.520938246705574e-01	-3.765695355115093e+01
 1.409833204956963e+00	 8.810655958428456e-01	-4.025914073192610e+01
 1.391505037392386e+00	 9.097362150022149e-01	-4.276918084566658e+01
 1.557395404279724e+00	 6.165586385144400e-01	-2.170431576637829e+01
 1.544818896130082e+00	 6.474253456264577e-01	-2.446725870693626e+01
 1.531577662226018e+00	 6.781554870167580e-01	-2.731663548992850e+01
 1.517672291558561e+00	 7.087283086172986e-01	-3.020303469497593e+01
 1.503104213745963e+00	 7.391229414771657e-01	-3.307574768348610e+01
 1.487875711443280e+00	 7.693184433598950e-01	-3.588294584975249e+01
 1.471989930330090e+00	 7.992938414629270e-01	-3.857186857911096e+01
 1.455450886573275e+00	 8.290281760975334e-01	-4.108902098619154e+01
 1.438263471673887e+00	 8.585005451574800e-01	-4.338038039565682e+01
 1.420433454620336e+00	 8.876901491956692e-01	-4.539161042394080e+01
 1.401967481284305e+00	 9.165763369200914e-01	-4.706828142490387e+01
 1.569017758044822e+00	 6.211598223856076e-01	-2.946312996544723e+01
 1.556347395357026e+00	 6.522568780581823e-01	-3.189774817586541e+01
 1.543007346274800e+00	 6.832163488618352e-01	-3.449166989665044e+01
 1.528998204184627e+00	 7.140173258474188e-01	-3.715842941630289e+01
 1.514321409373551e+00	 7.446387843255788e-01	-3.980937459081191e+01
 1.498979261531365e+00	 7.750596257745035e-01	-4.235398281788264e+01
 1.482974929812870e+00	 8.052587208781824e-01	-4.470019535183783e+01
 1.466312460356341e+00	 8.352149535322990e-01	-4.675476828014037e+01
 1.448996781166568e+00	 8.649072656447517e-01	-4.842363829100213e+01
 1.431033704284114e+00	 8.943147025486877e-01	-4.961230118258097e+01
 1.412429925176719e+00	 9.234164588379790e-01	-5.022620090046767e+01
 1.580640111810430e+00	 6.257610062572652e-01	-3.839414744466382e+01
 1.567875894584390e+00	 6.570884104904827e-01	-4.027228296339261e+01
 1.554437030323932e+00	 6.882772107075451e-01	-4.238132910406439e+01
 1.540324116810989e+00	 7.193063430781983e-01	-4.459817055285726e+01
 1.525538605001402e+00	 7.501546271746492e-01	-4.679662557735045e+01
 1.510082811619702e+00	 7.808008081897383e-01	-4.884789947800670e+01
 1.493959929295910e+00	 8.112236002940020e-01	-5.062106394548253e+01
 1.477174034139694e+00	 8.414017309675366e-01	-5.198355989887777e+01
 1.459730090659585e+00	 8.713139861323719e-01	-5.280172110840061e+01
 1.441633953948298e+00	 9.009392559019015e-01	-5.294131565250569e+01
 1.422892369069628e+00	 9.302565807558768e-01	-5.226810202814914e+01
 1.592262465576548e+00	 6.303621901294124e-01	-4.847169331857593e+01
 1.579404393812174e+00	 6.619199429233585e-01	-4.957018373140981e+01
 1.565866714373410e+00	 6.933380725538867e-01	-5.096995701462636e+01
 1.551650029437647e+00	 7.245953603096378e-01	-5.251164407875673e+01
 1.536755800629518e+00	 7.556704700243774e-01	-5.403193845562208e+01
 1.521186361708292e+00	 7.865419906055987e-01	-5.536418600848018e+01
 1.504944928779209e+00	 8.171884797103856e-01	-5.633900804619312e+01
 1.488035607923336e+00	 8.475885084032455e-01	-5.678495467680740e+01
 1.470463400152938e+00	 8.777207066203410e-01	-5.652918488481617e+01
 1.452234203612885e+00	 9.075638092553103e-01	-5.539816948912942e+01
 1.433354812963030e+00	 9.370967026737852e-01	-5.321841284029917e+01
 1.603884819343176e+00	 6.349633740020493e-01	-5.967083679808244e+01
 1.590932893040378e+00	 6.667514753568098e-01	-5.977137044532964e+01
 1.577296398423238e+00	 6.983989344008606e-01	-6.024235123891033e+01
 1.562975942064603e+00	 7.298843775417372e-01	-6.088854353511879e+01
 1.547972996257898e+00	 7.611863128747637e-01	-6.150991218102835e+01
 1.532289911797133e+00	 7.922831730220851e-01	-6.190234729121122e+01
 1.515929928262769e+00	 8.231533591273329e-01	-6.185842986115696e+01
 1.498897181707264e+00	 8.537752858394262e-01	-6.116823431906226e+01
 1.481196709646628e+00	 8.841274271086590e-01	-5.962016368768207e+01
 1.462834453277879e+00	 9.141883626089145e-01	-5.700181262748276e+01
 1.443817256856928e+00	 9.439368245917042e-01	-5.310085326734886e+01
 1.615507173110314e+00	 6.395645578751757e-01	-7.196736442556420e+01
 1.602461392269001e+00	 6.715830077908362e-01	-7.085634081760354e+01
 1.588726082473415e+00	 7.034597962484670e-01	-7.018374677637925e+01
 1.574301854691855e+00	 7.351733947744963e-01	-6.971885896770603e+01
 1.559190191886543e+00	 7.667021557258078e-01	-6.922530105654994e+01
 1.543393461886226e+00	 7.980243554391976e-01	-6.846190238395141e+01
 1.526914927746587e+00	 8.291182385448446e-01	-6.718360484924311e+01
 1.509758755491481e+00	 8.599620632760784e-01	-6.514241337135215e+01
 1.491930019140653e+00	 8.905341475973255e-01	-6.208838479480820e+01
 1.473434702943277e+00	 9.208129159627136e-01	-5.777064963298895e+01
 1.454279700751320e+00	 9.507769465096340e-01	-5.193846061019510e+01
 1.627129526877964e+00	 6.441657417487923e-01	-8.533775445707978e+01
 1.613989891498045e+00	 6.764145402254381e-01	-8.280614967508716e+01
 1.600155766523939e+00	 7.085206580967053e-01	-8.077980039554589e+01
 1.585627767319404e+00	 7.404624120079153e-01	-7.899286633867146e+01
 1.570407387515452e+00	 7.722179985775097e-01	-7.717300918581063e+01
 1.554497011975571e+00	 8.037655378569363e-01	-7.504238401520125e+01
 1.537899927230667e+00	 8.350831179629202e-01	-7.231868624890052e+01
 1.520620329275986e+00	 8.661488407132029e-01	-6.871624876252655e+01
 1.502663328635016e+00	 8.969408680863412e-01	-6.394718322371629e+01
 1.484034952609081e+00	 9.274374693167079e-01	-5.772255918005958e+01
 1.464742144646208e+00	 9.576170684275745e-01	-4.975361392090889e+01
 1.360117705719598e+00	 8.892158492486488e-01	-2.276155062114674e+01
 1.341593277844827e+00	 9.169255568526578e-01	-2.143879021652909e+01
 1.322467308569620e+00	 9.443014443144191e-01	-1.991562311367235e+01
 1.302748766623323e+00	 9.713241740187775e-01	-1.809237386398081e+01
 1.282447441638377e+00	 9.979747288431313e-01	-1.586972954221719e+01
 1.261573929795459e+00	 1.024234455404330e+00	-1.314917324479720e+01
 1.240139616749326e+00	 1.050085106526311e+00	-9.833418082257879e+00
 1.218156657885667e+00	 1.075508882729801e+00	-5.826838728025139e+00
 1.195637955975838e+00	 1.100488472549222e+00	-1.035897570863960e+00
 1.172597136312511e+00	 1.125007091487334e+00	 4.630437466042144e+00
 1.149048519425000e+00	 1.149048519425000e+00	 1.126028633040122e+01
 1.370580149610033e+00	 8.960559711664935e-01	-3.064294347150717e+01
 1.351913226135645e+00	 9.239788303679526e-01	-2.806536818632991e+01
 1.332640134019405e+00	 9.515653015797990e-01	-2.535701859432322e+01
 1.312769910980884e+00	 9.787958984359916e-01	-2.245588102450511e+01
 1.292312421957389e+00	 1.005651457528369e+00	-1.930016264450465e+01
 1.271278344638683e+00	 1.032113181986217e+00	-1.582856372019364e+01
 1.249679152261479e+00	 1.058162684270582e+00	-1.198055027249886e+01
 1.227527093714434e+00	 1.083782027983117e+00	-7.696625280354594e+00
 1.204835171020993e+00	 1.108953768493124e+00	-2.918596568525785e+00
 1.181617114283771e+00	 1.133660992191846e+00	 2.410160472071803e+00
 1.157887354190000e+00	 1.157887354190000e+00	 8.344447155785664e+00
 1.381042593500962e+00	 9.028960930843489e-01	-3.730297385193013e+01
 1.362233174427042e+00	 9.310321038830772e-01	-3.369369042535639e+01
 1.342812959469824e+00	 9.588291588448681e-01	-3.002174230721316e+01
 1.322791055339106e+00	 9.862676228527927e-01	-2.626234600191610e+01
 1.302177402277060e+00	 1.013328186213132e+00	-2.239079873089905e+01
 1.280982759482529e+00	 1.039991908567609e+00	-1.838259100154416e+01
 1.259218687774190e+00	 1.066240262014375e+00	-1.421351947732096e+01
 1.236897529543666e+00	 1.092055173236013e+00	-9.859799375181645e+00
 1.214032386066488e+00	 1.117419064436706e+00	-5.298175610494837e+00
 1.190637092255217e+00	 1.142314892896179e+00	-5.060319120875931e-01
 1.166726188955000e+00	 1.166726188955000e+00	 4.538502859634185e+00
 1.391505037392386e+00	 9.097362150022149e-01	-4.276918084566658e+01
 1.372553122719020e+00	 9.380853773980324e-01	-3.834626331720572e+01
 1.352985784920880e+00	 9.660930161096258e-01	-3.392730232191928e+01
 1.332812199697990e+00	 9.937393472691818e-01	-2.952432267109564e+01
 1.312042382597387e+00	 1.021004914897422e+00	-2.514929129923464e+01
 1.290687174326999e+00	 1.047870635148505e+00	-2.081407165532862e+01
 1.268758223287460e+00	 1.074317839757692e+00	-1.653037830038389e+01
 1.246267965373361e+00	 1.100328318488492e+00	-1.230973200478183e+01
 1.223229601112323e+00	 1.125884360379969e+00	-8.163415637746843e+00
 1.199657070226847e+00	 1.150968793600331e+00	-4.102431136913777e+00
 1.175565023720000e+00	 1.175565023720000e+00	-1.374578388001735e-01
 1.401967481284305e+00	 9.165763369200914e-01	-4.706828142490387e+01
 1.382873071011578e+00	 9.451386509128173e-01	-4.204492137079038e+01
 1.363158610372572e+00	 9.733568733740730e-01	-3.709068404325791e+01
 1.342833344057535e+00	 1.001211071685158e+00	-3.225399013506131e+01
 1.321907362918373e+00	 1.028681643581236e+00	-2.758306536183292e+01
 1.300391589172092e+00	 1.055749361728905e+00	-2.312573815490451e+01
 1.278297758801289e+00	 1.082395417500530e+00	-1.892923746637626e+01
 1.255638401203523e+00	 1.108601463740551e+00	-1.503999203827294e+01
 1.232426816158497e+00	 1.134349656322913e+00	-1.150343249067817e+01
 1.208677048198662e+00	 1.159622694304304e+00	-8.363797572960650e+00
 1.184403858485000e+00	 1.184403858485000e+00	-5.663945897569050e+00
 1.412429925176719e+00	 9.234164588379790e-01	-5.022620090046767e+01
 1.393193019304716e+00	 9.521919244274326e-01	-4.481085210569508e+01
 1.373331435824899e+00	 9.806207306382088e-01	-3.952836957031041e+01
 1.352854488417742e+00	 1.008682796100722e+00	-3.446316660643582e+01
 1.331772343240015e+00	 1.036358372264577e+00	-2.969932590891603e+01
 1.310096004017809e+00	 1.063628088308809e+00	-2.532024199600693e+01
 1.287837294315678e+00	 1.090472995242892e+00	-2.140826366927587e+01
 1.265008837034148e+00	 1.116874608992193e+00	-1.804433889368286e+01
 1.241624031205012e+00	 1.142814952265537e+00	-1.530766450621098e+01
 1.217697026170662e+00	 1.168276595008097e+00	-1.327534314417969e+01
 1.193242693250000e+00	 1.193242693250000e+00	-1.202204974243502e+01
 1.422892369069628e+00	 9.302565807558768e-01	-5.226810202814914e+01
 1.403512967598433e+00	 9.592451979418776e-01	-4.666461983964596e+01
 1.383504261277862e+00	 9.878845879020337e-01	-4.125635620136953e+01
 1.362875632778610e+00	 1.016154520515873e+00	-3.616332267649538e+01
 1.341637323562315e+00	 1.044035100947443e+00	-3.150506599862974e+01
 1.319800418864149e+00	 1.071506814888217e+00	-2.740015667479654e+01
 1.297376829830625e+00	 1.098550572984775e+00	-2.396567751553588e+01
 1.274379272865238e+00	 1.125147754243415e+00	-2.131671553330544e+01
 1.250821246251867e+00	 1.151280248207841e+00	-1.956586066208135e+01
 1.226717004142848e+00	 1.176930495711709e+00	-1.882271472741715e+01
 1.202081528015000e+00	 1.202081528015000e+00	-1.919341403711031e+01
 1.433354812963030e+00	 9.370967026737852e-01	-5.321841284029917e+01
 1.413832915892732e+00	 9.662984714561537e-01	-4.762618843418819e+01
 1.393677086731460e+00	 9.951484451655477e-01	-4.229017412844662e+01
 1.372896777140140e+00	 1.023626244930612e+00	-3.736559400308749e+01
 1.351502303885272e+00	 1.051711829629835e+00	-3.300707449275533e+01
 1.329504833711112e+00	 1.079385541467129e+00	-2.936798053547817e+01
 1.306916365346132e+00	 1.106628150726181e+00	-2.659975155734766e+01
 1.283749708696792e+00	 1.133420899494219e+00	-2.485124176582553e+01
 1.260018461299061e+00	 1.159745544149826e+00	-2.426806924035217e+01
 1.235736982115218e+00	 1.185584396415142e+00	-2.499197827893614e+01
 1.210920362780000e+00	 1.210920362780000e+00	-2.716021938326272e+01
 1.443817256856928e+00	 9.439368245917042e-01	-5.310085326734886e+01
 1.424152864187609e+00	 9.733517449702592e-01	-4.771494305141749e+01
 1.403849912185693e+00	 1.002412302428751e+00	-4.264490336244800e+01
 1.382917921502332e+00	 1.031097969344938e+00	-3.808079344689610e+01
 1.361367284208887e+00	 1.059388558311753e+00	-3.421194345608176e+01
 1.339209248558698e+00	 1.087264268045545e+00	-3.122613949410604e+01
 1.316455900862197e+00	 1.114705728467110e+00	-2.930880841140917e+01
 1.293120144528811e+00	 1.141694044744604e+00	-2.864220783965220e+01
 1.269215676346595e+00	 1.168210840091492e+00	-2.940462698381360e+01
 1.244756960087773e+00	 1.194238297118396e+00	-3.176960365108696e+01
 1.219759197545000e+00	 1.219759197545000e+00	-3.590516290312679e+01
 1.454279700751320e+00	 9.507769465096340e-01	-5.193846061019510e+01
 1.434472812483067e+00	 9.804050184841950e-01	-4.694971097156798e+01
 1.414022737640563e+00	 1.009676159691643e+00	-4.233518992776424e+01
 1.392939065865185e+00	 1.038569693758851e+00	-3.831942268383553e+01
 1.371232264533160e+00	 1.067065286993196e+00	-3.512607523637740e+01
 1.348913663406908e+00	 1.095142994623464e+00	-3.297698964481088e+01
 1.325995436378822e+00	 1.122783306207561e+00	-3.209121895889460e+01
 1.302490580361295e+00	 1.149967189994570e+00	-3.268406831279575e+01
 1.278412891394469e+00	 1.176676136032838e+00	-3.496614872044910e+01
 1.253776938060513e+00	 1.202892197821469e+00	-3.914245006437012e+01
 1.228598032310000e+00	 1.228598032310000e+00	-4.541143966027327e+01
 1.464742144646208e+00	 9.576170684275745e-01	-4.975361392090889e+01
 1.444792760779105e+00	 9.874582919979614e-01	-4.534878151841288e+01
 1.424195563096069e+00	 1.016940016954224e+00	-4.137526136280162e+01
 1.402960210228699e+00	 1.046041418172352e+00	-3.809168331976591e+01
 1.381097244858090e+00	 1.074742015674165e+00	-3.575568924092974e+01
 1.358618078255741e+00	 1.103021721200889e+00	-3.462281975432813e+01
 1.335534971896006e+00	 1.130860883947535e+00	-3.494540062256468e+01
 1.311861016194242e+00	 1.158240335244118e+00	-3.697143618546018e+01
 1.287610106442683e+00	 1.185141431973866e+00	-4.094351743256433e+01
 1.262796916033438e+00	 1.211546098524362e+00	-4.709775220212198e+01
 1.237436867075000e+00	 1.237436867075000e+00	-5.566272487662818e+01
 1.149048519425000e+00	 1.149048519425000e+00	 1.126028633040122e+01
 1.125007091487334e+00	 1.172597136312511e+00	 1.553626911297775e+01
 1.100488472549222e+00	 1.195637955975838e+00	 1.943606812038504e+01
 1.075508882729801e+00	 1.218156657885667e+00	 2.286933405494294e+01
 1.050085106526311e+00	 1.240139616749326e+00	 2.574798526905836e+01
 1.024234455404330e+00	 1.261573929795459e+00	 2.798657036021702e+01
 9.979747288431317e-01	 1.282447441638376e+00	 2.950261484297754e+01
 9.713241740187781e-01	 1.302748766623323e+00	 3.021694968359594e+01
 9.443014443144199e-01	 1.322467308569620e+00	 3.005401965187255e+01
 9.169255568526588e-01	 1.341593277844826e+00	 2.894216963291629e+01
 8.892158492486486e-01	 1.360117705719598e+00	 2.681390724621441e+01
 1.157887354190000e+00	 1.157887354190000e+00	 8.344447155785664e+00
 1.133660992191846e+00	 1.181617114283772e+00	 1.104260154301241e+01
 1.108953768493124e+00	 1.204835171020993e+00	 1.369975050312098e+01
 1.083782027983116e+00	 1.227527093714434e+00	 1.626393581142970e+01
 1.058162684270582e+00	 1.249679152261479e+00	 1.868388906116810e+01
 1.032113181986218e+00	 1.271278344638683e+00	 2.090924372505595e+01
 1.005651457528369e+00	 1.292312421957389e+00	 2.289074124770663e+01
 9.787958984359921e-01	 1.312769910980883e+00	 2.458042983479612e+01
 9.515653015798000e-01	 1.332640134019404e+00	 2.593185467662249e+01
 9.239788303679534e-01	 1.351913226135644e+00	 2.690023842745313e+01
 8.960559711664935e-01	 1.370580149610033e+00	 2.744265085677244e+01
 1.166726188955000e+00	 1.166726188955000e+00	 4.538502859634185e+00
 1.142314892896179e+00	 1.190637092255217e+00	 5.891087938408711e+00
 1.117419064436706e+00	 1.214032386066488e+00	 7.532235129754747e+00
 1.092055173236014e+00	 1.236897529543666e+00	 9.447945850822139e+00
 1.066240262014376e+00	 1.259218687774190e+00	 1.162334988321779e+01
 1.039991908567610e+00	 1.280982759482529e+00	 1.404276832886961e+01
 1.013328186213133e+00	 1.302177402277059e+00	 1.668978045868451e+01
 9.862676228527935e-01	 1.322791055339106e+00	 1.954729399242753e+01
 9.588291588448689e-01	 1.342812959469824e+00	 2.259761832349468e+01
 9.310321038830781e-01	 1.362233174427042e+00	 2.582254018262481e+01
 9.028960930843491e-01	 1.381042593500963e+00	 2.920340122027318e+01
 1.175565023720000e+00	 1.175565023720000e+00	-1.374578388001735e-01
 1.150968793600331e+00	 1.199657070226847e+00	 9.657802302644969e-02
 1.125884360379969e+00	 1.223229601112323e+00	 9.432592717154868e-01
 1.100328318488492e+00	 1.246267965373361e+00	 2.426125268944618e+00
 1.074317839757692e+00	 1.268758223287460e+00	 4.566298296675665e+00
 1.047870635148505e+00	 1.290687174326999e+00	 7.382398802789352e+00
 1.021004914897422e+00	 1.312042382597387e+00	 1.089047431169910e+01
 9.937393472691824e-01	 1.332812199697989e+00	 1.510394240321062e+01
 9.660930161096266e-01	 1.352985784920880e+00	 2.003354804252637e+01
 9.380853773980332e-01	 1.372553122719020e+00	 2.568733542215251e+01
 9.097362150022150e-01	 1.391505037392387e+00	 3.207063435406451e+01
 1.184403858485000e+00	 1.184403858485000e+00	-5.663945897569050e+00
 1.159622694304304e+00	 1.208677048198662e+00	-6.326521774457385e+00
 1.134349656322913e+00	 1.232426816158497e+00	-6.057730489889703e+00
 1.108601463740551e+00	 1.255638401203522e+00	-4.796906991656870e+00
 1.082395417500531e+00	 1.278297758801290e+00	-2.487333100566352e+00
 1.055749361728906e+00	 1.300391589172092e+00	 9.235313891910080e-01
 1.028681643581237e+00	 1.321907362918372e+00	 5.483840959074399e+00
 1.001211071685159e+00	 1.342833344057535e+00	 1.123718122523884e+01
 9.733568733740733e-01	 1.363158610372571e+00	 1.822241145306140e+01
 9.451386509128182e-01	 1.382873071011578e+00	 2.647353354881971e+01
 9.165763369200917e-01	 1.401967481284305e+00	 3.601958812062967e+01
 1.193242693250000e+00	 1.193242693250000e+00	-1.202204974243502e+01
 1.168276595008097e+00	 1.217697026170663e+00	-1.336423190282676e+01
 1.142814952265537e+00	 1.241624031205012e+00	-1.346156749852820e+01
 1.116874608992193e+00	 1.265008837034148e+00	-1.221666887727885e+01
 1.090472995242892e+00	 1.287837294315678e+00	-9.537609750058385e+00
 1.063628088308809e+00	 1.310096004017808e+00	-5.338301303548494e+00
 1.036358372264577e+00	 1.331772343240015e+00	 4.611646354008005e-01
 1.008682796100723e+00	 1.352854488417742e+00	 7.934207493955514e+00
 9.806207306382095e-01	 1.373331435824898e+00	 1.714748670763938e+01
 9.521919244274334e-01	 1.393193019304715e+00	 2.816066881175902e+01
 9.234164588379790e-01	 1.412429925176719e+00	 4.102623401099798e+01
 1.202081528015000e+00	 1.202081528015000e+00	-1.919341403711031e+01
 1.176930495711710e+00	 1.226717004142848e+00	-2.100298399491460e+01
 1.151280248207841e+00	 1.250821246251867e+00	-2.125935473145029e+01
 1.125147754243415e+00	 1.274379272865238e+00	-1.982881019087825e+01
 1.098550572984775e+00	 1.297376829830625e+00	-1.658459520530775e+01
 1.071506814888217e+00	 1.319800418864148e+00	-1.140743531488638e+01
 1.044035100947444e+00	 1.341637323562315e+00	-4.186014125222409e+00
 1.016154520515874e+00	 1.362875632778610e+00	 5.182594751400036e+00
 9.878845879020346e-01	 1.383504261277861e+00	 1.679254372218506e+01
 9.592451979418788e-01	 1.403512967598433e+00	 3.072887733400626e+01
 9.302565807558767e-01	 1.422892369069627e+00	 4.706725017300774e+01
 1.210920362780000e+00	 1.210920362780000e+00	-2.716021938326272e+01
 1.185584396415142e+00	 1.235736982115218e+00	-2.922960586148967e+01
 1.159745544149826e+00	 1.260018461299061e+00	-2.944245495958786e+01
 1.133420899494219e+00	 1.283749708696792e+00	-2.762910778027453e+01
 1.106628150726181e+00	 1.306916365346132e+00	-2.362835120111808e+01
 1.079385541467129e+00	 1.329504833711111e+00	-1.728808012636264e+01
 1.051711829629836e+00	 1.351502303885272e+00	-8.465907843500863e+00
 1.023626244930612e+00	 1.372896777140139e+00	 2.970279304829843e+00
 9.951484451655483e-01	 1.393677086731459e+00	 1.714182622823322e+01
 9.662984714561544e-01	 1.413832915892731e+00	 3.415887514614886e+01
 9.370967026737852e-01	 1.433354812963030e+00	 5.411999562081154e+01
 1.219759197545000e+00	 1.219759197545000e+00	-3.590516290312679e+01
 1.194238297118396e+00	 1.244756960087773e+00	-3.803130713758092e+01
 1.168210840091492e+00	 1.269215676346595e+00	-3.800248133527987e+01
 1.141694044744604e+00	 1.293120144528811e+00	-3.561346093555861e+01
 1.114705728467110e+00	 1.316455900862197e+00	-3.066893771991078e+01
 1.087264268045545e+00	 1.339209248558698e+00	-2.298432324740123e+01
 1.059388558311753e+00	 1.361367284208887e+00	-1.238649104254781e+01
 1.031097969344938e+00	 1.382917921502331e+00	 1.285547082796092e+00
 1.002412302428751e+00	 1.403849912185693e+00	 1.818003460549465e+01
 9.733517449702599e-01	 1.424152864187609e+00	 3.843193717503130e+01
 9.439368245917042e-01	 1.443817256856928e+00	 6.216248556571043e+01
 1.228598032310000e+00	 1.228598032310000e+00	-4.541143966027327e+01
 1.202892197821469e+00	 1.253776938060513e+00	-4.739566554838207e+01
 1.176676136032838e+00	 1.278412891394469e+00	-4.693128838628131e+01
 1.149967189994570e+00	 1.302490580361294e+00	-4.377788698517254e+01
 1.122783306207561e+00	 1.325995436378822e+00	-3.770641305518135e+01
 1.095142994623465e+00	 1.348913663406907e+00	-2.850013460316151e+01
 1.067065286993196e+00	 1.371232264533159e+00	-1.595550880925807e+01
 1.038569693758852e+00	 1.392939065865184e+00	 1.170210585834077e-01
 1.009676159691643e+00	 1.414022737640563e+00	 1.989230945546141e+01
 9.804050184841961e-01	 1.434472812483067e+00	 4.352987713942802e+01
 9.507769465096340e-01	 1.454279700751320e+00	 7.117336781184308e+01
 1.237436867075000e+00	 1.237436867075000e+00	-5.566272487662818e+01
 1.211546098524362e+00	 1.262796916033438e+00	-5.731061376375784e+01
 1.185141431973866e+00	 1.287610106442683e+00	-5.622096339574105e+01
 1.158240335244119e+00	 1.311861016194243e+00	-5.211851708072619e+01
 1.130860883947535e+00	 1.335534971896005e+00	-4.474083387223487e+01
 1.103021721200889e+00	 1.358618078255741e+00	-3.383937073433712e+01
 1.074742015674166e+00	 1.381097244858090e+00	-1.918048498876418e+01
 1.046041418172353e+00	 1.402960210228699e+00	-5.463507873527931e-01
 1.016940016954224e+00	 1.424195563096068e+00	 2.226421587900389e+01
 9.874582919979624e-01	 1.444792760779105e+00	 4.943502830732824e+01
 9.576170684275745e-01	 1.464742144646208e+00	 8.113190016349053e+01
 8.892158492486486e-01	 1.360117705719598e+00	 2.681390724621441e+01
 8.611919357855461e-01	 1.378032455969275e+00	 2.497486500389875e+01
 8.328736632118816e-01	 1.395330233706523e+00	 2.311790965088323e+01
 8.042810663631879e-01	 1.412004591443889e+00	 2.126043411212335e+01
 7.754343238075456e-01	 1.428049932401566e+00	 1.941940196626476e+01
 7.463537137077207e-01	 1.443461511093458e+00	 1.761128729711008e+01
 7.170595700900940e-01	 1.458235431238257e+00	 1.585201845914906e+01
 6.875722397034173e-01	 1.472368641057263e+00	 1.415692602452855e+01
 6.579120396427711e-01	 1.485858926034374e+00	 1.254069513733549e+01
 6.280992159053126e-01	 1.498704899226502e+00	 1.101732245864431e+01
 5.981539030346663e-01	 1.510905989224438e+00	 9.600077842991166e+00
 8.960559711664935e-01	 1.370580149610033e+00	 2.744265085677244e+01
 8.678164891377838e-01	 1.388632705631433e+00	 2.853528849317692e+01
 8.392803836977581e-01	 1.406063543197860e+00	 2.880437380869448e+01
 8.104678437960666e-01	 1.422866165225804e+00	 2.824636569596499e+01
 7.813992032205448e-01	 1.439034931883307e+00	 2.686081833849483e+01
 7.520948961198254e-01	 1.454565061180535e+00	 2.465032996357179e+01
 7.225754129358753e-01	 1.469452626864787e+00	 2.162047687294445e+01
 6.928612569308982e-01	 1.483694553682143e+00	 1.777973352476822e+01
 6.629729014853196e-01	 1.497288610081763e+00	 1.313937953228081e+01
 6.329307483347361e-01	 1.510233398451768e+00	 7.713394525263631e+00
 6.027550869038751e-01	 1.522528342987494e+00	 1.518341889036446e+00
 9.028960930843491e-01	 1.381042593500963e+00	 2.920340122027318e+01
 8.744410424902173e-01	 1.399232955293995e+00	 3.305959284207350e+01
 8.456871041839830e-01	 1.416796852689532e+00	 3.529985369763470e+01
 8.166546212294176e-01	 1.433727739008007e+00	 3.589990319473857e+01
 7.873640826341083e-01	 1.450019931365309e+00	 3.484204458722665e+01
 7.578360785325561e-01	 1.465668611267865e+00	 3.211512262756941e+01
 7.280912557823146e-01	 1.480669822491582e+00	 2.771444803005791e+01
 6.981502741590386e-01	 1.495020466307319e+00	 2.164169001947654e+01
 6.680337633285006e-01	 1.508718294129499e+00	 1.390473846436119e+01
 6.377622807647348e-01	 1.521761897677452e+00	 4.517537296531579e+00
 6.073562707735738e-01	 1.534150696751061e+00	-6.500108902210929e+00
 9.097362150022150e-01	 1.391505037392387e+00	 3.207063435406451e+01
 8.810655958428457e-01	 1.409833204956963e+00	 3.852604624993014e+01
 8.520938246705574e-01	 1.427530162181541e+00	 4.258611058967611e+01
 8.228413986632397e-01	 1.444589312790497e+00	 4.420599745732670e+01
 7.933289620482358e-01	 1.461004930847569e+00	 4.335091406996979e+01
 7.635772609459127e-01	 1.476772161355446e+00	 3.999607132821461e+01
 7.336070986294119e-01	 1.491887018118641e+00	 3.412659887548918e+01
 7.034392913878393e-01	 1.506346378932792e+00	 2.573741043768979e+01
 6.730946251723136e-01	 1.520147978177585e+00	 1.483302157015818e+01
 6.425938131953089e-01	 1.533290396903557e+00	 1.427322262460500e+00
 6.119574546437619e-01	 1.545773050515137e+00	-1.445669285974224e+01
 9.165763369200917e-01	 1.401967481284305e+00	 3.601958812062967e+01
 8.876901491956691e-01	 1.420433454620336e+00	 4.491356555766555e+01
 8.585005451574801e-01	 1.438263471673887e+00	 5.064545012365094e+01
 8.290281760975334e-01	 1.455450886573275e+00	 5.315004848453970e+01
 7.992938414629273e-01	 1.471989930330090e+00	 5.237562324765668e+01
 7.693184433598954e-01	 1.487875711443280e+00	 4.828386840832607e+01
 7.391229414771665e-01	 1.503104213745964e+00	 4.084981516518495e+01
 7.087283086172992e-01	 1.517672291558560e+00	 3.006167036780601e+01
 6.781554870167587e-01	 1.531577662226018e+00	 1.592059034579109e+01
 6.474253456264587e-01	 1.544818896130081e+00	-1.559606688065237e+00
 6.165586385144400e-01	 1.557395404279724e+00	-2.235278607045430e+01
 9.234164588379790e-01	 1.412429925176719e+00	 4.102623401099798e+01
 8.943147025486875e-01	 1.431033704284114e+00	 5.220169222396241e+01
 8.649072656447517e-01	 1.448996781166568e+00	 5.946070214351837e+01
 8.352149535322991e-01	 1.466312460356341e+00	 6.271788879390667e+01
 8.052587208781826e-01	 1.482974929812870e+00	 6.190471823646600e+01
 7.750596257745040e-01	 1.498979261531365e+00	 5.696948191072742e+01
 7.446387843255793e-01	 1.514321409373550e+00	 4.787719336210894e+01
 7.140173258474193e-01	 1.528998204184626e+00	 3.460940010745252e+01
 6.832163488618361e-01	 1.543007346274800e+00	 1.716391400422149e+01
 6.522568780581836e-01	 1.556347395357025e+00	-4.445535948448011e+00
 6.211598223856076e-01	 1.569017758044822e+00	-3.018972394336622e+01
 9.302565807558767e-01	 1.422892369069627e+00	 4.706725017300774e+01
 9.009392559019015e-01	 1.441633953948297e+00	 6.037056936133263e+01
 8.713139861323717e-01	 1.459730090659585e+00	 6.901520142611740e+01
 8.414017309675366e-01	 1.477174034139694e+00	 7.289576751837912e+01
 8.112236002940023e-01	 1.493959929295910e+00	 7.192708195294554e+01
 7.808008081897385e-01	 1.510082811619702e+00	 6.604414544235571e+01
 7.501546271746498e-01	 1.525538605001402e+00	 5.520203288983882e+01
 7.193063430781990e-01	 1.540324116810988e+00	 3.937567897586355e+01
 6.882772107075457e-01	 1.554437030323931e+00	 1.855956551532260e+01
 6.570884104904839e-01	 1.567875894584390e+00	-7.232684757250915e+00
 6.257610062572652e-01	 1.580640111810430e+00	-3.796880270482592e+01
 9.370967026737852e-01	 1.433354812963030e+00	 5.411999562081154e+01
 9.075638092553103e-01	 1.452234203612885e+00	 6.940091977789828e+01
 8.777207066203410e-01	 1.470463400152938e+00	 7.929276925296281e+01
 8.475885084032457e-01	 1.488035607923335e+00	 8.367033520143477e+01
 8.171884797103856e-01	 1.504944928779209e+00	 8.243192182212142e+01
 7.865419906055990e-01	 1.521186361708291e+00	 7.549934848227771e+01
 7.556704700243780e-01	 1.536755800629518e+00	 6.281782872541874e+01
 7.245953603096386e-01	 1.551650029437648e+00	 4.435572987534488e+01
 6.933380725538877e-01	 1.565866714373410e+00	 2.010421781937634e+01
 6.619199429233596e-01	 1.579404393812174e+00	-9.923207648829553e+00
 6.303621901294124e-01	 1.592262465576548e+00	-4.569128082823330e+01
 9.439368245917042e-01	 1.443817256856928e+00	 6.216248556571043e+01
 9.141883626089141e-01	 1.462834453277879e+00	 7.927402497388412e+01
 8.841274271086591e-01	 1.481196709646628e+00	 9.027769578326671e+01
 8.537752858394263e-01	 1.498897181707264e+00	 9.502862925326940e+01
 8.231533591273332e-01	 1.515929928262769e+00	 9.340875802003919e+01
 7.922831730220854e-01	 1.532289911797133e+00	 8.532682711109479e+01
 7.611863128747642e-01	 1.547972996257898e+00	 7.071826431426604e+01
 7.298843775417380e-01	 1.562975942064603e+00	 4.954491408920207e+01
 6.983989344008616e-01	 1.577296398423238e+00	 2.179464020519884e+01
 6.667514753568107e-01	 1.590932893040377e+00	-1.251919679741563e+01
 6.349633740020493e-01	 1.603884819343176e+00	-5.335838040160341e+01
 9.507769465096340e-01	 1.454279700751320e+00	 7.117336781184308e+01
 9.208129159627132e-01	 1.473434702943277e+00	 8.997170504473202e+01
 8.905341475973253e-01	 1.491930019140653e+00	 1.019547231878369e+02
 8.599620632760784e-01	 1.509758755491480e+00	 1.069580600347762e+02
 8.291182385448447e-01	 1.526914927746587e+00	 1.048474122238202e+02
 7.980243554391980e-01	 1.543393461886226e+00	 9.551855514052032e+01
 7.667021557258082e-01	 1.559190191886543e+00	 7.889720479090397e+01
 7.351733947744968e-01	 1.574301854691855e+00	 5.493872630421239e+01
 7.034597962484678e-01	 1.588726082473414e+00	 2.362769484460837e+01
 6.715830077908371e-01	 1.602461392269001e+00	-1.502268426001630e+01
 6.395645578751757e-01	 1.615507173110314e+00	-6.097128843609752e+01
 9.576170684275745e-01	 1.464742144646208e+00	 8.113190016349053e+01
 9.274374693167079e-01	 1.484034952609081e+00	 1.014762994455127e+02
 8.969408680863412e-01	 1.502663328635016e+00	 1.143090295058103e+02
 8.661488407132029e-01	 1.520620329275986e+00	 1.194463975379287e+02
 8.350831179629206e-01	 1.537899927230666e+00	 1.167379968438602e+02
 8.037655378569366e-01	 1.554497011975572e+00	 1.060667356231163e+02
 7.722179985775102e-01	 1.570407387515452e+00	 8.734869049023806e+01
 7.404624120079161e-01	 1.585627767319404e+00	 6.053278984642290e+01
 7.085206580967063e-01	 1.600155766523939e+00	 2.560033347541262e+01
 6.764145402254393e-01	 1.613989891498045e+00	-1.743564412319082e+01
 6.441657417487923e-01	 1.627129526877964e+00	-6.853115811847493e+01
 5.981539030346663e-01	 1.510905989224438e+00	 9.600077842991166e+00
 5.680960850001699e-01	 1.522462425874857e+00	 2.296018888193707e+01
 5.379455574460040e-01	 1.533375223883753e+00	 3.343512812400925e+01
 5.077218914329504e-01	 1.543646164429884e+00	 4.106195890755262e+01
 4.774443987833440e-01	 1.553277774923845e+00	 4.588569577434949e+01
 4.471320991271144e-01	 1.562273307054313e+00	 4.795889623070946e+01
 4.168036887336734e-01	 1.570636713267633e+00	 4.734123005829625e+01
 3.864775112014002e-01	 1.578372621830225e+00	 4.409902968585415e+01
 3.561715300634782e-01	 1.585486310625523e+00	 3.830482512292831e+01
 3.259033033559552e-01	 1.591983679838119e+00	 3.003686691448101e+01
 2.956899601812942e-01	 1.597871223677692e+00	 1.937864050321310e+01
 6.027550869038751e-01	 1.522528342987494e+00	 1.518341889036446e+00
 5.724660548848367e-01	 1.534173675303793e+00	 1.031736883460563e+01
 5.420836001959101e-01	 1.545170417912212e+00	 1.774059229770144e+01
 5.116274444444988e-01	 1.555520365692882e+00	 2.379203954230625e+01
 4.811170480054178e-01	 1.565226065498014e+00	 2.847928544090278e+01
 4.505715768134437e-01	 1.574290794029277e+00	 3.181332762499263e+01
 4.200098709554459e-01	 1.582718534136446e+00	 3.380844992684851e+01
 3.894504151344075e-01	 1.590513949687990e+00	 3.448207536704434e+01
 3.589113110645378e-01	 1.597682359166444e+00	 3.385460996623917e+01
 3.284102518437008e-01	 1.604229708142433e+00	 3.194927867074450e+01
 2.979644983366877e-01	 1.610162540781094e+00	 2.879195468014087e+01
 6.073562707735738e-01	 1.534150696751061e+00	-6.500108902210929e+00
 5.768360247698988e-01	 1.545884924733330e+00	-2.338781038546536e+00
 5.462216429461266e-01	 1.556965611941338e+00	 1.933920525341012e+00
 5.155329974562838e-01	 1.567394566956594e+00	 6.289452233488957e+00
 4.847896972276649e-01	 1.577174356072925e+00	 1.069845706041472e+01
 4.540110544998927e-01	 1.586308281004989e+00	 1.513092024168633e+01
 4.232160531772945e-01	 1.594800355005994e+00	 1.955632394820595e+01
 3.924233190674576e-01	 1.602655277546456e+00	 2.394379992231220e+01
 3.616510920656160e-01	 1.609878407708013e+00	 2.826227915139355e+01
 3.309172003314512e-01	 1.616475736447324e+00	 3.248063771849042e+01
 3.002390364920813e-01	 1.622453857884982e+00	 3.656783803827143e+01
 6.119574546437619e-01	 1.545773050515137e+00	-1.445669285974224e+01
 5.812059946553556e-01	 1.557596174163466e+00	-1.500795090861792e+01
 5.503596856966543e-01	 1.568760805971133e+00	-1.398234863412557e+01
 5.194385504683057e-01	 1.579268768221021e+00	-1.144054565137090e+01
 4.884623464500848e-01	 1.589122646648578e+00	-7.448334565234193e+00
 4.574505321864613e-01	 1.598325767981450e+00	-2.076207405755620e+00
 4.264222353992193e-01	 1.606882175876276e+00	 4.601087445663586e+00
 3.953962230005502e-01	 1.614796605405623e+00	 1.250499464063406e+01
 3.643908730667133e-01	 1.622074456250230e+00	 2.155360445102558e+01
 3.334241488192061e-01	 1.628721764752790e+00	 3.166210556739428e+01
 3.025135746474747e-01	 1.634745174989355e+00	 4.274323525533462e+01
 6.165586385144400e-01	 1.557395404279724e+00	-2.235278607045430e+01
 5.855759645412076e-01	 1.569307423594202e+00	-2.768984029330291e+01
 5.544977284474925e-01	 1.580556000001596e+00	-3.000575249925405e+01
 5.233441034805644e-01	 1.591142969486163e+00	-2.939285378212439e+01
 4.921349956726781e-01	 1.601070937224973e+00	-2.595288711851478e+01
 4.608900098731494e-01	 1.610343254958658e+00	-1.979629865368067e+01
 4.296284176212204e-01	 1.618963996747293e+00	-1.104150899781048e+01
 3.983691269336854e-01	 1.626937933265491e+00	 1.858300712539019e-01
 3.671306540678292e-01	 1.634270504793095e+00	 1.375358822670511e+01
 3.359310973069657e-01	 1.640967793058833e+00	 2.952391342846928e+01
 3.047881128028683e-01	 1.647036492094213e+00	 4.735398807884886e+01
 6.211598223856076e-01	 1.569017758044822e+00	-3.018972394336622e+01
 5.899459344274547e-01	 1.581018673025537e+00	-4.038415771039345e+01
 5.586357711986415e-01	 1.592351194032726e+00	-4.613390145547697e+01
 5.272496564930597e-01	 1.603017170752021e+00	-4.756252304943959e+01
 4.958076448954447e-01	 1.613019227802109e+00	-4.480724141460247e+01
 4.643294875599572e-01	 1.622360741936614e+00	-3.801794528601377e+01
 4.328345998432976e-01	 1.631045817619043e+00	-2.735618158584740e+01
 4.013420308668634e-01	 1.639079261126060e+00	-1.299412098557577e+01
 3.698704350689641e-01	 1.646466553336608e+00	 4.886491926017623e+00
 3.384380457947301e-01	 1.653213821365451e+00	 2.609539666993675e+01
 3.070626509582619e-01	 1.659327809199556e+00	 5.043487617573779e+01
 6.257610062572652e-01	 1.580640111810430e+00	-3.796880270482592e+01
 5.943159043140965e-01	 1.592729922457472e+00	-5.309062034656671e+01
 5.627738139501012e-01	 1.604146388064524e+00	-6.236447626847671e+01
 5.311552095057922e-01	 1.614891372018594e+00	-6.594475000485440e+01
 4.994802941183842e-01	 1.624967518379987e+00	-6.400367246230660e+01
 4.677689652468848e-01	 1.634378228915318e+00	-5.673007472330791e+01
 4.360407820654509e-01	 1.643127638491529e+00	-4.432809614702674e+01
 4.043149348000838e-01	 1.651220588987329e+00	-2.701586150215159e+01
 3.726102160701177e-01	 1.658662601880768e+00	-5.024136677580668e+00
 3.409449942824992e-01	 1.665459849672645e+00	 2.140502775298411e+01
 3.093371891136554e-01	 1.671619126305386e+00	 5.201965617975805e+01
 6.303621901294124e-01	 1.592262465576548e+00	-4.569128082823330e+01
 5.986858742011336e-01	 1.604441171890006e+00	-6.580895374067947e+01
 5.669118567018716e-01	 1.615941582096991e+00	-7.869522551522192e+01
 5.350607625187613e-01	 1.626765573285882e+00	-8.453487154432943e+01
 5.031529433414970e-01	 1.636915808958607e+00	-8.353468091648963e+01
 4.712084429339320e-01	 1.646395715894772e+00	-7.592193777285938e+01
 4.392469642876805e-01	 1.655209459364748e+00	-6.194285172483147e+01
 4.072878387333470e-01	 1.663361916849300e+00	-4.186094920934914e+01
 3.753499970712901e-01	 1.670858650425577e+00	-1.595543743789317e+01
 3.434519427702728e-01	 1.677705877980415e+00	 1.548044772508003e+01
 3.116117272690490e-01	 1.683910443411700e+00	 5.214109902881971e+01
 6.349633740020493e-01	 1.603884819343176e+00	-5.335838040160341e+01
 6.030558440885656e-01	 1.616152421323141e+00	-7.853889148083269e+01
 5.710498994539527e-01	 1.627736776130124e+00	-9.512396312669813e+01
 5.389663155319673e-01	 1.638639774553884e+00	-1.033283598229536e+02
 5.068255925647830e-01	 1.648864099537968e+00	-1.033929849021241e+02
 4.746479206210989e-01	 1.658413202874972e+00	-9.558309691142665e+01
 4.424531465099864e-01	 1.667291280238702e+00	-8.018646488108369e+01
 4.102607426666527e-01	 1.675503244711971e+00	-5.751147649630310e+01
 3.780897780724816e-01	 1.683054698971034e+00	-2.788521292158741e+01
 3.459588912580512e-01	 1.689951906288762e+00	 8.348496344014489e+00
 3.138862654244425e-01	 1.696201760518499e+00	 5.083102567894497e+01
 6.395645578751757e-01	 1.615507173110314e+00	-6.097128843609752e+01
 6.074258139763925e-01	 1.627863670756874e+00	-9.128017491451367e+01
 5.751879422063448e-01	 1.639531970163926e+00	-1.116485660367092e+02
 5.428718685454100e-01	 1.650513975822602e+00	-1.223208173891568e+02
 5.104982417882420e-01	 1.660812390118072e+00	-1.235715121912642e+02
 4.780873983083853e-01	 1.670430689855921e+00	-1.157034150737336e+02
 4.456593287323683e-01	 1.679373101113391e+00	-9.904535467693169e+01
 4.132336466000011e-01	 1.687644572575344e+00	-7.395005117772976e+01
 3.808295590736919e-01	 1.695250747517139e+00	-4.079190456924145e+01
 3.484658397458342e-01	 1.702197934597684e+00	 3.524090162020599e-02
 3.161608035798359e-01	 1.708493077625785e+00	 4.812034127661722e+01
 6.441657417487923e-01	 1.627129526877964e+00	-6.853115811847493e+01
 6.117957838646149e-01	 1.639574920191208e+00	-1.040325528711603e+02
 5.793259849590476e-01	 1.651327164198396e+00	-1.282669719314451e+02
 5.467774215590897e-01	 1.662388177092036e+00	-1.415079725274610e+02
 5.141708910118744e-01	 1.672760680698918e+00	-1.440633927152969e+02
 4.815268759957917e-01	 1.682448176837619e+00	-1.362730449214636e+02
 4.488655109548267e-01	 1.691454921988814e+00	-1.185063282975066e+02
 4.162065505333923e-01	 1.699785900439417e+00	-9.115977808550662e+01
 3.835693400749210e-01	 1.707446796063892e+00	-5.465456987806035e+01
 3.509727882336220e-01	 1.714443962907183e+00	-9.433996187807764e+00
 3.184353417352296e-01	 1.720784394733555e+00	 4.403906786659860e+01
 2.956899601812942e-01	 1.597871223677692e+00	 1.937864050321310e+01
 2.655481792878332e-01	 1.603156001294210e+00	-3.125348045724316e+00
 2.354941696761790e-01	 1.607845607033304e+00	-2.051055004883296e+01
 2.055436532290555e-01	 1.611948140178152e+00	-3.290344958085241e+01
 1.757118493506961e-01	 1.615472174320239e+00	-4.044274355482630e+01
 1.460134615946999e-01	 1.618426726496131e+00	-4.327830959293528e+01
 1.164626662474424e-01	 1.620821226222415e+00	-4.157016971374276e+01
 8.707310282611763e-02	 1.622665484554889e+00	-3.548745613841881e+01
 5.785786644259734e-02	 1.623969663291593e+00	-2.520738513264479e+01
 2.882950197718375e-02	 1.624744244432313e+00	-1.091424438801899e+01
 0.000000000000000e+00	 1.625000000000000e+00	 7.201600986808710e+00
 2.979644983366877e-01	 1.610162540781094e+00	 2.879195468014087e+01
 2.675908575899578e-01	 1.615487970533476e+00	 1.280537771917180e+01
 2.373056632887938e-01	 1.620213650163185e+00	-5.968601314310753e-01
 2.071247582534782e-01	 1.624347741255574e+00	-1.145087359200283e+01
 1.770634789605836e-01	 1.627898883352835e+00	-1.980016000902565e+01
 1.471366420679667e-01	 1.630876162853355e+00	-2.569512152812212e+01
 1.173585329103589e-01	 1.633289081808462e+00	-2.919257734430670e+01
 8.774289592431626e-02	 1.635147526743617e+00	-3.035526942224747e+01
 5.830292695333918e-02	 1.636461737624537e+00	-2.925136492649742e+01
 2.905126737680813e-02	 1.637242277081775e+00	-2.595395843024647e+01
 0.000000000000000e+00	 1.637500000000000e+00	-2.054057678427826e+01
 3.002390364920813e-01	 1.622453857884982e+00	 3.656783803827143e+01
 2.696335358920826e-01	 1.627819939773135e+00	 2.740450658754821e+01
 2.391171569014086e-01	 1.632581693293372e+00	 1.832601994460931e+01
 2.087058632779007e-01	 1.636747342333230e+00	 9.385447353638728e+00
 1.784151085704711e-01	 1.640325592385602e+00	 6.332633837090960e-01
 1.482598225412336e-01	 1.643325599210697e+00	-7.882723196115727e+00
 1.182543995732755e-01	 1.645756937394584e+00	-1.611742495283259e+01
 8.841268902251494e-02	 1.647629568932387e+00	-2.402851624489809e+01
 5.874798746408103e-02	 1.648953811957498e+00	-3.157645918332881e+01
 2.927303277643252e-02	 1.649740309731242e+00	-3.872451575275685e+01
 0.000000000000000e+00	 1.650000000000000e+00	-4.543874680436579e+01
 3.025135746474747e-01	 1.634745174989355e+00	 4.274323525533462e+01
 2.716762141942071e-01	 1.640151909013182e+00	 4.070208495432029e+01
 2.409286505140234e-01	 1.644949736423866e+00	 3.628044989817235e+01
 2.102869683023234e-01	 1.649146943411119e+00	 2.961942464349532e+01
 1.797667381803585e-01	 1.652752301418539e+00	 2.086225571484861e+01
 1.493830030145004e-01	 1.655775035568155e+00	 1.015372675753032e+01
 1.191502662361921e-01	 1.658224792980780e+00	-2.360435126106680e+00
 8.908248212071354e-02	 1.660111611121198e+00	-1.653412950510089e+01
 5.919304797482287e-02	 1.661445886290479e+00	-3.222142716846511e+01
 2.949479817605690e-02	 1.662238342380713e+00	-4.927708735436471e+01
 0.000000000000000e+00	 1.662500000000000e+00	-6.755704622041756e+01
 3.047881128028683e-01	 1.647036492094213e+00	 4.735398807884886e+01
 2.737188924963317e-01	 1.652483878253622e+00	 5.272726220368070e+01
 2.427401441266382e-01	 1.657317779554668e+00	 5.328812189129714e+01
 2.118680733267460e-01	 1.661546544489241e+00	 4.926455429826865e+01
 1.811183677902460e-01	 1.665179010451648e+00	 4.089140480892182e+01
 1.505061834877673e-01	 1.668224471925732e+00	 2.840922357830968e+01
 1.200461328991086e-01	 1.670692648567053e+00	 1.206313878359132e+01
 8.975227521891216e-02	 1.672593653310051e+00	-7.898238228700510e+00
 5.963810848556471e-02	 1.673937960623477e+00	-3.122387124600309e+01
 2.971656357568129e-02	 1.674736375030189e+00	-5.766131683040176e+01
 0.000000000000000e+00	 1.675000000000000e+00	-8.695769772369283e+01
 3.070626509582619e-01	 1.659327809199556e+00	 5.043487617573779e+01
 2.757615707984564e-01	 1.664815847494451e+00	 6.350832393205066e+01
 2.445516377392530e-01	 1.669685822685776e+00	 6.937008525381381e+01
 2.134491783511686e-01	 1.673946145567598e+00	 6.833393235617443e+01
 1.824699974001335e-01	 1.677605719484926e+00	 6.072516245587587e+01
 1.516293639610341e-01	 1.680673908283426e+00	 4.687891070331269e+01
 1.209419995620252e-01	 1.683160504153399e+00	 2.713849527961290e+01
 9.042206831711082e-02	 1.685075695498947e+00	 1.853802658415464e+00
 6.008316899630655e-02	 1.686430034956494e+00	-2.862027972690852e+01
 2.993832897530567e-02	 1.687234407679669e+00	-6.392537694316536e+01
 0.000000000000000e+00	 1.687500000000000e+00	-1.037010804555139e+02
 3.093371891136554e-01	 1.671619126305386e+00	 5.201965617975805e+01
 2.778042491005809e-01	 1.677147816735672e+00	 7.307272370531116e+01
 2.463631313518678e-01	 1.682053865817191e+00	 8.454677011718611e+01
 2.150302833755913e-01	 1.686345746646188e+00	 8.684026957846069e+01
 1.838216270100210e-01	 1.690032428518376e+00	 8.036784941259754e+01
 1.527525444343010e-01	 1.693123344641238e+00	 6.555807431322174e+01
 1.218378662249418e-01	 1.695628359739820e+00	 4.285126810878123e+01
 9.109186141530945e-02	 1.697557737687884e+00	 1.269738387089579e+01
 6.052822950704838e-02	 1.698922109289530e+00	-2.444606782675622e+01
 3.016009437493006e-02	 1.699732440329154e+00	-6.811602369661405e+01
 0.000000000000000e+00	 1.700000000000000e+00	-1.178457977848363e+02
 3.116117272690490e-01	 1.683910443411700e+00	 5.214109902881971e+01
 2.798469274027056e-01	 1.689479785977283e+00	 8.144711342520674e+01
 2.481746249644826e-01	 1.694421908948912e+00	 9.883801001329668e+01
 2.166113884000138e-01	 1.698745347725011e+00	 1.047959055108877e+02
 1.851732566199084e-01	 1.702459137551994e+00	 9.982366018538978e+01
 1.538757249075678e-01	 1.705572780999167e+00	 8.444213812290565e+01
 1.227337328878583e-01	 1.708096215326316e+00	 5.918751037676964e+01
 9.176165451350807e-02	 1.710039779876861e+00	 2.460861455090656e+01
 6.097329001779021e-02	 1.711414183622584e+00	-1.873561682970119e+01
 3.038185977455445e-02	 1.712230472978645e+00	-7.027864804282659e+01
 0.000000000000000e+00	 1.712500000000000e+00	-1.294487421174596e+02
 3.138862654244425e-01	 1.696201760518499e+00	 5.083102567894497e+01
 2.818896057048302e-01	 1.701811755219286e+00	 8.865737237547113e+01
 2.499861185770973e-01	 1.706789952080941e+00	 1.122630634906736e+02
 2.181924934244365e-01	 1.711144948804068e+00	 1.222128219338414e+02
 1.865248862297958e-01	 1.714885846585784e+00	 1.190966676045132e+02
 1.549989053808347e-01	 1.718022217357214e+00	 1.035266583985109e+02
 1.236295995507749e-01	 1.720564070912886e+00	 7.613367935411709e+01
 9.243144761170670e-02	 1.722521822065882e+00	 3.756429623828515e+01
 6.141835052853206e-02	 1.723906257955657e+00	-1.152231154966722e+01
 3.060362517417883e-02	 1.724728505628139e+00	-7.045732534035693e+01
 0.000000000000000e+00	 1.725000000000000e+00	-1.385651568874459e+02
 3.161608035798359e-01	 1.708493077625785e+00	 4.812034127661722e+01
 2.839322840069549e-01	 1.714143724461679e+00	 9.472863501416091e+01
 2.517976121897121e-01	 1.719157995213276e+00	 1.248406347976438e+02
 2.197735984488592e-01	 1.723544549883358e+00	 1.391026557318609e+02
 1.878765158396833e-01	 1.727312555619745e+00	 1.381908272012669e+02
 1.561220858541015e-01	 1.730471653715379e+00	 1.228073191896385e+02
 1.245254662136915e-01	 1.733031926499532e+00	 9.367662193809942e+01
 9.310124070990533e-02	 1.735003864254944e+00	 5.154189796428408e+01
 6.186341103927389e-02	 1.736398332288747e+00	-2.838576174506528e+00
 3.082539057380321e-02	 1.737226538277638e+00	-6.869486267769142e+01
 0.000000000000000e+00	 1.737499999999999e+00	-1.452486958726498e+02
 3.184353417352296e-01	 1.720784394733555e+00	 4.403906786659860e+01
 2.859749623090795e-01	 1.726475693704463e+00	 9.968531757489257e+01
 2.536091058023270e-01	 1.731526038345919e+00	 1.365888936790642e+02
 2.213547034732818e-01	 1.735944150962882e+00	 1.554767112116250e+02
 1.892281454495708e-01	 1.739739264653876e+00	 1.571099813974794e+02
 1.572452663273684e-01	 1.742921090073661e+00	 1.422799277658619e+02
 1.254213328766080e-01	 1.745499782086253e+00	 1.118035607376620e+02
 9.377103380810400e-02	 1.747485906444048e+00	 6.651953241272795e+01
 6.230847155001576e-02	 1.748890406621857e+00	 7.284091426017774e+00
 3.104715597342760e-02	 1.749724570927141e+00	-6.503284416856349e+01
 0.000000000000000e+00	 1.750000000000000e+00	-1.495514799681544e+02
 1.750000000000000e+00	 0.000000000000000e+00	-1.773116030012653e+02
 1.749724570927141e+00	 3.104715597342660e-02	-1.430083112100333e+02
 1.748890406621857e+00	 6.230847155001488e-02	-1.157370093005736e+02
 1.747485906444049e+00	 9.377103380810323e-02	-9.505412751422671e+01
 1.745499782086252e+00	 1.254213328766073e-01	-8.047593958288137e+01
 1.742921090073661e+00	 1.572452663273678e-01	-7.147854779652570e+01
 1.739739264653876e+00	 1.892281454495704e-01	-6.749806020313835e+01
 1.735944150962882e+00	 2.213547034732815e-01	-6.793097015602135e+01
 1.731526038345919e+00	 2.536091058023268e-01	-7.213474754693114e+01
 1.726475693704463e+00	 2.859749623090794e-01	-7.942865003667958e+01
 1.720784394733555e+00	 3.184353417352296e-01	-8.909476141838645e+01
 1.762500000000000e+00	 0.000000000000000e+00	-1.385532066528828e+02
 1.762222603576645e+00	 3.126892137305098e-02	-1.134573239273248e+02
 1.761382480954966e+00	 6.275353206075669e-02	-9.323970892998599e+01
 1.759967948633153e+00	 9.444082690630186e-02	-7.754699174224308e+01
 1.757967637672972e+00	 1.263171995395239e-01	-6.599613239068584e+01
 1.755370526431943e+00	 1.583684468006347e-01	-5.817450625653745e+01
 1.752165973688007e+00	 1.905797750594578e-01	-5.364013616071792e+01
 1.748343752042406e+00	 2.229358084977041e-01	-5.192207834143146e+01
 1.743894081478562e+00	 2.554205994149417e-01	-5.252096883842857e+01
 1.738807662947248e+00	 2.880176406112040e-01	-5.490973598425705e+01
 1.733075711841326e+00	 3.207098798906232e-01	-5.853448377856254e+01
 1.775000000000000e+00	 0.000000000000000e+00	-9.131232238357353e+01
 1.774720636226143e+00	 3.149068677267536e-02	-7.644065403005385e+01
 1.773874555288057e+00	 6.319859257149853e-02	-6.432787819108606e+01
 1.772449990822214e+00	 9.511062000450050e-02	-5.470995925933315e+01
 1.770435493259618e+00	 1.272130662024405e-01	-4.730357530976742e+01
 1.767819962790108e+00	 1.594916272739015e-01	-4.180630263210737e+01
 1.764592682721967e+00	 1.919314046693453e-01	-3.789690186815440e+01
 1.760743353121696e+00	 2.245169135221267e-01	-3.523570999887826e+01
 1.756262124610897e+00	 2.572320930275563e-01	-3.346514189606952e+01
 1.751139632189640e+00	 2.900603189133286e-01	-3.221030455072268e+01
 1.745367028948611e+00	 3.229844180460166e-01	-3.107972641631138e+01
 1.787500000000000e+00	 0.000000000000000e+00	-3.576691777747467e+01
 1.787218668875638e+00	 3.171245217229974e-02	-3.211493620971184e+01
 1.786366629621130e+00	 6.364365308224038e-02	-2.913609834110438e+01
 1.784932033011234e+00	 9.578041310269911e-02	-2.665485550694574e+01
 1.782903348846188e+00	 1.281089328653570e-01	-2.448665589919838e+01
 1.780269399148155e+00	 1.606148077471684e-01	-2.243822702866916e+01
 1.777019391755757e+00	 1.932830342792328e-01	-2.030791509917634e+01
 1.773142954200753e+00	 2.260980185465493e-01	-1.788608259220179e+01
 1.768630167742926e+00	 2.590435866401711e-01	-1.495556500184443e+01
 1.763471601431642e+00	 2.921029972154534e-01	-1.129218726681264e+01
 1.757658346055410e+00	 3.252589562014102e-01	-6.665340020501579e+00
 1.800000000000000e+00	 0.000000000000000e+00	 2.790998328011968e+01
 1.799716701525128e+00	 3.193421757192412e-02	 1.936754596063691e+01
 1.798858703954184e+00	 6.408871359298220e-02	 1.220478788529607e+01
 1.797414075200213e+00	 9.645020620089774e-02	 6.509600489194497e+00
 1.795371204432684e+00	 1.290047995282736e-01	 2.368693644153133e+00
 1.792718835506084e+00	 1.617379882204352e-01	-1.327835647630096e-01
 1.789446100789376e+00	 1.946346638891202e-01	-9.116346517887521e-01
 1.785542555279577e+00	 2.276791235709719e-01	 1.129814906844739e-01
 1.780998210874648e+00	 2.608550802527859e-01	 3.019138658279331e+00
 1.775803570673254e+00	 2.941456755175779e-01	 7.881724242278963e+00
 1.769949663161724e+00	 3.275334943568037e-01	 1.477201515446507e+01
 1.812500000000000e+00	 0.000000000000000e+00	 9.955013013038410e+01
 1.812214734174612e+00	 3.215598297154849e-02	 7.785870998770068e+01
 1.811350778287220e+00	 6.453377410372405e-02	 5.956754736127728e+01
 1.809896117389150e+00	 9.711999929909636e-02	 4.467768900104664e+01
 1.807839060019105e+00	 1.299006661911902e-01	 3.317891181762559e+01
 1.805168271863896e+00	 1.628611686937021e-01	 2.504924804179534e+01
 1.801872809822825e+00	 1.959862934990077e-01	 2.025454175552338e+01
 1.797942156358166e+00	 2.292602285953945e-01	 1.874804131392495e+01
 1.793366254006062e+00	 2.626665738654007e-01	 2.047003219731314e+01
 1.788135539914474e+00	 2.961883538197025e-01	 2.534751481118695e+01
 1.782240980267553e+00	 3.298080325121973e-01	 3.329393168670876e+01
 1.825000000000000e+00	 0.000000000000000e+00	 1.789898818743021e+02
 1.824712766824093e+00	 3.237774837117288e-02	 1.432145305852795e+02
 1.823842852620237e+00	 6.497883461446587e-02	 1.128284329509486e+02
 1.822378159578045e+00	 9.778979239729499e-02	 8.774658688232674e+01
 1.820306915605452e+00	 1.307965328541067e-01	 6.786272662427302e+01
 1.817617708221590e+00	 1.639843491669689e-01	 5.304875341868451e+01
 1.814299518856104e+00	 1.973379231088951e-01	 4.315424114496949e+01
 1.810341757436523e+00	 2.308413336198172e-01	 3.800602432973811e+01
 1.805734297137171e+00	 2.644780674780155e-01	 3.740787576980734e+01
 1.800467509155304e+00	 2.982310321218272e-01	 4.114028078643166e+01
 1.794532297372897e+00	 3.320825706675907e-01	 4.896031482062416e+01
 1.837500000000000e+00	 0.000000000000000e+00	 2.660700505781149e+02
 1.837210799473569e+00	 3.259951377079726e-02	 2.152949016739387e+02
 1.836334926953235e+00	 6.542389512520771e-02	 1.718670649380771e+02
 1.834860201766898e+00	 9.845958549549363e-02	 1.356162690450682e+02
 1.832774771191723e+00	 1.316923995170233e-01	 1.063410776981900e+02
 1.830067144579166e+00	 1.651075296402358e-01	 8.380822689426493e+01
 1.826726227889211e+00	 1.986895527187826e-01	 6.775208042384638e+01
 1.822741358514645e+00	 2.324224386442398e-01	 5.787421384765810e+01
 1.818102340267972e+00	 2.662895610906304e-01	 5.384313687594232e+01
 1.812799478395743e+00	 3.002737104239518e-01	 5.529416364777870e+01
 1.806823614477755e+00	 3.343571088229843e-01	 6.182943985844034e+01
 1.850000000000000e+00	 0.000000000000000e+00	 3.606357508353058e+02
 1.849708832123041e+00	 3.282127917042164e-02	 2.939635039752913e+02
 1.848827001286216e+00	 6.586895563594955e-02	 2.365663172617417e+02
 1.847342243955709e+00	 9.912937859369225e-02	 1.881894139303747e+02
 1.845242626777920e+00	 1.325882661799398e-01	 1.485370415869186e+02
 1.842516580936625e+00	 1.662307101135026e-01	 1.172717171491795e+02
 1.839152936922149e+00	 2.000411823286701e-01	 9.401363294199660e+01
 1.835140959592534e+00	 2.340035436686624e-01	 7.834023701177908e+01
 1.830470383398466e+00	 2.681010547032451e-01	 6.978600024788327e+01
 1.825131447635792e+00	 3.023163887260764e-01	 6.784238226657413e+01
 1.819114931582128e+00	 3.366316469783779e-01	 7.195800722509730e+01
 1.862500000000000e+00	 0.000000000000000e+00	 4.625362553864917e+02
 1.862206864772507e+00	 3.304304457004600e-02	 3.790876779380489e+02
 1.861319075619178e+00	 6.631401614669137e-02	 3.068122083331024e+02
 1.859824286144479e+00	 9.979917169189090e-02	 2.453713127857190e+02
 1.857710482364042e+00	 1.334841328428564e-01	 1.943757600426169e+02
 1.854966017293967e+00	 1.673538905867695e-01	 1.533847750564776e+02
 1.851579645954916e+00	 2.013928119385575e-01	 1.219053963959469e+02
 1.847540560670190e+00	 2.355846486930850e-01	 9.939205326213880e+01
 1.842838426528654e+00	 2.699125483158599e-01	 8.524637733803098e+01
 1.837463416875449e+00	 3.043590670282010e-01	 7.881726386508356e+01
 1.831406248686016e+00	 3.389061851337714e-01	 7.940119531574256e+01
 1.875000000000000e+00	 0.000000000000000e+00	 5.716248565145223e+02
 1.874704897421970e+00	 3.326480996967039e-02	 4.705383017470416e+02
 1.873811149952121e+00	 6.675907665743323e-02	 3.824937962194998e+02
 1.872306328333207e+00	 1.004689647900895e-01	 3.070697825711582e+02
 1.870178337950090e+00	 1.343799995057729e-01	 2.437843711815841e+02
 1.867415453651191e+00	 1.684770710600364e-01	 1.920944036081382e+02
 1.864006354987513e+00	 2.027444415484450e-01	 1.513947620168802e+02
 1.859940161747613e+00	 2.371657537175077e-01	 1.210179432576491e+02
 1.855206469658534e+00	 2.717240419284748e-01	 1.002339154277412e+02
 1.849795386114716e+00	 3.064017453303257e-01	 8.825027373746232e+01
 1.843697565789419e+00	 3.411807232891650e-01	 8.421271122933507e+01
 1.720784394733555e+00	 3.184353417352296e-01	-8.909476141838645e+01
 1.714443962907183e+00	 3.509727882336210e-01	-9.390388409667690e+01
 1.707446796063893e+00	 3.835693400749201e-01	-9.674045550851578e+01
 1.699785900439417e+00	 4.162065505333916e-01	-9.788822003295010e+01
 1.691454921988814e+00	 4.488655109548259e-01	-9.764549500351896e+01
 1.682448176837619e+00	 4.815268759957912e-01	-9.632448574201091e+01
 1.672760680698918e+00	 5.141708910118742e-01	-9.425050262510939e+01
 1.662388177092036e+00	 5.467774215590895e-01	-9.176108080994763e+01
 1.651327164198396e+00	 5.793259849590476e-01	-8.920500405561181e+01
 1.639574920191208e+00	 6.117957838646149e-01	-8.694123491802800e+01
 1.627129526877964e+00	 6.441657417487923e-01	-8.533775445707978e+01
 1.733075711841326e+00	 3.207098798906232e-01	-5.853448377856254e+01
 1.726689991216679e+00	 3.534797367214088e-01	-6.350860983875631e+01
 1.719642844610636e+00	 3.863091210761491e-01	-6.705552320946794e+01
 1.711927228303469e+00	 4.191794544667827e-01	-6.939302111534897e+01
 1.703536742864199e+00	 4.520716931772842e-01	-7.074979265053621e+01
 1.694465663819255e+00	 4.849663536831973e-01	-7.136488198982946e+01
 1.684708971279676e+00	 5.178435402355064e-01	-7.148707745260889e+01
 1.674262378361351e+00	 5.506829745727694e-01	-7.137422701328343e+01
 1.663122358232710e+00	 5.834640277117502e-01	-7.129248147107123e+01
 1.651286169625344e+00	 6.161657537528370e-01	-7.151546713217382e+01
 1.638751880645368e+00	 6.487669256224087e-01	-7.232339051252161e+01
 1.745367028948611e+00	 3.229844180460166e-01	-3.107972641631138e+01
 1.738936019525595e+00	 3.559866852091919e-01	-3.573464054411897e+01
 1.731838893156713e+00	 3.890489020773594e-01	-3.949913158971281e+01
 1.724068556166777e+00	 4.221523584001311e-01	-4.252573918185119e+01
 1.715618563738773e+00	 4.552778753996662e-01	-4.497425034163338e+01
 1.706483150800026e+00	 4.884058313704840e-01	-4.701130962712821e+01
 1.696657261859521e+00	 5.215161894589655e-01	-4.880997874306706e+01
 1.686136579629713e+00	 5.545885275862120e-01	-5.054924617697280e+01
 1.674917552266045e+00	 5.876020704641420e-01	-5.241348785164926e+01
 1.662997419058485e+00	 6.205357236406640e-01	-5.459188022573665e+01
 1.650374234411771e+00	 6.533681094955353e-01	-5.727776772455367e+01
 1.757658346055410e+00	 3.252589562014102e-01	-6.665340020501579e+00
 1.751182047833929e+00	 3.584936336969702e-01	-1.052698427361341e+01
 1.744034941702122e+00	 3.917886830785507e-01	-1.402662547175177e+01
 1.736209884029342e+00	 4.251252623334367e-01	-1.725222074108924e+01
 1.727700384612536e+00	 4.584840576219720e-01	-2.029536596272321e+01
 1.718500637779927e+00	 4.918453090576508e-01	-2.325105163287606e+01
 1.708605552438449e+00	 5.251888386822515e-01	-2.621739159731968e+01
 1.698010780897124e+00	 5.584940805994180e-01	-2.929532518877485e+01
 1.686712746298402e+00	 5.917401132162234e-01	-3.258829353567705e+01
 1.674708668490632e+00	 6.249056935280959e-01	-3.620189105561198e+01
 1.661996588177176e+00	 6.579692933681721e-01	-4.024349339428932e+01
 1.769949663161724e+00	 3.275334943568037e-01	 1.477201515446507e+01
 1.763428076141683e+00	 3.610005821847440e-01	 1.216782349205716e+01
 1.756230990246865e+00	 3.945284640797232e-01	 9.405410030516357e+00
 1.748351211891164e+00	 4.280981662666999e-01	 6.460739116347540e+00
 1.739782205485490e+00	 4.616902398442015e-01	 3.309709885618798e+00
 1.730518124758961e+00	 4.952847867446978e-01	-7.174411930178604e-02
 1.720553843016463e+00	 5.288614879053642e-01	-3.707551417458937e+00
 1.709884982163583e+00	 5.623996336123871e-01	-7.621395637409231e+00
 1.698507940329780e+00	 5.958781559679937e-01	-1.183660569388103e+01
 1.686419917921784e+00	 6.292756634151330e-01	-1.637604369078279e+01
 1.673618941941580e+00	 6.625704772403191e-01	-2.126199119459459e+01
 1.782240980267553e+00	 3.298080325121973e-01	 3.329393168670876e+01
 1.775674104448857e+00	 3.635075306725129e-01	 3.240177252117280e+01
 1.768427038790941e+00	 3.972682450808769e-01	 3.083919227959879e+01
 1.760492539752241e+00	 4.310710701999204e-01	 2.864542942672219e+01
 1.751864026357632e+00	 4.648964220663550e-01	 2.586319639459858e+01
 1.742535611737127e+00	 4.987242644316255e-01	 2.253863584411822e+01
 1.732502133593562e+00	 5.325341371283038e-01	 1.872125782666200e+01
 1.721759183429090e+00	 5.663051866251195e-01	 1.446385738296756e+01
 1.710303134360180e+00	 6.000161987194534e-01	 9.822412249959127e+00
 1.698131167351941e+00	 6.336456333017750e-01	 4.855960490439561e+00
 1.685241295704983e+00	 6.671716611119766e-01	-3.735419859764781e-01
 1.794532297372897e+00	 3.320825706675907e-01	 4.896031482062416e+01
 1.787920132755449e+00	 3.660144791602774e-01	 5.022542833536211e+01
 1.780623087334351e+00	 4.000080260820117e-01	 5.031578212463241e+01
 1.772633867612575e+00	 4.340439741330983e-01	 4.933325471776269e+01
 1.763945847228964e+00	 4.681026042884321e-01	 4.738670412872775e+01
 1.754553098714425e+00	 5.021637421184332e-01	 4.459178190629008e+01
 1.744450424169746e+00	 5.362067863510702e-01	 4.107070525968648e+01
 1.733633384693645e+00	 5.702107396376150e-01	 3.695198683011695e+01
 1.722098328389602e+00	 6.041542414706025e-01	 3.237012199646386e+01
 1.709842416781103e+00	 6.380156031880218e-01	 2.746523394005022e+01
 1.696863649467388e+00	 6.717728449831445e-01	 2.238267704489679e+01
 1.806823614477755e+00	 3.343571088229843e-01	 6.182943985844034e+01
 1.800166161061462e+00	 3.685214276480370e-01	 6.568798065256564e+01
 1.792819135877093e+00	 4.027478070831276e-01	 6.787512323772299e+01
 1.784775195472166e+00	 4.370168780662335e-01	 6.855476509308856e+01
 1.776027668099485e+00	 4.713087865104332e-01	 6.790125572647042e+01
 1.766570585690856e+00	 5.056032198051217e-01	 6.609906963357911e+01
 1.756398714745015e+00	 5.398794355736636e-01	 6.334241469516736e+01
 1.745507585957248e+00	 5.741162926498736e-01	 5.983477561567263e+01
 1.733893522418045e+00	 6.082922842214408e-01	 5.578839250821450e+01
 1.721553666209272e+00	 6.423855730738739e-01	 5.142367525796246e+01
 1.708486003228792e+00	 6.763740288538224e-01	 4.696855484416866e+01
 1.819114931582128e+00	 3.366316469783779e-01	 7.195800722509730e+01
 1.812412189366892e+00	 3.710283761357918e-01	 7.883728986609950e+01
 1.805015184419169e+00	 4.054875880842249e-01	 8.355607985556667e+01
 1.796916523331014e+00	 4.399897819993261e-01	 8.633968509699872e+01
 1.788109488969196e+00	 4.745149687323580e-01	 8.742730576167821e+01
 1.778588072666419e+00	 5.090426974916901e-01	 8.707156725486988e+01
 1.768347005319369e+00	 5.435520847960839e-01	 8.553796616534252e+01
 1.757381787219899e+00	 5.780218456618955e-01	 8.310422883539559e+01
 1.745688716445509e+00	 6.124303269719682e-01	 8.005958287146765e+01
 1.733264915636445e+00	 6.467555429593308e-01	 7.670394263188214e+01
 1.720108356989195e+00	 6.809752127240108e-01	 7.334701047170564e+01
 1.831406248686016e+00	 3.389061851337714e-01	 7.940119531574256e+01
 1.824658217671743e+00	 3.735353246235422e-01	 8.971993165207397e+01
 1.817211232960577e+00	 4.082273690853030e-01	 9.739647300127972e+01
 1.809057851189117e+00	 4.429626859323761e-01	 1.027169414169222e+02
 1.800191309838096e+00	 4.777211509542068e-01	 1.059847598052338e+02
 1.790605559641113e+00	 5.124821751781390e-01	 1.075200459739427e+02
 1.780295295892808e+00	 5.472247340183306e-01	 1.076588973893123e+02
 1.769255988481599e+00	 5.819273986736807e-01	 1.067525663123092e+02
 1.757483910471995e+00	 6.165683697221850e-01	 1.051665258480065e+02
 1.744976165062624e+00	 6.511255128443929e-01	 1.032794283467180e+02
 1.731730710748600e+00	 6.855763965937093e-01	 1.014819585324414e+02
 1.843697565789419e+00	 3.411807232891650e-01	 8.421271122933507e+01
 1.836904245976013e+00	 3.760422731112877e-01	 9.838123979252424e+01
 1.829407281501320e+00	 4.109671500863628e-01	 1.094331152573538e+02
 1.821199179046478e+00	 4.459355898653836e-01	 1.177146894777713e+02
 1.812273130706186e+00	 4.809273331759791e-01	 1.235929927242359e+02
 1.802623046614941e+00	 5.159216528644683e-01	 1.274549898693577e+02
 1.792243586465333e+00	 5.508973832404047e-01	 1.297067051824929e+02
 1.781130189742346e+00	 5.858329516852289e-01	 1.307722154381109e+02
 1.769279104497502e+00	 6.207064124720912e-01	 1.310925120849209e+02
 1.756687414487809e+00	 6.554954827290598e-01	 1.311242343136209e+02
 1.743353064507004e+00	 6.901775804629183e-01	 1.313382759904745e+02
 1.627129526877964e+00	 6.441657417487923e-01	-8.533775445707978e+01
 1.613989891498045e+00	 6.764145402254381e-01	-8.280614967508716e+01
 1.600155766523939e+00	 7.085206580967053e-01	-8.077980039554589e+01
 1.585627767319404e+00	 7.404624120079153e-01	-7.899286633867146e+01
 1.570407387515452e+00	 7.722179985775097e-01	-7.717300918581063e+01
 1.554497011975571e+00	 8.037655378569363e-01	-7.504238401520125e+01
 1.537899927230667e+00	 8.350831179629202e-01	-7.231868624890052e+01
 1.520620329275986e+00	 8.661488407132029e-01	-6.871624876252655e+01
 1.502663328635016e+00	 8.969408680863412e-01	-6.394718322371629e+01
 1.484034952609081e+00	 9.274374693167079e-01	-5.772255918005958e+01
 1.464742144646208e+00	 9.576170684275745e-01	-4.975361392090889e+01
 1.638751880645368e+00	 6.487669256224087e-01	-7.232339051252161e+01
 1.625518390726798e+00	 6.812460726600401e-01	-6.868599094265267e+01
 1.611585450574138e+00	 7.135815199449438e-01	-6.537825034353678e+01
 1.596953679946601e+00	 7.457514292413342e-01	-6.219996983695722e+01
 1.581624583143993e+00	 7.777338414292114e-01	-5.894618816081780e+01
 1.565600562064543e+00	 8.095067202746747e-01	-5.540793280922497e+01
 1.548884926714374e+00	 8.410479973809957e-01	-5.137301248429337e+01
 1.531481903060134e+00	 8.723356181503270e-01	-4.662684678789329e+01
 1.513396638129045e+00	 9.033475885753565e-01	-4.095332864307791e+01
 1.494635202274586e+00	 9.340620226707022e-01	-3.413571452751263e+01
 1.475204588540842e+00	 9.644571903455147e-01	-2.595753723107597e+01
 1.650374234411771e+00	 6.533681094955353e-01	-5.727776772455367e+01
 1.637046889954552e+00	 6.860776050940667e-01	-5.293287549307526e+01
 1.623015134623337e+00	 7.186423817925500e-01	-4.874488758011947e+01
 1.608279592572798e+00	 7.510404464740931e-01	-4.457854603915301e+01
 1.592841778771534e+00	 7.832496842802550e-01	-4.029554857822953e+01
 1.576704112152514e+00	 8.152479026917873e-01	-3.575506153187680e+01
 1.559869926197083e+00	 8.470128767985073e-01	-3.081426007096095e+01
 1.542343476843282e+00	 8.785223955869790e-01	-2.532889284483441e+01
 1.524129947622075e+00	 9.097543090640229e-01	-1.915386795760779e+01
 1.505235451939092e+00	 9.406865760245012e-01	-1.214385690956547e+01
 1.485667032434476e+00	 9.712973122634445e-01	-4.153912889718756e+00
 1.661996588177176e+00	 6.579692933681721e-01	-4.024349339428932e+01
 1.648575389181304e+00	 6.909091375275175e-01	-3.558105408485382e+01
 1.634444818671535e+00	 7.237032436395238e-01	-3.090554674612862e+01
 1.619605505197995e+00	 7.563294637061926e-01	-2.614596858813648e+01
 1.604058974398076e+00	 7.887655271306413e-01	-2.122997326685992e+01
 1.587807662239485e+00	 8.209890851082737e-01	-1.608414777078380e+01
 1.570854925678792e+00	 8.529777562154547e-01	-1.063430259473490e+01
 1.553205050625430e+00	 8.847091730231600e-01	-4.805773651140120e+00
 1.534863257114104e+00	 9.161610295523409e-01	 1.476265778831815e+00
 1.515835701602599e+00	 9.473111293781052e-01	 8.286484887133961e+00
 1.496129476327111e+00	 9.781374341813636e-01	 1.569906892753320e+01
 1.673618941941580e+00	 6.625704772403191e-01	-2.126199119459459e+01
 1.660103888407058e+00	 6.957406699603933e-01	-1.666382597990221e+01
 1.645874502718734e+00	 7.287641054858656e-01	-1.188534477243249e+01
 1.630931417822192e+00	 7.616184809376318e-01	-6.919128450190465e+00
 1.615276170023616e+00	 7.942813699803695e-01	-1.758098240586569e+00
 1.598911212325456e+00	 8.267302675241344e-01	 3.604441438906115e+00
 1.581839925159500e+00	 8.589426356318381e-01	 9.174760682972114e+00
 1.564066624406578e+00	 8.908959504588688e-01	 1.495866264767942e+01
 1.545596566605134e+00	 9.225677500403102e-01	 2.096144325485466e+01
 1.526435951265105e+00	 9.539356827315140e-01	 2.718785236075176e+01
 1.506591920218745e+00	 9.849775560992717e-01	 3.364205669601082e+01
 1.685241295704983e+00	 6.671716611119766e-01	-3.735419859764781e-01
 1.671632387631811e+00	 7.005722023926938e-01	 3.786428245092438e+00
 1.657304186764933e+00	 7.338249673315752e-01	 8.291294370310830e+00
 1.642257330445389e+00	 7.669074981684119e-01	 1.308554943983923e+01
 1.626493365648157e+00	 7.997972128294403e-01	 1.811167878965647e+01
 1.610014762410427e+00	 8.324714499393688e-01	 2.331034924952053e+01
 1.592824924639209e+00	 8.649075150476579e-01	 2.862061260597011e+01
 1.574928198186726e+00	 8.970827278941063e-01	 3.398012238859830e+01
 1.556329876095164e+00	 9.289744705279305e-01	 3.932536290935420e+01
 1.537036200926610e+00	 9.605602360847276e-01	 4.459188935236034e+01
 1.517054364109380e+00	 9.918176780171698e-01	 4.971457758749830e+01
 1.696863649467388e+00	 6.717728449831445e-01	 2.238267704489679e+01
 1.683160886855564e+00	 7.054037348244186e-01	 2.573821523572671e+01
 1.668733870810132e+00	 7.388858291766527e-01	 2.960061593901358e+01
 1.653583243067586e+00	 7.721965153985318e-01	 3.385209021743744e+01
 1.637710561271698e+00	 8.053130556778525e-01	 3.837119025369758e+01
 1.621118312494399e+00	 8.382126323539776e-01	 4.303322865086326e+01
 1.603809924117917e+00	 8.708723944629133e-01	 4.771072558434111e+01
 1.585789771965874e+00	 9.032695053288717e-01	 5.227388164743917e+01
 1.567063185584193e+00	 9.353811910152019e-01	 5.659107395268927e+01
 1.547636450587117e+00	 9.671847894377464e-01	 6.052937278657777e+01
 1.527516807999014e+00	 9.986577999350574e-01	 6.395507587002526e+01
 1.708486003228792e+00	 6.763740288538224e-01	 4.696855484416866e+01
 1.694689386078318e+00	 7.102352672555683e-01	 4.916089868114290e+01
 1.680163554854331e+00	 7.439466910210980e-01	 5.201951165420355e+01
 1.664909155688782e+00	 7.774855326279917e-01	 5.536495377879114e+01
 1.648927756894240e+00	 8.108288985256076e-01	 5.901249089309928e+01
 1.632221862577370e+00	 8.439538147679603e-01	 6.277274213450406e+01
 1.614794923595626e+00	 8.768372738776048e-01	 6.645236875095674e+01
 1.596651345744023e+00	 9.094562827631659e-01	 6.985480087253256e+01
 1.577796495072223e+00	 9.417879115021248e-01	 7.278099844823308e+01
 1.558236700246622e+00	 9.738093427905699e-01	 7.503024215749066e+01
 1.537979251887649e+00	 1.005497921852934e+00	 7.640094974032381e+01
 1.720108356989195e+00	 6.809752127240108e-01	 7.334701047170564e+01
 1.706217885300071e+00	 7.150667996861424e-01	 7.402467035875726e+01
 1.691593238897530e+00	 7.490075528649108e-01	 7.552549785893113e+01
 1.676235068308979e+00	 7.827745498567924e-01	 7.760902009182375e+01
 1.660144952515781e+00	 8.163447413727047e-01	 8.002785024952806e+01
 1.643325412659340e+00	 8.496949971813165e-01	 8.252856137168082e+01
 1.625779923072334e+00	 8.828021532917318e-01	 8.485261482787634e+01
 1.607512919521170e+00	 9.156430601969879e-01	 8.673733892512243e+01
 1.588529804559253e+00	 9.481946319886988e-01	 8.791695249872811e+01
 1.568836949905128e+00	 9.804338961431981e-01	 8.812362781920862e+01
 1.548441695775283e+00	 1.012338043770800e+00	 8.708858666308220e+01
 1.731730710748600e+00	 6.855763965937093e-01	 1.014819585324414e+02
 1.717746384520824e+00	 7.198983321161414e-01	 1.003005223449721e+02
 1.703022922939729e+00	 7.540684147080918e-01	 1.000966945571919e+02
 1.687560980928176e+00	 7.880635670849330e-01	 1.005695750987352e+02
 1.671362148136322e+00	 8.218605842191440e-01	 1.014097454556083e+02
 1.654428962740312e+00	 8.554361795940472e-01	 1.023003669041776e+02
 1.636764922548042e+00	 8.887670327052954e-01	 1.029183467162416e+02
 1.618374493297319e+00	 9.218298376303385e-01	 1.029355665543923e+02
 1.599263114045282e+00	 9.546013524749239e-01	 1.020201665795047e+02
 1.579437199562634e+00	 9.870584494956315e-01	 9.983787813720173e+01
 1.558904139661917e+00	 1.019178165688655e+00	 9.605339728714486e+01
 1.743353064507004e+00	 6.901775804629183e-01	 1.313382759904745e+02
 1.729274883740578e+00	 7.247298645455649e-01	 1.279602203374694e+02
 1.714452606980928e+00	 7.591292765506406e-01	 1.257118052908119e+02
 1.698886893546374e+00	 7.933525843124138e-01	 1.242322971824461e+02
 1.682579343755863e+00	 8.273764270649256e-01	 1.231508543141459e+02
 1.665532512820283e+00	 8.611773620061519e-01	 1.220878478475720e+02
 1.647749922022751e+00	 8.947319121182951e-01	 1.206562638225870e+02
 1.629236067072467e+00	 9.280166150632179e-01	 1.184631793334918e+02
 1.609996423530313e+00	 9.610080729608007e-01	 1.151113050583716e+02
 1.590037449219140e+00	 9.936830028478698e-01	 1.102005855535900e+02
 1.569366583547552e+00	 1.026018287606500e+00	 1.033298480050695e+02
 1.464742144646208e+00	 9.576170684275745e-01	-4.975361392090889e+01
 1.444792760779105e+00	 9.874582919979614e-01	-4.534878151841288e+01
 1.424195563096069e+00	 1.016940016954224e+00	-4.137526136280162e+01
 1.402960210228699e+00	 1.046041418172352e+00	-3.809168331976591e+01
 1.381097244858090e+00	 1.074742015674165e+00	-3.575568924092974e+01
 1.358618078255741e+00	 1.103021721200889e+00	-3.462281975432813e+01
 1.335534971896006e+00	 1.130860883947535e+00	-3.494540062256468e+01
 1.311861016194242e+00	 1.158240335244118e+00	-3.697143618546018e+01
 1.287610106442683e+00	 1.185141431973866e+00	-4.094351743256433e+01
 1.262796916033438e+00	 1.211546098524362e+00	-4.709775220212198e+01
 1.237436867075000e+00	 1.237436867075000e+00	-5.566272487662818e+01
 1.475204588540842e+00	 9.644571903455147e-01	-2.595753723107597e+01
 1.455112709074938e+00	 9.945115655117275e-01	-2.412680348067427e+01
 1.434368388551411e+00	 1.024203874216805e+00	-2.251318858495601e+01
 1.412981354592089e+00	 1.053513142585853e+00	-2.131510415872996e+01
 1.390962225182928e+00	 1.082418744355134e+00	-2.073061778742895e+01
 1.368322493104510e+00	 1.110900447778312e+00	-2.095659996451661e+01
 1.345074507413148e+00	 1.138938461687509e+00	-2.218786850492746e+01
 1.321231452027168e+00	 1.166513480493667e+00	-2.461633618687982e+01
 1.296807321490887e+00	 1.193606727914892e+00	-2.843016741463690e+01
 1.271816894006361e+00	 1.220199999227256e+00	-3.381294967585238e+01
 1.246275701840000e+00	 1.246275701840000e+00	-4.094288548856051e+01
 1.485667032434476e+00	 9.712973122634445e-01	-4.153912889718756e+00
 1.465432657369780e+00	 1.001564839025664e+00	-4.565447451149014e+00
 1.444541214005794e+00	 1.031467731479696e+00	-4.983771722572827e+00
 1.423002498954569e+00	 1.060984866999766e+00	-5.547726420740268e+00
 1.400827205506926e+00	 1.090095473036578e+00	-6.396445822892685e+00
 1.378026907952530e+00	 1.118779174356233e+00	-7.668762506316432e+00
 1.354614042929651e+00	 1.147016039427960e+00	-9.502607490133848e+00
 1.330601887859582e+00	 1.174786625743633e+00	-1.203440978206283e+01
 1.306004536538730e+00	 1.202072023856238e+00	-1.539849938468654e+01
 1.280836871979093e+00	 1.228853899930329e+00	-1.972651782644982e+01
 1.255114536605000e+00	 1.255114536605000e+00	-2.514684025150913e+01
 1.496129476327111e+00	 9.781374341813636e-01	 1.569906892753320e+01
 1.475752605663633e+00	 1.008618112539770e+00	 1.337013506095013e+01
 1.454714039459216e+00	 1.038731588742899e+00	 1.124095741524597e+01
 1.433023643316138e+00	 1.068456591414092e+00	 9.231632401443907e+00
 1.410692185830083e+00	 1.097772201718495e+00	 7.261331540971520e+00
 1.387731322799798e+00	 1.126657900934648e+00	 5.248641219543670e+00
 1.364153578445512e+00	 1.155093617168889e+00	 3.111909095124073e+00
 1.339972323691486e+00	 1.183059770994018e+00	 7.695948923001570e-01
 1.315201751586213e+00	 1.210537319797904e+00	-1.859376747901081e+00
 1.289856849951636e+00	 1.237507800633582e+00	-4.855263733773616e+00
 1.263953371370000e+00	 1.263953371370000e+00	-8.297156691314424e+00
 1.506591920218745e+00	 9.849775560992717e-01	 3.364205669601082e+01
 1.486072553956495e+00	 1.015671386054045e+00	 2.971382456197166e+01
 1.464886864911678e+00	 1.045995446006413e+00	 2.618819014867581e+01
 1.443044787676797e+00	 1.075928315828831e+00	 2.304356642989061e+01
 1.420557166152399e+00	 1.105448930400887e+00	 2.025681629110962e+01
 1.397435737646315e+00	 1.134536627513560e+00	 1.780333902462116e+01
 1.373693113960733e+00	 1.163171194910295e+00	 1.565716551785953e+01
 1.349342759522880e+00	 1.191332916244822e+00	 1.379106158818955e+01
 1.324398966633336e+00	 1.219002615739889e+00	 1.217663884256977e+01
 1.298876827923988e+00	 1.246161701337016e+00	 1.078447237134338e+01
 1.272792206135000e+00	 1.272792206135000e+00	 9.584224522637641e+00
 1.517054364109380e+00	 9.918176780171698e-01	 4.971457758749830e+01
 1.496392502248367e+00	 1.022724659568490e+00	 4.449856695160544e+01
 1.475059690363180e+00	 1.053259303270238e+00	 3.988436771485635e+01
 1.453065932036545e+00	 1.083400040243982e+00	 3.590810168971817e+01
 1.430422146473876e+00	 1.113125659083753e+00	 3.260372140538909e+01
 1.407140152492082e+00	 1.142415354092968e+00	 3.000284554529076e+01
 1.383232649475314e+00	 1.171248772652179e+00	 2.813460510028244e+01
 1.358713195353763e+00	 1.199606061496045e+00	 2.702550139762308e+01
 1.333596181680099e+00	 1.227467911682194e+00	 2.669927707967050e+01
 1.307896805896150e+00	 1.254815602040628e+00	 2.717680100820208e+01
 1.281631040900000e+00	 1.281631040900000e+00	 2.847596796107350e+01
 1.527516807999014e+00	 9.986577999350574e-01	 6.395507587002526e+01
 1.506712450539249e+00	 1.029777933083105e+00	 5.775640552897698e+01
 1.485232515813721e+00	 1.060523160534374e+00	 5.235520695471791e+01
 1.463087076395382e+00	 1.090871764659546e+00	 4.784471556355793e+01
 1.440287126794510e+00	 1.120802387767094e+00	 4.431538417395678e+01
 1.416844567337098e+00	 1.150294080672872e+00	 4.185446954243420e+01
 1.392772184989253e+00	 1.179326350394540e+00	 4.054563162123323e+01
 1.368083631184136e+00	 1.207879206747686e+00	 4.046854839095482e+01
 1.342793396726501e+00	 1.235933207624818e+00	 4.169854902414068e+01
 1.316916783868122e+00	 1.263469502744421e+00	 4.430626800894143e+01
 1.290469875665000e+00	 1.290469875665000e+00	 4.835732270683576e+01
 1.537979251887649e+00	 1.005497921852934e+00	 7.640094974032381e+01
 1.517032398829141e+00	 1.036831206597890e+00	 6.951851169237432e+01
 1.495405341263303e+00	 1.067787017798821e+00	 6.362572495137029e+01
 1.473108220753309e+00	 1.098343489075522e+00	 5.887235545196340e+01
 1.450152107114305e+00	 1.128479116450908e+00	 5.540477897686893e+01
 1.426548982181364e+00	 1.158172807253272e+00	 5.336532090318693e+01
 1.402311720502552e+00	 1.187403928137378e+00	 5.289161066041602e+01
 1.377454067013998e+00	 1.216152351999745e+00	 5.411595543320680e+01
 1.351990611772543e+00	 1.244398503567761e+00	 5.716473753349595e+01
 1.325936761839904e+00	 1.272123403448393e+00	 6.215783971134313e+01
 1.299308710430000e+00	 1.299308710430000e+00	 6.920810247292835e+01
 1.548441695775283e+00	 1.012338043770800e+00	 8.708858666308220e+01
 1.527352347118043e+00	 1.043884480112846e+00	 7.981521439439587e+01
 1.505578166711924e+00	 1.075050875063579e+00	 7.372026266964195e+01
 1.483129365110326e+00	 1.105815213491911e+00	 6.900945667731739e+01
 1.460017087433259e+00	 1.136155845135198e+00	 6.588452954371715e+01
 1.436253397024878e+00	 1.166051533834168e+00	 6.454231735883550e+01
 1.411851256015211e+00	 1.195481505880694e+00	 6.517387088814461e+01
 1.386824502843350e+00	 1.224425497252223e+00	 6.796359017001180e+01
 1.361187826818225e+00	 1.252863799511024e+00	 7.308838807902735e+01
 1.334956739811496e+00	 1.280777304152546e+00	 8.071688875192930e+01
 1.308147545195000e+00	 1.308147545195000e+00	 9.100866652659332e+01
 1.558904139661917e+00	 1.019178165688655e+00	 9.605339728714486e+01
 1.537672295405955e+00	 1.050937753627970e+00	 8.867602841098832e+01
 1.515750992159585e+00	 1.082314732328648e+00	 8.266250764369457e+01
 1.493150509466432e+00	 1.113286937908712e+00	 7.827395966678206e+01
 1.469882067751373e+00	 1.143832573819961e+00	 7.576692071957733e+01
 1.445957811867642e+00	 1.173930260415559e+00	 7.539219093219626e+01
 1.421390791527228e+00	 1.203559083624488e+00	 7.739370530315048e+01
 1.396194938672191e+00	 1.232698642505121e+00	 8.200743117519892e+01
 1.370385041863546e+00	 1.261329095454607e+00	 8.946029993258814e+01
 1.343976717782898e+00	 1.289431204856878e+00	 9.996918043115353e+01
 1.316986379960000e+00	 1.316986379960000e+00	 1.137399013815452e+02
 1.569366583547552e+00	 1.026018287606500e+00	 1.033298480050695e+02
 1.547992243692877e+00	 1.057991027143265e+00	 9.612968147972683e+01
 1.525923817606285e+00	 1.089578589594028e+00	 9.047551575713649e+01
 1.503171653821628e+00	 1.120758662325927e+00	 8.668332644793412e+01
 1.479747048068645e+00	 1.151509302505199e+00	 8.506390976032721e+01
 1.455662226709656e+00	 1.181808986997448e+00	 8.592149412710550e+01
 1.430930327038606e+00	 1.211636661368759e+00	 8.955237242088421e+01
 1.405565374500522e+00	 1.240971787758436e+00	 9.624356425247990e+01
 1.379582256908508e+00	 1.269794391398509e+00	 1.062715177059124e+02
 1.352996695754110e+00	 1.298085105561391e+00	 1.199008596239887e+02
 1.325825214725000e+00	 1.325825214725000e+00	 1.373832032225216e+02
 1.237436867075000e+00	 1.237436867075000e+00	-5.566272487662818e+01
 1.211546098524362e+00	 1.262796916033438e+00	-5.731061376375784e+01
 1.185141431973866e+00	 1.287610106442683e+00	-5.622096339574105e+01
 1.158240335244119e+00	 1.311861016194243e+00	-5.211851708072619e+01
 1.130860883947535e+00	 1.335534971896005e+00	-4.474083387223487e+01
 1.103021721200889e+00	 1.358618078255741e+00	-3.383937073433712e+01
 1.074742015674166e+00	 1.381097244858090e+00	-1.918048498876418e+01
 1.046041418172353e+00	 1.402960210228699e+00	-5.463507873527931e-01
 1.016940016954224e+00	 1.424195563096068e+00	 2.226421587900389e+01
 9.874582919979624e-01	 1.444792760779105e+00	 4.943502830732824e+01
 9.576170684275745e-01	 1.464742144646208e+00	 8.113190016349053e+01
 1.246275701840000e+00	 1.246275701840000e+00	-4.094288548856051e+01
 1.220199999227256e+00	 1.271816894006361e+00	-3.880443197813157e+01
 1.193606727914892e+00	 1.296807321490887e+00	-3.500573172967668e+01
 1.166513480493667e+00	 1.321231452027167e+00	-2.933366248809023e+01
 1.138938461687509e+00	 1.345074507413148e+00	-2.158339211062475e+01
 1.110900447778313e+00	 1.368322493104510e+00	-1.155923266284618e+01
 1.082418744355135e+00	 1.390962225182927e+00	 9.245588182520423e-01
 1.053513142585854e+00	 1.412981354592089e+00	 1.604303796190535e+01
 1.024203874216806e+00	 1.434368388551411e+00	 3.395989364119978e+01
 9.945115655117286e-01	 1.455112709074937e+00	 5.482683545986660e+01
 9.644571903455147e-01	 1.475204588540842e+00	 7.878305151371542e+01
 1.255114536605000e+00	 1.255114536605000e+00	-2.514684025150913e+01
 1.228853899930329e+00	 1.280836871979093e+00	-1.958408119557027e+01
 1.202072023856238e+00	 1.306004536538730e+00	-1.342267864952502e+01
 1.174786625743633e+00	 1.330601887859582e+00	-6.510992145818278e+00
 1.147016039427960e+00	 1.354614042929651e+00	 1.298811029299809e+00
 1.118779174356233e+00	 1.378026907952529e+00	 1.015012777248714e+01
 1.090095473036578e+00	 1.400827205506926e+00	 2.018131827433591e+01
 1.060984866999767e+00	 1.423002498954568e+00	 3.152513619396976e+01
 1.031467731479697e+00	 1.444541214005793e+00	 4.430819349482024e+01
 1.001564839025664e+00	 1.465432657369779e+00	 5.865046321359748e+01
 9.712973122634446e-01	 1.485667032434477e+00	 7.466482307932471e+01
 1.263953371370000e+00	 1.263953371370000e+00	-8.297156691314424e+00
 1.237507800633582e+00	 1.289856849951636e+00	 3.354661213040906e-01
 1.210537319797904e+00	 1.315201751586213e+00	 8.520489285601496e+00
 1.183059770994018e+00	 1.339972323691486e+00	 1.634871044108196e+01
 1.155093617168889e+00	 1.364153578445512e+00	 2.391155946539223e+01
 1.126657900934648e+00	 1.387731322799797e+00	 3.130069444986703e+01
 1.097772201718496e+00	 1.410692185830083e+00	 3.860759891279622e+01
 1.068456591414093e+00	 1.433023643316137e+00	 4.592318297079587e+01
 1.038731588742900e+00	 1.454714039459216e+00	 5.333739113218387e+01
 1.008618112539770e+00	 1.475752605663632e+00	 6.093881929307668e+01
 9.781374341813637e-01	 1.496129476327111e+00	 6.881434340837959e+01
 1.272792206135000e+00	 1.272792206135000e+00	 9.584224522637641e+00
 1.246161701337015e+00	 1.298876827923988e+00	 2.093965338747089e+01
 1.219002615739890e+00	 1.324398966633336e+00	 3.081627955880355e+01
 1.191332916244822e+00	 1.349342759522880e+00	 3.924468349816674e+01
 1.163171194910296e+00	 1.373693113960733e+00	 4.626047641321679e+01
 1.134536627513560e+00	 1.397435737646315e+00	 5.190411831980014e+01
 1.105448930400887e+00	 1.420557166152399e+00	 5.622071162247265e+01
 1.075928315828831e+00	 1.443044787676796e+00	 5.925977177455187e+01
 1.045995446006414e+00	 1.464886864911678e+00	 6.107497675561919e+01
 1.015671386054046e+00	 1.486072553956495e+00	 6.172389726167027e+01
 9.849775560992720e-01	 1.506591920218745e+00	 6.126770963918774e+01
 1.281631040900000e+00	 1.281631040900000e+00	 2.847596796107350e+01
 1.254815602040628e+00	 1.307896805896150e+00	 4.221432555435479e+01
 1.227467911682194e+00	 1.333596181680099e+00	 5.345740631413184e+01
 1.199606061496045e+00	 1.358713195353763e+00	 6.217618623178276e+01
 1.171248772652179e+00	 1.383232649475313e+00	 6.835102992711347e+01
 1.142415354092968e+00	 1.407140152492081e+00	 7.197172888502215e+01
 1.113125659083754e+00	 1.430422146473875e+00	 7.303748970415604e+01
 1.083400040243983e+00	 1.453065932036545e+00	 7.155687276875412e+01
 1.053259303270239e+00	 1.475059690363180e+00	 6.754768216314125e+01
 1.022724659568491e+00	 1.496392502248366e+00	 6.103680804421948e+01
 9.918176780171699e-01	 1.517054364109380e+00	 5.206002306606783e+01
 1.290469875665000e+00	 1.290469875665000e+00	 4.835732270683576e+01
 1.263469502744421e+00	 1.316916783868122e+00	 6.414571535803223e+01
 1.235933207624818e+00	 1.342793396726501e+00	 7.643678327866539e+01
 1.207879206747686e+00	 1.368083631184136e+00	 8.514249811010600e+01
 1.179326350394540e+00	 1.392772184989253e+00	 9.018853821355407e+01
 1.150294080672872e+00	 1.416844567337098e+00	 9.151454520864718e+01
 1.120802387767094e+00	 1.440287126794510e+00	 8.907430522605809e+01
 1.090871764659547e+00	 1.463087076395382e+00	 8.283585414456417e+01
 1.060523160534375e+00	 1.485232515813721e+00	 7.278150672101884e+01
 1.029777933083107e+00	 1.506712450539249e+00	 5.890781015425201e+01
 9.986577999350573e-01	 1.527516807999014e+00	 4.122542324350926e+01
 1.299308710430000e+00	 1.299308710430000e+00	 6.920810247292835e+01
 1.272123403448393e+00	 1.325936761839904e+00	 8.672043012874019e+01
 1.244398503567761e+00	 1.351990611772543e+00	 9.974751697348559e+01
 1.216152351999746e+00	 1.377454067013998e+00	 1.081429181735298e+02
 1.187403928137379e+00	 1.402311720502552e+00	 1.117781747276216e+02
 1.158172807253272e+00	 1.426548982181363e+00	 1.105432864730072e+02
 1.128479116450909e+00	 1.450152107114305e+00	 1.043470847117148e+02
 1.098343489075523e+00	 1.473108220753309e+00	 9.311750259580859e+01
 1.067787017798822e+00	 1.495405341263302e+00	 7.680174227623763e+01
 1.036831206597892e+00	 1.517032398829141e+00	 5.536633868743308e+01
 1.005497921852934e+00	 1.537979251887649e+00	 2.879712069832480e+01
 1.308147545195000e+00	 1.308147545195000e+00	 9.100866652659332e+01
 1.280777304152546e+00	 1.334956739811497e+00	 1.099254391351373e+02
 1.252863799511024e+00	 1.361187826818225e+00	 1.233829001998875e+02
 1.224425497252224e+00	 1.386824502843349e+00	 1.311767643730130e+02
 1.195481505880695e+00	 1.411851256015210e+00	 1.331249730628864e+02
 1.166051533834168e+00	 1.436253397024877e+00	 1.290683821104327e+02
 1.136155845135198e+00	 1.460017087433259e+00	 1.188713241918947e+02
 1.105815213491912e+00	 1.483129365110326e+00	 1.024220429639316e+02
 1.075050875063580e+00	 1.505578166711923e+00	 7.963299705900127e+01
 1.043884480112846e+00	 1.527352347118043e+00	 5.044103313960301e+01
 1.012338043770800e+00	 1.548441695775283e+00	 1.480742831563680e+01
 1.316986379960000e+00	 1.316986379960000e+00	 1.137399013815452e+02
 1.289431204856878e+00	 1.343976717782898e+00	 1.337480614381925e+02
 1.261329095454607e+00	 1.370385041863546e+00	 1.473364057878875e+02
 1.232698642505121e+00	 1.396194938672191e+00	 1.542433729350703e+02
 1.203559083624488e+00	 1.421390791527228e+00	 1.542338316443662e+02
 1.173930260415560e+00	 1.445957811867642e+00	 1.470999815260835e+02
 1.143832573819962e+00	 1.469882067751372e+00	 1.326621036503906e+02
 1.113286937908713e+00	 1.493150509466432e+00	 1.107691570918773e+02
 1.082314732328649e+00	 1.515750992159584e+00	 8.129921862271425e+01
 1.050937753627971e+00	 1.537672295405955e+00	 4.415976410463133e+01
 1.019178165688655e+00	 1.558904139661917e+00	-7.122085390018853e-01
 1.325825214725000e+00	 1.325825214725000e+00	 1.373832032225216e+02
 1.298085105561391e+00	 1.352996695754110e+00	 1.581759542309250e+02
 1.269794391398509e+00	 1.379582256908508e+00	 1.716016805948025e+02
 1.240971787758436e+00	 1.405565374500522e+00	 1.773420977521719e+02
 1.211636661368759e+00	 1.430930327038606e+00	 1.751095182337802e+02
 1.181808986997448e+00	 1.455662226709656e+00	 1.646479634318676e+02
 1.151509302505200e+00	 1.479747048068645e+00	 1.457341008919813e+02
 1.120758662325928e+00	 1.503171653821628e+00	 1.181780019238187e+02
 1.089578589594029e+00	 1.525923817606285e+00	 8.182371586636862e+01
 1.057991027143266e+00	 1.547992243692877e+00	 3.654965890435369e+01
 1.026018287606500e+00	 1.569366583547552e+00	-1.773118310237157e+01
 9.576170684275745e-01	 1.464742144646208e+00	 8.113190016349053e+01
 9.274374693167079e-01	 1.484034952609081e+00	 1.014762994455127e+02
 8.969408680863412e-01	 1.502663328635016e+00	 1.143090295058103e+02
 8.661488407132029e-01	 1.520620329275986e+00	 1.194463975379287e+02
 8.350831179629206e-01	 1.537899927230666e+00	 1.167379968438602e+02
 8.037655378569366e-01	 1.554497011975572e+00	 1.060667356231163e+02
 7.722179985775102e-01	 1.570407387515452e+00	 8.734869049023806e+01
 7.404624120079161e-01	 1.585627767319404e+00	 6.053278984642290e+01
 7.085206580967063e-01	 1.600155766523939e+00	 2.560033347541262e+01
 6.764145402254393e-01	 1.613989891498045e+00	-1.743564412319082e+01
 6.441657417487923e-01	 1.627129526877964e+00	-6.853115811847493e+01
 9.644571903455147e-01	 1.475204588540842e+00	 7.878305151371542e+01
 9.340620226707020e-01	 1.494635202274587e+00	 8.976994925820267e+01
 9.033475885753567e-01	 1.513396638129045e+00	 9.611695050381637e+01
 8.723356181503269e-01	 1.531481903060134e+00	 9.766707486362098e+01
 8.410479973809958e-01	 1.548884926714374e+00	 9.428532129868573e+01
 8.095067202746751e-01	 1.565600562064542e+00	 8.585883386717124e+01
 7.777338414292119e-01	 1.581624583143993e+00	 7.229694751073534e+01
 7.457514292413349e-01	 1.596953679946601e+00	 5.353111644432865e+01
 7.135815199449446e-01	 1.611585450574138e+00	 2.951472860145730e+01
 6.812460726600413e-01	 1.625518390726798e+00	 2.228104114008289e-01
 6.487669256224087e-01	 1.638751880645368e+00	-3.434837305997243e+01
 9.712973122634446e-01	 1.485667032434477e+00	 7.466482307932471e+01
 9.406865760245010e-01	 1.505235451939093e+00	 7.659018157334918e+01
 9.097543090640229e-01	 1.524129947622075e+00	 7.670553892843628e+01
 8.785223955869794e-01	 1.542343476843282e+00	 7.488045436890033e+01
 8.470128767985073e-01	 1.559869926197083e+00	 7.099526734954000e+01
 8.152479026917877e-01	 1.576704112152514e+00	 6.494139885056688e+01
 7.832496842802557e-01	 1.592841778771534e+00	 5.662158754728742e+01
 7.510404464740938e-01	 1.608279592572798e+00	 4.595006088300316e+01
 7.186423817925509e-01	 1.623015134623336e+00	 3.285264160402716e+01
 6.860776050940676e-01	 1.637046889954551e+00	 1.726679082409851e+01
 6.533681094955354e-01	 1.650374234411771e+00	-8.584108335127070e-01
 9.781374341813637e-01	 1.496129476327111e+00	 6.881434340837959e+01
 9.473111293781052e-01	 1.515835701602599e+00	 6.196791578185978e+01
 9.161610295523410e-01	 1.534863257114104e+00	 5.610038356651080e+01
 8.847091730231601e-01	 1.553205050625430e+00	 5.110767641681363e+01
 8.529777562154551e-01	 1.570854925678792e+00	 4.688541048480730e+01
 8.209890851082741e-01	 1.587807662239485e+00	 4.332932387634749e+01
 7.887655271306419e-01	 1.604058974398075e+00	 4.033570135800748e+01
 7.563294637061935e-01	 1.619605505197995e+00	 3.780178582699502e+01
 7.237032436395248e-01	 1.634444818671535e+00	 3.562617423419258e+01
 6.909091375275186e-01	 1.648575389181304e+00	 3.370919584528385e+01
 6.579692933681720e-01	 1.661996588177175e+00	 3.195327093400075e+01
 9.849775560992720e-01	 1.506591920218745e+00	 6.126770963918774e+01
 9.539356827315137e-01	 1.526435951265105e+00	 4.593321233814374e+01
 9.225677500403102e-01	 1.545596566605134e+00	 3.432636233756048e+01
 8.908959504588690e-01	 1.564066624406578e+00	 2.636929406743237e+01
 8.589426356318386e-01	 1.581839925159500e+00	 2.197283791138273e+01
 8.267302675241348e-01	 1.598911212325456e+00	 2.103708846858723e+01
 7.942813699803704e-01	 1.615276170023616e+00	 2.345201599028033e+01
 7.616184809376328e-01	 1.630931417822191e+00	 2.909811600822871e+01
 7.287641054858667e-01	 1.645874502718734e+00	 3.784709200034547e+01
 6.957406699603945e-01	 1.660103888407058e+00	 4.956256582243015e+01
 6.625704772403191e-01	 1.673618941941579e+00	 6.410081057428201e+01
 9.918176780171699e-01	 1.517054364109380e+00	 5.206002306606783e+01
 9.605602360847276e-01	 1.537036200926611e+00	 2.851530237857130e+01
 9.289744705279306e-01	 1.556329876095164e+00	 1.140766680645573e+01
 8.970827278941061e-01	 1.574928198186726e+00	 6.852933297250203e-01
 8.649075150476579e-01	 1.592824924639208e+00	-3.725834607943256e+00
 8.324714499393694e-01	 1.610014762410427e+00	-1.921227359239861e+00
 7.997972128294406e-01	 1.626493365648157e+00	 5.982907322675022e+00
 7.669074981684126e-01	 1.642257330445388e+00	 1.985054987904828e+01
 7.338249673315762e-01	 1.657304186764933e+00	 3.952683576300186e+01
 7.005722023926947e-01	 1.671632387631810e+00	 6.483909507839088e+01
 6.671716611119766e-01	 1.685241295704983e+00	 9.559795631040265e+01
 9.986577999350573e-01	 1.527516807999014e+00	 4.122542324350926e+01
 9.671847894377462e-01	 1.547636450587116e+00	 9.742616122736081e+00
 9.353811910152018e-01	 1.567063185584193e+00	-1.263217431128260e+01
 9.032695053288720e-01	 1.585789771965874e+00	-2.592488741883470e+01
 8.708723944629133e-01	 1.603809924117917e+00	-3.019444660905113e+01
 8.382126323539778e-01	 1.621118312494398e+00	-2.553192942226381e+01
 8.053130556778535e-01	 1.637710561271698e+00	-1.205958790856188e+01
 7.721965153985323e-01	 1.653583243067585e+00	 1.007027078637429e+01
 7.388858291766537e-01	 1.668733870810132e+00	 4.067653285310651e+01
 7.054037348244198e-01	 1.683160886855564e+00	 7.955064376181058e+01
 6.717728449831446e-01	 1.696863649467388e+00	 1.264580796169551e+02
 1.005497921852934e+00	 1.537979251887649e+00	 2.879712069832480e+01
 9.738093427905699e-01	 1.558236700246622e+00	-1.035718988451741e+01
 9.417879115021248e-01	 1.577796495072223e+00	-3.777027260358139e+01
 9.094562827631661e-01	 1.596651345744022e+00	-5.344233880530020e+01
 8.768372738776050e-01	 1.614794923595625e+00	-5.741727744005487e+01
 8.439538147679604e-01	 1.632221862577369e+00	-4.978169624067044e+01
 8.108288985256082e-01	 1.648927756894240e+00	-3.066376057389270e+01
 7.774855326279926e-01	 1.664909155688782e+00	-2.318423102316096e-01
 7.439466910210989e-01	 1.680163554854331e+00	 4.130700773652968e+01
 7.102352672555692e-01	 1.694689386078317e+00	 9.370874921384679e+01
 6.763740288538225e-01	 1.708486003228792e+00	 1.566941880349022e+02
 1.012338043770800e+00	 1.548441695775283e+00	 1.480742831563680e+01
 9.804338961431978e-01	 1.568836949905128e+00	-3.175720663547150e+01
 9.481946319886988e-01	 1.588529804559253e+00	-6.398435832993676e+01
 9.156430601969882e-01	 1.607512919521170e+00	-8.184866258942911e+01
 8.828021532917325e-01	 1.625779923072334e+00	-8.537903140269304e+01
 8.496949971813170e-01	 1.643325412659341e+00	-7.465756644818899e+01
 8.163447413727055e-01	 1.660144952515780e+00	-4.981821808253289e+01
 7.827745498567932e-01	 1.676235068308980e+00	-1.104520455501589e+01
 7.490075528649117e-01	 1.691593238897529e+00	 4.142879224621495e+01
 7.150667996861435e-01	 1.706217885300070e+00	 1.073246368740769e+02
 6.809752127240106e-01	 1.720108356989195e+00	 1.863189374669037e+02
 1.019178165688655e+00	 1.558904139661917e+00	-7.122085390018853e-01
 9.870584494956313e-01	 1.579437199562634e+00	-5.443124757443505e+01
 9.546013524749237e-01	 1.599263114045282e+00	-9.125275966061747e+01
 9.218298376303387e-01	 1.618374493297318e+00	-1.111259545115309e+02
 8.887670327052957e-01	 1.636764922548042e+00	-1.140648234920521e+02
 8.554361795940475e-01	 1.654428962740311e+00	-1.001469267076214e+02
 8.218605842191447e-01	 1.671362148136321e+00	-6.951187376018657e+01
 7.880635670849336e-01	 1.687560980928176e+00	-2.235951532658794e+01
 7.540684147080928e-01	 1.703022922939728e+00	 4.105213540230017e+01
 7.198983321161423e-01	 1.717746384520824e+00	 1.204092307472401e+02
 6.855763965937093e-01	 1.731730710748600e+00	 2.153446439775320e+02
 1.026018287606500e+00	 1.569366583547552e+00	-1.773118310237157e+01
 9.936830028478698e-01	 1.590037449219140e+00	-7.835382451604673e+01
 9.610080729608007e-01	 1.609996423530313e+00	-1.195543827463008e+02
 9.280166150632180e-01	 1.629236067072467e+00	-1.412567878264048e+02
 8.947319121182953e-01	 1.647749922022751e+00	-1.434601657067053e+02
 8.611773620061525e-01	 1.665532512820283e+00	-1.262375001097502e+02
 8.273764270649263e-01	 1.682579343755863e+00	-8.973393665167421e+01
 7.933525843124147e-01	 1.698886893546373e+00	-3.416474876325167e+01
 7.591292765506416e-01	 1.714452606980927e+00	 4.018701283942652e+01
 7.247298645455660e-01	 1.729274883740578e+00	 1.329731634513123e+02
 6.901775804629183e-01	 1.743353064507004e+00	 2.437832951214749e+02
 6.441657417487923e-01	 1.627129526877964e+00	-6.853115811847493e+01
 6.117957838646149e-01	 1.639574920191208e+00	-1.040325528711603e+02
 5.793259849590476e-01	 1.651327164198396e+00	-1.282669719314451e+02
 5.467774215590897e-01	 1.662388177092036e+00	-1.415079725274610e+02
 5.141708910118744e-01	 1.672760680698918e+00	-1.440633927152969e+02
 4.815268759957917e-01	 1.682448176837619e+00	-1.362730449214636e+02
 4.488655109548267e-01	 1.691454921988814e+00	-1.185063282975066e+02
 4.162065505333923e-01	 1.699785900439417e+00	-9.115977808550662e+01
 3.835693400749210e-01	 1.707446796063892e+00	-5.465456987806035e+01
 3.509727882336220e-01	 1.714443962907183e+00	-9.433996187807764e+00
 3.184353417352296e-01	 1.720784394733555e+00	 4.403906786659860e+01
 6.487669256224087e-01	 1.638751880645368e+00	-3.434837305997243e+01
 6.161657537528369e-01	 1.651286169625344e+00	-5.462000388908636e+01
 5.834640277117503e-01	 1.663122358232710e+00	-6.844186377328374e+01
 5.506829745727695e-01	 1.674262378361350e+00	-7.599267148234412e+01
 5.178435402355067e-01	 1.684708971279677e+00	-7.747122846869678e+01
 4.849663536831978e-01	 1.694465663819255e+00	-7.309497744443554e+01
 4.520716931772849e-01	 1.703536742864199e+00	-6.309851617729355e+01
 4.191794544667834e-01	 1.711927228303469e+00	-4.773207766011112e+01
 3.863091210761500e-01	 1.719642844610636e+00	-2.725998757725848e+01
 3.534797367214098e-01	 1.726689991216679e+00	-1.959109668389004e+00
 3.207098798906232e-01	 1.733075711841326e+00	 2.788271081655095e+01
 6.533681094955354e-01	 1.650374234411771e+00	-8.584108335127070e-01
 6.205357236406640e-01	 1.662997419058485e+00	-5.728973460085983e+00
 5.876020704641420e-01	 1.674917552266045e+00	-8.901464670376923e+00
 5.545885275862121e-01	 1.686136579629713e+00	-1.046104094793600e+01
 5.215161894589658e-01	 1.696657261859521e+00	-1.049887106961115e+01
 4.884058313704844e-01	 1.706483150800025e+00	-9.111551681420234e+00
 4.552778753996668e-01	 1.715618563738773e+00	-6.400514218043568e+00
 4.221523584001318e-01	 1.724068556166777e+00	-2.471427335143353e+00
 3.890489020773603e-01	 1.731838893156712e+00	 2.566401124086774e+00
 3.559866852091929e-01	 1.738936019525595e+00	 8.600618785759927e+00
 3.229844180460166e-01	 1.745367028948611e+00	 1.551641638962147e+01
 6.579692933681720e-01	 1.661996588177175e+00	 3.195327093400075e+01
 6.249056935280957e-01	 1.674708668490631e+00	 4.265148697644855e+01
 5.917401132162232e-01	 1.686712746298402e+00	 5.036020591092860e+01
 5.584940805994181e-01	 1.698010780897124e+00	 5.508658414165379e+01
 5.251888386822519e-01	 1.708605552438449e+00	 5.684571109301913e+01
 4.918453090576513e-01	 1.718500637779927e+00	 5.566034450197797e+01
 4.584840576219726e-01	 1.727700384612536e+00	 5.156061851838114e+01
 4.251252623334376e-01	 1.736209884029342e+00	 4.458372737173337e+01
 3.917886830785516e-01	 1.744034941702122e+00	 3.477358742819008e+01
 3.584936336969712e-01	 1.751182047833929e+00	 2.218048049787042e+01
 3.252589562014102e-01	 1.757658346055410e+00	 6.860681260855856e+00
 6.625704772403191e-01	 1.673618941941579e+00	 6.410081057428201e+01
 6.292756634151327e-01	 1.686419917921784e+00	 9.053202176632335e+01
 5.958781559679939e-01	 1.698507940329780e+00	 1.093489622888745e+02
 5.623996336123873e-01	 1.709884982163583e+00	 1.206498780653909e+02
 5.288614879053646e-01	 1.720553843016463e+00	 1.245547708827542e+02
 4.952847867446983e-01	 1.730518124758960e+00	 1.212042922550986e+02
 4.616902398442022e-01	 1.739782205485489e+00	 1.107585745176835e+02
 4.280981662667007e-01	 1.748351211891163e+00	 9.339600878044547e+01
 3.945284640797241e-01	 1.756230990246865e+00	 6.931197935463605e+01
 3.610005821847450e-01	 1.763428076141683e+00	 3.871756416071223e+01
 3.275334943568037e-01	 1.769949663161724e+00	 1.838210437460987e+00
 6.671716611119766e-01	 1.685241295704983e+00	 9.559795631040265e+01
 6.336456333017748e-01	 1.698131167351941e+00	 1.379229815310098e+02
 6.000161987194534e-01	 1.710303134360181e+00	 1.680704582981743e+02
 5.663051866251195e-01	 1.721759183429090e+00	 1.862285239979562e+02
 5.325341371283041e-01	 1.732502133593562e+00	 1.926207747866005e+02
 4.987242644316259e-01	 1.742535611737127e+00	 1.875043255696439e+02
 4.648964220663556e-01	 1.751864026357632e+00	 1.711677718980484e+02
 4.310710701999212e-01	 1.760492539752242e+00	 1.439290702268696e+02
 3.972682450808779e-01	 1.768427038790942e+00	 1.061333528849503e+02
 3.635075306725140e-01	 1.775674104448856e+00	 5.815069385866855e+01
 3.298080325121973e-01	 1.782240980267553e+00	 3.738411097418322e-01
 6.717728449831446e-01	 1.696863649467388e+00	 1.264580796169551e+02
 6.380156031880218e-01	 1.709842416781104e+00	 1.848344332269930e+02
 6.041542414706024e-01	 1.722098328389602e+00	 2.265301927863409e+02
 5.702107396376153e-01	 1.733633384693645e+00	 2.518222137054264e+02
 5.362067863510706e-01	 1.744450424169746e+00	 2.610363955994775e+02
 5.021637421184337e-01	 1.754553098714425e+00	 2.545449157717237e+02
 4.681026042884328e-01	 1.763945847228964e+00	 2.327633295600642e+02
 4.340439741330990e-01	 1.772633867612575e+00	 1.961475607544143e+02
 4.000080260820126e-01	 1.780623087334350e+00	 1.451908051149313e+02
 3.660144791602783e-01	 1.787920132755449e+00	 8.042036963684716e+01
 3.320825706675907e-01	 1.794532297372897e+00	 2.394469631451827e+00
 6.763740288538225e-01	 1.708486003228792e+00	 1.566941880349022e+02
 6.423855730738738e-01	 1.721553666209272e+00	 2.312761697945395e+02
 6.082922842214408e-01	 1.733893522418045e+00	 2.847335148856701e+02
 5.741162926498737e-01	 1.745507585957248e+00	 3.174306472533757e+02
 5.398794355736638e-01	 1.756398714745015e+00	 3.297945054072762e+02
 5.056032198051220e-01	 1.766570585690856e+00	 3.223109566468759e+02
 4.713087865104338e-01	 1.776027668099485e+00	 2.955210433509275e+02
 4.370168780662343e-01	 1.784775195472166e+00	 2.500170912467604e+02
 4.027478070831286e-01	 1.792819135877093e+00	 1.864387093191251e+02
 3.685214276480380e-01	 1.800166161061461e+00	 1.054687104959432e+02
 3.343571088229843e-01	 1.806823614477755e+00	 7.828981480536697e+00
 6.809752127240106e-01	 1.720108356989195e+00	 1.863189374669037e+02
 6.467555429593308e-01	 1.733264915636446e+00	 2.772577194152918e+02
 6.124303269719683e-01	 1.745688716445509e+00	 3.426856290715015e+02
 5.780218456618959e-01	 1.757381787219899e+00	 3.830535327268067e+02
 5.435520847960841e-01	 1.768347005319369e+00	 3.988881688543941e+02
 5.090426974916905e-01	 1.778588072666419e+00	 3.907877501681272e+02
 4.745149687323587e-01	 1.788109488969196e+00	 3.594173631949691e+02
 4.399897819993270e-01	 1.796916523331014e+00	 3.055042019335936e+02
 4.054875880842257e-01	 1.805015184419168e+00	 2.298326718370161e+02
 3.710283761357929e-01	 1.812412189366892e+00	 1.332393996981204e+02
 3.366316469783779e-01	 1.819114931582128e+00	 1.660818405930683e+01
 6.855763965937093e-01	 1.731730710748600e+00	 2.153446439775320e+02
 6.511255128443928e-01	 1.744976165062624e+00	 3.227883543970789e+02
 6.165683697221850e-01	 1.757483910471994e+00	 4.003916000167789e+02
 5.819273986736807e-01	 1.769255988481598e+00	 4.486905859613687e+02
 5.472247340183309e-01	 1.780295295892808e+00	 4.683106366823594e+02
 5.124821751781393e-01	 1.790605559641113e+00	 4.599609927987655e+02
 4.777211509542074e-01	 1.800191309838096e+00	 4.244293711450940e+02
 4.429626859323769e-01	 1.809057851189117e+00	 3.625763312048405e+02
 4.082273690853040e-01	 1.817211232960577e+00	 2.753294906953409e+02
 3.735353246235432e-01	 1.824658217671742e+00	 1.636776322753407e+02
 3.389061851337714e-01	 1.831406248686016e+00	 2.866474220064272e+01
 6.901775804629183e-01	 1.743353064507004e+00	 2.437832951214749e+02
 6.554954827290597e-01	 1.756687414487810e+00	 3.678770997033305e+02
 6.207064124720911e-01	 1.769279104497503e+00	 4.578563572524433e+02
 5.858329516852290e-01	 1.781130189742346e+00	 5.143415302853188e+02
 5.508973832404049e-01	 1.792243586465333e+00	 5.380553395269353e+02
 5.159216528644688e-01	 1.802623046614941e+00	 5.298167623429961e+02
 4.809273331759799e-01	 1.812273130706186e+00	 4.905347603121658e+02
 4.459355898653843e-01	 1.821199179046478e+00	 4.212017856723244e+02
 4.109671500863636e-01	 1.829407281501319e+00	 3.228871158855092e+02
 3.760422731112888e-01	 1.836904245976013e+00	 1.967300646373560e+02
 3.411807232891650e-01	 1.843697565789419e+00	 4.393311625395251e+01
 3.184353417352296e-01	 1.720784394733555e+00	 4.403906786659860e+01
 2.859749623090795e-01	 1.726475693704463e+00	 9.968531757489257e+01
 2.536091058023270e-01	 1.731526038345919e+00	 1.365888936790642e+02
 2.213547034732818e-01	 1.735944150962882e+00	 1.554767112116250e+02
 1.892281454495708e-01	 1.739739264653876e+00	 1.571099813974794e+02
 1.572452663273684e-01	 1.742921090073661e+00	 1.422799277658619e+02
 1.254213328766080e-01	 1.745499782086253e+00	 1.118035607376620e+02
 9.377103380810400e-02	 1.747485906444048e+00	 6.651953241272795e+01
 6.230847155001576e-02	 1.748890406621857e+00	 7.284091426017774e+00
 3.104715597342760e-02	 1.749724570927141e+00	-6.503284416856349e+01
 0.000000000000000e+00	 1.750000000000000e+00	-1.495514799681544e+02
 3.207098798906232e-01	 1.733075711841326e+00	 2.788271081655095e+01
 2.880176406112042e-01	 1.738807662947247e+00	 6.470099449728249e+01
 2.554205994149419e-01	 1.743894081478562e+00	 8.818429543257430e+01
 2.229358084977045e-01	 1.748343752042406e+00	 9.885511847867869e+01
 1.905797750594583e-01	 1.752165973688006e+00	 9.726063385745054e+01
 1.583684468006353e-01	 1.755370526431943e+00	 8.396959054045705e+01
 1.263171995395246e-01	 1.757967637672972e+00	 5.956927173146391e+01
 9.444082690630262e-02	 1.759967948633152e+00	 2.466250812440780e+01
 6.275353206075759e-02	 1.761382480954967e+00	-2.013523672468763e+01
 3.126892137305198e-02	 1.762222603576644e+00	-7.419869595137790e+01
 0.000000000000000e+00	 1.762500000000000e+00	-1.368955323015566e+02
 3.229844180460166e-01	 1.745367028948611e+00	 1.551641638962147e+01
 2.900603189133288e-01	 1.751139632189640e+00	 3.278668524889508e+01
 2.572320930275566e-01	 1.756262124610897e+00	 4.206159705767419e+01
 2.245169135221270e-01	 1.760743353121696e+00	 4.366175622119277e+01
 1.919314046693457e-01	 1.764592682721967e+00	 3.792287782195773e+01
 1.594916272739021e-01	 1.767819962790108e+00	 2.519388746688571e+01
 1.272130662024412e-01	 1.770435493259618e+00	 5.835047042290377e+00
 9.511062000450128e-02	 1.772449990822214e+00	-1.978388394477273e+01
 6.319859257149944e-02	 1.773874555288057e+00	-5.128544258627686e+01
 3.149068677267637e-02	 1.774720636226143e+00	-8.828620435201096e+01
 0.000000000000000e+00	 1.775000000000000e+00	-1.303984652893871e+02
 3.252589562014102e-01	 1.757658346055410e+00	 6.860681260855856e+00
 2.921029972154534e-01	 1.763471601431642e+00	 3.877992639217752e+00
 2.590435866401714e-01	 1.768630167742926e+00	-1.827064537227848e+00
 2.260980185465497e-01	 1.773142954200753e+00	-1.013332924089306e+01
 1.932830342792332e-01	 1.777019391755757e+00	-2.091400991418598e+01
 1.606148077471690e-01	 1.780269399148155e+00	-3.403740874173612e+01
 1.281089328653577e-01	 1.782903348846188e+00	-4.936763602270393e+01
 9.578041310269989e-02	 1.784932033011234e+00	-6.676531091543733e+01
 6.364365308224128e-02	 1.786366629621130e+00	-8.608824514434161e+01
 3.171245217230076e-02	 1.787218668875638e+00	-1.071921065860524e+02
 0.000000000000000e+00	 1.787500000000000e+00	-1.299310599847043e+02
 3.275334943568037e-01	 1.769949663161724e+00	 1.838210437460987e+00
 2.941456755175780e-01	 1.775803570673254e+00	-2.208769180455867e+01
 2.608550802527862e-01	 1.780998210874648e+00	-4.352822300595311e+01
 2.276791235709723e-01	 1.785542555279576e+00	-6.255925963271851e+01
 1.946346638891207e-01	 1.789446100789376e+00	-7.926045478009053e+01
 1.617379882204359e-01	 1.792718835506084e+00	-9.371479692604987e+01
 1.290047995282743e-01	 1.795371204432684e+00	-1.060081746140622e+02
 9.645020620089854e-02	 1.797414075200213e+00	-1.162289492412455e+02
 6.408871359298313e-02	 1.798858703954184e+00	-1.244675379415863e+02
 3.193421757192514e-02	 1.799716701525127e+00	-1.308160083621414e+02
 0.000000000000000e+00	 1.800000000000000e+00	-1.353676869357774e+02
 3.298080325121973e-01	 1.782240980267553e+00	 3.738411097418322e-01
 2.961883538197027e-01	 1.788135539914474e+00	-4.517124951715525e+01
 2.626665738654010e-01	 1.793366254006063e+00	-8.308712840694898e+01
 2.292602285953949e-01	 1.797942156358166e+00	-1.136443534123435e+02
 1.959862934990082e-01	 1.801872809822824e+00	-1.371265946966956e+02
 1.628611686937026e-01	 1.805168271863896e+00	-1.538290381163297e+02
 1.299006661911908e-01	 1.807839060019105e+00	-1.640568101861457e+02
 9.711999929909716e-02	 1.809896117389149e+00	-1.681234326627946e+02
 6.453377410372496e-02	 1.811350778287220e+00	-1.663493140930129e+02
 3.215598297154953e-02	 1.812214734174612e+00	-1.590602849683656e+02
 0.000000000000000e+00	 1.812500000000000e+00	-1.465861824103892e+02
 3.320825706675907e-01	 1.794532297372897e+00	 2.394469631451827e+00
 2.982310321218273e-01	 1.800467509155304e+00	-6.543189404004349e+01
 2.644780674780159e-01	 1.805734297137171e+00	-1.205477911617514e+02
 2.308413336198176e-01	 1.810341757436522e+00	-1.634161532796361e+02
 1.973379231088956e-01	 1.814299518856103e+00	-1.945222899227126e+02
 1.639843491669695e-01	 1.817617708221590e+00	-2.143711465531850e+02
 1.307965328541074e-01	 1.820306915605452e+00	-2.234845995824532e+02
 9.778979239729581e-02	 1.822378159578045e+00	-2.223988023004046e+02
 6.497883461446680e-02	 1.823842852620236e+00	-2.116615943826697e+02
 3.237774837117391e-02	 1.824712766824093e+00	-1.918299864236033e+02
 0.000000000000000e+00	 1.825000000000000e+00	-1.634677297068136e+02
 3.343571088229843e-01	 1.806823614477755e+00	 7.828981480536697e+00
 3.002737104239519e-01	 1.812799478395743e+00	-8.292722775220668e+01
 2.662895610906306e-01	 1.818102340267972e+00	-1.559530242192275e+02
 2.324224386442401e-01	 1.822741358514645e+00	-2.119014525623504e+02
 1.986895527187831e-01	 1.826726227889211e+00	-2.514571324986865e+02
 1.651075296402364e-01	 1.830067144579166e+00	-2.753323810747652e+02
 1.316923995170240e-01	 1.832774771191723e+00	-2.842633873011326e+02
 9.845958549549444e-02	 1.834860201766898e+00	-2.790064587839334e+02
 6.542389512520864e-02	 1.836334926953235e+00	-2.603343582952305e+02
 3.259951377079830e-02	 1.837210799473569e+00	-2.290327465002428e+02
 0.000000000000000e+00	 1.837500000000000e+00	-1.858967453092400e+02
 3.366316469783779e-01	 1.819114931582128e+00	 1.660818405930683e+01
 3.023163887260765e-01	 1.825131447635791e+00	-9.771329630100858e+01
 2.681010547032454e-01	 1.830470383398466e+00	-1.893444835104527e+02
 2.340035436686628e-01	 1.835140959592535e+00	-2.591263205324958e+02
 2.000411823286705e-01	 1.839152936922148e+00	-3.079404553081920e+02
 1.662307101135032e-01	 1.842516580936626e+00	-3.367042368531355e+02
 1.325882661799405e-01	 1.845242626777920e+00	-3.463657788848587e+02
 9.912937859369306e-02	 1.847342243955709e+00	-3.378991163232712e+02
 6.586895563595048e-02	 1.848827001286216e+00	-3.122994778435884e+02
 3.282127917042268e-02	 1.849708832123040e+00	-2.705786954351677e+02
 0.000000000000000e+00	 1.850000000000000e+00	-2.137607696585199e+02
 3.389061851337714e-01	 1.831406248686016e+00	 2.866474220064272e+01
 3.043590670282013e-01	 1.837463416875449e+00	-1.098446408412123e+02
 2.699125483158602e-01	 1.842838426528653e+00	-2.207627067745383e+02
 2.355846486930855e-01	 1.847540560670190e+00	-3.051161267032574e+02
 2.013928119385580e-01	 1.851579645954916e+00	-3.639813407741548e+02
 1.673538905867701e-01	 1.854966017293967e+00	-3.984784374634040e+02
 1.334841328428570e-01	 1.857710482364042e+00	-4.097651153822691e+02
 9.979917169189172e-02	 1.859824286144479e+00	-3.990307586283479e+02
 6.631401614669230e-02	 1.861319075619177e+00	-3.674906540611066e+02
 3.304304457004707e-02	 1.862206864772507e+00	-3.163803761557316e+02
 0.000000000000000e+00	 1.862500000000000e+00	-2.469503623214056e+02
 3.411807232891650e-01	 1.843697565789419e+00	 4.393311625395251e+01
 3.064017453303258e-01	 1.849795386114716e+00	-1.193743481844429e+02
 2.717240419284751e-01	 1.855206469658534e+00	-2.502471508314216e+02
 2.371657537175081e-01	 1.859940161747613e+00	-3.498955641540430e+02
 2.027444415484455e-01	 1.864006354987513e+00	-4.195886292073134e+02
 1.684770710600370e-01	 1.867415453651191e+00	-4.606469272701060e+02
 1.343799995057737e-01	 1.870178337950090e+00	-4.744354488309418e+02
 1.004689647900904e-01	 1.872306328333207e+00	-4.623565965923430e+02
 6.675907665743416e-02	 1.873811149952121e+00	-4.258433560341926e+02
 3.326480996967145e-02	 1.874704897421970e+00	-3.663526638567040e+02
 0.000000000000000e+00	 1.875000000000000e+00	-2.853590013530227e+02
 1.875000000000000e+00	 0.000000000000000e+00	 5.716248565145223e+02
 1.874704897421970e+00	 3.326480996967039e-02	 4.705383017470416e+02
 1.873811149952121e+00	 6.675907665743323e-02	 3.824937962194998e+02
 1.872306328333207e+00	 1.004689647900895e-01	 3.070697825711582e+02
 1.870178337950090e+00	 1.343799995057729e-01	 2.437843711815841e+02
 1.867415453651191e+00	 1.684770710600364e-01	 1.920944036081382e+02
 1.864006354987513e+00	 2.027444415484450e-01	 1.513947620168802e+02
 1.859940161747613e+00	 2.371657537175077e-01	 1.210179432576491e+02
 1.855206469658534e+00	 2.717240419284748e-01	 1.002339154277412e+02
 1.849795386114716e+00	 3.064017453303257e-01	 8.825027373746232e+01
 1.843697565789419e+00	 3.411807232891650e-01	 8.421271122933507e+01
 1.887500000000000e+00	 0.000000000000000e+00	 4.972792390379848e+02
 1.887202930071432e+00	 3.348657536938452e-02	 4.133075701036502e+02
 1.886303224285065e+00	 6.720413716834120e-02	 3.390210282784485e+02
 1.884788370521935e+00	 1.011387578885170e-01	 2.741058505812217e+02
 1.882646193536138e+00	 1.352758661689670e-01	 2.182030927764022e+02
 1.879864890008415e+00	 1.696002515336150e-01	 1.709079213508330e+02
 1.876433064020110e+00	 2.040960711586639e-01	 1.317690897380708e+02
 1.872339762825035e+00	 2.387468587422663e-01	 1.002886128107026e+02
 1.867574512788415e+00	 2.735355355414151e-01	 7.592165305958193e+01
 1.862127355353983e+00	 3.084444236327496e-01	 5.807663110849217e+01
 1.855988882892821e+00	 3.434552614448158e-01	 4.611557226931365e+01
 1.900000000000000e+00	 0.000000000000000e+00	 4.119270083616463e+02
 1.899700962720899e+00	 3.370834076927819e-02	 3.463283560262158e+02
 1.898795298618027e+00	 6.764919767958150e-02	 2.871072478466486e+02
 1.897270412710705e+00	 1.018085509874021e-01	 2.340567815382959e+02
 1.895114049122259e+00	 1.361717328327159e-01	 1.869398866282702e+02
 1.892314326365756e+00	 1.707234320078171e-01	 1.454888426175803e+02
 1.888859773052877e+00	 2.054477007695455e-01	 1.094049201311896e+02
 1.884739363902691e+00	 2.403279637676972e-01	 7.835815448392194e+01
 1.879942555918602e+00	 2.753470291550062e-01	 5.198726069181203e+01
 1.874459324593640e+00	 3.104871019357721e-01	 2.989969844698395e+01
 1.868280199996709e+00	 3.457297996009814e-01	 1.167189494651581e+01
 1.912500000000000e+00	 0.000000000000000e+00	 3.157839694640961e+02
 1.912198995370370e+00	 3.393010616935138e-02	 2.697917964851332e+02
 1.911287372951007e+00	 6.809425819115406e-02	 2.269179564258944e+02
 1.909752454899517e+00	 1.024783440867449e-01	 1.870614923207440e+02
 1.907581904708456e+00	 1.370675994970198e-01	 1.501061568476114e+02
 1.904763762723215e+00	 1.718466124826427e-01	 1.159201543676243e+02
 1.901286482085814e+00	 2.067993303810899e-01	 8.435594516989831e+01
 1.897138964980580e+00	 2.419090687937999e-01	 5.525011679373204e+01
 1.892310599049096e+00	 2.771585227692481e-01	 2.842332710399490e+01
 1.886791293833689e+00	 3.125297802393932e-01	 3.680323541049937e+00
 1.880571517101082e+00	 3.480043377576615e-01	-1.918995734755377e+01
 1.925000000000000e+00	 0.000000000000000e+00	 2.090603221449535e+02
 1.924697028019846e+00	 3.415187156960411e-02	 1.838840639983442e+02
 1.923779447284006e+00	 6.853931870305893e-02	 1.586143569205527e+02
 1.922234497088370e+00	 1.031481371865453e-01	 1.332552917175528e+02
 1.920049760294728e+00	 1.379634661618787e-01	 1.078104140708587e+02
 1.917213199080792e+00	 1.729697929580919e-01	 8.228268819177472e+01
 1.913713191118923e+00	 2.081509599932970e-01	 5.667446236558155e+01
 1.909538566058704e+00	 2.434901738205749e-01	 3.098743673838502e+01
 1.904678642179897e+00	 2.789700163841410e-01	 5.222633703438882e+00
 1.899123263074128e+00	 3.145724585436129e-01	-2.061962875545868e+01
 1.892862834205940e+00	 3.502788759148565e-01	-4.653976040865236e+01
 1.937500000000000e+00	 0.000000000000000e+00	 9.196084183708132e+01
 1.937195060669326e+00	 3.437363697003634e-02	 8.878652677487784e+01
 1.936271521617023e+00	 6.898437921529610e-02	 8.235349230181976e+01
 1.934716539277264e+00	 1.038179302868033e-01	 7.276999681807168e+01
 1.932517615881075e+00	 1.388593328272925e-01	 6.015836879801149e+01
 1.929662635438486e+00	 1.740929734341646e-01	 4.465518984003517e+01
 1.926139900152201e+00	 2.095025896061670e-01	 2.641141974954571e+01
 1.921938167137059e+00	 2.450712788480219e-01	 5.592459523835137e+00
 1.917046685311006e+00	 2.807815099996848e-01	-1.762185168918634e+01
 1.911455232314958e+00	 3.166151368484312e-01	-4.303730933216376e+01
 1.905154151311284e+00	 3.525534140725660e-01	-7.044548924671717e+01
 1.950000000000000e+00	 0.000000000000000e+00	-3.531494653551690e+01
 1.949693093318812e+00	 3.459540237064810e-02	-1.532409730097783e+01
 1.948763595950059e+00	 6.942943972786557e-02	-1.711621061247911e+00
 1.947198581466201e+00	 1.044877233875190e-01	 5.734044925220189e+00
 1.944985471467495e+00	 1.397551994932612e-01	 7.253021140284964e+00
 1.942112071796298e+00	 1.752161539108608e-01	 3.114386075091296e+00
 1.938566609185650e+00	 2.108542192196997e-01	-6.383540874863900e+00
 1.934337768215650e+00	 2.466523838761410e-01	-2.091304246907644e+01
 1.929414728442420e+00	 2.825930036158795e-01	-4.011698081521509e+01
 1.923787201556179e+00	 3.186578151538481e-01	-6.360891636948369e+01
 1.917445468417113e+00	 3.548279522307903e-01	-9.097337580405383e+01
 1.962499999999999e+00	 0.000000000000000e+00	-1.725726013440495e+02
 1.962191125968301e+00	 3.481716777143939e-02	-1.282755925702525e+02
 1.961255670283113e+00	 6.987450024076731e-02	-9.343186516616342e+01
 1.959680623655179e+00	 1.051575164886924e-01	-6.772739880823826e+01
 1.957453327053991e+00	 1.406510661597848e-01	-5.080525286208453e+01
 1.954561508154227e+00	 1.763393343881805e-01	-4.226495102911014e+01
 1.950993318219269e+00	 2.122058488338951e-01	-4.166204233309666e+01
 1.946737369294472e+00	 2.482334889049322e-01	-4.850785144229671e+01
 1.941782771574142e+00	 2.844044972327250e-01	-6.226943072499373e+01
 1.936119170797790e+00	 3.207004934598635e-01	-8.236972568032368e+01
 1.929736785523427e+00	 3.571024903895291e-01	-1.081879644677353e+02
 1.975000000000000e+00	 0.000000000000000e+00	-3.196226033911746e+02
 1.974689158617796e+00	 3.503893317241022e-02	-2.499001031238896e+02
 1.973747744616185e+00	 7.031956075400138e-02	-1.926618970111376e+02
 1.972162665844200e+00	 1.058273095903234e-01	-1.474923378308762e+02
 1.969921182640562e+00	 1.415469328268634e-01	-1.139186181999304e+02
 1.967010944512274e+00	 1.774625148661237e-01	-9.140994223049879e+01
 1.963420027253059e+00	 2.135574784487534e-01	-7.937693205993939e+01
 1.959136970373529e+00	 2.498145939343955e-01	-7.717128663098075e+01
 1.954150814706171e+00	 2.862159908502214e-01	-8.408570930664607e+01
 1.948451140039792e+00	 3.227431717664775e-01	-9.935411989955027e+01
 1.942028102630227e+00	 3.593770285487826e-01	-1.221521654739285e+02
 1.987500000000000e+00	 0.000000000000000e+00	-4.762802011175672e+02
 1.987187191267294e+00	 3.526069857356055e-02	-3.800339957037913e+02
 1.986239818949276e+00	 7.076462126756775e-02	-2.992600298845315e+02
 1.984644708033262e+00	 1.064971026924121e-01	-2.334418445512901e+02
 1.982389038227208e+00	 1.424427994944970e-01	-1.819917009888214e+02
 1.979460380870438e+00	 1.785856953446905e-01	-1.442495415962438e+02
 1.975846736287019e+00	 2.149091080642744e-01	-1.194822435902325e+02
 1.971536571452820e+00	 2.513956989645308e-01	-1.068831874161606e+02
 1.966518857838506e+00	 2.880274844683688e-01	-1.055721606062062e+02
 1.960783109282185e+00	 3.247858500736903e-01	-1.145956165719743e+02
 1.954319419737511e+00	 3.616515667085508e-01	-1.329273062969722e+02
 2.000000000000000e+00	 0.000000000000000e+00	-6.423652616132480e+02
 1.999685223916798e+00	 3.548246397489042e-02	-5.185177277450546e+02
 1.998731893282386e+00	 7.120968178146642e-02	-4.130881191059511e+02
 1.997126750222366e+00	 1.071668957949584e-01	-3.254599644333263e+02
 1.994856893813928e+00	 1.433386661626855e-01	-2.549315115592176e+02
 1.991909817228721e+00	 1.797088758238808e-01	-2.007144792122119e+02
 1.988273445321150e+00	 2.162607376804582e-01	-1.619331594936824e+02
 1.983936172532344e+00	 2.529768039953384e-01	-1.376238970706901e+02
 1.978886900971149e+00	 2.898389780871670e-01	-1.267349699482512e+02
 1.973115078524969e+00	 3.268285283815016e-01	-1.281268951870369e+02
 1.966610736845282e+00	 3.639261048688338e-01	-1.405731811113517e+02
 1.843697565789419e+00	 3.411807232891650e-01	 8.421271122933507e+01
 1.836904245976013e+00	 3.760422731112877e-01	 9.838123979252424e+01
 1.829407281501320e+00	 4.109671500863628e-01	 1.094331152573538e+02
 1.821199179046478e+00	 4.459355898653836e-01	 1.177146894777713e+02
 1.812273130706186e+00	 4.809273331759791e-01	 1.235929927242359e+02
 1.802623046614941e+00	 5.159216528644683e-01	 1.274549898693577e+02
 1.792243586465333e+00	 5.508973832404047e-01	 1.297067051824929e+02
 1.781130189742346e+00	 5.858329516852289e-01	 1.307722154381109e+02
 1.769279104497502e+00	 6.207064124720912e-01	 1.310925120849209e+02
 1.756687414487809e+00	 6.554954827290598e-01	 1.311242343136209e+02
 1.743353064507004e+00	 6.901775804629183e-01	 1.313382759904745e+02
 1.855988882892821e+00	 3.434552614448158e-01	 4.611557226931365e+01
 1.849150274280280e+00	 3.785492215992383e-01	 5.974545862896856e+01
 1.841603330042052e+00	 4.137069310875700e-01	 7.103638107635264e+01
 1.833340506903817e+00	 4.489084937984764e-01	 8.025420990683018e+01
 1.824354951574237e+00	 4.841335153977702e-01	 8.768061420015614e+01
 1.814640533588709e+00	 5.193611305507440e-01	 9.361248702525548e+01
 1.804191877037770e+00	 5.545700324623478e-01	 9.836126986164734e+01
 1.793004391002975e+00	 5.897385046965644e-01	 1.022521760369000e+02
 1.781074298522854e+00	 6.248444552216972e-01	 1.056233137805615e+02
 1.768398663912796e+00	 6.598654526133346e-01	 1.088247103332104e+02
 1.754975418265163e+00	 6.947787643316375e-01	 1.122172394168433e+02
 1.868280199996709e+00	 3.457297996009814e-01	 1.167189494651581e+01
 1.861396302585124e+00	 3.810561700876036e-01	 2.419938876721740e+01
 1.853799378583433e+00	 4.164467120890913e-01	 3.515437575696480e+01
 1.845481834761856e+00	 4.518813977317833e-01	 4.472302797696935e+01
 1.836436772443023e+00	 4.873396976196745e-01	 5.310248183923849e+01
 1.826658020563224e+00	 5.228006082370322e-01	 6.050043102158772e+01
 1.816140167610950e+00	 5.582426816842028e-01	 6.713464895826280e+01
 1.804878592264319e+00	 5.936440577077110e-01	 7.323244079882190e+01
 1.792869492548874e+00	 6.289824979710139e-01	 7.903002528966731e+01
 1.780109913338382e+00	 6.642354224972196e-01	 8.477184762012126e+01
 1.766597772023832e+00	 6.993799481998669e-01	 9.070982488272537e+01
 1.880571517101082e+00	 3.480043377576615e-01	-1.918995734755377e+01
 1.873642330890543e+00	 3.835631185763834e-01	-8.317551582418265e+00
 1.865995427125461e+00	 4.191864930909272e-01	 1.737792525322856e+00
 1.857623162620597e+00	 4.548543016653039e-01	 1.108331676701585e+01
 1.848518593312543e+00	 4.905458798416917e-01	 1.983243716361945e+01
 1.838675507538488e+00	 5.262400859233329e-01	 2.810450330770736e+01
 1.828088458184871e+00	 5.619153309059697e-01	 3.602451739621007e+01
 1.816752793526378e+00	 5.975496107186689e-01	 4.372281293849953e+01
 1.804664686575561e+00	 6.331205407200413e-01	 5.133469344866255e+01
 1.791821162764569e+00	 6.686053923807149e-01	 5.900003176951042e+01
 1.778220125783012e+00	 7.039811320676065e-01	 6.686283102582217e+01
 1.892862834205940e+00	 3.502788759148565e-01	-4.653976040865236e+01
 1.885888359196539e+00	 3.860700670655777e-01	-3.786437053889043e+01
 1.878191475668137e+00	 4.219262740930773e-01	-2.926139458331680e+01
 1.869764490480039e+00	 4.578272055990384e-01	-2.070176801732605e+01
 1.860600414182798e+00	 4.937520620638225e-01	-1.215499875857042e+01
 1.850692994514499e+00	 5.296795636096463e-01	-3.589242656207158e+00
 1.840036748759534e+00	 5.655879801276484e-01	 5.028610586631055e+00
 1.828626994789152e+00	 6.014551637294382e-01	 1.373284113242581e+01
 1.816459880602917e+00	 6.372585834687796e-01	 2.255879253472234e+01
 1.803532412191354e+00	 6.729753622638208e-01	 3.154275532498258e+01
 1.789842479542702e+00	 7.085823159348567e-01	 4.072184101045807e+01
 1.905154151311284e+00	 3.525534140725660e-01	-7.044548924671717e+01
 1.898134387503110e+00	 3.885770155551868e-01	-6.449855331473519e+01
 1.890387524211462e+00	 4.246660550955419e-01	-5.788997204179536e+01
 1.881905818340181e+00	 4.608001095329867e-01	-5.066811974195808e+01
 1.872682235053787e+00	 4.969582442860664e-01	-4.288464723492373e+01
 1.862710481491260e+00	 5.331190412959723e-01	-3.459439340041499e+01
 1.851985039334939e+00	 5.692606293492392e-01	-2.585527752420722e+01
 1.840501196052641e+00	 6.053607167400185e-01	-1.672817227109580e+01
 1.828255074630939e+00	 6.413966262172286e-01	-7.276757265564290e+00
 1.815243661618739e+00	 6.773453321465369e-01	 2.432646585701327e+00
 1.801464833302902e+00	 7.131834998016169e-01	 1.233126173537961e+01
 1.917445468417113e+00	 3.548279522307903e-01	-9.097337580405383e+01
 1.910380415810258e+00	 3.910839640452103e-01	-8.827611102792299e+01
 1.902583572755435e+00	 4.274058360983207e-01	-8.419352655914787e+01
 1.894047146201024e+00	 4.637730134671488e-01	-7.885071132369566e+01
 1.884764055925510e+00	 5.001644265084235e-01	-7.238069302733058e+01
 1.874727968468767e+00	 5.365585189823108e-01	-6.492418698528829e+01
 1.863933329911085e+00	 5.729332785707417e-01	-5.662929633197434e+01
 1.852375397316846e+00	 6.092662697504101e-01	-4.765116335777954e+01
 1.840050268659630e+00	 6.455346689653881e-01	-3.815157209786221e+01
 1.826954911046724e+00	 6.817153020288634e-01	-2.829850269446966e+01
 1.813087187063613e+00	 7.177846836678874e-01	-1.826563846643631e+01
 1.929736785523427e+00	 3.571024903895291e-01	-1.081879644677353e+02
 1.922626444117981e+00	 3.935909125356485e-01	-1.092516276482836e+02
 1.914779621300055e+00	 4.301456171014137e-01	-1.082164832904283e+02
 1.906188474062569e+00	 4.667459174015250e-01	-1.052836245447618e+02
 1.896845876797968e+00	 5.033706087308940e-01	-1.006667046249998e+02
 1.886745455447024e+00	 5.399979966686618e-01	-9.459152409997716e+01
 1.875881620487973e+00	 5.766059277921560e-01	-8.729554037960115e+01
 1.864249598581766e+00	 6.131718227606131e-01	-7.902729905486989e+01
 1.851845462688989e+00	 6.496727117132586e-01	-7.004578736041991e+01
 1.838666160475309e+00	 6.860852719108005e-01	-6.061971066638392e+01
 1.824709540824834e+00	 7.223858675336682e-01	-5.102669356872532e+01
 1.942028102630227e+00	 3.593770285487826e-01	-1.221521654739285e+02
 1.934872472426280e+00	 3.960978610265014e-01	-1.274783051611557e+02
 1.926975669845323e+00	 4.328853981048212e-01	-1.300021425955242e+02
 1.918329801924813e+00	 4.697188213361148e-01	-1.300000782540673e+02
 1.908927697671160e+00	 5.065767909534776e-01	-1.277656537476180e+02
 1.898762942426027e+00	 5.434374743550253e-01	-1.236089787396076e+02
 1.887829911065603e+00	 5.802785770134823e-01	-1.178560510940485e+02
 1.876123799847400e+00	 6.170773757706272e-01	-1.108479698269744e+02
 1.863640656719016e+00	 6.538107544608398e-01	-1.029400412729878e+02
 1.850377409904492e+00	 6.904552417923476e-01	-9.450077975669873e+01
 1.836331894586565e+00	 7.269870513989594e-01	-8.591080496980574e+01
 1.954319419737511e+00	 3.616515667085508e-01	-1.329273062969722e+02
 1.947118500735156e+00	 3.986048095177688e-01	-1.430080070267489e+02
 1.939171718391239e+00	 4.356251791085429e-01	-1.495927154108516e+02
 1.930471129787760e+00	 4.726917252709185e-01	-1.530324555042985e+02
 1.921009518545086e+00	 5.097829731761744e-01	-1.536999341125377e+02
 1.910780429405780e+00	 5.468769520414016e-01	-1.519888084795599e+02
 1.899778201643975e+00	 5.839512262347204e-01	-1.483128184575278e+02
 1.887998001113750e+00	 6.209829287804526e-01	-1.431047826475242e+02
 1.875435850749710e+00	 6.579487972081314e-01	-1.368154590657807e+02
 1.862088659334276e+00	 6.948252116735054e-01	-1.299122720060836e+02
 1.847954248348806e+00	 7.315882352637606e-01	-1.228779079267492e+02
 1.966610736845282e+00	 3.639261048688338e-01	-1.405731811113517e+02
 1.959364529044608e+00	 4.011117580094511e-01	-1.558913000097729e+02
 1.951367766937805e+00	 4.383649601125791e-01	-1.670293572945989e+02
 1.942612457651407e+00	 4.756646292059362e-01	-1.744123296713507e+02
 1.933091339419748e+00	 5.129891553989847e-01	-1.784913794981950e+02
 1.922797916386281e+00	 5.503164297277904e-01	-1.797429643644660e+02
 1.911726492223089e+00	 5.876238754558706e-01	-1.786677826160645e+02
 1.899872202380815e+00	 6.248884817900893e-01	-1.757895542338024e+02
 1.887231044781072e+00	 6.620868399551341e-01	-1.716536377613484e+02
 1.873799908764660e+00	 6.991951815542736e-01	-1.668254853322481e+02
 1.859576602111558e+00	 7.361894191280726e-01	-1.618889392482728e+02
 1.743353064507004e+00	 6.901775804629183e-01	 1.313382759904745e+02
 1.729274883740578e+00	 7.247298645455649e-01	 1.279602203374694e+02
 1.714452606980928e+00	 7.591292765506406e-01	 1.257118052908119e+02
 1.698886893546374e+00	 7.933525843124138e-01	 1.242322971824461e+02
 1.682579343755863e+00	 8.273764270649256e-01	 1.231508543141459e+02
 1.665532512820283e+00	 8.611773620061519e-01	 1.220878478475720e+02
 1.647749922022751e+00	 8.947319121182951e-01	 1.206562638225870e+02
 1.629236067072467e+00	 9.280166150632179e-01	 1.184631793334918e+02
 1.609996423530313e+00	 9.610080729608007e-01	 1.151113050583716e+02
 1.590037449219140e+00	 9.936830028478698e-01	 1.102005855535900e+02
 1.569366583547552e+00	 1.026018287606500e+00	 1.033298480050695e+02
 1.754975418265163e+00	 6.947787643316375e-01	 1.122172394168433e+02
 1.740803382960041e+00	 7.295613969744104e-01	 1.076465561023298e+02
 1.725882291021801e+00	 7.641901383925472e-01	 1.040088864440164e+02
 1.710212806164218e+00	 7.986416015392133e-01	 1.010243418820455e+02
 1.693796539375036e+00	 8.328922699100104e-01	 9.840498929536933e+01
 1.676636062899880e+00	 8.669185444175695e-01	 9.585587412630778e+01
 1.658734921497089e+00	 9.006967915306421e-01	 9.307610749104553e+01
 1.640097640847259e+00	 9.342033924955047e-01	 8.976001189857246e+01
 1.620729733015010e+00	 9.674147934461709e-01	 8.559831954510250e+01
 1.600637698875349e+00	 1.000307556199713e+00	 8.027941653488213e+01
 1.579829027432933e+00	 1.032858409524087e+00	 7.349062581043177e+01
 1.766597772023832e+00	 6.993799481998669e-01	 9.070982488272537e+01
 1.752331882179924e+00	 7.343929294026761e-01	 8.540517068226427e+01
 1.737311975063022e+00	 7.692510002338026e-01	 8.083993071972237e+01
 1.721538718782361e+00	 8.039306187653088e-01	 7.681425270645273e+01
 1.705013734994474e+00	 8.384081127543593e-01	 7.312228355787596e+01
 1.687739612979730e+00	 8.726597268282392e-01	 6.955289722022653e+01
 1.669719920971688e+00	 9.066616709422494e-01	 6.589046948326605e+01
 1.650959214622339e+00	 9.403901699270792e-01	 6.191569598206426e+01
 1.631463042500044e+00	 9.738215139308771e-01	 5.740644911309107e+01
 1.611237948531963e+00	 1.006932109550961e+00	 5.213866913943165e+01
 1.590291471318810e+00	 1.039698531441169e+00	 4.588728434344225e+01
 1.778220125783012e+00	 7.039811320676065e-01	 6.686283102582217e+01
 1.763860381400227e+00	 7.392244618303614e-01	 6.127386991084490e+01
 1.748741659104592e+00	 7.743118620744064e-01	 5.623369174146497e+01
 1.732864631400799e+00	 8.092196359907015e-01	 5.162168752333922e+01
 1.716230930614176e+00	 8.439239555979724e-01	 4.731327191420912e+01
 1.698843163059831e+00	 8.784009092381607e-01	 4.318031817213372e+01
 1.680704920446545e+00	 9.126265503531157e-01	 3.909162322927150e+01
 1.661820788397706e+00	 9.465769473579415e-01	 3.491340066291109e+01
 1.642196351985415e+00	 9.802282344149192e-01	 3.050979903381311e+01
 1.621838198188981e+00	 1.013556662901614e+00	 2.574344277592756e+01
 1.600753915205181e+00	 1.046538653357745e+00	 2.047599255522841e+01
 1.789842479542702e+00	 7.085823159348567e-01	 4.072184101045807e+01
 1.775388880620949e+00	 7.440559942574663e-01	 3.528947772240287e+01
 1.760171343146511e+00	 7.793727239143585e-01	 3.021817635063613e+01
 1.744190544019534e+00	 8.145086532153905e-01	 2.546579366635690e+01
 1.727448126234142e+00	 8.494397984408504e-01	 2.098821560006800e+01
 1.709946713140184e+00	 8.841420916473343e-01	 1.673950168345919e+01
 1.691689919921663e+00	 9.185914297632422e-01	 1.267204289326464e+01
 1.672682362173361e+00	 9.527637247880916e-01	 8.736732225609119e+00
 1.652929661471120e+00	 9.866349548982979e-01	 4.883147202621236e+00
 1.632438447846405e+00	 1.020181216251673e+00	 1.059743390244879e+00
 1.611216359092047e+00	 1.053378775273816e+00	-2.785942111113016e+00
 1.801464833302902e+00	 7.131834998016169e-01	 1.233126173537961e+01
 1.786917379842092e+00	 7.488875266839913e-01	 7.487867825170518e+00
 1.771601027188778e+00	 7.844335857536594e-01	 2.820668695199938e+00
 1.755516456638565e+00	 8.197976704393758e-01	-1.634775597053517e+00
 1.738665321854372e+00	 8.549556412829922e-01	-5.842888901660894e+00
 1.721050263220789e+00	 8.898832740557597e-01	-9.768222714457616e+00
 1.702674919397040e+00	 9.245563091726281e-01	-1.337560310267376e+01
 1.683543935949303e+00	 9.589505022175293e-01	-1.663027994418603e+01
 1.663662970957163e+00	 9.930416753810126e-01	-1.949807755976908e+01
 1.643038697504234e+00	 1.026805769601136e+00	-2.194554577863798e+01
 1.621678802979408e+00	 1.060218897189382e+00	-2.394011044698456e+01
 1.813087187063613e+00	 7.177846836678874e-01	-1.826563846643631e+01
 1.798445879063653e+00	 7.537190591099358e-01	-2.209600584377318e+01
 1.783030711231393e+00	 7.894944475923085e-01	-2.593224660807854e+01
 1.766842369257893e+00	 8.250866876626581e-01	-2.966184523122831e+01
 1.749882517474867e+00	 8.604714841243986e-01	-3.317030137625137e+01
 1.732153813301645e+00	 8.956244564634370e-01	-3.634155953412883e+01
 1.713659918872676e+00	 9.305211885812739e-01	-3.905845830579340e+01
 1.694405509725534e+00	 9.651372796462546e-01	-4.120319692157310e+01
 1.674396280443541e+00	 9.994483958630631e-01	-4.265781637123152e+01
 1.653638947162468e+00	 1.033430322950004e+00	-4.330469231794480e+01
 1.632141246867263e+00	 1.067059019104442e+00	-4.302703679219550e+01
 1.824709540824834e+00	 7.223858675336682e-01	-5.102669356872532e+01
 1.809974378285636e+00	 7.585505915353004e-01	-5.342807982743626e+01
 1.794460395274358e+00	 7.945553094303062e-01	-5.601466219658165e+01
 1.778168281877518e+00	 8.303757048852366e-01	-5.859770320298119e+01
 1.761099713095627e+00	 8.659873269650693e-01	-6.098452971673859e+01
 1.743257363382755e+00	 9.013656388703668e-01	-6.297924624871744e+01
 1.724644918348573e+00	 9.364860679891791e-01	-6.438348422189867e+01
 1.705267083502052e+00	 9.713240570742675e-01	-6.499718328602607e+01
 1.685129589930255e+00	 1.005855116344450e+00	-6.461940035482957e+01
 1.664239196821106e+00	 1.040054876298278e+00	-6.304914168578005e+01
 1.642603690755613e+00	 1.073899141018997e+00	-6.008621299929020e+01
 1.836331894586565e+00	 7.269870513989594e-01	-8.591080496980574e+01
 1.821502877508037e+00	 7.633821239600846e-01	-8.647515297016247e+01
 1.805890079317670e+00	 7.996161712676525e-01	-8.740132653074892e+01
 1.789494194497439e+00	 8.356647221071117e-01	-8.842508583062647e+01
 1.772316908716650e+00	 8.715031698050042e-01	-8.927632207340599e+01
 1.754360913464116e+00	 9.071068212765480e-01	-8.968005224996766e+01
 1.735629917824729e+00	 9.424509473963442e-01	-8.935746607712989e+01
 1.716128657278858e+00	 9.775108345015684e-01	-8.802701966968388e+01
 1.695862899417306e+00	 1.012261836825173e+00	-8.540556994338883e+01
 1.674839446480150e+00	 1.046679429645957e+00	-8.120954322879129e+01
 1.653066134644457e+00	 1.080739262933047e+00	-7.515613110808832e+01
 1.847954248348806e+00	 7.315882352637606e-01	-1.228779079267492e+02
 1.833031376730859e+00	 7.682136563842887e-01	-1.212048593022308e+02
 1.817319763361331e+00	 8.046770331043469e-01	-1.200676232717028e+02
 1.800820107117657e+00	 8.409537393282837e-01	-1.191271636858720e+02
 1.783534104337938e+00	 8.770190126442036e-01	-1.180366592995098e+02
 1.765464463545728e+00	 9.128480036819814e-01	-1.164427778454526e+02
 1.746614917301145e+00	 9.484158268027688e-01	-1.139870183623152e+02
 1.726990231055951e+00	 9.836976119281569e-01	-1.103071148321176e+02
 1.706596208904692e+00	 1.018668557305231e+00	-1.050384934555954e+02
 1.685439696139599e+00	 1.053303982993040e+00	-9.781577521802927e+01
 1.663528578533797e+00	 1.087579384846591e+00	-8.827431478721850e+01
 1.859576602111558e+00	 7.361894191280726e-01	-1.618889392482728e+02
 1.844559875954101e+00	 7.730451888079128e-01	-1.575856419412736e+02
 1.828749447405340e+00	 8.097378949403902e-01	-1.539895514322197e+02
 1.812146019738172e+00	 8.462427565487523e-01	-1.506875280243803e+02
 1.794751299959490e+00	 8.825348554826673e-01	-1.472567476802958e+02
 1.776568013627593e+00	 9.185891860866668e-01	-1.432662532934272e+02
 1.757599916777820e+00	 9.543807062084535e-01	-1.382785901694050e+02
 1.737851804833333e+00	 9.898843893540332e-01	-1.318515172822859e+02
 1.717329518392415e+00	 1.025075277784627e+00	-1.235397849754819e+02
 1.696039945799453e+00	 1.059928536339529e+00	-1.128969689459599e+02
 1.673991022423631e+00	 1.094419506759630e+00	-9.947734959659529e+01
 1.569366583547552e+00	 1.026018287606500e+00	 1.033298480050695e+02
 1.547992243692877e+00	 1.057991027143265e+00	 9.612968147972683e+01
 1.525923817606285e+00	 1.089578589594028e+00	 9.047551575713649e+01
 1.503171653821628e+00	 1.120758662325927e+00	 8.668332644793412e+01
 1.479747048068645e+00	 1.151509302505199e+00	 8.506390976032721e+01
 1.455662226709656e+00	 1.181808986997448e+00	 8.592149412710550e+01
 1.430930327038606e+00	 1.211636661368759e+00	 8.955237242088421e+01
 1.405565374500522e+00	 1.240971787758436e+00	 9.624356425247990e+01
 1.379582256908508e+00	 1.269794391398509e+00	 1.062715177059124e+02
 1.352996695754110e+00	 1.298085105561391e+00	 1.199008596239887e+02
 1.325825214725000e+00	 1.325825214725000e+00	 1.373832032225216e+02
 1.579829027432933e+00	 1.032858409524087e+00	 7.349062581043177e+01
 1.558312191979597e+00	 1.065044300658442e+00	 6.975718453740622e+01
 1.536096643052833e+00	 1.096842446859411e+00	 6.714078583757535e+01
 1.513192798176722e+00	 1.128230386743245e+00	 6.589466209033492e+01
 1.489612028385866e+00	 1.159186031190622e+00	 6.626836944817805e+01
 1.465366641551668e+00	 1.189687713579582e+00	 6.850667553193261e+01
 1.440469862550032e+00	 1.219714239113318e+00	 7.284846106260242e+01
 1.414935810328952e+00	 1.249244933012061e+00	 7.952564303013293e+01
 1.388779471953618e+00	 1.278259687342719e+00	 8.876212690774815e+01
 1.362016673725522e+00	 1.306739006266193e+00	 1.007727952502572e+02
 1.334664049490250e+00	 1.334664049490250e+00	 1.157625397671048e+02
 1.590291471318810e+00	 1.039698531441169e+00	 4.588728434344225e+01
 1.568632140266901e+00	 1.072097574173214e+00	 4.530147193842574e+01
 1.546269468500037e+00	 1.104106304124489e+00	 4.541051037415701e+01
 1.523213942532522e+00	 1.135702111160359e+00	 4.640552225397620e+01
 1.499477008703824e+00	 1.166862759875942e+00	 4.847544322591930e+01
 1.475071056394428e+00	 1.197566440161714e+00	 5.180618340708254e+01
 1.450009398062197e+00	 1.227791816857975e+00	 5.657979614702184e+01
 1.424306246158092e+00	 1.257518078265884e+00	 6.297365985094354e+01
 1.397976686999389e+00	 1.286724983287230e+00	 7.115967854108645e+01
 1.371036651697523e+00	 1.315392906971395e+00	 8.130350673323694e+01
 1.343502884256000e+00	 1.343502884256000e+00	 9.356380404527164e+01
 1.600753915205181e+00	 1.046538653357745e+00	 2.047599255522841e+01
 1.578952088554790e+00	 1.079150847687581e+00	 2.272496950545111e+01
 1.556442293947896e+00	 1.111370161389263e+00	 2.525323935310294e+01
 1.533235086889028e+00	 1.143173835577269e+00	 2.819043596165196e+01
 1.509341989022520e+00	 1.174539488561158e+00	 3.166548187964607e+01
 1.484775471237937e+00	 1.205445166743843e+00	 3.580602120095558e+01
 1.459548933575101e+00	 1.235869394602729e+00	 4.073785321949400e+01
 1.433676681987940e+00	 1.265791223519906e+00	 4.658437073430362e+01
 1.407173902045819e+00	 1.295190279232040e+00	 5.346600686750104e+01
 1.380056629670115e+00	 1.324046807676997e+00	 6.149969422436415e+01
 1.352341719022250e+00	 1.352341719022250e+00	 7.079834015172842e+01
 1.611216359092047e+00	 1.053378775273816e+00	-2.785942111113016e+00
 1.589272036843264e+00	 1.086204121201542e+00	 1.991079031884366e+00
 1.566615119396410e+00	 1.118634018653731e+00	 6.638339657168618e+00
 1.543256231246241e+00	 1.150645559993975e+00	 1.122459382810141e+01
 1.519206969341953e+00	 1.182216217246272e+00	 1.581934656791776e+01
 1.494479886082193e+00	 1.213323893325969e+00	 2.049255590726719e+01
 1.469088469088744e+00	 1.243946972347583e+00	 2.531432923364729e+01
 1.443047117818499e+00	 1.274064368774127e+00	 3.035461594817286e+01
 1.416371117092909e+00	 1.303655575177150e+00	 3.568289849031341e+01
 1.389076607643296e+00	 1.332700708382998e+00	 4.136788382576204e+01
 1.361180553789000e+00	 1.361180553789000e+00	 4.747719750578514e+01
 1.621678802979408e+00	 1.060218897189382e+00	-2.394011044698456e+01
 1.599591985132323e+00	 1.093257394715098e+00	-1.693585320195650e+01
 1.576787944845580e+00	 1.125897875917895e+00	-1.046403128671779e+01
 1.553277375604159e+00	 1.158117284410476e+00	-4.516173282492501e+00
 1.529071949662122e+00	 1.189892945931280e+00	 9.183923573428991e-01
 1.504184300927196e+00	 1.221202619908093e+00	 5.852506337029364e+00
 1.478628004603125e+00	 1.252024550092534e+00	 1.030113540847454e+01
 1.452417553649766e+00	 1.282337514028546e+00	 1.428131729071274e+01
 1.425568332140659e+00	 1.312120871122559e+00	 1.781209389132625e+01
 1.398096585617068e+00	 1.341354609089400e+00	 2.091443320415888e+01
 1.370019388556250e+00	 1.370019388556250e+00	 2.361114035647852e+01
 1.632141246867263e+00	 1.067059019104442e+00	-4.302703679219550e+01
 1.609911933421967e+00	 1.100310668228250e+00	-3.409056670173622e+01
 1.586960770295406e+00	 1.133161733181755e+00	-2.608295084626099e+01
 1.563298519962784e+00	 1.165589008826773e+00	-1.905541477813599e+01
 1.538936929983029e+00	 1.197569674616187e+00	-1.305554760858995e+01
 1.513888715772949e+00	 1.229081346490214e+00	-8.127068158388440e+00
 1.488167540118244e+00	 1.260102127837583e+00	-4.309609639849736e+00
 1.461787989481743e+00	 1.290610659283165e+00	-1.638524523522532e+00
 1.434765547189069e+00	 1.320586167068268e+00	-1.447110915382321e-01
 1.407116563591429e+00	 1.350008509796201e+00	 1.455369888792801e-01
 1.378858223324000e+00	 1.378858223324000e+00	-7.893430778863380e-01
 1.642603690755613e+00	 1.073899141018997e+00	-6.008621299929020e+01
 1.620231881712195e+00	 1.107363941740996e+00	-4.950691587507099e+01
 1.597133595745887e+00	 1.140425590445309e+00	-4.024675555423791e+01
 1.573319664322116e+00	 1.173060733242866e+00	-3.241608007638692e+01
 1.548801910304673e+00	 1.205246403300989e+00	-2.612017733566233e+01
 1.523593130619449e+00	 1.236960073072333e+00	-2.145877853322827e+01
 1.497707075634103e+00	 1.268179705582731e+00	-1.852558650367164e+01
 1.471158425314429e+00	 1.298883804537982e+00	-1.740783237750145e+01
 1.443962762238138e+00	 1.329051463014275e+00	-1.818586384307208e+01
 1.416136541566381e+00	 1.358662410503402e+00	-2.093276803644872e+01
 1.387697058092250e+00	 1.387697058092250e+00	-2.571403181947192e+01
 1.653066134644457e+00	 1.080739262933047e+00	-7.515613110808832e+01
 1.630551830003009e+00	 1.114417215253336e+00	-6.321789804182453e+01
 1.607306421197023e+00	 1.147689447708559e+00	-5.298306455347411e+01
 1.583340808682154e+00	 1.180532457658756e+00	-4.462053759219453e+01
 1.558666890627054e+00	 1.212923131985688e+00	-3.829275262686485e+01
 1.533297545466696e+00	 1.244838799654449e+00	-3.415491648143738e+01
 1.507246611150701e+00	 1.276257283327976e+00	-3.235428133870538e+01
 1.480528861147824e+00	 1.307156949792999e+00	-3.302945517016168e+01
 1.453159977287867e+00	 1.337516758960583e+00	-3.630975360357928e+01
 1.425156519541922e+00	 1.367316311211003e+00	-4.231459793933862e+01
 1.396535892861000e+00	 1.396535892861000e+00	-5.115296367445041e+01
 1.663528578533797e+00	 1.087579384846591e+00	-8.827431478721850e+01
 1.640871778294408e+00	 1.121470488765272e+00	-7.525568038740901e+01
 1.617479246648815e+00	 1.154953304971504e+00	-6.431880215710028e+01
 1.593361953042898e+00	 1.188004182074440e+00	-5.569059300921251e+01
 1.568531870950172e+00	 1.220599860670283e+00	-4.959009517758153e+01
 1.543001960314693e+00	 1.252717526236562e+00	-4.622746447701897e+01
 1.516786146668037e+00	 1.284334861073320e+00	-4.580299197907344e+01
 1.489899296981929e+00	 1.315430095048214e+00	-4.850617014359306e+01
 1.462357192338255e+00	 1.345982054907189e+00	-5.451481015326367e+01
 1.434176497518053e+00	 1.375970211919004e+00	-6.399421683236265e+01
 1.405374727630250e+00	 1.405374727630250e+00	-7.709642709565360e+01
 1.673991022423631e+00	 1.094419506759630e+00	-9.947734959659529e+01
 1.651191726586392e+00	 1.128523762276803e+00	-8.565162590533173e+01
 1.627652072101263e+00	 1.162217162234144e+00	-7.428021956279710e+01
 1.603383097404348e+00	 1.195475906489921e+00	-6.564750686593544e+01
 1.578396851274028e+00	 1.228276589354776e+00	-6.002860614220073e+01
 1.552706375163437e+00	 1.260596252818672e+00	-5.768810543786823e+01
 1.526325682186112e+00	 1.292412438818762e+00	-5.887883382303029e+01
 1.499269732816743e+00	 1.323703240303628e+00	-6.384068512294641e+01
 1.471554407389304e+00	 1.354447350854096e+00	-7.279950254594939e+01
 1.443196475494775e+00	 1.384624112627405e+00	-8.596603224729400e+01
 1.414213562400000e+00	 1.414213562400000e+00	-1.035349533503719e+02
 1.325825214725000e+00	 1.325825214725000e+00	 1.373832032225216e+02
 1.298085105561391e+00	 1.352996695754110e+00	 1.581759542309250e+02
 1.269794391398509e+00	 1.379582256908508e+00	 1.716016805948025e+02
 1.240971787758436e+00	 1.405565374500522e+00	 1.773420977521719e+02
 1.211636661368759e+00	 1.430930327038606e+00	 1.751095182337802e+02
 1.181808986997448e+00	 1.455662226709656e+00	 1.646479634318676e+02
 1.151509302505200e+00	 1.479747048068645e+00	 1.457341008919813e+02
 1.120758662325928e+00	 1.503171653821628e+00	 1.181780019238187e+02
 1.089578589594029e+00	 1.525923817606285e+00	 8.182371586636862e+01
 1.057991027143266e+00	 1.547992243692877e+00	 3.654965890435369e+01
 1.026018287606500e+00	 1.569366583547552e+00	-1.773118310237157e+01
 1.334664049490250e+00	 1.334664049490250e+00	 1.157625397671048e+02
 1.306739006266193e+00	 1.362016673725522e+00	 1.316972616238817e+02
 1.278259687342720e+00	 1.388779471953618e+00	 1.420339027301218e+02
 1.249244933012061e+00	 1.414935810328952e+00	 1.465053126842155e+02
 1.219714239113318e+00	 1.440469862550032e+00	 1.448679534570869e+02
 1.189687713579582e+00	 1.465366641551668e+00	 1.369028487200553e+02
 1.159186031190623e+00	 1.489612028385866e+00	 1.224163974139288e+02
 1.128230386743246e+00	 1.513192798176721e+00	 1.012410469473861e+02
 1.096842446859412e+00	 1.536096643052833e+00	 7.323582262012717e+01
 1.065044300658443e+00	 1.558312191979596e+00	 3.828671109665615e+01
 1.032858409524087e+00	 1.579829027432933e+00	-3.693103005480040e+00
 1.343502884256000e+00	 1.343502884256000e+00	 9.356380404527164e+01
 1.315392906971395e+00	 1.371036651697524e+00	 1.049341151632286e+02
 1.286724983287230e+00	 1.397976686999389e+00	 1.124519213991140e+02
 1.257518078265884e+00	 1.424306246158092e+00	 1.159007081441435e+02
 1.227791816857975e+00	 1.450009398062197e+00	 1.150806507305965e+02
 1.197566440161714e+00	 1.475071056394428e+00	 1.098094026782655e+02
 1.166862759875943e+00	 1.499477008703824e+00	 9.992278658853695e+01
 1.135702111160360e+00	 1.523213942532522e+00	 8.527538366151560e+01
 1.104106304124490e+00	 1.546269468500036e+00	 6.574101868969825e+01
 1.072097574173215e+00	 1.568632140266900e+00	 4.121313828331862e+01
 1.039698531441169e+00	 1.590291471318810e+00	 1.160508099623416e+01
 1.352341719022250e+00	 1.352341719022250e+00	 7.079834015172842e+01
 1.324046807676997e+00	 1.380056629670115e+00	 7.789210156832007e+01
 1.295190279232041e+00	 1.407173902045819e+00	 8.285602413038630e+01
 1.265791223519906e+00	 1.433676681987940e+00	 8.552374042848218e+01
 1.235869394602730e+00	 1.459548933575101e+00	 8.573871163012001e+01
 1.205445166743843e+00	 1.484775471237936e+00	 8.335485597764352e+01
 1.174539488561159e+00	 1.509341989022520e+00	 7.823711803445050e+01
 1.143173835577269e+00	 1.533235086889027e+00	 7.026197523771066e+01
 1.111370161389264e+00	 1.556442293947895e+00	 5.931787886698616e+01
 1.079150847687582e+00	 1.578952088554790e+00	 4.530562711350099e+01
 1.046538653357745e+00	 1.600753915205181e+00	 2.813866852681288e+01
 1.361180553789000e+00	 1.361180553789000e+00	 4.747719750578514e+01
 1.332700708382998e+00	 1.389076607643297e+00	 5.057666242126091e+01
 1.303655575177150e+00	 1.416371117092909e+00	 5.324649095268123e+01
 1.274064368774127e+00	 1.443047117818499e+00	 5.536998381663733e+01
 1.243946972347583e+00	 1.469088469088743e+00	 5.683346882031384e+01
 1.213323893325970e+00	 1.494479886082192e+00	 5.752677091763598e+01
 1.182216217246271e+00	 1.519206969341952e+00	 5.734366081477805e+01
 1.150645559993975e+00	 1.543256231246240e+00	 5.618227926135163e+01
 1.118634018653732e+00	 1.566615119396410e+00	 5.394553439050879e+01
 1.086204121201543e+00	 1.589272036843264e+00	 5.054146972269073e+01
 1.053378775273816e+00	 1.611216359092047e+00	 4.588360072044215e+01
 1.370019388556250e+00	 1.370019388556250e+00	 2.361114035647852e+01
 1.341354609089400e+00	 1.398096585617068e+00	 2.299309884826689e+01
 1.312120871122559e+00	 1.425568332140659e+00	 2.362359463636311e+01
 1.282337514028547e+00	 1.452417553649766e+00	 2.543512676460192e+01
 1.252024550092534e+00	 1.478628004603124e+00	 2.835647859985364e+01
 1.221202619908093e+00	 1.504184300927196e+00	 3.231303072800242e+01
 1.189892945931281e+00	 1.529071949662122e+00	 3.722708990637185e+01
 1.158117284410477e+00	 1.553277375604159e+00	 4.301823178265252e+01
 1.125897875917896e+00	 1.576787944845579e+00	 4.960365499534224e+01
 1.093257394715099e+00	 1.599591985132322e+00	 5.689854420076755e+01
 1.060218897189382e+00	 1.621678802979408e+00	 6.481643952750166e+01
 1.378858223324000e+00	 1.378858223324000e+00	-7.893430778863380e-01
 1.350008509796201e+00	 1.407116563591429e+00	-4.853423979030088e+00
 1.320586167068267e+00	 1.434765547189069e+00	-6.012399074377887e+00
 1.290610659283165e+00	 1.461787989481743e+00	-4.285031754942530e+00
 1.260102127837583e+00	 1.488167540118244e+00	 2.995137333342051e-01
 1.229081346490215e+00	 1.513888715772948e+00	 7.701829282290038e+00
 1.197569674616187e+00	 1.538936929983029e+00	 1.787247318951907e+01
 1.165589008826774e+00	 1.563298519962784e+00	 3.075223198104455e+01
 1.133161733181756e+00	 1.586960770295405e+00	 4.627243165345880e+01
 1.100310668228251e+00	 1.609911933421966e+00	 6.435529581129850e+01
 1.067059019104442e+00	 1.632141246867263e+00	 8.491434781653696e+01
 1.387697058092250e+00	 1.387697058092250e+00	-2.571403181947192e+01
 1.358662410503402e+00	 1.416136541566380e+00	-3.295787251429611e+01
 1.329051463014275e+00	 1.443962762238138e+00	-3.566123123819563e+01
 1.298883804537982e+00	 1.471158425314429e+00	-3.379458577265155e+01
 1.268179705582731e+00	 1.497707075634103e+00	-2.734544344289151e+01
 1.236960073072333e+00	 1.523593130619448e+00	-1.631833879557575e+01
 1.205246403300989e+00	 1.548801910304673e+00	-7.347410651531039e-01
 1.173060733242868e+00	 1.573319664322116e+00	 1.936712741563411e+01
 1.140425590445310e+00	 1.597133595745886e+00	 4.393255997366253e+01
 1.107363941740996e+00	 1.620231881712195e+00	 7.289071892856663e+01
 1.073899141018997e+00	 1.642603690755613e+00	 1.061550702366656e+02
 1.396535892861000e+00	 1.396535892861000e+00	-5.115296367445041e+01
 1.367316311211003e+00	 1.425156519541922e+00	-6.131534067161130e+01
 1.337516758960583e+00	 1.453159977287867e+00	-6.532264950173575e+01
 1.307156949792999e+00	 1.480528861147824e+00	-6.309752570887049e+01
 1.276257283327977e+00	 1.507246611150701e+00	-5.458620765306534e+01
 1.244838799654449e+00	 1.533297545466696e+00	-3.975868764899805e+01
 1.212923131985688e+00	 1.558666890627054e+00	-1.860873623459325e+01
 1.180532457658757e+00	 1.583340808682153e+00	 8.846199835772314e+00
 1.147689447708560e+00	 1.607306421197023e+00	 4.256522423191750e+01
 1.114417215253337e+00	 1.630551830003009e+00	 8.248433966053430e+01
 1.080739262933047e+00	 1.653066134644457e+00	 1.285169148067283e+02
 1.405374727630250e+00	 1.405374727630250e+00	-7.709642709565360e+01
 1.375970211919004e+00	 1.434176497518053e+00	-8.992104581774859e+01
 1.345982054907189e+00	 1.462357192338255e+00	-9.499640789288955e+01
 1.315430095048214e+00	 1.489899296981929e+00	-9.219774163219816e+01
 1.284334861073321e+00	 1.516786146668037e+00	-8.143039706409998e+01
 1.252717526236562e+00	 1.543001960314692e+00	-6.263014934725614e+01
 1.220599860670284e+00	 1.568531870950172e+00	-3.576333892697711e+01
 1.188004182074441e+00	 1.593361953042897e+00	-8.268484729244037e-01
 1.154953304971505e+00	 1.617479246648815e+00	 4.215208200429675e+01
 1.121470488765273e+00	 1.640871778294407e+00	 9.311619912754863e+01
 1.087579384846591e+00	 1.663528578533797e+00	 1.519787351991870e+02
 1.414213562400000e+00	 1.414213562400000e+00	-1.035349533503719e+02
 1.384624112627405e+00	 1.443196475494774e+00	-1.187703249147412e+02
 1.354447350854096e+00	 1.471554407389304e+00	-1.246822666217976e+02
 1.323703240303628e+00	 1.499269732816743e+00	-1.210990263958529e+02
 1.292412438818763e+00	 1.526325682186112e+00	-1.078854394283229e+02
 1.260596252818672e+00	 1.552706375163436e+00	-8.494338270060723e+01
 1.228276589354776e+00	 1.578396851274027e+00	-5.221203013097124e+01
 1.195475906489922e+00	 1.603383097404348e+00	-9.667907830528740e+00
 1.162217162234145e+00	 1.627652072101262e+00	 4.267524937620513e+01
 1.128523762276804e+00	 1.651191726586391e+00	 1.047668373680931e+02
 1.094419506759630e+00	 1.673991022423631e+00	 1.765199136883872e+02
 1.026018287606500e+00	 1.569366583547552e+00	-1.773118310237157e+01
 9.936830028478698e-01	 1.590037449219140e+00	-7.835382451604673e+01
 9.610080729608007e-01	 1.609996423530313e+00	-1.195543827463008e+02
 9.280166150632180e-01	 1.629236067072467e+00	-1.412567878264048e+02
 8.947319121182953e-01	 1.647749922022751e+00	-1.434601657067053e+02
 8.611773620061525e-01	 1.665532512820283e+00	-1.262375001097502e+02
 8.273764270649263e-01	 1.682579343755863e+00	-8.973393665167421e+01
 7.933525843124147e-01	 1.698886893546373e+00	-3.416474876325167e+01
 7.591292765506416e-01	 1.714452606980927e+00	 4.018701283942652e+01
 7.247298645455660e-01	 1.729274883740578e+00	 1.329731634513123e+02
 6.901775804629183e-01	 1.743353064507004e+00	 2.437832951214749e+02
 1.032858409524087e+00	 1.579829027432933e+00	-3.693103005480040e+00
 1.000307556199713e+00	 1.600637698875349e+00	-5.119711197545440e+01
 9.674147934461709e-01	 1.620729733015011e+00	-8.363018063325421e+01
 9.342033924955050e-01	 1.640097640847259e+00	-1.008996059586047e+02
 9.006967915306425e-01	 1.658734921497089e+00	-1.029720200857079e+02
 8.669185444175702e-01	 1.676636062899880e+00	-8.987246806472528e+01
 8.328922699100108e-01	 1.693796539375036e+00	-6.168319963620731e+01
 7.986416015392142e-01	 1.710212806164218e+00	-1.854218968039439e+01
 7.641901383925483e-01	 1.725882291021801e+00	 3.935859619044588e+01
 7.295613969744115e-01	 1.740803382960041e+00	 1.117751728406960e+02
 6.947787643316375e-01	 1.754975418265163e+00	 1.984137242070695e+02
 1.039698531441169e+00	 1.590291471318810e+00	 1.160508099623416e+01
 1.006932109550961e+00	 1.611237948531963e+00	-2.289450990793516e+01
 9.738215139308771e-01	 1.631463042500044e+00	-4.661646580422564e+01
 9.403901699270795e-01	 1.650959214622338e+00	-5.945176491430782e+01
 9.066616709422495e-01	 1.669719920971687e+00	-6.133500064221575e+01
 8.726597268282396e-01	 1.687739612979729e+00	-5.224387151140830e+01
 8.384081127543602e-01	 1.705013734994474e+00	-3.219845628880235e+01
 8.039306187653098e-01	 1.721538718782360e+00	-1.260284125249171e+00
 7.692510002338034e-01	 1.737311975063022e+00	 4.046878905908839e+01
 7.343929294026771e-01	 1.752331882179924e+00	 9.284788547115063e+01
 6.993799481998668e-01	 1.766597772023833e+00	 1.556985780686596e+02
 1.046538653357745e+00	 1.600753915205181e+00	 2.813866852681288e+01
 1.013556662901614e+00	 1.621838198188981e+00	 6.531520631216637e+00
 9.802282344149195e-01	 1.642196351985414e+00	-8.534594055624360e+00
 9.465769473579416e-01	 1.661820788397706e+00	-1.693464312845446e+01
 9.126265503531162e-01	 1.680704920446545e+00	-1.857162742223717e+01
 8.784009092381612e-01	 1.698843163059831e+00	-1.337647946717120e+01
 8.439239555979734e-01	 1.716230930614175e+00	-1.307817743284133e+00
 8.092196359907021e-01	 1.732864631400798e+00	 1.764843823015430e+01
 7.743118620744075e-01	 1.748741659104592e+00	 4.347958594034351e+01
 7.392244618303623e-01	 1.763860381400226e+00	 7.614678412727859e+01
 7.039811320676067e-01	 1.778220125783012e+00	 1.155858154897195e+02
 1.053378775273816e+00	 1.611216359092047e+00	 4.588360072044215e+01
 1.020181216251672e+00	 1.632438447846405e+00	 3.705910193001030e+01
 9.866349548982980e-01	 1.652929661471120e+00	 3.059463344889655e+01
 9.527637247880920e-01	 1.672682362173361e+00	 2.663093618240496e+01
 9.185914297632424e-01	 1.691689919921662e+00	 2.529616439660938e+01
 8.841420916473348e-01	 1.709946713140184e+00	 2.670558233174720e+01
 8.494397984408509e-01	 1.727448126234142e+00	 3.096133495392301e+01
 8.145086532153912e-01	 1.744190544019534e+00	 3.815229256660356e+01
 7.793727239143596e-01	 1.760171343146511e+00	 4.835396840977688e+01
 7.440559942574673e-01	 1.775388880620949e+00	 6.162850780806288e+01
 7.085823159348565e-01	 1.789842479542702e+00	 7.802474689532374e+01
 1.060218897189382e+00	 1.621678802979408e+00	 6.481643952750166e+01
 1.026805769601136e+00	 1.643038697504233e+00	 6.866692080220096e+01
 9.930416753810124e-01	 1.663662970957163e+00	 7.075095228707072e+01
 9.589505022175296e-01	 1.683543935949304e+00	 7.122468710988682e+01
 9.245563091726284e-01	 1.702674919397039e+00	 7.024700563845410e+01
 8.898832740557604e-01	 1.721050263220789e+00	 6.797881067935694e+01
 8.549556412829928e-01	 1.738665321854372e+00	 6.458232729274019e+01
 8.197976704393767e-01	 1.755516456638565e+00	 6.022041166456511e+01
 7.844335857536603e-01	 1.771601027188778e+00	 5.505587328242821e+01
 7.488875266839924e-01	 1.786917379842091e+00	 4.925081442986333e+01
 7.131834998016169e-01	 1.801464833302902e+00	 4.296599075105952e+01
 1.067059019104442e+00	 1.632141246867263e+00	 8.491434781653696e+01
 1.033430322950004e+00	 1.653638947162467e+00	 1.013342104934834e+02
 9.994483958630631e-01	 1.674396280443540e+00	 1.119146175747763e+02
 9.651372796462548e-01	 1.694405509725534e+00	 1.168268438324063e+02
 9.305211885812740e-01	 1.713659918872676e+00	 1.162600749881804e+02
 8.956244564634376e-01	 1.732153813301645e+00	 1.104203049471415e+02
 8.604714841243993e-01	 1.749882517474867e+00	 9.952916865418976e+01
 8.250866876626589e-01	 1.766842369257893e+00	 8.382271969925125e+01
 7.894944475923095e-01	 1.783030711231393e+00	 6.355016199637095e+01
 7.537190591099371e-01	 1.798445879063653e+00	 3.897254496391652e+01
 7.177846836678873e-01	 1.813087187063613e+00	 1.036143163890173e+01
 1.073899141018997e+00	 1.642603690755613e+00	 1.061550702366656e+02
 1.040054876298278e+00	 1.664239196821106e+00	 1.350407332791705e+02
 1.005855116344450e+00	 1.685129589930255e+00	 1.540663874202446e+02
 9.713240570742678e-01	 1.705267083502052e+00	 1.634181440519474e+02
 9.364860679891795e-01	 1.724644918348573e+00	 1.633150815437097e+02
 9.013656388703671e-01	 1.743257363382755e+00	 1.540077478938113e+02
 8.659873269650699e-01	 1.761099713095627e+00	 1.357765305305705e+02
 8.303757048852374e-01	 1.778168281877517e+00	 1.089299070371389e+02
 7.945553094303071e-01	 1.794460395274357e+00	 7.380259116632307e+01
 7.585505915353016e-01	 1.809974378285635e+00	 3.075358894436877e+01
 7.223858675336681e-01	 1.824709540824833e+00	-1.983582006470937e+01
 1.080739262933047e+00	 1.653066134644457e+00	 1.285169148067283e+02
 1.046679429645956e+00	 1.674839446480151e+00	 1.697667637227161e+02
 1.012261836825172e+00	 1.695862899417306e+00	 1.971875070065855e+02
 9.775108345015685e-01	 1.716128657278857e+00	 2.109798130598249e+02
 9.424509473963443e-01	 1.735629917824729e+00	 2.113922480308667e+02
 9.071068212765485e-01	 1.754360913464115e+00	 1.987193872037942e+02
 8.715031698050051e-01	 1.772316908716650e+00	 1.732997255727204e+02
 8.356647221071125e-01	 1.789494194497438e+00	 1.355134059895942e+02
 7.996161712676533e-01	 1.805890079317670e+00	 8.577978425547943e+01
 7.633821239600858e-01	 1.821502877508038e+00	 2.455485128613367e+01
 7.269870513989594e-01	 1.836331894586565e+00	-4.767146697958397e+01
 1.087579384846591e+00	 1.663528578533797e+00	 1.519787351991870e+02
 1.053303982993040e+00	 1.685439696139599e+00	 2.054930725660020e+02
 1.018668557305232e+00	 1.706596208904692e+00	 2.412596932749865e+02
 9.836976119281569e-01	 1.726990231055951e+00	 2.594935484037244e+02
 9.484158268027693e-01	 1.746614917301144e+00	 2.604722946516324e+02
 9.128480036819818e-01	 1.765464463545728e+00	 2.445340177223965e+02
 8.770190126442042e-01	 1.783534104337938e+00	 2.120746874279425e+02
 8.409537393282845e-01	 1.800820107117657e+00	 1.635453674814424e+02
 8.046770331043480e-01	 1.817319763361330e+00	 9.944920431632291e+01
 7.682136563842901e-01	 1.833031376730859e+00	 2.033822035490827e+01
 7.315882352637607e-01	 1.847954248348806e+00	-7.319006204869746e+01
 1.094419506759630e+00	 1.673991022423631e+00	 1.765199136883872e+02
 1.059928536339529e+00	 1.696039945799453e+00	 2.422009112237245e+02
 1.025075277784627e+00	 1.717329518392415e+00	 2.862651201822716e+02
 9.898843893540332e-01	 1.737851804833332e+00	 3.089415051297457e+02
 9.543807062084537e-01	 1.757599916777820e+00	 3.105364235381043e+02
 9.185891860866674e-01	 1.776568013627593e+00	 2.914309643571429e+02
 8.825348554826680e-01	 1.794751299959490e+00	 2.520779513340113e+02
 8.462427565487531e-01	 1.812146019738171e+00	 1.929986385944725e+02
 8.097378949403913e-01	 1.828749447405340e+00	 1.147791277536657e+02
 7.730451888079141e-01	 1.844559875954101e+00	 1.806653723455860e+01
 7.361894191280726e-01	 1.859576602111558e+00	-9.643504446534756e+01
 6.901775804629183e-01	 1.743353064507004e+00	 2.437832951214749e+02
 6.554954827290597e-01	 1.756687414487810e+00	 3.678770997033305e+02
 6.207064124720911e-01	 1.769279104497503e+00	 4.578563572524433e+02
 5.858329516852290e-01	 1.781130189742346e+00	 5.143415302853188e+02
 5.508973832404049e-01	 1.792243586465333e+00	 5.380553395269353e+02
 5.159216528644688e-01	 1.802623046614941e+00	 5.298167623429961e+02
 4.809273331759799e-01	 1.812273130706186e+00	 4.905347603121658e+02
 4.459355898653843e-01	 1.821199179046478e+00	 4.212017856723244e+02
 4.109671500863636e-01	 1.829407281501319e+00	 3.228871158855092e+02
 3.760422731112888e-01	 1.836904245976013e+00	 1.967300646373560e+02
 3.411807232891650e-01	 1.843697565789419e+00	 4.393311625395251e+01
 6.947787643316375e-01	 1.754975418265163e+00	 1.984137242070695e+02
 6.598654526133345e-01	 1.768398663912796e+00	 3.013569929335470e+02
 6.248444552216971e-01	 1.781074298522854e+00	 3.770251482309876e+02
 5.897385046965644e-01	 1.793004391002975e+00	 4.258613129925859e+02
 5.545700324623483e-01	 1.804191877037771e+00	 4.483923684243647e+02
 5.193611305507445e-01	 1.814640533588709e+00	 4.452242892210039e+02
 4.841335153977708e-01	 1.824354951574237e+00	 4.170372468215755e+02
 4.489084937984773e-01	 1.833340506903816e+00	 3.645805203954062e+02
 4.137069310875708e-01	 1.841603330042052e+00	 2.886672549411097e+02
 3.785492215992395e-01	 1.849150274280280e+00	 1.901691052571710e+02
 3.434552614448158e-01	 1.855988882892821e+00	 7.001080358726571e+01
 6.993799481998668e-01	 1.766597772023833e+00	 1.556985780686596e+02
 6.642354224972193e-01	 1.780109913338382e+00	 2.370217151597737e+02
 6.289824979710141e-01	 1.792869492548873e+00	 2.978243613382774e+02
 5.936440577077111e-01	 1.804878592264319e+00	 3.383743905996846e+02
 5.582426816842031e-01	 1.816140167610950e+00	 3.590050906517240e+02
 5.228006082370326e-01	 1.826658020563224e+00	 3.601118232687843e+02
 4.873396976196750e-01	 1.836436772443023e+00	 3.421484913881839e+02
 4.518813977317842e-01	 1.845481834761856e+00	 3.056238425938777e+02
 4.164467120890923e-01	 1.853799378583433e+00	 2.510976385864496e+02
 3.810561700876046e-01	 1.861396302585124e+00	 1.791767199152022e+02
 3.457297996009814e-01	 1.868280199996709e+00	 9.051099466765767e+01
 7.039811320676067e-01	 1.778220125783012e+00	 1.155858154897195e+02
 6.686053923807149e-01	 1.791821162764569e+00	 1.748284328962536e+02
 6.331205407200413e-01	 1.804664686575561e+00	 2.202220338031057e+02
 5.975496107186692e-01	 1.816752793526378e+00	 2.518612930399022e+02
 5.619153309059700e-01	 1.828088458184871e+00	 2.698881067977545e+02
 5.262400859233336e-01	 1.838675507538488e+00	 2.744895668241852e+02
 4.905458798416924e-01	 1.848518593312543e+00	 2.658957797491695e+02
 4.548543016653047e-01	 1.857623162620597e+00	 2.443775512610230e+02
 4.191864930909281e-01	 1.865995427125461e+00	 2.102439550227211e+02
 3.835631185763844e-01	 1.873642330890543e+00	 1.638398061952655e+02
 3.480043377576615e-01	 1.880571517101082e+00	 1.055430592259992e+02
 7.085823159348565e-01	 1.789842479542702e+00	 7.802474689532374e+01
 6.729753622638208e-01	 1.803532412191355e+00	 1.147354251357402e+02
 6.372585834687796e-01	 1.816459880602917e+00	 1.441870329754446e+02
 6.014551637294383e-01	 1.828626994789152e+00	 1.663030558808856e+02
 5.655879801276489e-01	 1.840036748759533e+00	 1.810361576131430e+02
 5.296795636096469e-01	 1.850692994514499e+00	 1.883674571460695e+02
 4.937520620638231e-01	 1.860600414182798e+00	 1.883056888375121e+02
 4.578272055990393e-01	 1.869764490480038e+00	 1.808862557217152e+02
 4.219262740930783e-01	 1.878191475668138e+00	 1.661701861796267e+02
 3.860700670655788e-01	 1.885888359196539e+00	 1.442430045165081e+02
 3.502788759148565e-01	 1.892862834205940e+00	 1.152135261363870e+02
 7.131834998016169e-01	 1.801464833302902e+00	 4.296599075105952e+01
 6.773453321465368e-01	 1.815243661618740e+00	 5.670204746336526e+01
 6.413966262172285e-01	 1.828255074630939e+00	 6.968902954862531e+01
 6.053607167400187e-01	 1.840501196052642e+00	 8.168120401416394e+01
 5.692606293492394e-01	 1.851985039334938e+00	 9.244411948949468e+01
 5.331190412959727e-01	 1.862710481491259e+00	 1.017551749655751e+02
 4.969582442860671e-01	 1.872682235053787e+00	 1.094041096469661e+02
 4.608001095329875e-01	 1.881905818340180e+00	 1.151934140091369e+02
 4.246660550955427e-01	 1.890387524211462e+00	 1.189386627567165e+02
 3.885770155551879e-01	 1.898134387503110e+00	 1.204687709454842e+02
 3.525534140725660e-01	 1.905154151311284e+00	 1.196261750569858e+02
 7.177846836678873e-01	 1.813087187063613e+00	 1.036143163890173e+01
 6.817153020288633e-01	 1.826954911046724e+00	 6.886975507440525e-01
 6.455346689653881e-01	 1.840050268659631e+00	-3.301528188560553e+00
 6.092662697504103e-01	 1.852375397316846e+00	-2.022264028011975e+00
 5.729332785707419e-01	 1.863933329911085e+00	 4.107000112173452e+00
 5.365585189823112e-01	 1.874727968468767e+00	 1.466215270846968e+01
 5.001644265084243e-01	 1.884764055925510e+00	 2.921626921761053e+01
 4.637730134671497e-01	 1.894047146201024e+00	 4.734136976547626e+01
 4.274058360983216e-01	 1.902583572755435e+00	 6.861011714774827e+01
 3.910839640452114e-01	 1.910380415810258e+00	 9.259744720776686e+01
 3.548279522307902e-01	 1.917445468417113e+00	 1.188821245462211e+02
 7.223858675336681e-01	 1.824709540824833e+00	-1.983582006470937e+01
 6.860852719108003e-01	 1.838666160475309e+00	-5.334321803121757e+01
 6.496727117132584e-01	 1.851845462688989e+00	-7.481343911575782e+01
 6.131718227606133e-01	 1.864249598581766e+00	-8.482489115646456e+01
 5.766059277921564e-01	 1.875881620487973e+00	-8.398006572071985e+01
 5.399979966686622e-01	 1.886745455447023e+00	-7.290241759671875e+01
 5.033706087308947e-01	 1.896845876797968e+00	-5.223324821880836e+01
 4.667459174015257e-01	 1.906188474062568e+00	-2.262861226759622e+01
 4.301456171014146e-01	 1.914779621300055e+00	 1.524373434245772e+01
 3.935909125356498e-01	 1.922626444117981e+00	 6.070732802395138e+01
 3.571024903895291e-01	 1.929736785523427e+00	 1.130799168114752e+02
 7.269870513989594e-01	 1.836331894586565e+00	-4.767146697958397e+01
 6.904552417923476e-01	 1.850377409904493e+00	-1.054313157392499e+02
 6.538107544608396e-01	 1.863640656719015e+00	-1.448747731045479e+02
 6.170773757706274e-01	 1.876123799847400e+00	-1.667437762360935e+02
 5.802785770134827e-01	 1.887829911065603e+00	-1.718218201205943e+02
 5.434374743550259e-01	 1.898762942426027e+00	-1.609295767108817e+02
 5.065767909534783e-01	 1.908927697671160e+00	-1.349204808965298e+02
 4.697188213361155e-01	 1.918329801924813e+00	-9.467631210619325e+01
 4.328853981048221e-01	 1.926975669845323e+00	-4.110279910464772e+01
 3.960978610265026e-01	 1.934872472426280e+00	 2.487472588859988e+01
 3.593770285487826e-01	 1.942028102630226e+00	 1.023155992394754e+02
 7.315882352637607e-01	 1.847954248348806e+00	-7.319006204869746e+01
 6.948252116735053e-01	 1.862088659334276e+00	-1.556122657798561e+02
 6.579487972081315e-01	 1.875435850749710e+00	-2.135128939429512e+02
 6.209829287804527e-01	 1.887998001113750e+00	-2.477955880492876e+02
 5.839512262347207e-01	 1.899778201643975e+00	-2.594228859788373e+02
 5.468769520414020e-01	 1.910780429405780e+00	-2.494105908635966e+02
 5.097829731761752e-01	 1.921009518545087e+00	-2.188220699410595e+02
 4.726917252709194e-01	 1.930471129787759e+00	-1.687625216698735e+02
 4.356251791085438e-01	 1.939171718391240e+00	-1.003732479533757e+02
 3.986048095177700e-01	 1.947118500735156e+00	-1.482596659530572e+01
 3.616515667085508e-01	 1.954319419737511e+00	 8.668280285006757e+01
 7.361894191280726e-01	 1.859576602111558e+00	-9.643504446534756e+01
 6.991951815542736e-01	 1.873799908764660e+00	-2.039218216793668e+02
 6.620868399551343e-01	 1.887231044781072e+00	-2.807544814002565e+02
 6.248884817900895e-01	 1.899872202380815e+00	-3.279965787357147e+02
 5.876238754558710e-01	 1.911726492223089e+00	-3.467877706921449e+02
 5.503164297277909e-01	 1.922797916386281e+00	-3.383369447069297e+02
 5.129891553989854e-01	 1.933091339419748e+00	-3.039152405285145e+02
 4.756646292059370e-01	 1.942612457651407e+00	-2.448490131593664e+02
 4.383649601125800e-01	 1.951367766937804e+00	-1.625127829239712e+02
 4.011117580094523e-01	 1.959364529044608e+00	-5.832221671945413e+01
 3.639261048688338e-01	 1.966610736845282e+00	 6.627281780796656e+01
 3.411807232891650e-01	 1.843697565789419e+00	 4.393311625395251e+01
 3.064017453303258e-01	 1.849795386114716e+00	-1.193743481844429e+02
 2.717240419284751e-01	 1.855206469658534e+00	-2.502471508314216e+02
 2.371657537175081e-01	 1.859940161747613e+00	-3.498955641540430e+02
 2.027444415484455e-01	 1.864006354987513e+00	-4.195886292073134e+02
 1.684770710600370e-01	 1.867415453651191e+00	-4.606469272701060e+02
 1.343799995057737e-01	 1.870178337950090e+00	-4.744354488309418e+02
 1.004689647900904e-01	 1.872306328333207e+00	-4.623565965923430e+02
 6.675907665743416e-02	 1.873811149952121e+00	-4.258433560341926e+02
 3.326480996967145e-02	 1.874704897421970e+00	-3.663526638567040e+02
 0.000000000000000e+00	 1.875000000000000e+00	-2.853590013530227e+02
 3.434552614448158e-01	 1.855988882892821e+00	 7.001080358726571e+01
 3.084444236327498e-01	 1.862127355353983e+00	-6.930951837244538e+01
 2.735355355414154e-01	 1.867574512788415e+00	-1.832112790311540e+02
 2.387468587422667e-01	 1.872339762825035e+00	-2.726297355590580e+02
 2.040960711586644e-01	 1.876433064020110e+00	-3.385469678321556e+02
 1.696002515336156e-01	 1.879864890008415e+00	-3.819862122501726e+02
 1.352758661689677e-01	 1.882646193536137e+00	-4.040062685920767e+02
 1.011387578885178e-01	 1.884788370521935e+00	-4.056960088668996e+02
 6.720413716834214e-02	 1.886303224285065e+00	-3.881690146730909e+02
 3.348657536938560e-02	 1.887202930071432e+00	-3.525583670611889e+02
 0.000000000000000e+00	 1.887500000000000e+00	-3.000116103336034e+02
 3.457297996009814e-01	 1.868280199996709e+00	 9.051099466765767e+01
 3.104871019357723e-01	 1.874459324593641e+00	-2.388256725031773e+01
 2.753470291550064e-01	 1.879942555918602e+00	-1.197921773059531e+02
 2.403279637676975e-01	 1.884739363902691e+00	-1.978812075222963e+02
 2.054477007695459e-01	 1.888859773052877e+00	-2.588479940802127e+02
 1.707234320078177e-01	 1.892314326365756e+00	-3.034217201335490e+02
 1.361717328327167e-01	 1.895114049122259e+00	-3.323583476003890e+02
 1.018085509874029e-01	 1.897270412710705e+00	-3.464366192354166e+02
 6.764919767958245e-02	 1.898795298618027e+00	-3.464541505224373e+02
 3.370834076927928e-02	 1.899700962720899e+00	-3.332236291031643e+02
 0.000000000000000e+00	 1.900000000000000e+00	-3.075691376018817e+02
 3.480043377576615e-01	 1.880571517101082e+00	 1.055430592259992e+02
 3.125297802393933e-01	 1.886791293833689e+00	 1.699745124331969e+01
 2.771585227692485e-01	 1.892310599049096e+00	-5.991892110360889e+01
 2.419090687938004e-01	 1.897138964980581e+00	-1.256006134650800e+02
 2.067993303810904e-01	 1.901286482085814e+00	-1.804653727230596e+02
 1.718466124826434e-01	 1.904763762723215e+00	-2.249515558773169e+02
 1.370675994970205e-01	 1.907581904708456e+00	-2.595155740920303e+02
 1.024783440867457e-01	 1.909752454899516e+00	-2.846293756123587e+02
 6.809425819115501e-02	 1.911287372951007e+00	-3.007779801676525e+02
 3.393010616935248e-02	 1.912198995370370e+00	-3.084570763452892e+02
 0.000000000000000e+00	 1.912500000000000e+00	-3.081706922614286e+02
 3.502788759148565e-01	 1.892862834205940e+00	 1.152135261363870e+02
 3.145724585436130e-01	 1.899123263074128e+00	 5.341912085018861e+01
 2.789700163841413e-01	 1.904678642179897e+00	-3.522428151969578e+00
 2.434901738205753e-01	 1.909538566058704e+00	-5.573986914088225e+01
 2.081509599932976e-01	 1.913713191118922e+00	-1.033734526468346e+02
 1.729697929580925e-01	 1.917213199080792e+00	-1.465738737422515e+02
 1.379634661618794e-01	 1.920049760294728e+00	-1.855012159102812e+02
 1.031481371865461e-01	 1.922234497088370e+00	-2.203239026693400e+02
 6.853931870305990e-02	 1.923779447284006e+00	-2.512176626987724e+02
 3.415187156960520e-02	 1.924697028019846e+00	-2.783645137630081e+02
 0.000000000000000e+00	 1.925000000000000e+00	-3.019517702674042e+02
 3.525534140725660e-01	 1.905154151311284e+00	 1.196261750569858e+02
 3.166151368484313e-01	 1.911455232314958e+00	 8.546873919649958e+01
 2.807815099996850e-01	 1.917046685311005e+00	 4.946460096970594e+01
 2.450712788480224e-01	 1.921938167137059e+00	 1.174786873046890e+01
 2.095025896061675e-01	 1.926139900152201e+00	-2.754724478380642e+01
 1.740929734341652e-01	 1.929662635438486e+00	-6.828687570218744e+01
 1.388593328272932e-01	 1.932517615881074e+00	-1.103379405180487e+02
 1.038179302868042e-01	 1.934716539277265e+00	-1.535685445202573e+02
 6.898437921529707e-02	 1.936271521617023e+00	-1.978483660811792e+02
 3.437363697003744e-02	 1.937195060669326e+00	-2.430490159569876e+02
 0.000000000000000e+00	 1.937500000000000e+00	-2.890443709797245e+02
 3.548279522307902e-01	 1.917445468417113e+00	 1.188821245462211e+02
 3.186578151538482e-01	 1.923787201556179e+00	 1.132303910661653e+02
 2.825930036158798e-01	 1.929414728442421e+00	 9.910773997368808e+01
 2.466523838761414e-01	 1.934337768215650e+00	 7.690824223759009e+01
 2.108542192197002e-01	 1.938566609185649e+00	 4.703759910726180e+01
 1.752161539108614e-01	 1.942112071796298e+00	 9.911190085428291e+00
 1.397551994932619e-01	 1.944985471467495e+00	-3.404783424068388e+01
 1.044877233875199e-01	 1.947198581466201e+00	-8.441040576468666e+01
 6.942943972786655e-02	 1.948763595950059e+00	-1.407433309736151e+02
 3.459540237064921e-02	 1.949693093318812e+00	-2.026110146650836e+02
 0.000000000000000e+00	 1.950000000000000e+00	-2.695771092334147e+02
 3.571024903895291e-01	 1.929736785523427e+00	 1.130799168114752e+02
 3.207004934598637e-01	 1.936119170797790e+00	 1.367860188737643e+02
 2.844044972327253e-01	 1.941782771574142e+00	 1.454708918229040e+02
 2.482334889049326e-01	 1.946737369294472e+00	 1.397857305322936e+02
 2.122058488338956e-01	 1.950993318219269e+00	 1.204048068498171e+02
 1.763393343881811e-01	 1.954561508154227e+00	 8.802203075053524e+01
 1.406510661597856e-01	 1.957453327053991e+00	 4.334757922661444e+01
 1.051575164886933e-01	 1.959680623655180e+00	-1.289539096273702e+01
 6.987450024076833e-02	 1.961255670283113e+00	-7.997393210728714e+01
 3.481716777144051e-02	 1.962191125968301e+00	-1.571483829298996e+02
 0.000000000000000e+00	 1.962499999999999e+00	-2.436753231260192e+02
 3.593770285487826e-01	 1.942028102630226e+00	 1.023155992394754e+02
 3.227431717664778e-01	 1.948451140039792e+00	 1.562154904613195e+02
 2.862159908502217e-01	 1.954150814706171e+00	 1.886163416030102e+02
 2.498145939343959e-01	 1.959136970373530e+00	 2.004236866316180e+02
 2.135574784487539e-01	 1.963420027253059e+00	 1.925775054831996e+02
 1.774625148661244e-01	 1.967010944512274e+00	 1.660473101256016e+02
 1.415469328268642e-01	 1.969921182640562e+00	 1.218273210141958e+02
 1.058273095903243e-01	 1.972162665844200e+00	 6.093175738913412e+01
 7.031956075400238e-02	 1.973747744616185e+00	-1.560973733412242e+01
 3.503893317241133e-02	 1.974689158617795e+00	-1.067565160701089e+02
 0.000000000000000e+00	 1.975000000000000e+00	-2.114611777118189e+02
 3.616515667085508e-01	 1.954319419737511e+00	 8.668280285006757e+01
 3.247858500736904e-01	 1.960783109282185e+00	 1.715966643367007e+02
 2.880274844683691e-01	 1.966518857838506e+00	 2.286048073992943e+02
 2.513956989645312e-01	 1.971536571452820e+00	 2.588643728311072e+02
 2.149091080642749e-01	 1.975846736287019e+00	 2.635782401554348e+02
 1.785856953446911e-01	 1.979460380870439e+00	 2.439886501073612e+02
 1.424427994944977e-01	 1.982389038227207e+00	 2.013709399452344e+02
 1.064971026924130e-01	 1.984644708033262e+00	 1.370274223153583e+02
 7.076462126756874e-02	 1.986239818949276e+00	 5.228143555320926e+01
 3.526069857356168e-02	 1.987187191267294e+00	-5.152840959625577e+01
 0.000000000000000e+00	 1.987500000000000e+00	-1.730537647830600e+02
 3.639261048688338e-01	 1.966610736845282e+00	 6.627281780796656e+01
 3.268285283815017e-01	 1.973115078524969e+00	 1.830054524655900e+02
 2.898389780871672e-01	 1.978886900971149e+00	 2.654954892656868e+02
 2.529768039953388e-01	 1.983936172532344e+00	 3.151489947900941e+02
 2.162607376804587e-01	 1.988273445321150e+00	 3.334289923075490e+02
 1.797088758238815e-01	 1.991909817228721e+00	 3.218476319674882e+02
 1.433386661626862e-01	 1.994856893813928e+00	 2.819584960454789e+02
 1.071668957949593e-01	 1.997126750222366e+00	 2.153490771888479e+02
 7.120968178146743e-02	 1.998731893282386e+00	 1.236334641320310e+02
 3.548246397489156e-02	 1.999685223916798e+00	 8.445265795289345e+00
 0.000000000000000e+00	 2.000000000000000e+00	-1.285691989093845e+02
