x	y	stress_xx
 1.0000000000e+00	 0.0000000000e+00	 1.1021871570e+02
 9.9984261196e-01	 1.7741231987e-02	 1.0882815975e+02
 9.9936594664e-01	 3.5604840891e-02	 1.0546562381e+02
 9.9856337511e-01	 5.3583447897e-02	 1.0008310339e+02
 9.9742844690e-01	 7.1669333081e-02	 9.2636391136e+01
 9.9595490861e-01	 8.9854437912e-02	 8.3085407426e+01
 9.9413672265e-01	 1.0813036884e-01	 7.1394529150e+01
 9.9196808625e-01	 1.2648840200e-01	 5.7532914735e+01
 9.8944345047e-01	 1.4491948904e-01	 4.1474823188e+01
 9.8655753924e-01	 1.6341426419e-01	 2.3199924952e+01
 9.8330536840e-01	 1.8196305243e-01	 2.6936022298e+00
 1.0125000000e+00	 0.0000000000e+00	 1.1165426885e+02
 1.0123406446e+00	 1.7962997385e-02	 1.0826725763e+02
 1.0118580210e+00	 3.6049901398e-02	 1.0301409745e+02
 1.0110454173e+00	 5.4253240991e-02	 9.5861544784e+01
 1.0098963025e+00	 7.2565199739e-02	 8.6780342722e+01
 1.0084043450e+00	 9.0977618379e-02	 7.5745504753e+01
 1.0065634317e+00	 1.0948199844e-01	 6.2736593632e+01
 1.0043676873e+00	 1.2806950702e-01	 4.7737993456e+01
 1.0018114936e+00	 1.4673098265e-01	 3.0739172945e+01
 9.9888950849e-01	 1.6545694249e-01	 1.1734937850e+01
 9.9559668551e-01	 1.8423759058e-01	-9.2743296095e+00
 1.0250000000e+00	 0.0000000000e+00	 1.1212695507e+02
 1.0248386773e+00	 1.8184762783e-02	 1.0689002953e+02
 1.0243500953e+00	 3.6494961906e-02	 9.9890404949e+01
 1.0235274595e+00	 5.4923034086e-02	 9.1109326900e+01
 1.0223641581e+00	 7.3461066397e-02	 8.0532213925e+01
 1.0208537813e+00	 9.2100798847e-02	 6.8148895185e+01
 1.0189901407e+00	 1.1083362805e-01	 5.3953840187e+01
 1.0167672884e+00	 1.2965061203e-01	 3.7946378756e+01
 1.0141795367e+00	 1.4854247626e-01	 2.0130909402e+01
 1.0112214777e+00	 1.6749962078e-01	 5.1709419367e-01
 1.0078880026e+00	 1.8651212874e-01	-2.0879961755e+01
 1.0375000000e+00	 0.0000000000e+00	 1.1167155530e+02
 1.0373367099e+00	 1.8406528182e-02	 1.0472596223e+02
 1.0368421696e+00	 3.6940022414e-02	 9.6118824965e+01
 1.0360095017e+00	 5.5592827180e-02	 8.5845616169e+01
 1.0348320137e+00	 7.4356933056e-02	 7.3906164754e+01
 1.0333032177e+00	 9.3223979316e-02	 6.0304848131e+01
 1.0314168498e+00	 1.1218525765e-01	 4.5050773541e+01
 1.0291668895e+00	 1.3123171705e-01	 2.8157946706e+01
 1.0265475799e+00	 1.5035396986e-01	 9.6454261230e+00
 1.0235534470e+00	 1.6954229908e-01	-1.0462538729e+01
 1.0201793197e+00	 1.8878666689e-01	-3.2136386952e+01
 1.0500000000e+00	 0.0000000000e+00	 1.1032119434e+02
 1.0498347426e+00	 1.8628293580e-02	 1.0180313848e+02
 1.0493342440e+00	 3.7385082923e-02	 9.1722480143e+01
 1.0484915439e+00	 5.6262620276e-02	 8.0088666426e+01
 1.0472998693e+00	 7.5252799715e-02	 6.6915680999e+01
 1.0457526540e+00	 9.4347159785e-02	 5.2222191655e+01
 1.0438435588e+00	 1.1353688726e-01	 3.6031683948e+01
 1.0415664906e+00	 1.3281282207e-01	 1.8372579305e+01
 1.0389156230e+00	 1.5216546347e-01	-7.2166396054e-01
 1.0358854162e+00	 1.7158497738e-01	-2.1212468268e+01
 1.0324706368e+00	 1.9106120504e-01	-4.3056074507e+01
 1.0625000000e+00	 0.0000000000e+00	 1.0810743829e+02
 1.0623327752e+00	 1.8850058979e-02	 9.8148319596e+01
 1.0618263183e+00	 3.7830143432e-02	 8.6723405092e+01
 1.0609735861e+00	 5.6932413371e-02	 7.3855872581e+01
 1.0597677248e+00	 7.6148666375e-02	 5.9573613897e+01
 1.0582020904e+00	 9.5470340255e-02	 4.3909338437e+01
 1.0562702678e+00	 1.1488851686e-01	 2.6900659810e+01
 1.0539660917e+00	 1.3439392709e-01	 8.5901641315e+00
 1.0512836661e+00	 1.5397695708e-01	-1.0974541460e+01
 1.0482173855e+00	 1.7362765568e-01	-3.1740801438e+01
 1.0447619539e+00	 1.9333574319e-01	-5.3650906964e+01
 1.0750000000e+00	 0.0000000000e+00	 1.0506038519e+02
 1.0748308079e+00	 1.9071824378e-02	 9.3787022269e+01
 1.0743183926e+00	 3.8275203941e-02	 8.1142609648e+01
 1.0734556282e+00	 5.7602206467e-02	 6.7163820560e+01
 1.0722355804e+00	 7.7044533036e-02	 5.1892217019e+01
 1.0706515268e+00	 9.6593520725e-02	 3.5374309926e+01
 1.0686969769e+00	 1.1624014647e-01	 1.7661599410e+01
 1.0663656927e+00	 1.3597503212e-01	-1.1894059837e+00
 1.0636517093e+00	 1.5578845069e-01	-2.1117192530e+01
 1.0605493547e+00	 1.7567033398e-01	-4.2055268191e+01
 1.0570532710e+00	 1.9561028135e-01	-6.3932214213e+01
 1.0875000000e+00	 0.0000000000e+00	 1.0120874934e+02
 1.0873288405e+00	 1.9293589777e-02	 8.8743590125e+01
 1.0868104670e+00	 3.8720264451e-02	 7.5000137766e+01
 1.0859376704e+00	 5.8271999564e-02	 6.0028333796e+01
 1.0847034360e+00	 7.7940399697e-02	 4.3883180619e+01
 1.0831009631e+00	 9.7716701196e-02	 2.6624758822e+01
 1.0811236859e+00	 1.1759177608e-01	 8.3182218412e+00
 1.0787652938e+00	 1.3755613714e-01	-1.0966233257e+01
 1.0760197524e+00	 1.5759994430e-01	-3.1153420045e+01
 1.0728813239e+00	 1.7771301228e-01	-5.2163243086e+01
 1.0693445882e+00	 1.9788481950e-01	-7.3910805260e+01
 1.1000000000e+00	 0.0000000000e+00	 9.6579939972e+01
 1.0998268732e+00	 1.9515355176e-02	 8.3041260356e+01
 1.0993025413e+00	 3.9165324961e-02	 6.8315122404e+01
 1.0984197126e+00	 5.8941792661e-02	 5.2464516554e+01
 1.0971712916e+00	 7.8836266358e-02	 3.5557663646e+01
 1.0955503995e+00	 9.8839881668e-02	 1.7667990028e+01
 1.0935503949e+00	 1.1894340569e-01	-1.1259228158e+00
 1.0911648949e+00	 1.3913724216e-01	-2.0740415234e+01
 1.0883877955e+00	 1.5941143791e-01	-4.1086854014e+01
 1.0852132932e+00	 1.7975569058e-01	-6.2071765484e+01
 1.0816359053e+00	 2.0015935765e-01	-8.3596997815e+01
 1.1125000000e+00	 0.0000000000e+00	 9.1200134559e+01
 1.1123249058e+00	 1.9737120575e-02	 7.6702225885e+01
 1.1117946156e+00	 3.9610385471e-02	 6.1105836699e+01
 1.1109017548e+00	 5.9611585759e-02	 4.4486794332e+01
 1.1096391472e+00	 7.9732133020e-02	 2.6926323585e+01
 1.1079998358e+00	 9.9963062140e-02	 8.5109801879e+00
 1.1059771040e+00	 1.2029503530e-01	-1.0667443995e+01
 1.1035644960e+00	 1.4071834718e-01	-3.0512045054e+01
 1.1007558387e+00	 1.6122293152e-01	-5.0920961292e+01
 1.0975452624e+00	 1.8179836888e-01	-7.1787558379e+01
 1.0939272224e+00	 2.0243389581e-01	-9.3000645898e+01
 1.1250000000e+00	 0.0000000000e+00	 8.5094347220e+01
 1.1248229385e+00	 1.9958885975e-02	 6.9747693379e+01
 1.1242866900e+00	 4.0055445982e-02	 5.3389741736e+01
 1.1233837970e+00	 6.0281378857e-02	 3.6108951573e+01
 1.1221070028e+00	 8.0627999683e-02	 1.7999344321e+01
 1.1204492722e+00	 1.0108624261e-01	-8.3960407383e-01
 1.1184038130e+00	 1.2164666491e-01	-2.0303101786e+01
 1.1159640971e+00	 1.4229945221e-01	-4.0281211692e+01
 1.1131238818e+00	 1.6303442514e-01	-6.0659054643e+01
 1.1098772317e+00	 1.8384104718e-01	-8.1317045974e+01
 1.1062185395e+00	 2.0470843396e-01	-1.0213116560e+02
 9.8330536840e-01	 1.8196305243e-01	 2.6936022298e+00
 9.7968226449e-01	 2.0055587900e-01	 1.5297251664e+00
 9.7568388344e-01	 2.1918248006e-01	-5.9471846562e-01
 9.7130622879e-01	 2.3783231460e-01	-3.6525149344e+00
 9.6654566967e-01	 2.5649457770e-01	-7.6119154078e+00
 9.6139895816e-01	 2.7515821486e-01	-1.2436588253e+01
 9.5586324607e-01	 2.9381193773e-01	-1.8085592671e+01
 9.4993610115e-01	 3.1244424090e-01	-2.4513374823e+01
 9.4361552236e-01	 3.3104341998e-01	-3.1669787495e+01
 9.3689995435e-01	 3.4959759078e-01	-3.9500134172e+01
 9.2978830103e-01	 3.6809470956e-01	-4.7945238296e+01
 9.9559668551e-01	 1.8423759058e-01	-9.2743296095e+00
 9.9192829280e-01	 2.0306282749e-01	-1.0620226338e+01
 9.8787993198e-01	 2.2192226105e-01	-1.2699603351e+01
 9.8344755666e-01	 2.4080521853e-01	-1.5489434796e+01
 9.7862749055e-01	 2.5970075992e-01	-1.8963050988e+01
 9.7341644514e-01	 2.7859769255e-01	-2.3090102491e+01
 9.6781153666e-01	 2.9748458695e-01	-2.7836541501e+01
 9.6181030243e-01	 3.1634979391e-01	-3.3164621423e+01
 9.5541071639e-01	 3.3518146273e-01	-3.9032915498e+01
 9.4861120379e-01	 3.5396756067e-01	-4.5396355179e+01
 9.4141065480e-01	 3.7269589344e-01	-5.2206288852e+01
 1.0078880026e+00	 1.8651212874e-01	-2.0879961755e+01
 1.0041743211e+00	 2.0556977597e-01	-2.2496467053e+01
 1.0000759805e+00	 2.2466204205e-01	-2.4625082263e+01
 9.9558888452e-01	 2.4377812247e-01	-2.7246906754e+01
 9.9070931143e-01	 2.6290694214e-01	-3.0340272285e+01
 9.8543393212e-01	 2.8203717024e-01	-3.3880718657e+01
 9.7975982724e-01	 3.0115723617e-01	-3.7840982662e+01
 9.7368450370e-01	 3.2025534692e-01	-4.2191001022e+01
 9.6720591043e-01	 3.3931950548e-01	-4.6897927948e+01
 9.6032245323e-01	 3.5833753055e-01	-5.1926167848e+01
 9.5303300857e-01	 3.7729707731e-01	-5.7237423620e+01
 1.0201793197e+00	 1.8878666689e-01	-3.2136386952e+01
 1.0164203494e+00	 2.0807672446e-01	-3.4108885518e+01
 1.0122720291e+00	 2.2740182305e-01	-3.6377632980e+01
 1.0077302124e+00	 2.4675102640e-01	-3.8927793535e+01
 1.0027911323e+00	 2.6611312436e-01	-4.1742625497e+01
 9.9745141910e-01	 2.8547664792e-01	-4.4803468300e+01
 9.9170811782e-01	 3.0482988540e-01	-4.8089738857e+01
 9.8555870497e-01	 3.2416089993e-01	-5.1578937760e+01
 9.7900110447e-01	 3.4345754823e-01	-5.5246665745e+01
 9.7203370266e-01	 3.6270750044e-01	-5.9066650761e+01
 9.6465536234e-01	 3.8189826118e-01	-6.3010785957e+01
 1.0324706368e+00	 1.9106120504e-01	-4.3056074507e+01
 1.0286663777e+00	 2.1058367294e-01	-4.5466899433e+01
 1.0244680776e+00	 2.3014160405e-01	-4.7963424878e+01
 1.0198715402e+00	 2.4972393033e-01	-5.0534821630e+01
 1.0148729532e+00	 2.6931930658e-01	-5.3169202348e+01
 1.0094689061e+00	 2.8891612561e-01	-5.5853619693e+01
 1.0036564084e+00	 3.0850253462e-01	-5.8574069957e+01
 9.9743290624e-01	 3.2806645295e-01	-6.1315502423e+01
 9.9079629850e-01	 3.4759559099e-01	-6.4061834705e+01
 9.8374495210e-01	 3.6707747033e-01	-6.6795974222e+01
 9.7627771611e-01	 3.8649944506e-01	-6.9499845972e+01
 1.0447619539e+00	 1.9333574319e-01	-5.3650906964e+01
 1.0409124060e+00	 2.1309062143e-01	-5.6579483361e+01
 1.0366641262e+00	 2.3288138505e-01	-5.9388337076e+01
 1.0320128681e+00	 2.5269683426e-01	-6.2070589314e+01
 1.0269547741e+00	 2.7252548880e-01	-6.4619137411e+01
 1.0214863931e+00	 2.9235560329e-01	-6.7026663908e+01
 1.0156046990e+00	 3.1217518384e-01	-6.9285647284e+01
 1.0093071075e+00	 3.3197200596e-01	-7.1388374402e+01
 1.0025914925e+00	 3.5173363374e-01	-7.3326954686e+01
 9.9545620154e-01	 3.7144744021e-01	-7.5093336035e+01
 9.8790006988e-01	 3.9110062893e-01	-7.6679322488e+01
 1.0570532710e+00	 1.9561028135e-01	-6.3932214213e+01
 1.0531584344e+00	 2.1559756991e-01	-6.7455194485e+01
 1.0488601747e+00	 2.3562116605e-01	-7.0657975310e+01
 1.0441541960e+00	 2.5566973819e-01	-7.3537574093e+01
 1.0390365949e+00	 2.7573167103e-01	-7.6091605618e+01
 1.0335038801e+00	 2.9579508098e-01	-7.8318301860e+01
 1.0275529896e+00	 3.1584783306e-01	-8.0216529689e+01
 1.0211813088e+00	 3.3587755897e-01	-8.1785806312e+01
 1.0143866866e+00	 3.5587167649e-01	-8.3026312257e+01
 1.0071674510e+00	 3.7581741010e-01	-8.3938901765e+01
 9.9952242365e-01	 3.9570181280e-01	-8.4525110434e+01
 1.0693445882e+00	 1.9788481950e-01	-7.3910805260e+01
 1.0654044627e+00	 2.1810451840e-01	-7.8102196599e+01
 1.0610562233e+00	 2.3836094705e-01	-8.1777687643e+01
 1.0562955238e+00	 2.5864264212e-01	-8.4938139649e+01
 1.0511184158e+00	 2.7893785325e-01	-8.7585819938e+01
 1.0455213670e+00	 2.9923455867e-01	-8.9724432248e+01
 1.0395012801e+00	 3.1952048229e-01	-9.1359141281e+01
 1.0330555100e+00	 3.3978311198e-01	-9.2496591047e+01
 1.0261818806e+00	 3.6000971924e-01	-9.3144916637e+01
 1.0188787004e+00	 3.8018737999e-01	-9.3313749119e+01
 1.0111447774e+00	 4.0030299667e-01	-9.3014213258e+01
 1.0816359053e+00	 2.0015935765e-01	-8.3596997815e+01
 1.0776504910e+00	 2.2061146689e-01	-8.8528282462e+01
 1.0732522718e+00	 2.4110072805e-01	-9.2752579109e+01
 1.0684368517e+00	 2.6161554606e-01	-9.6274542309e+01
 1.0632002367e+00	 2.8214403547e-01	-9.9101029217e+01
 1.0575388540e+00	 3.0267403635e-01	-1.0124114032e+02
 1.0514495707e+00	 3.2319313151e-01	-1.0270625067e+02
 1.0449297113e+00	 3.4368866500e-01	-1.0351003108e+02
 1.0379770746e+00	 3.6414776199e-01	-1.0366845863e+02
 1.0305899498e+00	 3.8455734987e-01	-1.0319981612e+02
 1.0227671312e+00	 4.0490418054e-01	-1.0212467994e+02
 1.0939272224e+00	 2.0243389581e-01	-9.3000645898e+01
 1.0898965193e+00	 2.2311841537e-01	-9.8740894639e+01
 1.0854483204e+00	 2.4384050905e-01	-1.0358752537e+02
 1.0805781796e+00	 2.6458844999e-01	-1.0754893707e+02
 1.0752820576e+00	 2.8535021769e-01	-1.1063651616e+02
 1.0695563410e+00	 3.0611351404e-01	-1.1286468738e+02
 1.0633978613e+00	 3.2686578073e-01	-1.1425095162e+02
 1.0568039126e+00	 3.4759421801e-01	-1.1481590984e+02
 1.0497722687e+00	 3.6828580474e-01	-1.1458327234e+02
 1.0423011993e+00	 3.8892731976e-01	-1.1357985277e+02
 1.0343894849e+00	 4.0950536441e-01	-1.1183554625e+02
 1.1062185395e+00	 2.0470843396e-01	-1.0213116560e+02
 1.1021425476e+00	 2.2562536386e-01	-1.0874714496e+02
 1.0976443689e+00	 2.4658029005e-01	-1.1428718543e+02
 1.0927195074e+00	 2.6756135392e-01	-1.1876338324e+02
 1.0873638784e+00	 2.8855639991e-01	-1.2219159546e+02
 1.0815738280e+00	 3.0955299173e-01	-1.2459150104e+02
 1.0753461519e+00	 3.3053842995e-01	-1.2598664497e+02
 1.0686781139e+00	 3.5149977102e-01	-1.2640446498e+02
 1.0615674627e+00	 3.7242384749e-01	-1.2587629943e+02
 1.0540124487e+00	 3.9329728964e-01	-1.2443737596e+02
 1.0460118387e+00	 4.1410654828e-01	-1.2212677993e+02
 9.2978830103e-01	 3.6809470956e-01	-4.7945238296e+01
 9.2227993796e-01	 3.8652259440e-01	-5.8304759288e+01
 9.1437472369e-01	 4.0486894747e-01	-6.7016431862e+01
 9.0607300986e-01	 4.2312137827e-01	-7.4113054438e+01
 8.9737564997e-01	 4.4126742774e-01	-7.9633710490e+01
 8.8828400681e-01	 4.5929459304e-01	-8.3623742861e+01
 8.7879995838e-01	 4.7719035310e-01	-8.6134694782e+01
 8.6892590241e-01	 4.9494219468e-01	-8.7224217050e+01
 8.5866475920e-01	 5.1253763889e-01	-8.6955941063e+01
 8.4801997290e-01	 5.2996426817e-01	-8.5399317724e+01
 8.3699551121e-01	 5.4720975338e-01	-8.2629422460e+01
 9.4141065480e-01	 3.7269589344e-01	-5.2206288852e+01
 9.3380843719e-01	 3.9135412684e-01	-6.2074029166e+01
 9.2580440774e-01	 4.0992980932e-01	-7.0461553658e+01
 9.1739892249e-01	 4.2841039551e-01	-7.7396498586e+01
 9.0859284561e-01	 4.4678327059e-01	-8.2912120939e+01
 8.9938755690e-01	 4.6503577546e-01	-8.7047281936e+01
 8.8978495788e-01	 4.8315523252e-01	-8.9846400886e+01
 8.7978747621e-01	 5.0112897212e-01	-9.1359378855e+01
 8.6939806870e-01	 5.1894435938e-01	-9.1641491854e+01
 8.5862022257e-01	 5.3658882153e-01	-9.0753253495e+01
 8.4745795511e-01	 5.5404987530e-01	-8.8760247319e+01
 9.5303300857e-01	 3.7729707731e-01	-5.7237423620e+01
 9.4533693642e-01	 3.9618565927e-01	-6.6536715581e+01
 9.3723409180e-01	 4.1499067117e-01	-7.4519324022e+01
 9.2872483512e-01	 4.3369941274e-01	-8.1207823247e+01
 9.1981004124e-01	 4.5229911345e-01	-8.6629755688e+01
 9.1049110700e-01	 4.7077695788e-01	-9.0817624464e+01
 9.0076995736e-01	 4.8912011194e-01	-9.3808859871e+01
 8.9064904999e-01	 5.0731574955e-01	-9.5645759290e+01
 8.8013137819e-01	 5.2535107988e-01	-9.6375400210e+01
 8.6922047224e-01	 5.4321337488e-01	-9.6049526269e+01
 8.5792039901e-01	 5.6088999722e-01	-9.4724406448e+01
 9.6465536234e-01	 3.8189826118e-01	-6.3010785957e+01
 9.5686543566e-01	 4.0101719171e-01	-7.1667731298e+01
 9.4866377585e-01	 4.2005153301e-01	-7.9167573384e+01
 9.4005074775e-01	 4.3898842997e-01	-8.5527921144e+01
 9.3102723687e-01	 4.5781495630e-01	-9.0770710342e+01
 9.2159465709e-01	 4.7651814030e-01	-9.4922205050e+01
 9.1175495685e-01	 4.9508499136e-01	-9.8012976585e+01
 9.0151062378e-01	 5.1350252699e-01	-1.0007785941e+02
 8.9086468769e-01	 5.3175780036e-01	-1.0115588368e+02
 8.7982072191e-01	 5.4983792824e-01	-1.0129018433e+02
 8.6838284291e-01	 5.6773011914e-01	-1.0052788671e+02
 9.7627771611e-01	 3.8649944506e-01	-6.9499845972e+01
 9.6839393489e-01	 4.0584872414e-01	-7.7443183986e+01
 9.6009345990e-01	 4.2511239486e-01	-8.4385188165e+01
 9.5137666038e-01	 4.4427744721e-01	-9.0338595196e+01
 9.4224443250e-01	 4.6333079915e-01	-9.5319838206e+01
 9.3269820718e-01	 4.8225932271e-01	-9.9349057024e+01
 9.2273995634e-01	 5.0104987078e-01	-1.0245008937e+02
 9.1237219757e-01	 5.1968930443e-01	-1.0465044254e+02
 9.0159799719e-01	 5.3816452085e-01	-1.0598124514e+02
 8.9042097157e-01	 5.5646248159e-01	-1.0647717891e+02
 8.7884528680e-01	 5.7457024106e-01	-1.0617639036e+02
 9.8790006988e-01	 3.9110062893e-01	-7.6679322488e+01
 9.7992243412e-01	 4.1068025657e-01	-8.3840305928e+01
 9.7152314396e-01	 4.3017325671e-01	-9.0152048660e+01
 9.6270257301e-01	 4.4956646444e-01	-9.5622504971e+01
 9.5346162813e-01	 4.6884664200e-01	-1.0026270571e+02
 9.4380175727e-01	 4.8800050513e-01	-1.0408677722e+02
 9.3372495582e-01	 5.0701475019e-01	-1.0711194459e+02
 9.2323377135e-01	 5.2587608186e-01	-1.0935851886e+02
 9.1233130668e-01	 5.4457124134e-01	-1.1084986778e+02
 9.0102122124e-01	 5.6308703495e-01	-1.1161236987e+02
 8.8930773069e-01	 5.8141036298e-01	-1.1167535182e+02
 9.9952242365e-01	 3.9570181280e-01	-8.4525110434e+01
 9.9145093335e-01	 4.1551178900e-01	-9.0837388635e+01
 9.8295282801e-01	 4.3523411855e-01	-9.6448971250e+01
 9.7402848564e-01	 4.5485548167e-01	-1.0136311688e+02
 9.6467882376e-01	 4.7436248484e-01	-1.0558555096e+02
 9.5490530736e-01	 4.9374168754e-01	-1.0912449321e+02
 9.4470995530e-01	 5.1297962961e-01	-1.1199067285e+02
 9.3409534513e-01	 5.3206285930e-01	-1.1419733104e+02
 9.2306461617e-01	 5.5097796183e-01	-1.1576021039e+02
 9.1162147090e-01	 5.6971158830e-01	-1.1669753101e+02
 8.9977017459e-01	 5.8825048490e-01	-1.1702995321e+02
 1.0111447774e+00	 4.0030299667e-01	-9.3014213258e+01
 1.0029794326e+00	 4.2034332143e-01	-9.8413721969e+01
 9.9438251205e-01	 4.4029498039e-01	-1.0325765461e+02
 9.8535439826e-01	 4.6014449890e-01	-1.0754465781e+02
 9.7589601939e-01	 4.7987832769e-01	-1.1127524511e+02
 9.6600885745e-01	 4.9948286996e-01	-1.1445183281e+02
 9.5569495479e-01	 5.1894450902e-01	-1.1707876696e+02
 9.4495691892e-01	 5.3824963673e-01	-1.1916234088e+02
 9.3379792566e-01	 5.5738468231e-01	-1.2071080309e+02
 9.2222172056e-01	 5.7633614165e-01	-1.2173435505e+02
 9.1023261848e-01	 5.9509060682e-01	-1.2224513887e+02
 1.0227671312e+00	 4.0490418054e-01	-1.0212467994e+02
 1.0145079318e+00	 4.2517485386e-01	-1.0654953742e+02
 1.0058121961e+00	 4.4535584224e-01	-1.1056062957e+02
 9.9668031089e-01	 4.6543351612e-01	-1.1415207191e+02
 9.8711321501e-01	 4.8539417054e-01	-1.1731925641e+02
 9.7711240753e-01	 5.0522405237e-01	-1.2005889565e+02
 9.6667995426e-01	 5.2490938844e-01	-1.2236906134e+02
 9.5581849270e-01	 5.4443641416e-01	-1.2424921686e+02
 9.4453123515e-01	 5.6379140280e-01	-1.2570024319e+02
 9.3282197022e-01	 5.8296069500e-01	-1.2672445820e+02
 9.2069506237e-01	 6.0193072873e-01	-1.2732562885e+02
 1.0343894849e+00	 4.0950536441e-01	-1.1183554625e+02
 1.0260364310e+00	 4.3000638629e-01	-1.1522595520e+02
 1.0172418801e+00	 4.5041670408e-01	-1.1834121236e+02
 1.0080062235e+00	 4.7072253335e-01	-1.2117098030e+02
 9.9833041064e-01	 4.9091001338e-01	-1.2370561667e+02
 9.8821595761e-01	 5.1096523478e-01	-1.2593622664e+02
 9.7766495374e-01	 5.3087426785e-01	-1.2785471284e+02
 9.6668006647e-01	 5.5062319160e-01	-1.2945382252e+02
 9.5526454464e-01	 5.7019812328e-01	-1.3072719148e+02
 9.4342221988e-01	 5.8958524835e-01	-1.3166938444e+02
 9.3115750625e-01	 6.0877085065e-01	-1.3227593153e+02
 1.0460118387e+00	 4.1410654828e-01	-1.2212677993e+02
 1.0375649302e+00	 4.3483791872e-01	-1.2442493488e+02
 1.0286715642e+00	 4.5547756592e-01	-1.2658346101e+02
 1.0193321361e+00	 4.7601155058e-01	-1.2858764343e+02
 1.0095476063e+00	 4.9642585623e-01	-1.3042288991e+02
 9.9931950770e-01	 5.1670641719e-01	-1.3207479128e+02
 9.8864995322e-01	 5.3683914726e-01	-1.3352918278e+02
 9.7754164025e-01	 5.5680996903e-01	-1.3477220562e+02
 9.6599785412e-01	 5.7660484377e-01	-1.3579036866e+02
 9.5402246954e-01	 5.9620980170e-01	-1.3657060960e+02
 9.4161995014e-01	 6.1561097256e-01	-1.3710035536e+02
 8.3699551121e-01	 5.4720975338e-01	-8.2629422460e+01
 8.2559586329e-01	 5.6426188114e-01	-8.1710156422e+01
 8.1382603605e-01	 5.8110858112e-01	-8.1812448411e+01
 8.0169154870e-01	 5.9773795324e-01	-8.2919070140e+01
 7.8919842564e-01	 6.1413829468e-01	-8.5008956731e+01
 7.7635318758e-01	 6.3029812641e-01	-8.8057255760e+01
 7.6316284109e-01	 6.4620621941e-01	-9.2035396926e+01
 7.4963486641e-01	 6.6185162015e-01	-9.6911182116e+01
 7.3577720369e-01	 6.7722367543e-01	-1.0264889546e+02
 7.2159823775e-01	 6.9231205631e-01	-1.0920943282e+02
 7.0710678120e-01	 7.0710678120e-01	-1.1655044993e+02
 8.4745795511e-01	 5.5404987530e-01	-8.8760247319e+01
 8.3591581159e-01	 5.7131515466e-01	-8.7632604498e+01
 8.2399886151e-01	 5.8837243839e-01	-8.7431812282e+01
 8.1171269307e-01	 6.0520967766e-01	-8.8144200616e+01
 7.9906340596e-01	 6.2181502336e-01	-8.9752604827e+01
 7.8605760243e-01	 6.3817685299e-01	-9.2236401944e+01
 7.7270237661e-01	 6.5428379716e-01	-9.5571565777e+01
 7.5900530224e-01	 6.7012476541e-01	-9.9730740621e+01
 7.4497441875e-01	 6.8568897137e-01	-1.0468333325e+02
 7.3061821572e-01	 7.0096595702e-01	-1.1039562276e+02
 7.1594561597e-01	 7.1594561597e-01	-1.1683088761e+02
 8.5792039901e-01	 5.6088999722e-01	-9.4724406448e+01
 8.4623575989e-01	 5.7836842818e-01	-9.3425866872e+01
 8.3417168697e-01	 5.9563629565e-01	-9.2961668475e+01
 8.2173383743e-01	 6.1268140208e-01	-9.3321635504e+01
 8.0892838629e-01	 6.2949175205e-01	-9.4492433585e+01
 7.9576201728e-01	 6.4605557958e-01	-9.6457593504e+01
 7.8224191213e-01	 6.6236137490e-01	-9.9197551939e+01
 7.6837573808e-01	 6.7839791066e-01	-1.0268970904e+02
 7.5417163380e-01	 6.9415426732e-01	-1.0690850263e+02
 7.3963819370e-01	 7.0961985773e-01	-1.1182549875e+02
 7.2478445074e-01	 7.2478445074e-01	-1.1740949787e+02
 8.6838284291e-01	 5.6773011914e-01	-1.0052788671e+02
 8.5655570819e-01	 5.8542170169e-01	-9.9094574457e+01
 8.4434451242e-01	 6.0290015292e-01	-9.8405212551e+01
 8.3175498180e-01	 6.2015312650e-01	-9.8453057915e+01
 8.1879336662e-01	 6.3716848074e-01	-9.9228539088e+01
 8.0546643213e-01	 6.5393430616e-01	-1.0071926766e+02
 7.9178144765e-01	 6.7043895265e-01	-1.0291006486e+02
 7.7774617391e-01	 6.8667105592e-01	-1.0578300327e+02
 7.6336884885e-01	 7.0261956326e-01	-1.0931746349e+02
 7.4865817167e-01	 7.1827375844e-01	-1.1349020566e+02
 7.3362328551e-01	 7.3362328551e-01	-1.1827545524e+02
 8.7884528680e-01	 5.7457024106e-01	-1.0617639036e+02
 8.6687565648e-01	 5.9247497521e-01	-1.0464313817e+02
 8.5451733788e-01	 6.1016401018e-01	-1.0376548844e+02
 8.4177612616e-01	 6.2762485092e-01	-1.0354007137e+02
 8.2865834694e-01	 6.4484520942e-01	-1.0396101343e+02
 8.1517084698e-01	 6.6181303274e-01	-1.0501993666e+02
 8.0132098316e-01	 6.7851653039e-01	-1.0670597133e+02
 7.8711660974e-01	 6.9494420117e-01	-1.0900578197e+02
 7.7256606389e-01	 7.1108485921e-01	-1.1190360687e+02
 7.5767814965e-01	 7.2692765914e-01	-1.1538131075e+02
 7.4246212027e-01	 7.4246212027e-01	-1.1941845045e+02
 8.8930773069e-01	 5.8141036298e-01	-1.1167535182e+02
 8.7719560478e-01	 5.9952824872e-01	-1.1007576185e+02
 8.6469016333e-01	 6.1742786745e-01	-1.0904539737e+02
 8.5179727052e-01	 6.3509657533e-01	-1.0858420449e+02
 8.3852332726e-01	 6.5252193811e-01	-1.0868994495e+02
 8.2487526183e-01	 6.6969175932e-01	-1.0935818336e+02
 8.1086051868e-01	 6.8659410813e-01	-1.1058228616e+02
 7.9648704558e-01	 7.0321734642e-01	-1.1235343225e+02
 7.8176327894e-01	 7.1955015515e-01	-1.1466063546e+02
 7.6669812762e-01	 7.3558155984e-01	-1.1749077876e+02
 7.5130095504e-01	 7.5130095504e-01	-1.2082866004e+02
 8.9977017459e-01	 5.8825048490e-01	-1.1702995321e+02
 8.8751555307e-01	 6.0658152224e-01	-1.1539645432e+02
 8.7486298878e-01	 6.2469172471e-01	-1.1424770612e+02
 8.6181841488e-01	 6.4256829975e-01	-1.1358691534e+02
 8.4838830758e-01	 6.6019866679e-01	-1.1341541843e+02
 8.3457967667e-01	 6.7757048590e-01	-1.1373265710e+02
 8.2040005419e-01	 6.9467168587e-01	-1.1453616364e+02
 8.0585748141e-01	 7.1149049167e-01	-1.1582155641e+02
 7.9096049399e-01	 7.2801545109e-01	-1.1758254551e+02
 7.7571810559e-01	 7.4423546055e-01	-1.1981094881e+02
 7.6013978980e-01	 7.6013978980e-01	-1.2249671815e+02
 9.1023261848e-01	 5.9509060682e-01	-1.2224513887e+02
 8.9783550136e-01	 6.1363479575e-01	-1.2060904058e+02
 8.8503581423e-01	 6.3195558198e-01	-1.1937505482e+02
 8.7183955924e-01	 6.5004002416e-01	-1.1854959547e+02
 8.5825328790e-01	 6.6787539547e-01	-1.1813751532e+02
 8.4428409152e-01	 6.8544921248e-01	-1.1814206991e+02
 8.2993958971e-01	 7.0274926361e-01	-1.1856488949e+02
 8.1522791724e-01	 7.1976363692e-01	-1.1940595953e+02
 8.0015770903e-01	 7.3648074703e-01	-1.2066360992e+02
 7.8473808356e-01	 7.5288936125e-01	-1.2233451293e+02
 7.6897862457e-01	 7.6897862457e-01	-1.2441369018e+02
 9.2069506237e-01	 6.0193072873e-01	-1.2732562885e+02
 9.0815544965e-01	 6.2068806926e-01	-1.2571717226e+02
 8.9520863968e-01	 6.3921943924e-01	-1.2442996407e+02
 8.8186070360e-01	 6.5751174858e-01	-1.2347357372e+02
 8.6811826822e-01	 6.7555212415e-01	-1.2285631392e+02
 8.5398850636e-01	 6.9332793905e-01	-1.2258519292e+02
 8.3947912522e-01	 7.1082684135e-01	-1.2266587337e+02
 8.2459835306e-01	 7.2803678217e-01	-1.2310263801e+02
 8.0935492408e-01	 7.4494604297e-01	-1.2389836253e+02
 7.9375806153e-01	 7.6154326195e-01	-1.2505449591e+02
 7.7781745933e-01	 7.7781745933e-01	-1.2657104831e+02
 9.3115750625e-01	 6.0877085065e-01	-1.3227593153e+02
 9.1847539794e-01	 6.2774134277e-01	-1.3072433733e+02
 9.0538146513e-01	 6.4648329650e-01	-1.2941484168e+02
 8.9188184795e-01	 6.6498347299e-01	-1.2836011972e+02
 8.7798324854e-01	 6.8322885283e-01	-1.2757188953e+02
 8.6369292120e-01	 7.0120666563e-01	-1.2706085306e+02
 8.4901866073e-01	 7.1890441909e-01	-1.2683664197e+02
 8.3396878889e-01	 7.3630992742e-01	-1.2690776873e+02
 8.1855213912e-01	 7.5341133891e-01	-1.2728158346e+02
 8.0277803950e-01	 7.7019716265e-01	-1.2796423672e+02
 7.8665629409e-01	 7.8665629409e-01	-1.2896064863e+02
 9.4161995014e-01	 6.1561097256e-01	-1.3710035536e+02
 9.2879534623e-01	 6.3479461628e-01	-1.3563386922e+02
 9.1555429058e-01	 6.5374715376e-01	-1.3433198895e+02
 9.0190299231e-01	 6.7245519740e-01	-1.3321044718e+02
 8.8784822886e-01	 6.9090558151e-01	-1.3228431465e+02
 8.7339733604e-01	 7.0908539221e-01	-1.3156792993e+02
 8.5855819624e-01	 7.2698199683e-01	-1.3107483242e+02
 8.4333922472e-01	 7.4458307267e-01	-1.3081769911e+02
 8.2774935416e-01	 7.6187663485e-01	-1.3080828543e+02
 8.1179801747e-01	 7.7885106335e-01	-1.3105737094e+02
 7.9549512885e-01	 7.9549512885e-01	-1.3157470980e+02
 7.0710678120e-01	 7.0710678120e-01	-1.1655044993e+02
 6.9231205631e-01	 7.2159823775e-01	-1.1617314808e+02
 6.7722367543e-01	 7.3577720369e-01	-1.1398508908e+02
 6.6185162015e-01	 7.4963486641e-01	-1.1006560290e+02
 6.4620621941e-01	 7.6316284109e-01	-1.0450002624e+02
 6.3029812641e-01	 7.7635318758e-01	-9.7379322729e+01
 6.1413829468e-01	 7.8919842564e-01	-8.8799675203e+01
 5.9773795324e-01	 8.0169154870e-01	-7.8862053091e+01
 5.8110858112e-01	 8.1382603605e-01	-6.7671757878e+01
 5.6426188114e-01	 8.2559586329e-01	-5.5337949948e+01
 5.4720975338e-01	 8.3699551121e-01	-4.1973160108e+01
 7.1594561597e-01	 7.1594561597e-01	-1.1683088761e+02
 7.0096595702e-01	 7.3061821572e-01	-1.1661563036e+02
 6.8568897137e-01	 7.4497441875e-01	-1.1470908084e+02
 6.7012476541e-01	 7.5900530224e-01	-1.1118528217e+02
 6.5428379716e-01	 7.7270237661e-01	-1.0612391721e+02
 6.3817685299e-01	 7.8605760243e-01	-9.9609953523e+01
 6.2181502336e-01	 7.9906340596e-01	-9.1733262171e+01
 6.0520967766e-01	 8.1171269307e-01	-8.2588213064e+01
 5.8837243839e-01	 8.2399886151e-01	-7.2273249650e+01
 5.7131515466e-01	 8.3591581159e-01	-6.0890446041e+01
 5.5404987530e-01	 8.4745795511e-01	-4.8545049680e+01
 7.2478445074e-01	 7.2478445074e-01	-1.1740949787e+02
 7.0961985773e-01	 7.3963819370e-01	-1.1730296215e+02
 6.9415426732e-01	 7.5417163380e-01	-1.1562183643e+02
 6.7839791066e-01	 7.6837573808e-01	-1.1243498774e+02
 6.6236137490e-01	 7.8224191213e-01	-1.0781656237e+02
 6.4605557958e-01	 7.9576201728e-01	-1.0184565527e+02
 6.2949175205e-01	 8.0892838629e-01	-9.4605954877e+01
 6.1268140208e-01	 8.2173383743e-01	-8.6185365924e+01
 5.9563629565e-01	 8.3417168697e-01	-7.6675612847e+01
 5.7836842818e-01	 8.4623575989e-01	-6.6171826669e+01
 5.6088999722e-01	 8.5792039901e-01	-5.4772118270e+01
 7.3362328551e-01	 7.3362328551e-01	-1.1827545524e+02
 7.1827375844e-01	 7.4865817167e-01	-1.1822624435e+02
 7.0261956326e-01	 7.6336884885e-01	-1.1671648305e+02
 6.8667105592e-01	 7.7774617391e-01	-1.1380996895e+02
 6.7043895265e-01	 7.9178144765e-01	-1.0957542482e+02
 6.5393430616e-01	 8.0546643213e-01	-1.0408619200e+02
 6.3716848074e-01	 8.1879336662e-01	-9.7419900778e+01
 6.2015312650e-01	 8.3175498180e-01	-8.9658120192e+01
 6.0290015292e-01	 8.4434451242e-01	-8.0885989667e+01
 5.8542170169e-01	 8.5655570819e-01	-7.1191835146e+01
 5.6773011914e-01	 8.6838284291e-01	-6.0666772434e+01
 7.4246212027e-01	 7.4246212027e-01	-1.1941845045e+02
 7.2692765914e-01	 7.5767814965e-01	-1.1937700239e+02
 7.1108485921e-01	 7.7256606389e-01	-1.1798647591e+02
 6.9494420117e-01	 7.8711660974e-01	-1.1530570208e+02
 6.7851653039e-01	 8.0132098316e-01	-1.1139808921e+02
 6.6181303274e-01	 8.1517084698e-01	-1.0633133974e+02
 6.4484520942e-01	 8.2865834694e-01	-1.0017714584e+02
 6.2762485092e-01	 8.4177612616e-01	-9.3010865716e+01
 6.1016401018e-01	 8.5451733788e-01	-8.4911182989e+01
 5.9247497521e-01	 8.6687565648e-01	-7.5959751607e+01
 5.7457024106e-01	 8.7884528680e-01	-6.6240828733e+01
 7.5130095504e-01	 7.5130095504e-01	-1.2082866004e+02
 7.3558155984e-01	 7.6669812762e-01	-1.2074716117e+02
 7.1955015515e-01	 7.8176327894e-01	-1.1942557890e+02
 7.0321734642e-01	 7.9648704558e-01	-1.1691787705e+02
 6.8659410813e-01	 8.1086051868e-01	-1.1328225460e+02
 6.6969175932e-01	 8.2487526183e-01	-1.0858088581e+02
 6.5252193811e-01	 8.3852332726e-01	-1.0287964052e+02
 6.3509657533e-01	 8.5179727052e-01	-9.6247786529e+01
 6.1742786745e-01	 8.6469016333e-01	-8.8757676335e+01
 5.9952824872e-01	 8.7719560478e-01	-8.0484420257e+01
 5.8141036298e-01	 8.8930773069e-01	-7.1505548443e+01
 7.6013978980e-01	 7.6013978980e-01	-1.2249671815e+02
 7.4423546055e-01	 7.7571810559e-01	-1.2232902187e+02
 7.2801545109e-01	 7.9096049399e-01	-1.2102784667e+02
 7.1149049167e-01	 8.0585748141e-01	-1.1864238493e+02
 6.9467168587e-01	 8.2040005419e-01	-1.1522572780e+02
 6.7757048590e-01	 8.3457967667e-01	-1.1083462816e+02
 6.6019866679e-01	 8.4838830758e-01	-1.0552924528e+02
 6.4256829975e-01	 8.6181841488e-01	-9.9372872814e+01
 6.2469172471e-01	 8.7486298878e-01	-9.2431652423e+01
 6.0658152224e-01	 8.8751555307e-01	-8.4774274708e+01
 5.8825048490e-01	 8.9977017459e-01	-7.6471669824e+01
 7.6897862457e-01	 7.6897862457e-01	-1.2441369018e+02
 7.5288936125e-01	 7.8473808356e-01	-1.2411524031e+02
 7.3648074703e-01	 8.0015770903e-01	-1.2278760794e+02
 7.1976363692e-01	 8.1522791724e-01	-1.2047530644e+02
 7.0274926361e-01	 8.2993958971e-01	-1.1722641716e+02
 6.8544921248e-01	 8.4428409152e-01	-1.1309237476e+02
 6.6787539547e-01	 8.5825328790e-01	-1.0812773579e+02
 6.5004002416e-01	 8.7183955924e-01	-1.0238993204e+02
 6.3195558198e-01	 8.8503581423e-01	-9.5939010459e+01
 6.1363479575e-01	 8.9783550136e-01	-8.8837361571e+01
 5.9509060682e-01	 9.1023261848e-01	-8.1149438183e+01
 7.7781745933e-01	 7.7781745933e-01	-1.2657104831e+02
 7.6154326195e-01	 7.9375806153e-01	-1.2609880681e+02
 7.4494604297e-01	 8.0935492408e-01	-1.2469944984e+02
 7.2803678217e-01	 8.2459835306e-01	-1.2241290111e+02
 7.1082684135e-01	 8.3947912522e-01	-1.1928232681e+02
 6.9332793905e-01	 8.5398850636e-01	-1.1535394299e+02
 6.7555212415e-01	 8.6811826822e-01	-1.1067680773e+02
 6.5751174858e-01	 8.8186070360e-01	-1.0530259932e+02
 6.3921943924e-01	 8.9520863968e-01	-9.9285382237e+01
 6.2068806926e-01	 9.0815544965e-01	-9.2681362444e+01
 6.0193072873e-01	 9.2069506237e-01	-8.5548633874e+01
 7.8665629409e-01	 7.8665629409e-01	-1.2896064863e+02
 7.7019716265e-01	 8.0277803950e-01	-1.2827302740e+02
 7.5341133891e-01	 8.1855213912e-01	-1.2675820349e+02
 7.3630992742e-01	 8.3396878889e-01	-1.2445159729e+02
 7.1890441909e-01	 8.4901866073e-01	-1.2139155128e+02
 7.0120666563e-01	 8.6369292120e-01	-1.1761915917e+02
 6.8322885283e-01	 8.7798324854e-01	-1.1317808128e+02
 6.6498347299e-01	 8.9188184795e-01	-1.0811434714e+02
 6.4648329650e-01	 9.0538146513e-01	-1.0247614716e+02
 6.2774134277e-01	 9.1847539794e-01	-9.6313614409e+01
 6.0877085065e-01	 9.3115750625e-01	-8.9678598416e+01
 7.9549512885e-01	 7.9549512885e-01	-1.3157470980e+02
 7.7885106335e-01	 8.1179801747e-01	-1.3063150623e+02
 7.6187663485e-01	 8.2774935416e-01	-1.2895893036e+02
 7.4458307267e-01	 8.4333922472e-01	-1.2658798271e+02
 7.2698199683e-01	 8.5855819624e-01	-1.2355227045e+02
 7.0908539221e-01	 8.7339733604e-01	-1.1988785803e+02
 6.9090558151e-01	 8.8784822886e-01	-1.1563310529e+02
 6.7245519740e-01	 9.0190299231e-01	-1.1082849433e+02
 6.5374715376e-01	 9.1555429058e-01	-1.0551644625e+02
 6.3479461628e-01	 9.2879534623e-01	-9.9741129172e+01
 6.1561097256e-01	 9.4161995014e-01	-9.3548258868e+01
 5.4720975338e-01	 8.3699551121e-01	-4.1973160108e+01
 5.2996426817e-01	 8.4801997290e-01	-3.6892476335e+01
 5.1253763889e-01	 8.5866475920e-01	-3.3351521807e+01
 4.9494219468e-01	 8.6892590241e-01	-3.1444538448e+01
 4.7719035310e-01	 8.7879995838e-01	-3.1259612836e+01
 4.5929459304e-01	 8.8828400681e-01	-3.2878405127e+01
 4.4126742774e-01	 8.9737564997e-01	-3.6375915528e+01
 4.2312137827e-01	 9.0607300986e-01	-4.1820288998e+01
 4.0486894747e-01	 9.1437472369e-01	-4.9272658556e+01
 3.8652259440e-01	 9.2227993796e-01	-5.8787027249e+01
 3.6809470956e-01	 9.2978830103e-01	-7.0410188524e+01
 5.5404987530e-01	 8.4745795511e-01	-4.8545049680e+01
 5.3658882153e-01	 8.5862022257e-01	-4.4545395039e+01
 5.1894435938e-01	 8.6939806870e-01	-4.2119335471e+01
 5.0112897212e-01	 8.7978747621e-01	-4.1342414949e+01
 4.8315523252e-01	 8.8978495788e-01	-4.2284156573e+01
 4.6503577546e-01	 8.9938755690e-01	-4.5007866091e+01
 4.4678327059e-01	 9.0859284561e-01	-4.9570470474e+01
 4.2841039551e-01	 9.1739892249e-01	-5.6022391822e+01
 4.0992980932e-01	 9.2580440774e-01	-6.4407456603e+01
 3.9135412684e-01	 9.3380843719e-01	-7.4762839922e+01
 3.7269589344e-01	 9.4141065480e-01	-8.7119044272e+01
 5.6088999722e-01	 8.5792039901e-01	-5.4772118270e+01
 5.4321337488e-01	 8.6922047224e-01	-5.1669077040e+01
 5.2535107988e-01	 8.8013137819e-01	-5.0172717855e+01
 5.0731574955e-01	 8.9064904999e-01	-5.0340240147e+01
 4.8912011194e-01	 9.0076995736e-01	-5.2222953873e+01
 4.7077695788e-01	 9.1049110700e-01	-5.5866156455e+01
 4.5229911345e-01	 9.1981004124e-01	-6.1309042329e+01
 4.3369941274e-01	 9.2872483512e-01	-6.8584644980e+01
 4.1499067117e-01	 9.3723409180e-01	-7.7719811069e+01
 3.9618565927e-01	 9.4533693642e-01	-8.8735206038e+01
 3.7729707731e-01	 9.5303300857e-01	-1.0164535033e+02
 5.6773011914e-01	 8.6838284291e-01	-6.0666772434e+01
 5.4983792824e-01	 8.7982072191e-01	-5.8282593719e+01
 5.3175780036e-01	 8.9086468769e-01	-5.7537433327e+01
 5.1350252699e-01	 9.0151062378e-01	-5.8470486786e+01
 4.9508499136e-01	 9.1175495685e-01	-6.1115188577e+01
 4.7651814030e-01	 9.2159465709e-01	-6.5499161373e+01
 4.5781495630e-01	 9.3102723687e-01	-7.1644195466e+01
 4.3898842997e-01	 9.4005074775e-01	-7.9566257880e+01
 4.2005153301e-01	 9.4866377585e-01	-8.9275530408e+01
 4.0101719171e-01	 9.5686543566e-01	-1.0077647561e+02
 3.8189826118e-01	 9.6465536234e-01	-1.1406792961e+02
 5.7457024106e-01	 8.7884528680e-01	-6.6240828733e+01
 5.5646248159e-01	 8.9042097157e-01	-6.4404109096e+01
 5.3816452085e-01	 9.0159799719e-01	-6.4238020183e+01
 5.1968930443e-01	 9.1237219757e-01	-6.5764082087e+01
 5.0104987078e-01	 9.2273995634e-01	-6.8998179429e+01
 4.8225932271e-01	 9.3269820718e-01	-7.3950581790e+01
 4.6333079915e-01	 9.4224443250e-01	-8.0625991980e+01
 4.4427744721e-01	 9.5137666038e-01	-8.9023621218e+01
 4.2511239486e-01	 9.6009345990e-01	-9.9137290116e+01
 4.0584872414e-01	 9.6839393489e-01	-1.1095555417e+02
 3.8649944506e-01	 9.7627771611e-01	-1.2446185230e+02
 5.8141036298e-01	 8.8930773069e-01	-7.1505548443e+01
 5.6308703495e-01	 9.0102122124e-01	-7.0050933199e+01
 5.4457124134e-01	 9.1233130668e-01	-7.0297862762e+01
 5.2587608186e-01	 9.2323377135e-01	-7.2250498663e+01
 5.0701475019e-01	 9.3372495582e-01	-7.5907489781e+01
 4.8800050513e-01	 9.4380175727e-01	-8.1262062918e+01
 4.6884664200e-01	 9.5346162813e-01	-8.8302138885e+01
 4.4956646444e-01	 9.6270257301e-01	-9.7010472785e+01
 4.3017325671e-01	 9.7152314396e-01	-1.0736481702e+02
 4.1068025657e-01	 9.7992243412e-01	-1.1933810540e+02
 3.9110062893e-01	 9.8790006988e-01	-1.3289865663e+02
 5.8825048490e-01	 8.9977017459e-01	-7.6471669824e+01
 5.6971158830e-01	 9.1162147090e-01	-7.5239571712e+01
 5.5097796183e-01	 9.2306461617e-01	-7.5739258531e+01
 5.3206285930e-01	 9.3409534513e-01	-7.7957839079e+01
 5.1297962961e-01	 9.4470995530e-01	-8.1877029651e+01
 4.9374168754e-01	 9.5490530736e-01	-8.7473313753e+01
 4.7436248484e-01	 9.6467882376e-01	-9.4718125028e+01
 4.5485548167e-01	 9.7402848564e-01	-1.0357805170e+02
 4.3523411855e-01	 9.8295282801e-01	-1.1401506071e+02
 4.1551178900e-01	 9.9145093335e-01	-1.2598673962e+02
 3.9570181280e-01	 9.9952242365e-01	-1.3944655421e+02
 5.9509060682e-01	 9.1023261848e-01	-8.1149438183e+01
 5.7633614165e-01	 9.2222172056e-01	-7.9985772195e+01
 5.5738468231e-01	 9.3379792566e-01	-8.0583480551e+01
 5.3824963673e-01	 9.4495691892e-01	-8.2912914590e+01
 5.1894450902e-01	 9.5569495479e-01	-8.6939150733e+01
 4.9948286996e-01	 9.6600885745e-01	-9.2622218347e+01
 4.7987832769e-01	 9.7589601939e-01	-9.9917348567e+01
 4.6014449890e-01	 9.8535439826e-01	-1.0877524200e+02
 4.4029498039e-01	 9.9438251205e-01	-1.1914235315e+02
 4.2034332143e-01	 1.0029794326e+00	-1.3096118922e+02
 4.0030299667e-01	 1.0111447774e+00	-1.4417062120e+02
 6.0193072873e-01	 9.2069506237e-01	-8.5548633874e+01
 5.8296069500e-01	 9.3282197022e-01	-8.4304567156e+01
 5.6379140280e-01	 9.4453123515e-01	-8.4850835670e+01
 5.4443641416e-01	 9.5581849270e-01	-8.7141318505e+01
 5.2490938844e-01	 9.6667995426e-01	-9.1124734936e+01
 5.0522405237e-01	 9.7711240753e-01	-9.6744939491e+01
 4.8539417054e-01	 9.8711321501e-01	-1.0394123576e+02
 4.6543351612e-01	 9.9668031089e-01	-1.1264870648e+02
 4.4535584224e-01	 1.0058121961e+00	-1.2279855737e+02
 4.2517485386e-01	 1.0145079318e+00	-1.3431847221e+02
 4.0490418054e-01	 1.0227671312e+00	-1.4713297646e+02
 6.0877085065e-01	 9.3115750625e-01	-8.9678598416e+01
 5.8958524835e-01	 9.4342221988e-01	-8.8210314221e+01
 5.7019812328e-01	 9.5526454464e-01	-8.8560718806e+01
 5.5062319160e-01	 9.6668006647e-01	-9.0667494607e+01
 5.3087426785e-01	 9.7766495374e-01	-9.4463276953e+01
 5.1096523478e-01	 9.8821595761e-01	-9.9876015417e+01
 4.9091001338e-01	 9.9833041064e-01	-1.0682935173e+02
 4.7072253335e-01	 1.0080062235e+00	-1.1524301141e+02
 4.5041670408e-01	 1.0172418801e+00	-1.2503320624e+02
 4.3000638629e-01	 1.0260364310e+00	-1.3611304472e+02
 4.0950536441e-01	 1.0343894849e+00	-1.4839294770e+02
 6.1561097256e-01	 9.4161995014e-01	-9.3548258868e+01
 5.9620980170e-01	 9.5402246954e-01	-9.1716733618e+01
 5.7660484377e-01	 9.6599785412e-01	-9.1731663602e+01
 5.5680996903e-01	 9.7754164025e-01	-9.3514801013e+01
 5.3683914726e-01	 9.8864995322e-01	-9.6982961323e+01
 5.1670641719e-01	 9.9931950770e-01	-1.0204845004e+02
 4.9642585623e-01	 1.0095476063e+00	-1.0861950388e+02
 4.7601155058e-01	 1.0193321361e+00	-1.1660074310e+02
 4.5547756592e-01	 1.0286715642e+00	-1.2589363183e+02
 4.3483791872e-01	 1.0375649302e+00	-1.3639694327e+02
 4.1410654828e-01	 1.0460118387e+00	-1.4800722653e+02
 3.6809470956e-01	 9.2978830103e-01	-7.0410188524e+01
 3.4959759078e-01	 9.3689995435e-01	-4.3676976030e+01
 3.3104341998e-01	 9.4361552236e-01	-1.5919267946e+01
 3.1244424090e-01	 9.4993610115e-01	 1.2846183117e+01
 2.9381193773e-01	 9.5586324607e-01	 4.2598162591e+01
 2.7515821486e-01	 9.6139895816e-01	 7.3311197306e+01
 2.5649457770e-01	 9.6654566967e-01	 1.0495577470e+02
 2.3783231460e-01	 9.7130622879e-01	 1.3749857590e+02
 2.1918248006e-01	 9.7568388344e-01	 1.7090272061e+02
 2.0055587900e-01	 9.7968226449e-01	 2.0512802187e+02
 1.8196305243e-01	 9.8330536840e-01	 2.4013124849e+02
 3.7269589344e-01	 9.4141065480e-01	-8.7119044272e+01
 3.5396756067e-01	 9.4861120379e-01	-6.0268851550e+01
 3.3518146273e-01	 9.5541071639e-01	-3.2333027173e+01
 3.1634979391e-01	 9.6181030243e-01	-3.3477693202e+00
 2.9748458695e-01	 9.6781153666e-01	 2.6646690024e+01
 2.7859769255e-01	 9.7341644514e-01	 5.7606350610e+01
 2.5970075992e-01	 9.7862749055e-01	 8.9483720713e+01
 2.4080521853e-01	 9.8344755666e-01	 1.2222810301e+02
 2.2192226105e-01	 9.8787993198e-01	 1.5578588737e+02
 2.0306282749e-01	 9.9192829280e-01	 1.9010084844e+02
 1.8423759058e-01	 9.9559668551e-01	 2.2511444599e+02
 3.7729707731e-01	 9.5303300857e-01	-1.0164535033e+02
 3.5833753055e-01	 9.6032245323e-01	-7.4874250062e+01
 3.3931950548e-01	 9.6720591043e-01	-4.6955728544e+01
 3.2025534692e-01	 9.7368450370e-01	-1.7945092422e+01
 3.0115723617e-01	 9.7975982724e-01	 1.2098736667e+01
 2.8203717024e-01	 9.8543393212e-01	 4.3113548964e+01
 2.6290694214e-01	 9.9070931143e-01	 7.5034180193e+01
 2.4377812247e-01	 9.9558888452e-01	 1.0779284953e+02
 2.2466204205e-01	 1.0000759805e+00	 1.4131949965e+02
 2.0556977597e-01	 1.0041743211e+00	 1.7554213666e+02
 1.8651212874e-01	 1.0078880026e+00	 2.1038716779e+02
 3.8189826118e-01	 9.6465536234e-01	-1.1406792961e+02
 3.6270750044e-01	 9.7203370266e-01	-8.7564906813e+01
 3.4345754823e-01	 9.7900110447e-01	-5.9852043286e+01
 3.2416089993e-01	 9.8555870497e-01	-3.1003429214e+01
 3.0482988540e-01	 9.9170811782e-01	-1.0963599766e+00
 2.8547664792e-01	 9.9745141910e-01	 2.9789051252e+01
 2.6611312436e-01	 1.0027911323e+00	 6.1570263167e+01
 2.4675102640e-01	 1.0077302124e+00	 9.4162695726e+01
 2.2740182305e-01	 1.0122720291e+00	 1.2748011686e+02
 2.0807672446e-01	 1.0164203494e+00	 1.6143502419e+02
 1.8878666689e-01	 1.0201793197e+00	 1.9593901966e+02
 3.8649944506e-01	 9.7627771611e-01	-1.2446185230e+02
 3.6707747033e-01	 9.8374495210e-01	-9.8409141837e+01
 3.4759559099e-01	 9.9079629850e-01	-7.1083563778e+01
 3.2806645295e-01	 9.9743290624e-01	-4.2577678537e+01
 3.0850253462e-01	 1.0036564084e+00	-1.2986850608e+01
 2.8891612561e-01	 1.0094689061e+00	 1.7591198577e+01
 2.6931930658e-01	 1.0148729532e+00	 4.9056835655e+01
 2.4972393033e-01	 1.0198715402e+00	 8.1308955494e+01
 2.3014160405e-01	 1.0244680776e+00	 1.1424541399e+02
 2.1058367294e-01	 1.0286663777e+00	 1.4776345107e+02
 1.9106120504e-01	 1.0324706368e+00	 1.8176010178e+02
 3.9110062893e-01	 9.8790006988e-01	-1.3289865663e+02
 3.7144744021e-01	 9.9545620154e-01	-1.0747206084e+02
 3.5173363374e-01	 1.0025914925e+00	-8.0708984657e+01
 3.3197200596e-01	 1.0093071075e+00	-5.2720156467e+01
 3.1217518384e-01	 1.0156046990e+00	-2.3618716005e+01
 2.9235560329e-01	 1.0214863931e+00	 6.4802917835e+00
 2.7252548880e-01	 1.0269547741e+00	 3.7460416381e+01
 2.5269683426e-01	 1.0320128681e+00	 6.9204292021e+01
 2.3288138505e-01	 1.0366641262e+00	 1.0159411599e+02
 2.1309062143e-01	 1.0409124060e+00	 1.3451211246e+02
 1.9333574319e-01	 1.0447619539e+00	 1.6784097959e+02
 3.9570181280e-01	 9.9952242365e-01	-1.3944655421e+02
 3.7581741010e-01	 1.0071674510e+00	-1.1481574209e+02
 3.5587167649e-01	 1.0143866866e+00	-8.8784271292e+01
 3.3587755897e-01	 1.0211813088e+00	-6.1480746475e+01
 3.1584783306e-01	 1.0275529896e+00	-3.3035798984e+01
 2.9579508098e-01	 1.0335038801e+00	-3.5815224808e+00
 2.7573167103e-01	 1.0390365949e+00	 2.6749080687e+01
 2.5566973819e-01	 1.0441541960e+00	 5.7822639341e+01
 2.3562116605e-01	 1.0488601747e+00	 8.9505936757e+01
 2.1559756991e-01	 1.0531584344e+00	 1.2166641483e+02
 1.9561028135e-01	 1.0570532710e+00	 1.5417265680e+02
 4.0030299667e-01	 1.0111447774e+00	-1.4417062120e+02
 3.8018737999e-01	 1.0188787004e+00	-1.2049941038e+02
 3.6000971924e-01	 1.0261818806e+00	-9.5362816629e+01
 3.3978311198e-01	 1.0330555100e+00	-6.8907039223e+01
 3.1952048229e-01	 1.0395012801e+00	-4.1279927278e+01
 2.9923455867e-01	 1.0455213670e+00	-1.2630357841e+01
 2.7893785325e-01	 1.0511184158e+00	 1.6892371073e+01
 2.5864264212e-01	 1.0562955238e+00	 4.7139129298e+01
 2.3836094705e-01	 1.0610562233e+00	 7.7961522256e+01
 2.1810451840e-01	 1.0654044627e+00	 1.0921243499e+02
 1.9788481950e-01	 1.0693445882e+00	 1.4074655016e+02
 4.0490418054e-01	 1.0227671312e+00	-1.4713297646e+02
 3.8455734987e-01	 1.0305899498e+00	-1.2457959918e+02
 3.6414776199e-01	 1.0379770746e+00	-1.0049558735e+02
 3.4368866500e-01	 1.0449297113e+00	-7.5044462840e+01
 3.2319313151e-01	 1.0514495707e+00	-4.8391028019e+01
 3.0267403635e-01	 1.0575388540e+00	-2.0700687042e+01
 2.8214403547e-01	 1.0632002367e+00	 7.8612138425e+00
 2.6161554606e-01	 1.0684368517e+00	 3.7130023498e+01
 2.4110072805e-01	 1.0732522718e+00	 6.6942397597e+01
 2.2061146689e-01	 1.0776504910e+00	 9.7136882086e+01
 2.0015935765e-01	 1.0816359053e+00	 1.2755446603e+02
 4.0950536441e-01	 1.0343894849e+00	-1.4839294770e+02
 3.8892731976e-01	 1.0423011993e+00	-1.2711030181e+02
 3.6828580474e-01	 1.0497722687e+00	-1.0423126019e+02
 3.4759421801e-01	 1.0568039126e+00	-7.9936404406e+01
 3.2686578073e-01	 1.0633978613e+00	-5.4407234512e+01
 3.0611351404e-01	 1.0695563410e+00	-2.7825434127e+01
 2.8535021769e-01	 1.0752820576e+00	-3.7215864167e-01
 2.6458844999e-01	 1.0805781796e+00	 2.7772649832e+01
 2.4384050905e-01	 1.0854483204e+00	 5.6430917632e+01
 2.2311841537e-01	 1.0898965193e+00	 8.5427062009e+01
 2.0243389581e-01	 1.0939272224e+00	 1.1458857847e+02
 4.1410654828e-01	 1.0460118387e+00	-1.4800722653e+02
 3.9329728964e-01	 1.0540124487e+00	-1.2814311257e+02
 3.7242384749e-01	 1.0615674627e+00	-1.0661634913e+02
 3.5149977102e-01	 1.0686781139e+00	-8.3624323342e+01
 3.3053842995e-01	 1.0753461519e+00	-5.9364985893e+01
 3.0955299173e-01	 1.0815738280e+00	-3.4036060476e+01
 2.8855639991e-01	 1.0873638784e+00	-7.8342805092e+00
 2.6756135392e-01	 1.0927195074e+00	 1.9045343251e+01
 2.4658029005e-01	 1.0976443689e+00	 4.6410220868e+01
 2.2562536386e-01	 1.1021425476e+00	 7.4070844288e+01
 2.0470843396e-01	 1.1062185395e+00	 1.0184140882e+02
 1.8196305243e-01	 9.8330536840e-01	 2.4013124849e+02
 1.6341426419e-01	 9.8655753924e-01	 1.9058425251e+02
 1.4491948904e-01	 9.8944345047e-01	 1.3916836007e+02
 1.2648840200e-01	 9.9196808625e-01	 8.6459878460e+01
 1.0813036884e-01	 9.9413672265e-01	 3.3018974508e+01
 8.9854437912e-02	 9.9595490861e-01	-2.0611734306e+01
 7.1669333081e-02	 9.9742844690e-01	-7.3908443070e+01
 5.3583447897e-02	 9.9856337511e-01	-1.2636727729e+02
 3.5604840891e-02	 9.9936594664e-01	-1.7750526661e+02
 1.7741231987e-02	 9.9984261196e-01	-2.2686117661e+02
 0.0000000000e+00	 1.0000000000e+00	-2.7399620173e+02
 1.8423759058e-01	 9.9559668551e-01	 2.2511444599e+02
 1.6545694249e-01	 9.9888950849e-01	 1.8155749505e+02
 1.4673098265e-01	 1.0018114936e+00	 1.3593692619e+02
 1.2806950702e-01	 1.0043676873e+00	 8.8788285022e+01
 1.0948199844e-01	 1.0065634317e+00	 4.0633136942e+01
 9.0977618379e-02	 1.0084043450e+00	-8.0222874752e+00
 7.2565199739e-02	 1.0098963025e+00	-5.6688314206e+01
 5.4253240991e-02	 1.0110454173e+00	-1.0489291435e+02
 3.6049901398e-02	 1.0118580210e+00	-1.5218266031e+02
 1.7962997385e-02	 1.0123406446e+00	-1.9812355136e+02
 0.0000000000e+00	 1.0125000000e+00	-2.4230171091e+02
 1.8651212874e-01	 1.0078880026e+00	 2.1038716779e+02
 1.6749962078e-01	 1.0112214777e+00	 1.7226210142e+02
 1.4854247626e-01	 1.0141795367e+00	 1.3188558456e+02
 1.2965061203e-01	 1.0167672884e+00	 8.9753167694e+01
 1.1083362805e-01	 1.0189901407e+00	 4.6348542532e+01
 9.2100798847e-02	 1.0208537813e+00	 2.1422406843e+00
 7.3461066397e-02	 1.0223641581e+00	-4.2409547207e+01
 5.4923034086e-02	 1.0235274595e+00	-8.6866031237e+01
 3.6494961906e-02	 1.0243500953e+00	-1.3080276122e+02
 1.8184762783e-02	 1.0248386773e+00	-1.7381244606e+02
 0.0000000000e+00	 1.0250000000e+00	-2.1550565532e+02
 1.8878666689e-01	 1.0201793197e+00	 1.9593901966e+02
 1.6954229908e-01	 1.0235534470e+00	 1.6270785234e+02
 1.5035396986e-01	 1.0265475799e+00	 1.2704404182e+02
 1.3123171705e-01	 1.0291668895e+00	 8.9403882314e+01
 1.1218525765e-01	 1.0314168498e+00	 5.0233893257e+01
 9.3223979316e-02	 1.0333032177e+00	 9.9695703797e+00
 7.4356933056e-02	 1.0348320137e+00	-3.0965754951e+01
 5.5592827180e-02	 1.0360095017e+00	-7.2161947169e+01
 3.6940022414e-02	 1.0368421696e+00	-1.1322298856e+02
 1.8406528182e-02	 1.0373367099e+00	-1.5376779253e+02
 0.0000000000e+00	 1.0375000000e+00	-1.9343090949e+02
 1.9106120504e-01	 1.0324706368e+00	 1.8176010178e+02
 1.7158497738e-01	 1.0358854162e+00	 1.5290406225e+02
 1.5216546347e-01	 1.0389156230e+00	 1.2144058948e+02
 1.3281282207e-01	 1.0415664906e+00	 8.7787433924e+01
 1.1353688726e-01	 1.0438435588e+00	 5.2354619081e+01
 9.4347159785e-02	 1.0457526540e+00	 1.5543244202e+01
 7.5252799715e-02	 1.0472998693e+00	-2.2255616805e+01
 5.6262620276e-02	 1.0484915439e+00	-6.0661918937e+01
 3.7385082923e-02	 1.0493342440e+00	-9.9307551468e+01
 1.8628293580e-02	 1.0498347426e+00	-1.3783714526e+02
 0.0000000000e+00	 1.0500000000e+00	-1.7590878284e+02
 1.9333574319e-01	 1.0447619539e+00	 1.6784097959e+02
 1.7362765568e-01	 1.0482173855e+00	 1.4285960667e+02
 1.5397695708e-01	 1.0512836661e+00	 1.1510218715e+02
 1.3439392709e-01	 1.0539660917e+00	 8.4948615055e+01
 1.1488851686e-01	 1.0562702678e+00	 5.2773070425e+01
 9.5470340255e-02	 1.0582020904e+00	 1.8942872869e+01
 7.6148666375e-02	 1.0597677248e+00	-1.6182580598e+01
 5.6932413371e-02	 1.0609735861e+00	-5.2252791653e+01
 3.7830143432e-02	 1.0618263183e+00	-8.8927049637e+01
 1.8850058979e-02	 1.0623327752e+00	-1.2587523300e+02
 0.0000000000e+00	 1.0625000000e+00	-1.6277852346e+02
 1.9561028135e-01	 1.0570532710e+00	 1.5417265680e+02
 1.7567033398e-01	 1.0605493547e+00	 1.3258294778e+02
 1.5578845069e-01	 1.0636517093e+00	 1.0805453998e+02
 1.3597503212e-01	 1.0663656927e+00	 8.0930134364e+01
 1.1624014647e-01	 1.0686969769e+00	 5.1548697218e+01
 9.6593520725e-02	 1.0706515268e+00	 2.0244363823e+01
 7.7044533036e-02	 1.0722355804e+00	-1.2654585378e+01
 5.7602206467e-02	 1.0734556282e+00	-4.6826673843e+01
 3.8275203941e-02	 1.0743183926e+00	-8.1958101738e+01
 1.9071824378e-02	 1.0748308079e+00	-1.1774354161e+02
 0.0000000000e+00	 1.0750000000e+00	-1.5388685662e+02
 1.9788481950e-01	 1.0693445882e+00	 1.4074655016e+02
 1.7771301228e-01	 1.0728813239e+00	 1.2208215815e+02
 1.5759994430e-01	 1.0760197524e+00	 1.0032217077e+02
 1.3755613714e-01	 1.0787652938e+00	 7.5772736397e+01
 1.1759177608e-01	 1.0811236859e+00	 4.8738215588e+01
 9.7716701196e-02	 1.0831009631e+00	 1.9520134067e+01
 7.7940399697e-02	 1.0847034360e+00	-1.1583803303e+01
 5.8271999564e-02	 1.0859376704e+00	-4.4280634955e+01
 3.8720264451e-02	 1.0868104670e+00	-7.8282999514e+01
 1.9293589777e-02	 1.0873288405e+00	-1.1330992578e+02
 0.0000000000e+00	 1.0875000000e+00	-1.4908755499e+02
 2.0015935765e-01	 1.0816359053e+00	 1.2755446603e+02
 1.7975569058e-01	 1.0852132932e+00	 1.1136494287e+02
 1.5941143791e-01	 1.0883877955e+00	 9.1928487114e+01
 1.3913724216e-01	 1.0911648949e+00	 6.9515313189e+01
 1.1894340569e-01	 1.0935503949e+00	 4.4395763193e+01
 9.8839881668e-02	 1.0955503995e+00	 1.6839308481e+01
 7.8836266358e-02	 1.0971712916e+00	-1.2886399115e+01
 5.8941792661e-02	 1.0984197126e+00	-4.4516423482e+01
 3.9165324961e-02	 1.0993025413e+00	-7.7789385442e+01
 1.9515355176e-02	 1.0998268732e+00	-1.1244824714e+02
 0.0000000000e+00	 1.1000000000e+00	-1.4824103824e+02
 2.0243389581e-01	 1.0939272224e+00	 1.1458857847e+02
 1.8179836888e-01	 1.0975452624e+00	 1.0043866022e+02
 1.6122293152e-01	 1.1007558387e+00	 8.2895844083e+01
 1.4071834718e-01	 1.1035644960e+00	 6.2195008335e+01
 1.2029503530e-01	 1.1059771040e+00	 3.8573044082e+01
 9.9963062140e-02	 1.1079998358e+00	 1.2267904778e+01
 7.9732133020e-02	 1.1096391472e+00	-1.6482305843e+01
 5.9611585759e-02	 1.1109017548e+00	-4.7440204101e+01
 3.9610385471e-02	 1.1117946156e+00	-8.0369952132e+01
 1.9737120575e-02	 1.1123249058e+00	-1.1503803676e+02
 0.0000000000e+00	 1.1125000000e+00	-1.5121399963e+02
 2.0470843396e-01	 1.1062185395e+00	 1.0184140882e+02
 1.8384104718e-01	 1.1098772317e+00	 8.9310340918e+01
 1.6303442514e-01	 1.1131238818e+00	 7.3245602700e+01
 1.4229945221e-01	 1.1159640971e+00	 5.3847314133e+01
 1.2164666491e-01	 1.1184038130e+00	 3.1319463893e+01
 1.0108624261e-01	 1.1204492722e+00	 5.8690061215e+00
 8.0627999683e-02	 1.1221070028e+00	-2.2295015449e+01
 6.0281378857e-02	 1.1233837970e+00	-5.2962312321e+01
 4.0055445982e-02	 1.1242866900e+00	-8.5922161762e+01
 1.9958885975e-02	 1.1248229385e+00	-1.2096418025e+02
 0.0000000000e+00	 1.1250000000e+00	-1.5787905744e+02
 1.1250000000e+00	 0.0000000000e+00	 8.5094347220e+01
 1.1248229385e+00	 1.9958885975e-02	 6.9747693379e+01
 1.1242866900e+00	 4.0055445982e-02	 5.3389741736e+01
 1.1233837970e+00	 6.0281378857e-02	 3.6108951573e+01
 1.1221070028e+00	 8.0627999683e-02	 1.7999344321e+01
 1.1204492722e+00	 1.0108624261e-01	-8.3960407383e-01
 1.1184038130e+00	 1.2164666491e-01	-2.0303101786e+01
 1.1159640971e+00	 1.4229945221e-01	-4.0281211692e+01
 1.1131238818e+00	 1.6303442514e-01	-6.0659054643e+01
 1.1098772317e+00	 1.8384104718e-01	-8.1317045974e+01
 1.1062185395e+00	 2.0470843396e-01	-1.0213116560e+02
 1.1375000000e+00	 0.0000000000e+00	 8.0142488539e+01
 1.1373209711e+00	 2.0180651374e-02	 6.7565283700e+01
 1.1367787643e+00	 4.0500506492e-02	 5.3920883416e+01
 1.1358658392e+00	 6.0951171955e-02	 3.9278880673e+01
 1.1345748584e+00	 8.1523866346e-02	 2.3713974574e+01
 1.1328987086e+00	 1.0220942309e-01	 7.3059141109e+00
 1.1308305220e+00	 1.2299829452e-01	-9.8605845039e+00
 1.1283636981e+00	 1.4388055723e-01	-2.7695947947e+01
 1.1254919249e+00	 1.6484591875e-01	-4.6105884199e+01
 1.1222092009e+00	 1.8588372548e-01	-6.4991549977e+01
 1.1185098566e+00	 2.0698297212e-01	-8.4249747689e+01
 1.1500000000e+00	 0.0000000000e+00	 7.6395204563e+01
 1.1498190038e+00	 2.0402416774e-02	 6.6394028385e+01
 1.1492708386e+00	 4.0945567004e-02	 5.5270550996e+01
 1.1483478814e+00	 6.1620965054e-02	 4.3075810752e+01
 1.1470427139e+00	 8.2419733010e-02	 2.9865504022e+01
 1.1453481449e+00	 1.0333260356e-01	 1.5699979680e+01
 1.1432572311e+00	 1.2434992413e-01	 6.4421167678e-01
 1.1407632992e+00	 1.4546166226e-01	-1.5232251403e+01
 1.1378599681e+00	 1.6665741236e-01	-3.1855360771e+01
 1.1345411702e+00	 1.8792640379e-01	-4.9146666696e+01
 1.1308011737e+00	 2.0925751027e-01	-6.7023443320e+01
 1.1625000000e+00	 0.0000000000e+00	 7.3813619891e+01
 1.1623170364e+00	 2.0624182174e-02	 6.6201293555e+01
 1.1617629130e+00	 4.1390627515e-02	 5.7412326545e+01
 1.1608299236e+00	 6.2290758153e-02	 4.7479504203e+01
 1.1595105695e+00	 8.3315599674e-02	 3.6439829438e+01
 1.1577975813e+00	 1.0445578404e-01	 2.4334567305e+01
 1.1556839401e+00	 1.2570155374e-01	 1.1209272088e+01
 1.1531629003e+00	 1.4704276728e-01	-2.8862042515e+00
 1.1502280112e+00	 1.6846890598e-01	-1.7897723344e+01
 1.1468731394e+00	 1.8996908209e-01	-3.3766892410e+01
 1.1430924908e+00	 2.1153204843e-01	-5.0431117879e+01
 1.1750000000e+00	 0.0000000000e+00	 7.2360513495e+01
 1.1748150691e+00	 2.0845947575e-02	 6.6955834097e+01
 1.1742549873e+00	 4.1835688027e-02	 6.0320916382e+01
 1.1733119658e+00	 6.2960551253e-02	 5.2470584662e+01
 1.1719784251e+00	 8.4211466338e-02	 4.3423447796e+01
 1.1702470176e+00	 1.0557896451e-01	 3.3201993212e+01
 1.1681106491e+00	 1.2705318335e-01	 2.1832667826e+01
 1.1655625014e+00	 1.4862387231e-01	 9.3459446242e+00
 1.1625960543e+00	 1.7028039959e-01	-4.2236262596e+00
 1.1592051086e+00	 1.9201176039e-01	-1.8837383140e+01
 1.1553838079e+00	 2.1380658658e-01	-3.4452536123e+01
 1.1875000000e+00	 0.0000000000e+00	 7.2000231650e+01
 1.1873131017e+00	 2.1067712975e-02	 6.8627720573e+01
 1.1867470616e+00	 4.2280748539e-02	 6.3972091906e+01
 1.1857940079e+00	 6.3630344353e-02	 5.8030491688e+01
 1.1844462807e+00	 8.5107333003e-02	 5.0803424676e+01
 1.1826964540e+00	 1.0670214499e-01	 4.2294897201e+01
 1.1805373582e+00	 1.2840481296e-01	 3.2512551240e+01
 1.1779621024e+00	 1.5020497734e-01	 2.1467788419e+01
 1.1749640975e+00	 1.7209189320e-01	 9.1758826442e+00
 1.1715370779e+00	 1.9405443870e-01	-4.3439199266e+00
 1.1676751250e+00	 2.1608112474e-01	-1.9068314845e+01
 1.2000000000e+00	 0.0000000000e+00	 7.2698606301e+01
 1.1998111344e+00	 2.1289478376e-02	 7.1188270698e+01
 1.1992391360e+00	 4.2725809052e-02	 6.8342634120e+01
 1.1982760501e+00	 6.4300137453e-02	 6.4141438258e+01
 1.1969141363e+00	 8.6003199669e-02	 5.8567364652e+01
 1.1951458903e+00	 1.0782532546e-01	 5.1606225793e+01
 1.1929640672e+00	 1.2975644257e-01	 4.3247151700e+01
 1.1903617035e+00	 1.5178608236e-01	 3.3482770633e+01
 1.1873321406e+00	 1.7390338682e-01	 2.2309382530e+01
 1.1838690471e+00	 1.9609711700e-01	 9.7271237241e+00
 1.1799664421e+00	 2.1835566290e-01	-4.2598784958e+00
 1.2125000000e+00	 0.0000000000e+00	 7.4422878486e+01
 1.2123091670e+00	 2.1511243776e-02	 7.4609985049e+01
 1.2117312103e+00	 4.3170869564e-02	 7.3410281594e+01
 1.2107580923e+00	 6.4969930554e-02	 7.0786370907e+01
 1.2093819919e+00	 8.6899066335e-02	 6.6703383510e+01
 1.2075953267e+00	 1.0894850594e-01	 6.1129216422e+01
 1.2053907762e+00	 1.3110807219e-01	 5.4034771622e+01
 1.2027613046e+00	 1.5336718739e-01	 4.5394192785e+01
 1.1997001837e+00	 1.7571488043e-01	 3.5185098785e+01
 1.1962010164e+00	 1.9813979530e-01	 2.3388812380e+01
 1.1922577592e+00	 2.2063020105e-01	 9.9905824471e+00
 1.2250000000e+00	 0.0000000000e+00	 7.7141626439e+01
 1.2248071996e+00	 2.1733009177e-02	 7.8866486720e+01
 1.2242232846e+00	 4.3615930078e-02	 7.9153681605e+01
 1.2232401345e+00	 6.5639723655e-02	 7.7948932298e+01
 1.2218498475e+00	 8.7794933001e-02	 7.5200082161e+01
 1.2200447631e+00	 1.1007168642e-01	 7.0857382590e+01
 1.2178174853e+00	 1.3245970180e-01	 6.4873782746e+01
 1.2151609057e+00	 1.5494829242e-01	 5.7205221658e+01
 1.2120682269e+00	 1.7752637405e-01	 4.7810921074e+01
 1.2085329856e+00	 2.0018247361e-01	 3.6653677351e+01
 1.2045490763e+00	 2.2290473921e-01	 2.3700150562e+01
 1.2375000000e+00	 0.0000000000e+00	 8.0824698057e+01
 1.2373052323e+00	 2.1954774578e-02	 8.3932464623e+01
 1.2367153590e+00	 4.4060990591e-02	 8.5552344246e+01
 1.2357221767e+00	 6.6309516757e-02	 8.5613426064e+01
 1.2343177030e+00	 8.8690799668e-02	 8.4046522144e+01
 1.2324941994e+00	 1.1119486689e-01	 8.0784499926e+01
 1.2302441943e+00	 1.3381133141e-01	 7.5762622635e+01
 1.2275605068e+00	 1.5652939745e-01	 6.8918896104e+01
 1.2244362700e+00	 1.7933786766e-01	 6.0194420290e+01
 1.2208649548e+00	 2.0222515191e-01	 4.9533743624e+01
 1.2168403934e+00	 2.2517927736e-01	 3.6885218196e+01
 1.2500000000e+00	 0.0000000000e+00	 8.5443147415e+01
 1.2498032649e+00	 2.2176539980e-02	 8.9783620204e+01
 1.2492074333e+00	 4.4506051105e-02	 9.2586599283e+01
 1.2482042189e+00	 6.6979309859e-02	 9.3764783760e+01
 1.2467855586e+00	 8.9586666336e-02	 9.3232202592e+01
 1.2449436358e+00	 1.1231804737e-01	 9.0904593077e+01
 1.2426709033e+00	 1.3516296103e-01	 8.6699791378e+01
 1.2399601078e+00	 1.5811050247e-01	 8.0538133439e+01
 1.2368043131e+00	 1.8114936128e-01	 7.2342864498e+01
 1.2331969241e+00	 2.0426783021e-01	 6.2040555175e+01
 1.2291317105e+00	 2.2745381552e-01	 4.9561521981e+01
 1.1062185395e+00	 2.0470843396e-01	-1.0213116560e+02
 1.1021425476e+00	 2.2562536386e-01	-1.0874714496e+02
 1.0976443689e+00	 2.4658029005e-01	-1.1428718543e+02
 1.0927195074e+00	 2.6756135392e-01	-1.1876338324e+02
 1.0873638784e+00	 2.8855639991e-01	-1.2219159546e+02
 1.0815738280e+00	 3.0955299173e-01	-1.2459150104e+02
 1.0753461519e+00	 3.3053842995e-01	-1.2598664497e+02
 1.0686781139e+00	 3.5149977102e-01	-1.2640446498e+02
 1.0615674627e+00	 3.7242384749e-01	-1.2587629943e+02
 1.0540124487e+00	 3.9329728964e-01	-1.2443737596e+02
 1.0460118387e+00	 4.1410654828e-01	-1.2212677993e+02
 1.1185098566e+00	 2.0698297212e-01	-8.4249747689e+01
 1.1143885759e+00	 2.2813231235e-01	-9.0877574581e+01
 1.1098404175e+00	 2.4932007105e-01	-9.6487991522e+01
 1.1048608353e+00	 2.7053425785e-01	-1.0108842747e+02
 1.0994456993e+00	 2.9176258213e-01	-1.0468978741e+02
 1.0935913150e+00	 3.1299246941e-01	-1.0730652378e+02
 1.0872944425e+00	 3.3421107917e-01	-1.0895669310e+02
 1.0805523151e+00	 3.5540532403e-01	-1.0966199659e+02
 1.0733626567e+00	 3.7656189024e-01	-1.0944780406e+02
 1.0657236981e+00	 3.9766725953e-01	-1.0834316007e+02
 1.0576341925e+00	 4.1870773215e-01	-1.0638077166e+02
 1.1308011737e+00	 2.0925751027e-01	-6.7023443320e+01
 1.1266346042e+00	 2.3063926084e-01	-7.3605116748e+01
 1.1220364660e+00	 2.5205985205e-01	-7.9226789209e+01
 1.1170021632e+00	 2.7350716179e-01	-8.3891303486e+01
 1.1115275202e+00	 2.9496876435e-01	-8.7604698072e+01
 1.1056088019e+00	 3.1643194710e-01	-9.0376289020e+01
 1.0992427330e+00	 3.3788372839e-01	-9.2218738671e+01
 1.0924265164e+00	 3.5931087704e-01	-9.3148110222e+01
 1.0851578508e+00	 3.8069993299e-01	-9.3183907208e+01
 1.0774349476e+00	 4.0203722941e-01	-9.2349097017e+01
 1.0692565462e+00	 4.2330891602e-01	-9.0670117665e+01
 1.1430924908e+00	 2.1153204843e-01	-5.0431117879e+01
 1.1388806325e+00	 2.3314620932e-01	-5.6910506054e+01
 1.1342325145e+00	 2.5479963305e-01	-6.2486218474e+01
 1.1291434910e+00	 2.7648006572e-01	-6.7156590196e+01
 1.1236093411e+00	 2.9817494657e-01	-7.0922876109e+01
 1.1176262889e+00	 3.1987142478e-01	-7.3789343044e+01
 1.1111910236e+00	 3.4155637762e-01	-7.5763350477e+01
 1.1043007177e+00	 3.6321643005e-01	-7.6855418819e+01
 1.0969530448e+00	 3.8483797574e-01	-7.7079284328e+01
 1.0891461970e+00	 4.0640719929e-01	-7.6451939741e+01
 1.0808789000e+00	 4.2791009988e-01	-7.4993659804e+01
 1.1553838079e+00	 2.1380658658e-01	-3.4452536123e+01
 1.1511266608e+00	 2.3565315781e-01	-4.0775296945e+01
 1.1464285631e+00	 2.5753941405e-01	-4.6249658083e+01
 1.1412848189e+00	 2.7945296965e-01	-5.0869522822e+01
 1.1356911619e+00	 3.0138112879e-01	-5.4631442683e+01
 1.1296437759e+00	 3.2331090247e-01	-5.7534719660e+01
 1.1231393142e+00	 3.4522902683e-01	-5.9581498756e+01
 1.1161749189e+00	 3.6712198306e-01	-6.0776849809e+01
 1.1087482388e+00	 3.8897601848e-01	-6.1128837639e+01
 1.1008574464e+00	 4.1077716917e-01	-6.0648579565e+01
 1.0925012538e+00	 4.3251128375e-01	-5.9350289448e+01
 1.1676751250e+00	 2.1608112474e-01	-1.9068314845e+01
 1.1633726891e+00	 2.3816010630e-01	-2.5181820559e+01
 1.1586246116e+00	 2.6027919505e-01	-3.0501186702e+01
 1.1534261467e+00	 2.8242587358e-01	-3.5015958334e+01
 1.1477729828e+00	 3.0458731101e-01	-3.8718061313e+01
 1.1416612629e+00	 3.2675038015e-01	-4.1601914520e+01
 1.1350876048e+00	 3.4890167605e-01	-4.3664534083e+01
 1.1280491202e+00	 3.7102753607e-01	-4.4905628571e+01
 1.1205434329e+00	 3.9311406123e-01	-4.5327684172e+01
 1.1125686958e+00	 4.1514713906e-01	-4.4936038891e+01
 1.1041236075e+00	 4.3711246762e-01	-4.3738944855e+01
 1.1799664421e+00	 2.1835566290e-01	-4.2598784958e+00
 1.1756187174e+00	 2.4066705479e-01	-1.0113144282e+01
 1.1708206602e+00	 2.6301897605e-01	-1.5225546442e+01
 1.1655674746e+00	 2.8539877751e-01	-1.9582343071e+01
 1.1598548037e+00	 3.0779349323e-01	-2.3170909633e+01
 1.1536787499e+00	 3.3018985783e-01	-2.5980861069e+01
 1.1470358954e+00	 3.5257432527e-01	-2.8004167557e+01
 1.1399233214e+00	 3.7493308908e-01	-2.9235262906e+01
 1.1323386269e+00	 3.9725210398e-01	-2.9671144584e+01
 1.1242799453e+00	 4.1951710894e-01	-2.9311464377e+01
 1.1157459613e+00	 4.4171365148e-01	-2.8158608734e+01
 1.1922577592e+00	 2.2063020105e-01	 9.9905824471e+00
 1.1878647457e+00	 2.4317400327e-01	 4.4469662089e+00
 1.1830167087e+00	 2.6575875705e-01	-4.0810866655e-01
 1.1777088025e+00	 2.8837168144e-01	-4.5556823598e+00
 1.1719366245e+00	 3.1099967545e-01	-7.9786528899e+00
 1.1656962368e+00	 3.3362933551e-01	-1.0661907980e+01
 1.1589841859e+00	 3.5624697449e-01	-1.2592452217e+01
 1.1517975227e+00	 3.7883864208e-01	-1.3759528486e+01
 1.1441338209e+00	 4.0139014672e-01	-1.4154732664e+01
 1.1359911947e+00	 4.2388707882e-01	-1.3772120534e+01
 1.1273683150e+00	 4.4631483535e-01	-1.2608305947e+01
 1.2045490763e+00	 2.2290473921e-01	 2.3700150562e+01
 1.2001107741e+00	 2.4568095176e-01	 1.8514082570e+01
 1.1952127573e+00	 2.6849853805e-01	 1.3965158119e+01
 1.1898501303e+00	 2.9134458537e-01	 1.0076488004e+01
 1.1840184454e+00	 3.1420585767e-01	 6.8695809348e+00
 1.1777137238e+00	 3.3706881320e-01	 4.3642020340e+00
 1.1709324765e+00	 3.5991962371e-01	 2.5782344054e+00
 1.1636717240e+00	 3.8274419509e-01	 1.5275448173e+00
 1.1559290149e+00	 4.0552818947e-01	 1.2258545267e+00
 1.1477024441e+00	 4.2825704870e-01	 1.6846162939e+00
 1.1389906688e+00	 4.5091601921e-01	 2.9128986341e+00
 1.2168403934e+00	 2.2517927736e-01	 3.6885218196e+01
 1.2123568024e+00	 2.4818790024e-01	 3.2103147260e+01
 1.2074088058e+00	 2.7123831905e-01	 2.7907718424e+01
 1.2019914582e+00	 2.9431748930e-01	 2.4326128545e+01
 1.1961002663e+00	 3.1741203988e-01	 2.1384224495e+01
 1.1897312108e+00	 3.4050829088e-01	 1.9106352119e+01
 1.1828807671e+00	 3.6359227292e-01	 1.7515206672e+01
 1.1755459252e+00	 3.8664974809e-01	 1.6631685771e+01
 1.1677242090e+00	 4.0966623221e-01	 1.6474745903e+01
 1.1594136936e+00	 4.3262701858e-01	 1.7061263571e+01
 1.1506130226e+00	 4.5551720308e-01	 1.8405902157e+01
 1.2291317105e+00	 2.2745381552e-01	 4.9561521981e+01
 1.2246028307e+00	 2.5069484873e-01	 4.5228504998e+01
 1.2196048543e+00	 2.7397810005e-01	 4.1432498117e+01
 1.2141327860e+00	 2.9729039323e-01	 3.8204721296e+01
 1.2081820871e+00	 3.2061822210e-01	 3.5575293049e+01
 1.2017486978e+00	 3.4394776856e-01	 3.3573069988e+01
 1.1948290577e+00	 3.6726492214e-01	 3.2225486246e+01
 1.1874201265e+00	 3.9055530110e-01	 3.1558393847e+01
 1.1795194030e+00	 4.1380427495e-01	 3.1595905066e+01
 1.1711249430e+00	 4.3699698846e-01	 3.2360237883e+01
 1.1622353763e+00	 4.6011838694e-01	 3.3871565683e+01
 1.0460118387e+00	 4.1410654828e-01	-1.2212677993e+02
 1.0375649302e+00	 4.3483791872e-01	-1.2442493488e+02
 1.0286715642e+00	 4.5547756592e-01	-1.2658346101e+02
 1.0193321361e+00	 4.7601155058e-01	-1.2858764343e+02
 1.0095476063e+00	 4.9642585623e-01	-1.3042288991e+02
 9.9931950770e-01	 5.1670641719e-01	-1.3207479128e+02
 9.8864995322e-01	 5.3683914726e-01	-1.3352918278e+02
 9.7754164025e-01	 5.5680996903e-01	-1.3477220562e+02
 9.6599785412e-01	 5.7660484377e-01	-1.3579036866e+02
 9.5402246954e-01	 5.9620980170e-01	-1.3657060960e+02
 9.4161995014e-01	 6.1561097256e-01	-1.3710035536e+02
 1.0576341925e+00	 4.1870773215e-01	-1.0638077166e+02
 1.0490934295e+00	 4.3966945115e-01	-1.0847456949e+02
 1.0401012482e+00	 4.6053842777e-01	-1.1045908918e+02
 1.0306580488e+00	 4.8130056781e-01	-1.1232126813e+02
 1.0207648019e+00	 5.0194169907e-01	-1.1404810247e+02
 1.0104230578e+00	 5.2244759960e-01	-1.1562669980e+02
 9.9963495269e-01	 5.4280402667e-01	-1.1704433280e+02
 9.8840321402e-01	 5.6299674646e-01	-1.1828849342e+02
 9.7673116361e-01	 5.8301156425e-01	-1.1934694736e+02
 9.6462271920e-01	 6.0283435505e-01	-1.2020778842e+02
 9.5208239402e-01	 6.2245109447e-01	-1.2085949239e+02
 1.0692565462e+00	 4.2330891602e-01	-9.0670117665e+01
 1.0606219287e+00	 4.4450098358e-01	-9.2571847689e+01
 1.0515309323e+00	 4.6559928961e-01	-9.4394187127e+01
 1.0419839614e+00	 4.8658958503e-01	-9.6125698573e+01
 1.0319819975e+00	 5.0745754192e-01	-9.7754940249e+01
 1.0215266079e+00	 5.2818878201e-01	-9.9270511034e+01
 1.0106199522e+00	 5.4876890608e-01	-1.0066109656e+02
 9.9926478780e-01	 5.6918352389e-01	-1.0191551608e+02
 9.8746447310e-01	 5.8941828473e-01	-1.0302276988e+02
 9.7522296885e-01	 6.0945890840e-01	-1.0397208685e+02
 9.6254483791e-01	 6.2929121639e-01	-1.0475297200e+02
 1.0808789000e+00	 4.2791009988e-01	-7.4993659804e+01
 1.0721504279e+00	 4.4933251601e-01	-7.6715213598e+01
 1.0629606163e+00	 4.7066015145e-01	-7.8386816211e+01
 1.0533098740e+00	 4.9187860226e-01	-7.9998629247e+01
 1.0431991931e+00	 5.1297338476e-01	-8.1540747541e+01
 1.0326301579e+00	 5.3392996442e-01	-8.3003236618e+01
 1.0216049516e+00	 5.5473378549e-01	-8.4376171353e+01
 1.0101263616e+00	 5.7537030132e-01	-8.5649675623e+01
 9.9819778258e-01	 5.9582500522e-01	-8.6813962736e+01
 9.8582321851e-01	 6.1608346175e-01	-8.7859376356e+01
 9.7300728180e-01	 6.3613133830e-01	-8.8776431710e+01
 1.0925012538e+00	 4.3251128375e-01	-5.9350289448e+01
 1.0836789271e+00	 4.5416404844e-01	-6.0903177794e+01
 1.0743903004e+00	 4.7572101329e-01	-6.2435120565e+01
 1.0646357866e+00	 4.9716761948e-01	-6.3937853016e+01
 1.0544163887e+00	 5.1848922761e-01	-6.5402981945e+01
 1.0437337080e+00	 5.3967114683e-01	-6.6822015664e+01
 1.0325899511e+00	 5.6069866490e-01	-6.8186395336e+01
 1.0209879354e+00	 5.8155707875e-01	-6.9487527505e+01
 1.0089310921e+00	 6.0223172570e-01	-7.0716817639e+01
 9.9642346817e-01	 6.2270801510e-01	-7.1865704499e+01
 9.8346972568e-01	 6.4297146021e-01	-7.2925695119e+01
 1.1041236075e+00	 4.3711246762e-01	-4.3738944855e+01
 1.0952074264e+00	 4.5899558086e-01	-4.5134313796e+01
 1.0858199844e+00	 4.8078187513e-01	-4.6537322710e+01
 1.0759616992e+00	 5.0245663671e-01	-4.7941255953e+01
 1.0656335844e+00	 5.2400507045e-01	-4.9339208403e+01
 1.0548372581e+00	 5.4541232925e-01	-5.0724108058e+01
 1.0435749506e+00	 5.6666354432e-01	-5.2088740137e+01
 1.0318495091e+00	 5.8774385618e-01	-5.3425772583e+01
 1.0196644016e+00	 6.0863844618e-01	-5.4727782821e+01
 1.0070237178e+00	 6.2933256845e-01	-5.5987285648e+01
 9.9393216957e-01	 6.4981158213e-01	-5.7196762081e+01
 1.1157459613e+00	 4.4171365148e-01	-2.8158608734e+01
 1.1067359256e+00	 4.6382711329e-01	-2.9407254789e+01
 1.0972496685e+00	 4.8584273697e-01	-3.0691719482e+01
 1.0872876119e+00	 5.0774565394e-01	-3.2006812480e+01
 1.0768507800e+00	 5.2952091329e-01	-3.3347093608e+01
 1.0659408082e+00	 5.5115351166e-01	-3.4706888166e+01
 1.0545599501e+00	 5.7262842373e-01	-3.6080303894e+01
 1.0427110829e+00	 5.9393063361e-01	-3.7461249527e+01
 1.0303977110e+00	 6.1504516667e-01	-3.8843454873e+01
 1.0176239675e+00	 6.3595712180e-01	-4.0220492297e+01
 1.0043946135e+00	 6.5665170405e-01	-4.1585799531e+01
 1.1273683150e+00	 4.4631483535e-01	-1.2608305947e+01
 1.1182644248e+00	 4.6865864572e-01	-1.3720690548e+01
 1.1086793525e+00	 4.9090359881e-01	-1.4896678195e+01
 1.0986135245e+00	 5.1303467116e-01	-1.6132580812e+01
 1.0880679756e+00	 5.3503675614e-01	-1.7424400756e+01
 1.0770443583e+00	 5.5689469407e-01	-1.8767838936e+01
 1.0655449496e+00	 5.7859330314e-01	-2.0158304735e+01
 1.0535726567e+00	 6.0011741104e-01	-2.1590927717e+01
 1.0411310205e+00	 6.2145188715e-01	-2.3060571096e+01
 1.0282242171e+00	 6.4258167515e-01	-2.4561846912e+01
 1.0148570573e+00	 6.6349182596e-01	-2.6089132871e+01
 1.1389906688e+00	 4.5091601921e-01	 2.9128986341e+00
 1.1297929240e+00	 4.7349017814e-01	 1.9266354520e+00
 1.1201090366e+00	 4.9596446065e-01	 8.4936695624e-01
 1.1099394371e+00	 5.1832368839e-01	-3.1669868590e-01
 1.0992851712e+00	 5.4055259898e-01	-1.5689846251e+00
 1.0881479084e+00	 5.6263587648e-01	-2.9045463508e+00
 1.0765299490e+00	 5.8455818255e-01	-4.3200746538e+00
 1.0644342305e+00	 6.0630418848e-01	-5.8119005694e+00
 1.0518643300e+00	 6.2785860764e-01	-7.3760023213e+00
 1.0388244668e+00	 6.4920622850e-01	-9.0080142739e+00
 1.0253195012e+00	 6.7033194788e-01	-1.0703237880e+01
 1.1506130226e+00	 4.5551720308e-01	 1.8405902157e+01
 1.1413214233e+00	 4.7832171057e-01	 1.7535928745e+01
 1.1315387206e+00	 5.0102532249e-01	 1.6547918269e+01
 1.1212653497e+00	 5.2361270561e-01	 1.5442620662e+01
 1.1105023669e+00	 5.4606844183e-01	 1.4221213055e+01
 1.0992514584e+00	 5.6837705889e-01	 1.2885305772e+01
 1.0875149485e+00	 5.9052306196e-01	 1.1436946240e+01
 1.0752958043e+00	 6.1249096591e-01	 9.8786207272e+00
 1.0625976395e+00	 6.3426532812e-01	 8.2132538368e+00
 1.0494247165e+00	 6.5583078185e-01	 6.4442057079e+00
 1.0357819451e+00	 6.7717206979e-01	 4.5752668795e+00
 1.1622353763e+00	 4.6011838694e-01	 3.3871565683e+01
 1.1528499225e+00	 4.8315324299e-01	 3.3108346427e+01
 1.1429684046e+00	 5.0608618433e-01	 3.2200417715e+01
 1.1325912624e+00	 5.2890172284e-01	 3.1147092269e+01
 1.1217195625e+00	 5.5158428467e-01	 2.9948167949e+01
 1.1103550085e+00	 5.7411824130e-01	 2.8603940676e+01
 1.0984999480e+00	 5.9648794137e-01	 2.7115215132e+01
 1.0861573780e+00	 6.1867774334e-01	 2.5483313101e+01
 1.0733309490e+00	 6.4067204861e-01	 2.3710079320e+01
 1.0600249661e+00	 6.6245533520e-01	 2.1797884754e+01
 1.0462443890e+00	 6.8401219171e-01	 1.9749627204e+01
 9.4161995014e-01	 6.1561097256e-01	-1.3710035536e+02
 9.2879534623e-01	 6.3479461628e-01	-1.3563386922e+02
 9.1555429058e-01	 6.5374715376e-01	-1.3433198895e+02
 9.0190299231e-01	 6.7245519740e-01	-1.3321044718e+02
 8.8784822886e-01	 6.9090558151e-01	-1.3228431465e+02
 8.7339733604e-01	 7.0908539221e-01	-1.3156792993e+02
 8.5855819624e-01	 7.2698199683e-01	-1.3107483242e+02
 8.4333922472e-01	 7.4458307267e-01	-1.3081769911e+02
 8.2774935416e-01	 7.6187663485e-01	-1.3080828543e+02
 8.1179801747e-01	 7.7885106335e-01	-1.3105737094e+02
 7.9549512885e-01	 7.9549512885e-01	-1.3157470980e+02
 9.5208239402e-01	 6.2245109447e-01	-1.2085949239e+02
 9.3911529451e-01	 6.4184788979e-01	-1.1972736015e+02
 9.2572711602e-01	 6.6101101102e-01	-1.1872341149e+02
 9.1192413666e-01	 6.7992692181e-01	-1.1786261673e+02
 8.9771320917e-01	 6.9858231019e-01	-1.1715944143e+02
 8.8310175088e-01	 7.1696411878e-01	-1.1662778015e+02
 8.6809773175e-01	 7.3505957457e-01	-1.1628089269e+02
 8.5270966054e-01	 7.5285621791e-01	-1.1613134308e+02
 8.3694656920e-01	 7.7034193079e-01	-1.1619094205e+02
 8.2081799544e-01	 7.8750496405e-01	-1.1647069302e+02
 8.0433396361e-01	 8.0433396361e-01	-1.1698074233e+02
 9.6254483791e-01	 6.2929121639e-01	-1.0475297200e+02
 9.4943524280e-01	 6.4890116330e-01	-1.0394962822e+02
 9.3589994147e-01	 6.6827486828e-01	-1.0323906497e+02
 9.2194528102e-01	 6.8739864622e-01	-1.0263550436e+02
 9.0757818949e-01	 7.0625903887e-01	-1.0215281834e+02
 8.9280616572e-01	 7.2484284536e-01	-1.0180446647e+02
 8.7763726726e-01	 7.4313715231e-01	-1.0160343525e+02
 8.6208009637e-01	 7.6112936316e-01	-1.0156217948e+02
 8.4614378425e-01	 7.7880722673e-01	-1.0169256601e+02
 8.2983797340e-01	 7.9615886475e-01	-1.0200582039e+02
 8.1317279837e-01	 8.1317279837e-01	-1.0251247656e+02
 9.7300728180e-01	 6.3613133830e-01	-8.8776431710e+01
 9.5975519109e-01	 6.5595443681e-01	-8.8296489598e+01
 9.4607276692e-01	 6.7553872554e-01	-8.7874911321e+01
 9.3196642537e-01	 6.9487037063e-01	-8.7525184456e+01
 9.1744316981e-01	 7.1393576755e-01	-8.7260598565e+01
 9.0251058056e-01	 7.3272157193e-01	-8.7094186882e+01
 8.8717680277e-01	 7.5121473005e-01	-8.7038668755e+01
 8.7145053220e-01	 7.6940250841e-01	-8.7106393248e+01
 8.5534099929e-01	 7.8727252267e-01	-8.7309284287e+01
 8.3885795137e-01	 8.0481276545e-01	-8.7658787739e+01
 8.2201163313e-01	 8.2201163313e-01	-8.8165820784e+01
 9.8346972568e-01	 6.4297146021e-01	-7.2925695119e+01
 9.7007513938e-01	 6.6300771033e-01	-7.2763938910e+01
 9.5624559236e-01	 6.8280258280e-01	-7.2627084765e+01
 9.4198756973e-01	 7.0234209505e-01	-7.2527898943e+01
 9.2730815012e-01	 7.2161249623e-01	-7.2479099468e+01
 9.1221499541e-01	 7.4060029851e-01	-7.2493301672e+01
 8.9671633828e-01	 7.5929230779e-01	-7.2582963682e+01
 8.8082096802e-01	 7.7767565366e-01	-7.2760332240e+01
 8.6453821433e-01	 7.9573781861e-01	-7.3037389194e+01
 8.4787792934e-01	 8.1346666615e-01	-7.3425799058e+01
 8.3085046789e-01	 8.3085046789e-01	-7.3936857964e+01
 9.9393216957e-01	 6.4981158213e-01	-5.7196762081e+01
 9.8039508766e-01	 6.7006098384e-01	-5.7348139871e+01
 9.6641841781e-01	 6.9006644006e-01	-5.7491882743e+01
 9.5200871408e-01	 7.0981381946e-01	-5.7640048445e+01
 9.3717313044e-01	 7.2928922491e-01	-5.7804793969e+01
 9.2191941025e-01	 7.4847902509e-01	-5.7998324892e+01
 9.0625587379e-01	 7.6736988553e-01	-5.8232843867e+01
 8.9019140385e-01	 7.8594879891e-01	-5.8520498610e+01
 8.7373542937e-01	 8.0420311455e-01	-5.8873329729e+01
 8.5689790731e-01	 8.2212056685e-01	-5.9303218735e+01
 8.3968930266e-01	 8.3968930266e-01	-5.9821836586e+01
 1.0043946135e+00	 6.5665170405e-01	-4.1585799531e+01
 9.9071503595e-01	 6.7711425735e-01	-4.2045416461e+01
 9.7659124326e-01	 6.9733029732e-01	-4.2465757413e+01
 9.6202985844e-01	 7.1728554387e-01	-4.2858184023e+01
 9.4703811076e-01	 7.3696595359e-01	-4.3234302427e+01
 9.3162382509e-01	 7.5635775167e-01	-4.3605916338e+01
 9.1579540930e-01	 7.7544746327e-01	-4.3984978494e+01
 8.9956183968e-01	 7.9422194416e-01	-4.4383540785e+01
 8.8293264442e-01	 8.1266841049e-01	-4.4813703384e+01
 8.6591788528e-01	 8.3077446755e-01	-4.5287563200e+01
 8.4852813742e-01	 8.4852813742e-01	-4.5817162017e+01
 1.0148570573e+00	 6.6349182596e-01	-2.6089132871e+01
 1.0010349842e+00	 6.8416753086e-01	-2.6852244674e+01
 9.8676406871e-01	 7.0459415459e-01	-2.7545307676e+01
 9.7205100279e-01	 7.2475726829e-01	-2.8178999419e+01
 9.5690309108e-01	 7.4464268227e-01	-2.8764385039e+01
 9.4132823993e-01	 7.6423647825e-01	-2.9312874031e+01
 9.2533494481e-01	 7.8352504101e-01	-2.9836174605e+01
 9.0893227550e-01	 8.0249508941e-01	-3.0346245922e+01
 8.9212985946e-01	 8.2113370643e-01	-3.0855248494e+01
 8.7493786325e-01	 8.3942836826e-01	-3.1375493082e+01
 8.5736697218e-01	 8.5736697218e-01	-3.1919388412e+01
 1.0253195012e+00	 6.7033194788e-01	-1.0703237880e+01
 1.0113549325e+00	 6.9122080438e-01	-1.1765244750e+01
 9.9693689416e-01	 7.1185801185e-01	-1.2727271682e+01
 9.8207214715e-01	 7.3222899270e-01	-1.3599323769e+01
 9.6676807139e-01	 7.5231941096e-01	-1.4391934702e+01
 9.5103265477e-01	 7.7211520483e-01	-1.5116127166e+01
 9.3487448032e-01	 7.9160261875e-01	-1.5783370065e+01
 9.1830271133e-01	 8.1076823466e-01	-1.6405532824e+01
 9.0132707451e-01	 8.2959900237e-01	-1.6994837050e+01
 8.8395784122e-01	 8.4808226896e-01	-1.7563805850e+01
 8.6620580695e-01	 8.6620580695e-01	-1.8125211128e+01
 1.0357819451e+00	 6.7717206979e-01	 4.5752668795e+00
 1.0216748808e+00	 6.9827407789e-01	 3.2188261053e+00
 1.0071097196e+00	 7.1912186911e-01	 1.9914802015e+00
 9.9209329151e-01	 7.3970071712e-01	 8.8388523168e-01
 9.7663305171e-01	 7.5999613964e-01	-1.1397031192e-01
 9.6073706962e-01	 7.7999393141e-01	-1.0127294862e+00
 9.4441401583e-01	 7.9968019649e-01	-1.8236269463e+00
 9.2767314716e-01	 8.1904137991e-01	-2.5584452886e+00
 9.1052428955e-01	 8.3806429832e-01	-3.2294679419e+00
 8.9297781919e-01	 8.5673616966e-01	-3.8494288960e+00
 8.7504464171e-01	 8.7504464171e-01	-4.4314595832e+00
 1.0462443890e+00	 6.8401219171e-01	 1.9749627204e+01
 1.0319948291e+00	 7.0532735141e-01	 1.8103080576e+01
 1.0172825451e+00	 7.2638572638e-01	 1.6613952005e+01
 1.0021144359e+00	 7.4717244154e-01	 1.5273547763e+01
 9.8649803203e-01	 7.6767286833e-01	 1.4072369543e+01
 9.7044148446e-01	 7.8787265799e-01	 1.3000146953e+01
 9.5395355135e-01	 8.0775777424e-01	 1.2045874680e+01
 9.3704358299e-01	 8.2731452517e-01	 1.1197854142e+01
 9.1972150459e-01	 8.4652959426e-01	 1.0443739387e+01
 9.0199779716e-01	 8.6539007037e-01	 9.7705869606e+00
 8.8388347647e-01	 8.8388347647e-01	 9.1649094480e+00
 7.9549512885e-01	 7.9549512885e-01	-1.3157470980e+02
 7.7885106335e-01	 8.1179801747e-01	-1.3063150623e+02
 7.6187663485e-01	 8.2774935416e-01	-1.2895893036e+02
 7.4458307267e-01	 8.4333922472e-01	-1.2658798271e+02
 7.2698199683e-01	 8.5855819624e-01	-1.2355227045e+02
 7.0908539221e-01	 8.7339733604e-01	-1.1988785803e+02
 6.9090558151e-01	 8.8784822886e-01	-1.1563310529e+02
 6.7245519740e-01	 9.0190299231e-01	-1.1082849433e+02
 6.5374715376e-01	 9.1555429058e-01	-1.0551644625e+02
 6.3479461628e-01	 9.2879534623e-01	-9.9741129172e+01
 6.1561097256e-01	 9.4161995014e-01	-9.3548258868e+01
 8.0433396361e-01	 8.0433396361e-01	-1.1698074233e+02
 7.8750496405e-01	 8.2081799544e-01	-1.1621240117e+02
 7.7034193079e-01	 8.3694656920e-01	-1.1484138115e+02
 7.5285621791e-01	 8.5270966054e-01	-1.1289446692e+02
 7.3505957457e-01	 8.6809773175e-01	-1.1040062857e+02
 7.1696411878e-01	 8.8310175088e-01	-1.0739089293e+02
 6.9858231019e-01	 8.9771320917e-01	-1.0389820433e+02
 6.7992692181e-01	 9.1192413666e-01	-9.9957276035e+01
 6.6101101102e-01	 9.2572711602e-01	-9.5604433168e+01
 6.4184788979e-01	 9.3911529451e-01	-9.0877448385e+01
 6.2245109447e-01	 9.5208239402e-01	-8.5815371447e+01
 8.1317279837e-01	 8.1317279837e-01	-1.0251247656e+02
 7.9615886475e-01	 8.2983797340e-01	-1.0188596529e+02
 7.7880722673e-01	 8.4614378425e-01	-1.0078093465e+02
 7.6112936316e-01	 8.6208009637e-01	-9.9220024385e+01
 7.4313715231e-01	 8.7763726726e-01	-9.7227644619e+01
 7.2484284536e-01	 8.9280616572e-01	-9.4829867531e+01
 7.0625903887e-01	 9.0757818949e-01	-9.2054310552e+01
 6.8739864622e-01	 9.2194528102e-01	-8.8930011910e+01
 6.6827486828e-01	 9.3589994147e-01	-8.5487299409e+01
 6.4890116330e-01	 9.4943524280e-01	-8.1757653375e+01
 6.2929121639e-01	 9.6254483791e-01	-7.7773564760e+01
 8.2201163313e-01	 8.2201163313e-01	-8.8165820784e+01
 8.0481276545e-01	 8.3885795137e-01	-8.7649171706e+01
 7.8727252267e-01	 8.5534099929e-01	-8.6775710597e+01
 7.6940250841e-01	 8.7145053220e-01	-8.5564000910e+01
 7.5121473005e-01	 8.8717680277e-01	-8.4033967418e+01
 7.3272157193e-01	 9.0251058056e-01	-8.2206807994e+01
 7.1393576755e-01	 9.1744316981e-01	-8.0104898870e+01
 6.9487037063e-01	 9.3196642537e-01	-7.7751694023e+01
 6.7553872554e-01	 9.4607276692e-01	-7.5171619416e+01
 6.5595443681e-01	 9.5975519109e-01	-7.2389962854e+01
 6.3613133830e-01	 9.7300728180e-01	-6.9432760220e+01
 8.3085046789e-01	 8.3085046789e-01	-7.3936857964e+01
 8.1346666615e-01	 8.4787792934e-01	-7.3499122959e+01
 7.9573781861e-01	 8.6453821433e-01	-7.2823909355e+01
 7.7767565366e-01	 8.8082096802e-01	-7.1925770759e+01
 7.5929230779e-01	 8.9671633828e-01	-7.0820218829e+01
 7.4060029851e-01	 9.1221499541e-01	-6.9523654897e+01
 7.2161249623e-01	 9.2730815012e-01	-6.8053296976e+01
 7.0234209505e-01	 9.4198756973e-01	-6.6427102669e+01
 6.8280258280e-01	 9.5624559236e-01	-6.4663688534e+01
 6.6300771033e-01	 9.7007513938e-01	-6.2782246472e+01
 6.4297146021e-01	 9.8346972568e-01	-6.0802457727e+01
 8.3968930266e-01	 8.3968930266e-01	-5.9821836586e+01
 8.2212056685e-01	 8.5689790731e-01	-5.9433044173e+01
 8.0420311455e-01	 8.7373542937e-01	-5.8923807663e+01
 7.8594879891e-01	 8.9019140385e-01	-5.8304735154e+01
 7.6736988553e-01	 9.0625587379e-01	-5.7586995150e+01
 7.4847902509e-01	 9.2191941025e-01	-5.6782267744e+01
 7.2928922491e-01	 9.3717313044e-01	-5.5902693088e+01
 7.0981381946e-01	 9.5200871408e-01	-5.4960817517e+01
 6.9006644006e-01	 9.6641841781e-01	-5.3969537692e+01
 6.7006098384e-01	 9.8039508766e-01	-5.2942043181e+01
 6.4981158213e-01	 9.9393216957e-01	-5.1891757843e+01
 8.4852813742e-01	 8.4852813742e-01	-4.5817162017e+01
 8.3077446755e-01	 8.6591788528e-01	-4.5448276675e+01
 8.1266841049e-01	 8.8293264442e-01	-4.5073754653e+01
 7.9422194416e-01	 8.9956183968e-01	-4.4700320871e+01
 7.7544746327e-01	 9.1579540930e-01	-4.4334868447e+01
 7.5635775167e-01	 9.3162382509e-01	-4.3984429182e+01
 7.3696595359e-01	 9.4703811076e-01	-4.3656143215e+01
 7.1728554387e-01	 9.6202985844e-01	-4.3357228052e+01
 6.9733029732e-01	 9.7659124326e-01	-4.3094947176e+01
 6.7711425735e-01	 9.9071503595e-01	-4.2876578459e+01
 6.5665170405e-01	 1.0043946135e+00	-4.2709382593e+01
 8.5736697218e-01	 8.5736697218e-01	-3.1919388412e+01
 8.3942836826e-01	 8.7493786325e-01	-3.1542271997e+01
 8.2113370643e-01	 8.9212985946e-01	-3.1272168119e+01
 8.0249508941e-01	 9.0893227550e-01	-3.1111978921e+01
 7.8352504101e-01	 9.2533494481e-01	-3.1064387800e+01
 7.6423647825e-01	 9.4132823993e-01	-3.1131848959e+01
 7.4464268227e-01	 9.5690309108e-01	-3.1316577962e+01
 7.2475726829e-01	 9.7205100279e-01	-3.1620543378e+01
 7.0459415459e-01	 9.8676406871e-01	-3.2045459537e+01
 6.8416753086e-01	 1.0010349842e+00	-3.2592780459e+01
 6.6349182596e-01	 1.0148570573e+00	-3.3263694971e+01
 8.6620580695e-01	 8.6620580695e-01	-1.8125211128e+01
 8.4808226896e-01	 8.8395784122e-01	-1.7712586257e+01
 8.2959900237e-01	 9.0132707451e-01	-1.7517531011e+01
 8.1076823466e-01	 9.1830271133e-01	-1.7539183302e+01
 7.9160261875e-01	 9.3487448032e-01	-1.7776080469e+01
 7.7211520483e-01	 9.5103265477e-01	-1.8226167638e+01
 7.5231941096e-01	 9.6676807139e-01	-1.8886808927e+01
 7.3222899270e-01	 9.8207214715e-01	-1.9754801411e+01
 7.1185801185e-01	 9.9693689416e-01	-2.0826391725e+01
 6.9122080438e-01	 1.0113549325e+00	-2.2097295183e+01
 6.7033194788e-01	 1.0253195012e+00	-2.3562717252e+01
 8.7504464171e-01	 8.7504464171e-01	-4.4314595832e+00
 8.5673616966e-01	 8.9297781919e-01	-3.9568748673e+00
 8.3806429832e-01	 9.1052428955e-01	-3.8083881351e+00
 8.1904137991e-01	 9.2767314716e-01	-3.9814298419e+00
 7.9968019649e-01	 9.4441401583e-01	-4.4704529949e+00
 7.7999393141e-01	 9.6073706962e-01	-5.2689600906e+00
 7.5999613964e-01	 9.7663305171e-01	-6.3695347093e+00
 7.3970071712e-01	 9.9209329151e-01	-7.7638775272e+00
 7.1912186911e-01	 1.0071097196e+00	-9.4428464722e+00
 6.9827407789e-01	 1.0216748808e+00	-1.1396500720e+01
 6.7717206979e-01	 1.0357819451e+00	-1.3614148201e+01
 8.8388347647e-01	 8.8388347647e-01	 9.1649094480e+00
 8.6539007037e-01	 9.0199779716e-01	 9.7271124318e+00
 8.4652959426e-01	 9.1972150459e-01	 9.8566569368e+00
 8.2731452517e-01	 9.3704358299e-01	 9.5617648979e+00
 8.0775777424e-01	 9.5395355135e-01	 8.8520077670e+00
 7.8787265799e-01	 9.7044148446e-01	 7.7382612244e+00
 7.6767286833e-01	 9.8649803203e-01	 6.2326534469e+00
 7.4717244154e-01	 1.0021144359e+00	 4.3485073152e+00
 7.2638572638e-01	 1.0172825451e+00	 2.1002769938e+00
 7.0532735141e-01	 1.0319948291e+00	-4.9652064475e-01
 6.8401219171e-01	 1.0462443890e+00	-3.4253792409e+00
 6.1561097256e-01	 9.4161995014e-01	-9.3548258868e+01
 5.9620980170e-01	 9.5402246954e-01	-9.1716733618e+01
 5.7660484377e-01	 9.6599785412e-01	-9.1731663602e+01
 5.5680996903e-01	 9.7754164025e-01	-9.3514801013e+01
 5.3683914726e-01	 9.8864995322e-01	-9.6982961323e+01
 5.1670641719e-01	 9.9931950770e-01	-1.0204845004e+02
 4.9642585623e-01	 1.0095476063e+00	-1.0861950388e+02
 4.7601155058e-01	 1.0193321361e+00	-1.1660074310e+02
 4.5547756592e-01	 1.0286715642e+00	-1.2589363183e+02
 4.3483791872e-01	 1.0375649302e+00	-1.3639694327e+02
 4.1410654828e-01	 1.0460118387e+00	-1.4800722653e+02
 6.2245109447e-01	 9.5208239402e-01	-8.5815371447e+01
 6.0283435505e-01	 9.6462271920e-01	-8.4235112468e+01
 5.8301156425e-01	 9.7673116361e-01	-8.4313338330e+01
 5.6299674646e-01	 9.8840321402e-01	-8.5982505866e+01
 5.4280402667e-01	 9.9963495269e-01	-8.9170601715e+01
 5.2244759960e-01	 1.0104230578e+00	-9.3801514747e+01
 5.0194169907e-01	 1.0207648019e+00	-9.9795421868e+01
 4.8130056781e-01	 1.0306580488e+00	-1.0706918438e+02
 4.6053842777e-01	 1.0401012482e+00	-1.1553675209e+02
 4.3966945115e-01	 1.0490934295e+00	-1.2510957232e+02
 4.1870773215e-01	 1.0576341925e+00	-1.3569700113e+02
 6.2929121639e-01	 9.6254483791e-01	-7.7773564760e+01
 6.0945890840e-01	 9.7522296885e-01	-7.6528348745e+01
 5.8941828473e-01	 9.8746447310e-01	-7.6757462951e+01
 5.6918352389e-01	 9.9926478780e-01	-7.8403876593e+01
 5.4876890608e-01	 1.0106199522e+00	-8.1406548384e+01
 5.2818878201e-01	 1.0215266079e+00	-8.5700745418e+01
 5.0745754192e-01	 1.0319819975e+00	-9.1218374435e+01
 4.8658958503e-01	 1.0419839614e+00	-9.7888323010e+01
 4.6559928961e-01	 1.0515309323e+00	-1.0563680823e+02
 4.4450098358e-01	 1.0606219287e+00	-1.1438773043e+02
 4.2330891602e-01	 1.0692565462e+00	-1.2406302953e+02
 6.3613133830e-01	 9.7300728180e-01	-6.9432760220e+01
 6.1608346175e-01	 9.8582321851e-01	-6.8603660700e+01
 5.9582500522e-01	 9.9819778258e-01	-6.9068429457e+01
 5.7537030132e-01	 1.0101263616e+00	-7.0780362037e+01
 5.5473378549e-01	 1.0216049516e+00	-7.3689196555e+01
 5.3392996442e-01	 1.0326301579e+00	-7.7741379811e+01
 5.1297338476e-01	 1.0431991931e+00	-8.2880344799e+01
 4.9187860226e-01	 1.0533098740e+00	-8.9046797519e+01
 4.7066015145e-01	 1.0629606163e+00	-9.6179011031e+01
 4.4933251601e-01	 1.0721504279e+00	-1.0421312466e+02
 4.2791009988e-01	 1.0808789000e+00	-1.1308344630e+02
 6.4297146021e-01	 9.8346972568e-01	-6.0802457727e+01
 6.2270801510e-01	 9.9642346817e-01	-6.0467960096e+01
 6.0223172570e-01	 1.0089310921e+00	-6.1250443622e+01
 5.8155707875e-01	 1.0209879354e+00	-6.3113350065e+01
 5.6069866490e-01	 1.0325899511e+00	-6.6017010416e+01
 5.3967114683e-01	 1.0437337080e+00	-6.9918859002e+01
 5.1848922761e-01	 1.0544163887e+00	-7.4773657989e+01
 4.9716761948e-01	 1.0646357866e+00	-8.0533730589e+01
 4.7572101329e-01	 1.0743903004e+00	-8.7149201253e+01
 4.5416404844e-01	 1.0836789271e+00	-9.4568241138e+01
 4.3251128375e-01	 1.0925012538e+00	-1.0273731712e+02
 6.4981158213e-01	 9.9393216957e-01	-5.1891757843e+01
 6.2933256845e-01	 1.0070237178e+00	-5.2127868341e+01
 6.0863844618e-01	 1.0196644016e+00	-5.3307534802e+01
 5.8774385618e-01	 1.0318495091e+00	-5.5404170772e+01
 5.6666354432e-01	 1.0435749506e+00	-5.8388519487e+01
 5.4541232925e-01	 1.0548372581e+00	-6.2228816687e+01
 5.2400507045e-01	 1.0656335844e+00	-6.6890962851e+01
 5.0245663671e-01	 1.0759616992e+00	-7.2338703544e+01
 4.8078187513e-01	 1.0858199844e+00	-7.8533816498e+01
 4.5899558086e-01	 1.0952074264e+00	-8.5436304072e+01
 4.3711246762e-01	 1.1041236075e+00	-9.3004589710e+01
 6.5665170405e-01	 1.0043946135e+00	-4.2709382593e+01
 6.3595712180e-01	 1.0176239675e+00	-4.3589731602e+01
 6.1504516667e-01	 1.0303977110e+00	-4.5243565118e+01
 5.9393063361e-01	 1.0427110829e+00	-4.7654099489e+01
 5.7262842373e-01	 1.0545599501e+00	-5.0802315211e+01
 5.5115351166e-01	 1.0659408082e+00	-5.4667069140e+01
 5.2952091329e-01	 1.0768507800e+00	-5.9225215176e+01
 5.0774565394e-01	 1.0872876119e+00	-6.4451732469e+01
 4.8584273697e-01	 1.0972496685e+00	-7.0319860104e+01
 4.6382711329e-01	 1.1067359256e+00	-7.6801237289e+01
 4.4171365148e-01	 1.1157459613e+00	-8.3866047966e+01
 6.6349182596e-01	 1.0148570573e+00	-3.3263694971e+01
 6.4258167515e-01	 1.0282242171e+00	-3.4859634994e+01
 6.2145188715e-01	 1.0411310205e+00	-3.7062238068e+01
 6.0011741104e-01	 1.0535726567e+00	-3.9864359598e+01
 5.7859330314e-01	 1.0655449496e+00	-4.3257047760e+01
 5.5689469407e-01	 1.0770443583e+00	-4.7229605804e+01
 5.3503675614e-01	 1.0880679756e+00	-5.1769661880e+01
 5.1303467116e-01	 1.0986135245e+00	-5.6863245787e+01
 4.9090359881e-01	 1.1086793525e+00	-6.2494871982e+01
 4.6865864572e-01	 1.1182644248e+00	-6.8647628177e+01
 4.4631483535e-01	 1.1273683150e+00	-7.5303268799e+01
 6.7033194788e-01	 1.0253195012e+00	-2.3562717252e+01
 6.4920622850e-01	 1.0388244668e+00	-2.5943415889e+01
 6.2785860764e-01	 1.0518643300e+00	-2.8767106627e+01
 6.0630418848e-01	 1.0644342305e+00	-3.2036125184e+01
 5.8455818255e-01	 1.0765299490e+00	-3.5751423035e+01
 5.6263587648e-01	 1.0881479084e+00	-3.9912580450e+01
 5.4055259898e-01	 1.0992851712e+00	-4.4517826140e+01
 5.1832368839e-01	 1.1099394371e+00	-4.9564063225e+01
 4.9596446065e-01	 1.1201090366e+00	-5.5046901241e+01
 4.7349017814e-01	 1.1297929240e+00	-6.0960693822e+01
 4.5091601921e-01	 1.1389906688e+00	-6.7298581694e+01
 6.7717206979e-01	 1.0357819451e+00	-1.3614148201e+01
 6.5583078185e-01	 1.0494247165e+00	-1.6846676429e+01
 6.3426532812e-01	 1.0625976395e+00	-2.0361580834e+01
 6.1249096591e-01	 1.0752958043e+00	-2.4170523517e+01
 5.9052306196e-01	 1.0875149485e+00	-2.8284199845e+01
 5.6837705889e-01	 1.0992514584e+00	-3.2712302873e+01
 5.4606844183e-01	 1.1105023669e+00	-3.7463493445e+01
 5.2361270561e-01	 1.1212653497e+00	-4.2545376046e+01
 5.0102532249e-01	 1.1315387206e+00	-4.7964480462e+01
 4.7832171057e-01	 1.1413214233e+00	-5.3726249207e+01
 4.5551720308e-01	 1.1506130226e+00	-5.9835030694e+01
 6.8401219171e-01	 1.0462443890e+00	-3.4253792409e+00
 6.6245533520e-01	 1.0600249661e+00	-7.5747952836e+00
 6.4067204861e-01	 1.0733309490e+00	-1.1848934942e+01
 6.1867774334e-01	 1.0861573780e+00	-1.6268637390e+01
 5.9648794137e-01	 1.0984999480e+00	-2.0854187263e+01
 5.7411824130e-01	 1.1103550085e+00	-2.5625231090e+01
 5.5158428467e-01	 1.1217195625e+00	-3.0600698473e+01
 5.2890172284e-01	 1.1325912624e+00	-3.5798728468e+01
 5.0608618433e-01	 1.1429684046e+00	-4.1236601525e+01
 4.8315324299e-01	 1.1528499225e+00	-4.6930677309e+01
 4.6011838694e-01	 1.1622353763e+00	-5.2896338667e+01
 4.1410654828e-01	 1.0460118387e+00	-1.4800722653e+02
 3.9329728964e-01	 1.0540124487e+00	-1.2814311257e+02
 3.7242384749e-01	 1.0615674627e+00	-1.0661634913e+02
 3.5149977102e-01	 1.0686781139e+00	-8.3624323342e+01
 3.3053842995e-01	 1.0753461519e+00	-5.9364985893e+01
 3.0955299173e-01	 1.0815738280e+00	-3.4036060476e+01
 2.8855639991e-01	 1.0873638784e+00	-7.8342805092e+00
 2.6756135392e-01	 1.0927195074e+00	 1.9045343251e+01
 2.4658029005e-01	 1.0976443689e+00	 4.6410220868e+01
 2.2562536386e-01	 1.1021425476e+00	 7.4070844288e+01
 2.0470843396e-01	 1.1062185395e+00	 1.0184140882e+02
 4.1870773215e-01	 1.0576341925e+00	-1.3569700113e+02
 3.9766725953e-01	 1.0657236981e+00	-1.1707168008e+02
 3.7656189024e-01	 1.0733626567e+00	-9.7079168541e+01
 3.5540532403e-01	 1.0805523151e+00	-7.5889469688e+01
 3.3421107917e-01	 1.0872944425e+00	-5.3672943601e+01
 3.1299246941e-01	 1.0935913150e+00	-3.0599630847e+01
 2.9176258213e-01	 1.0994456993e+00	-6.8385998681e+00
 2.7053425785e-01	 1.1048608353e+00	 1.7442678692e+01
 2.4932007105e-01	 1.1098404175e+00	 4.2078927912e+01
 2.2813231235e-01	 1.1143885759e+00	 6.6907628328e+01
 2.0698297212e-01	 1.1185098566e+00	 9.1769547389e+01
 4.2330891602e-01	 1.0692565462e+00	-1.2406302953e+02
 4.0203722941e-01	 1.0774349476e+00	-1.0645441013e+02
 3.8069993299e-01	 1.0851578508e+00	-8.7768863468e+01
 3.5931087704e-01	 1.0924265164e+00	-6.8149478823e+01
 3.3788372839e-01	 1.0992427330e+00	-4.7739497365e+01
 3.1643194710e-01	 1.1056088019e+00	-2.6681748242e+01
 2.9496876435e-01	 1.1115275202e+00	-5.1181050884e+00
 2.7350716179e-01	 1.1170021632e+00	 1.6811034446e+01
 2.5205985205e-01	 1.1220364660e+00	 3.8967243821e+01
 2.3063926084e-01	 1.1266346042e+00	 6.1214535391e+01
 2.0925751027e-01	 1.1308011737e+00	 8.3419799130e+01
 4.2791009988e-01	 1.0808789000e+00	-1.1308344630e+02
 4.0640719929e-01	 1.0891461970e+00	-9.6276600798e+01
 3.8483797574e-01	 1.0969530448e+00	-7.8678063121e+01
 3.6321643005e-01	 1.1043007177e+00	-6.0404463529e+01
 3.4155637762e-01	 1.1111910236e+00	-4.1572380764e+01
 3.1987142478e-01	 1.1176262889e+00	-2.2297889055e+01
 2.9817494657e-01	 1.1236093411e+00	-2.6961222300e+00
 2.7648006572e-01	 1.1291434910e+00	 1.7119143001e+01
 2.5479963305e-01	 1.1342325145e+00	 3.7035882771e+01
 2.3314620932e-01	 1.1388806325e+00	 5.6944199212e+01
 2.1153204843e-01	 1.1430924908e+00	 7.6736669701e+01
 4.3251128375e-01	 1.0925012538e+00	-1.0273731712e+02
 4.1077716917e-01	 1.1008574464e+00	-8.6524176435e+01
 3.8897601848e-01	 1.1087482388e+00	-6.9799710990e+01
 3.6712198306e-01	 1.1161749189e+00	-5.2654532403e+01
 3.4522902683e-01	 1.1231393142e+00	-3.5178998894e+01
 3.2331090247e-01	 1.1296437759e+00	-1.7462871701e+01
 3.0138112879e-01	 1.1356911619e+00	 4.0501467000e-01
 2.7945296965e-01	 1.1412848189e+00	 1.8337066820e+01
 2.5753941405e-01	 1.1464285631e+00	 3.6247230133e+01
 2.3565315781e-01	 1.1511266608e+00	 5.4051268583e+01
 2.1380658658e-01	 1.1553838079e+00	 7.1667025720e+01
 4.3711246762e-01	 1.1041236075e+00	-9.3004589710e+01
 4.1514713906e-01	 1.1125686958e+00	-7.7183654663e+01
 3.9311406123e-01	 1.1205434329e+00	-6.1127048298e+01
 3.7102753607e-01	 1.1280491202e+00	-4.4899790075e+01
 3.4890167605e-01	 1.1350876048e+00	-2.8566445650e+01
 3.2675038015e-01	 1.1416612629e+00	-1.2190891242e+01
 3.0458731101e-01	 1.1477729828e+00	 4.1639113879e+00
 2.8242587358e-01	 1.1534261467e+00	 2.0436128342e+01
 2.6027919505e-01	 1.1586246116e+00	 3.6565254515e+01
 2.3816010630e-01	 1.1633726891e+00	 5.2492301303e+01
 2.1608112474e-01	 1.1676751250e+00	 6.8159970494e+01
 4.4171365148e-01	 1.1157459613e+00	-8.3866047966e+01
 4.1951710894e-01	 1.1242799453e+00	-6.8242115492e+01
 3.9725210398e-01	 1.1323386269e+00	-5.2653598493e+01
 3.7493308908e-01	 1.1399233214e+00	-3.7140337414e+01
 3.5257432527e-01	 1.1470358954e+00	-2.1741519932e+01
 3.3018985783e-01	 1.1536787499e+00	-6.4955518505e+00
 3.0779349323e-01	 1.1598548037e+00	 8.5600645673e+00
 2.8539877751e-01	 1.1655674746e+00	 2.3388844359e+01
 2.6301897605e-01	 1.1708206602e+00	 3.7955425306e+01
 2.4066705479e-01	 1.1756187174e+00	 5.2225664751e+01
 2.1835566290e-01	 1.1799664421e+00	 6.6166727534e+01
 4.4631483535e-01	 1.1273683150e+00	-7.5303268799e+01
 4.2388707882e-01	 1.1359911947e+00	-5.9687172321e+01
 4.0139014672e-01	 1.1441338209e+00	-4.4373152693e+01
 3.7883864208e-01	 1.1517975227e+00	-2.9376271717e+01
 3.5624697449e-01	 1.1589841859e+00	-1.4710740852e+01
 3.3362933551e-01	 1.1656962368e+00	-3.8989726877e-01
 3.1099967545e-01	 1.1719366245e+00	 1.3573815800e+01
 2.8837168144e-01	 1.1777088025e+00	 2.7168864455e+01
 2.6575875705e-01	 1.1830167087e+00	 4.0384635315e+01
 2.4317400327e-01	 1.1878647457e+00	 5.3211442610e+01
 2.2063020105e-01	 1.1922577592e+00	 6.5640531265e+01
 4.5091601921e-01	 1.1389906688e+00	-6.7298581694e+01
 4.2825704870e-01	 1.1477024441e+00	-5.1506944726e+01
 4.0552818947e-01	 1.1559290149e+00	-3.6279756033e+01
 3.8274419509e-01	 1.1636717240e+00	-2.1607686889e+01
 3.5991962371e-01	 1.1709324765e+00	-7.4803620023e+00
 3.3706881320e-01	 1.1777137238e+00	 6.1135606044e+00
 3.1420585767e-01	 1.1840184454e+00	 1.9186308521e+01
 2.9134458537e-01	 1.1898501303e+00	 3.1750913213e+01
 2.6849853805e-01	 1.1952127573e+00	 4.3821128153e+01
 2.4568095176e-01	 1.2001107741e+00	 5.5411347304e+01
 2.2290473921e-01	 1.2045490763e+00	 6.6536524430e+01
 4.5551720308e-01	 1.1506130226e+00	-5.9835030694e+01
 4.3262701858e-01	 1.1594136936e+00	-4.3690032889e+01
 4.0966623221e-01	 1.1677242090e+00	-2.8367694827e+01
 3.8664974809e-01	 1.1755459252e+00	-1.3834673611e+01
 3.6359227292e-01	 1.1828807671e+00	-5.6384865780e-02
 3.4050829088e-01	 1.1897312108e+00	 1.3002814853e+01
 3.1741203988e-01	 1.1961002663e+00	 2.5379447509e+01
 2.9431748930e-01	 1.2019914582e+00	 3.7110735925e+01
 2.7123831905e-01	 1.2074088058e+00	 4.8234430010e+01
 2.4818790024e-01	 1.2123568024e+00	 5.8788637737e+01
 2.2517927736e-01	 1.2168403934e+00	 6.8811661712e+01
 4.6011838694e-01	 1.1622353763e+00	-5.2896338667e+01
 4.3699698846e-01	 1.1711249430e+00	-3.6225493563e+01
 4.1380427495e-01	 1.1795194030e+00	-2.0631484508e+01
 3.9055530110e-01	 1.1874201265e+00	-6.0573195001e+00
 3.6726492214e-01	 1.1948290577e+00	 7.5554285834e+00
 3.4394776856e-01	 1.2017486978e+00	 2.0266338299e+01
 3.2061822210e-01	 1.2081820871e+00	 3.2135860826e+01
 2.9729039323e-01	 1.2141327860e+00	 4.3225047557e+01
 2.7397810005e-01	 1.2196048543e+00	 5.3595285531e+01
 2.5069484873e-01	 1.2246028307e+00	 6.3308041976e+01
 2.2745381552e-01	 1.2291317105e+00	 7.2424619139e+01
 2.0470843396e-01	 1.1062185395e+00	 1.0184140882e+02
 1.8384104718e-01	 1.1098772317e+00	 8.9310340918e+01
 1.6303442514e-01	 1.1131238818e+00	 7.3245602700e+01
 1.4229945221e-01	 1.1159640971e+00	 5.3847314133e+01
 1.2164666491e-01	 1.1184038130e+00	 3.1319463893e+01
 1.0108624261e-01	 1.1204492722e+00	 5.8690061215e+00
 8.0627999683e-02	 1.1221070028e+00	-2.2295015449e+01
 6.0281378857e-02	 1.1233837970e+00	-5.2962312321e+01
 4.0055445982e-02	 1.1242866900e+00	-8.5922161762e+01
 1.9958885975e-02	 1.1248229385e+00	-1.2096418025e+02
 0.0000000000e+00	 1.1250000000e+00	-1.5787905744e+02
 2.0698297212e-01	 1.1185098566e+00	 9.1769547389e+01
 1.8588372548e-01	 1.1222092009e+00	 7.9354627727e+01
 1.6484591875e-01	 1.1254919249e+00	 6.3951126025e+01
 1.4388055723e-01	 1.1283636981e+00	 4.5738585432e+01
 1.2299829452e-01	 1.1308305220e+00	 2.4899510570e+01
 1.0220942309e-01	 1.1328987086e+00	 1.6185785474e+00
 8.1523866346e-02	 1.1345748584e+00	-2.3918124244e+01
 6.0951171955e-02	 1.1358658392e+00	-5.1523836435e+01
 4.0500506492e-02	 1.1367787643e+00	-8.1011824364e+01
 2.0180651374e-02	 1.1373209711e+00	-1.1219605081e+02
 0.0000000000e+00	 1.1375000000e+00	-1.4489180783e+02
 2.0925751027e-01	 1.1308011737e+00	 8.3419799130e+01
 1.8792640379e-01	 1.1345411702e+00	 7.1009647762e+01
 1.6665741236e-01	 1.1378599681e+00	 5.6145780848e+01
 1.4546166226e-01	 1.1407632992e+00	 3.8987546819e+01
 1.2434992413e-01	 1.1432572311e+00	 1.9696359620e+01
 1.0333260356e-01	 1.1453481449e+00	-1.5649776566e+00
 8.2419733010e-02	 1.1470427139e+00	-2.4632924907e+01
 6.1620965054e-02	 1.1483478814e+00	-4.9343830371e+01
 4.0945567004e-02	 1.1492708386e+00	-7.5534526989e+01
 2.0402416774e-02	 1.1498190038e+00	-1.0304289791e+02
 0.0000000000e+00	 1.1500000000e+00	-1.3170840961e+02
 2.1153204843e-01	 1.1430924908e+00	 7.6736669701e+01
 1.8996908209e-01	 1.1468731394e+00	 6.4223500210e+01
 1.6846890598e-01	 1.1502280112e+00	 4.9781589598e+01
 1.4704276728e-01	 1.1531629003e+00	 3.3550461350e+01
 1.2570155374e-01	 1.1556839401e+00	 1.5670819421e+01
 1.0445578404e-01	 1.1577975813e+00	-3.7160170969e+00
 8.3315599674e-02	 1.1595105695e+00	-2.4468656601e+01
 6.2290758153e-02	 1.1608299236e+00	-4.6446152886e+01
 4.1390627515e-02	 1.1617629130e+00	-6.9508496661e+01
 2.0624182174e-02	 1.1623170364e+00	-9.3517079251e+01
 0.0000000000e+00	 1.1625000000e+00	-1.1833512737e+02
 2.1380658658e-01	 1.1553838079e+00	 7.1667025720e+01
 1.9201176039e-01	 1.1592051086e+00	 5.8946492317e+01
 1.7028039959e-01	 1.1625960543e+00	 4.4812615832e+01
 1.4862387231e-01	 1.1655625014e+00	 2.9385452779e+01
 1.2705318335e-01	 1.1681106491e+00	 1.2785365655e+01
 1.0557896451e-01	 1.1702470176e+00	-4.8674328869e+00
 8.4211466338e-02	 1.1719784251e+00	-2.3453314648e+01
 6.2960551253e-02	 1.1733119658e+00	-4.2853647828e+01
 4.1835688027e-02	 1.1742549873e+00	-6.2951185116e+01
 2.0845947575e-02	 1.1748150691e+00	-8.3630426978e+01
 0.0000000000e+00	 1.1750000000e+00	-1.0477795942e+02
 2.1608112474e-01	 1.1676751250e+00	 6.8159970494e+01
 1.9405443870e-01	 1.1715370779e+00	 5.5131023170e+01
 1.7209189320e-01	 1.1749640975e+00	 4.1194856811e+01
 1.5020497734e-01	 1.1779621024e+00	 2.6452407628e+01
 1.2840481296e-01	 1.1805373582e+00	 1.1004053551e+01
 1.0670214499e-01	 1.1826964540e+00	-5.0507335670e+00
 8.5107333003e-02	 1.1844462807e+00	-2.1613716001e+01
 6.3630344353e-02	 1.1857940079e+00	-3.8588197555e+01
 4.2280748539e-02	 1.1867470616e+00	-5.5879309616e+01
 2.1067712975e-02	 1.1873131017e+00	-7.3394275356e+01
 0.0000000000e+00	 1.1875000000e+00	-9.1042651776e+01
 2.1835566290e-01	 1.1799664421e+00	 6.6166727534e+01
 1.9609711700e-01	 1.1838690471e+00	 5.2731474752e+01
 1.7390338682e-01	 1.1873321406e+00	 3.8886142789e+01
 1.5178608236e-01	 1.1903617035e+00	 2.4712883378e+01
 1.2975644257e-01	 1.1929640672e+00	 1.0292435621e+01
 1.0782532546e-01	 1.1951458903e+00	-4.2961152164e+00
 8.6003199669e-02	 1.1969141363e+00	-1.8975560611e+01
 6.4300137453e-02	 1.1982760501e+00	-3.3670773011e+01
 4.2725809052e-02	 1.1992391360e+00	-4.8308891195e+01
 2.1289478376e-02	 1.1998111344e+00	-6.2819486689e+01
 0.0000000000e+00	 1.2000000000e+00	-7.7134711333e+01
 2.2063020105e-01	 1.1922577592e+00	 6.5640531265e+01
 1.9813979530e-01	 1.1962010164e+00	 5.1704109734e+01
 1.7571488043e-01	 1.1997001837e+00	 3.7846042525e+01
 1.5336718739e-01	 1.2027613046e+00	 2.4130022335e+01
 1.3110807219e-01	 1.2053907762e+00	 1.0617484481e+01
 1.0894850594e-01	 1.2075953267e+00	-2.6325291058e+00
 8.6899066335e-02	 1.2093819919e+00	-1.5563489005e+01
 6.4969930554e-02	 1.2107580923e+00	-2.8121480704e+01
 4.3170869564e-02	 1.2117312103e+00	-4.0255290551e+01
 2.1511243776e-02	 1.2123091670e+00	-5.1916475652e+01
 0.0000000000e+00	 1.2125000000e+00	-6.3059418167e+01
 2.2290473921e-01	 1.2045490763e+00	 6.6536524430e+01
 2.0018247361e-01	 1.2085329856e+00	 5.2006975519e+01
 1.7752637405e-01	 1.2120682269e+00	 3.8035774589e+01
 1.5494829242e-01	 1.2151609057e+00	 2.4668470777e+01
 1.3245970180e-01	 1.2178174853e+00	 1.1947520399e+01
 1.1007168642e-01	 1.2200447631e+00	-8.7745206267e-02
 8.7794933001e-02	 1.2218498475e+00	-1.1401136342e+01
 6.5639723655e-02	 1.2232401345e+00	-2.1959606812e+01
 4.3615930078e-02	 1.2242232846e+00	-3.1733241735e+01
 2.1733009177e-02	 1.2248071996e+00	-4.0695232128e+01
 0.0000000000e+00	 1.2250000000e+00	-4.8821837116e+01
 2.2517927736e-01	 1.2168403934e+00	 6.8811661712e+01
 2.0222515191e-01	 1.2208649548e+00	 5.3599814108e+01
 1.7933786766e-01	 1.2244362700e+00	 3.9418124039e+01
 1.5652939745e-01	 1.2275605068e+00	 2.6294302994e+01
 1.3381133141e-01	 1.2302441943e+00	 1.4252143229e+01
 1.1119486689e-01	 1.2324941994e+00	 3.3115881495e+00
 8.8690799668e-02	 1.2343177030e+00	-6.5111831807e+00
 6.6309516757e-02	 1.2357221767e+00	-1.5203658611e+01
 4.4060990591e-02	 1.2367153590e+00	-2.2756883800e+01
 2.1954774578e-02	 1.2373052323e+00	-2.9165342666e+01
 0.0000000000e+00	 1.2375000000e+00	-3.4426828649e+01
 2.2745381552e-01	 1.2291317105e+00	 7.2424619139e+01
 2.0426783021e-01	 1.2331969241e+00	 5.6443977371e+01
 1.8114936128e-01	 1.2368043131e+00	 4.1957364096e+01
 1.5811050247e-01	 1.2399601078e+00	 2.8974949891e+01
 1.3516296103e-01	 1.2426709033e+00	 1.7502168438e+01
 1.1231804737e-01	 1.2449436358e+00	 7.5398881860e+00
 8.9586666336e-02	 1.2467855586e+00	-9.1540321564e-01
 6.6979309859e-02	 1.2482042189e+00	-7.8714034217e+00
 4.4506051105e-02	 1.2492074333e+00	-1.3339790548e+01
 2.2176539980e-02	 1.2498032649e+00	-1.7336010642e+01
 0.0000000000e+00	 1.2500000000e+00	-1.9879059088e+01
 1.2500000000e+00	 0.0000000000e+00	 8.5443147415e+01
 1.2498032649e+00	 2.2176539980e-02	 8.9783620204e+01
 1.2492074333e+00	 4.4506051105e-02	 9.2586599283e+01
 1.2482042189e+00	 6.6979309859e-02	 9.3764783760e+01
 1.2467855586e+00	 8.9586666336e-02	 9.3232202592e+01
 1.2449436358e+00	 1.1231804737e-01	 9.0904593077e+01
 1.2426709033e+00	 1.3516296103e-01	 8.6699791378e+01
 1.2399601078e+00	 1.5811050247e-01	 8.0538133439e+01
 1.2368043131e+00	 1.8114936128e-01	 7.2342864498e+01
 1.2331969241e+00	 2.0426783021e-01	 6.2040555175e+01
 1.2291317105e+00	 2.2745381552e-01	 4.9561521981e+01
 1.2625000000e+00	 0.0000000000e+00	 8.4210585011e+01
 1.2623012976e+00	 2.2398305381e-02	 8.7241163827e+01
 1.2616995076e+00	 4.4951111618e-02	 8.8862473886e+01
 1.2606862611e+00	 6.7649102962e-02	 8.8996475011e+01
 1.2592534142e+00	 9.0482533003e-02	 8.7566381691e+01
 1.2573930721e+00	 1.1344122785e-01	 8.4497004018e+01
 1.2550976124e+00	 1.3651459064e-01	 7.9715099235e+01
 1.2523597089e+00	 1.5969160750e-01	 7.3149732394e+01
 1.2491723562e+00	 1.8296085490e-01	 6.4732644509e+01
 1.2455288933e+00	 2.0631050852e-01	 5.4398626368e+01
 1.2414230276e+00	 2.2972835367e-01	 4.2085896062e+01
 1.2750000000e+00	 0.0000000000e+00	 8.2627984217e+01
 1.2747993302e+00	 2.2620070782e-02	 8.4415140684e+01
 1.2741915820e+00	 4.5396172132e-02	 8.4918914762e+01
 1.2731683033e+00	 6.8318896063e-02	 8.4070378444e+01
 1.2717212698e+00	 9.1378399670e-02	 8.1801783768e+01
 1.2698425085e+00	 1.1456440833e-01	 7.8046866692e+01
 1.2675243214e+00	 1.3786622026e-01	 7.2741160160e+01
 1.2647593100e+00	 1.6127271253e-01	 6.5822315038e+01
 1.2615403994e+00	 1.8477234851e-01	 5.7230427437e+01
 1.2578608626e+00	 2.0835318682e-01	 4.6908370815e+01
 1.2537143447e+00	 2.3200289183e-01	 3.4802131076e+01
 1.2875000000e+00	 0.0000000000e+00	 8.0705524865e+01
 1.2872973629e+00	 2.2841836183e-02	 8.1313796402e+01
 1.2866836563e+00	 4.5841232645e-02	 8.0762301415e+01
 1.2856503455e+00	 6.8988689165e-02	 7.8991079846e+01
 1.2841891254e+00	 9.2274266337e-02	 7.5941277612e+01
 1.2822919448e+00	 1.1568758880e-01	 7.1555413878e+01
 1.2799510304e+00	 1.3921784987e-01	 6.5777656149e+01
 1.2771589111e+00	 1.6285381756e-01	 5.8554101979e+01
 1.2739084425e+00	 1.8658384213e-01	 4.9833066000e+01
 1.2701928318e+00	 2.1039586513e-01	 3.9565370836e+01
 1.2660056618e+00	 2.3427742998e-01	 2.7704640337e+01
 1.3000000000e+00	 0.0000000000e+00	 7.8452995344e+01
 1.2997953955e+00	 2.3063601584e-02	 7.7945059551e+01
 1.2991757306e+00	 4.6286293158e-02	 7.6398768057e+01
 1.2981323876e+00	 6.9658482265e-02	 7.3762988695e+01
 1.2966569810e+00	 9.3170133003e-02	 6.9987621726e+01
 1.2947413812e+00	 1.1681076928e-01	 6.5023830985e+01
 1.2923777395e+00	 1.4056947948e-01	 5.8824281460e+01
 1.2895585121e+00	 1.6443492259e-01	 5.1343382283e+01
 1.2862764856e+00	 1.8839533574e-01	 4.2537533967e+01
 1.2825248010e+00	 2.1243854343e-01	 3.2365378652e+01
 1.2782969789e+00	 2.3655196814e-01	 2.0788052008e+01
 1.3125000000e+00	 0.0000000000e+00	 7.5879811247e+01
 1.3122934282e+00	 2.3285366984e-02	 7.4316556743e+01
 1.3116678050e+00	 4.6731353670e-02	 7.1834215291e+01
 1.3106144298e+00	 7.0328275366e-02	 6.8390346551e+01
 1.3091248366e+00	 9.4065999669e-02	 6.3943469583e+01
 1.3071908176e+00	 1.1793394976e-01	 5.8453258302e+01
 1.3048044485e+00	 1.4192110910e-01	 5.1880742027e+01
 1.3019581132e+00	 1.6601602761e-01	 4.4188510213e+01
 1.2986445288e+00	 1.9020682936e-01	 3.5340920398e+01
 1.2948567703e+00	 2.1448122173e-01	 2.5304308295e+01
 1.2905882961e+00	 2.3882650630e-01	 1.4047198869e+01
 1.3250000000e+00	 0.0000000000e+00	 7.2995032947e+01
 1.3247914608e+00	 2.3507132385e-02	 7.0435626875e+01
 1.3241598793e+00	 4.7176414182e-02	 6.7074321127e+01
 1.3230964720e+00	 7.0998068466e-02	 6.2877234977e+01
 1.3215926922e+00	 9.4961866334e-02	 5.7811374572e+01
 1.3196402539e+00	 1.1905713023e-01	 5.1844793133e+01
 1.3172311575e+00	 1.4327273871e-01	 4.4946754912e+01
 1.3143577143e+00	 1.6759713264e-01	 3.7087902148e+01
 1.3110125719e+00	 1.9201832297e-01	 2.8240424201e+01
 1.3071887395e+00	 2.1652390004e-01	 1.8378227972e+01
 1.3028796132e+00	 2.4110104445e-01	 7.4771086655e+00
 1.3375000000e+00	 0.0000000000e+00	 6.9807382203e+01
 1.3372894935e+00	 2.3728897785e-02	 6.6309334574e+01
 1.3366519536e+00	 4.7621474694e-02	 6.2124551385e+01
 1.3355785142e+00	 7.1667861566e-02	 5.7227583018e+01
 1.3340605477e+00	 9.5857732998e-02	 5.1593794685e+01
 1.3320896903e+00	 1.2018031071e-01	 4.5199491798e+01
 1.3296578666e+00	 1.4462436832e-01	 3.8022047780e+01
 1.3267573154e+00	 1.6917823767e-01	 3.0040033688e+01
 1.3233806150e+00	 1.9382981658e-01	 2.1233349004e+01
 1.3195207088e+00	 2.1856657834e-01	 1.1583352866e+01
 1.3151709303e+00	 2.4337558261e-01	 1.0729949979e+00
 1.3500000000e+00	 0.0000000000e+00	 6.6325257836e+01
 1.3497875261e+00	 2.3950663185e-02	 6.1944482893e+01
 1.3491440280e+00	 4.8066535206e-02	 5.6990169518e+01
 1.3480605564e+00	 7.2337654665e-02	 5.1445174259e+01
 1.3465284033e+00	 9.6753599662e-02	 4.5293096925e+01
 1.3445391266e+00	 1.2130349118e-01	 3.8518371536e+01
 1.3420845756e+00	 1.4597599793e-01	 3.1106358413e+01
 1.3391569165e+00	 1.7075934269e-01	 2.3043436907e+01
 1.3357486581e+00	 1.9564131020e-01	 1.4317098303e+01
 1.3318526780e+00	 2.2060925664e-01	 4.9160383277e+00
 1.3274622474e+00	 2.4565012076e-01	-5.1697512827e+00
 1.3625000000e+00	 0.0000000000e+00	 6.2556750538e+01
 1.3622855588e+00	 2.4172428585e-02	 5.7347625312e+01
 1.3616361023e+00	 4.8511595717e-02	 5.1676245896e+01
 1.3605425986e+00	 7.3007447764e-02	 4.5533653499e+01
 1.3589962589e+00	 9.7649466326e-02	 3.8911561483e+01
 1.3569885630e+00	 1.2242667166e-01	 3.1802412296e+01
 1.3545112846e+00	 1.4732762754e-01	 2.4199434242e+01
 1.3515565175e+00	 1.7234044772e-01	 1.6096697762e+01
 1.3481167013e+00	 1.9745280381e-01	 7.4891708806e+00
 1.3441846472e+00	 2.2265193494e-01	-1.6272265551e+00
 1.3397535645e+00	 2.4792465892e-01	-1.1255570206e+01
 1.3750000000e+00	 0.0000000000e+00	 5.8509656882e+01
 1.3747835914e+00	 2.4394193985e-02	 5.2525077082e+01
 1.3741281766e+00	 4.8956656228e-02	 4.6187666581e+01
 1.3730246408e+00	 7.3677240862e-02	 3.9496533058e+01
 1.3714641145e+00	 9.8545332989e-02	 3.2451385686e+01
 1.3694379993e+00	 1.2354985213e-01	 2.5052558430e+01
 1.3669379937e+00	 1.4867925715e-01	 1.7301031912e+01
 1.3639561186e+00	 1.7392155274e-01	 9.1984536486e+00
 1.3604847444e+00	 1.9926429742e-01	 7.4715647749e-01
 1.3565166165e+00	 2.2469461325e-01	-8.0498250332e+00
 1.3520448816e+00	 2.5019919707e-01	-1.7188740368e+01
 1.2291317105e+00	 2.2745381552e-01	 4.9561521981e+01
 1.2246028307e+00	 2.5069484873e-01	 4.5228504998e+01
 1.2196048543e+00	 2.7397810005e-01	 4.1432498117e+01
 1.2141327860e+00	 2.9729039323e-01	 3.8204721296e+01
 1.2081820871e+00	 3.2061822210e-01	 3.5575293049e+01
 1.2017486978e+00	 3.4394776856e-01	 3.3573069988e+01
 1.1948290577e+00	 3.6726492214e-01	 3.2225486246e+01
 1.1874201265e+00	 3.9055530110e-01	 3.1558393847e+01
 1.1795194030e+00	 4.1380427495e-01	 3.1595905066e+01
 1.1711249430e+00	 4.3699698846e-01	 3.2360237883e+01
 1.1622353763e+00	 4.6011838694e-01	 3.3871565683e+01
 1.2414230276e+00	 2.2972835367e-01	 4.2085896062e+01
 1.2368488590e+00	 2.5320179722e-01	 3.8447488001e+01
 1.2318009029e+00	 2.7671788104e-01	 3.5276834743e+01
 1.2262741139e+00	 3.0026329716e-01	 3.2600914938e+01
 1.2202639080e+00	 3.2382440432e-01	 3.0445741799e+01
 1.2137661847e+00	 3.4738724624e-01	 2.8836223778e+01
 1.2067773482e+00	 3.7093757136e-01	 2.7796025190e+01
 1.1992943278e+00	 3.9446085410e-01	 2.7347427686e+01
 1.1913145970e+00	 4.1794231770e-01	 2.7511193498e+01
 1.1828361924e+00	 4.4136695834e-01	 2.8306431423e+01
 1.1738577301e+00	 4.6471957081e-01	 2.9750466522e+01
 1.2537143447e+00	 2.3200289183e-01	 3.4802131076e+01
 1.2490948873e+00	 2.5570874570e-01	 3.1831312480e+01
 1.2439969514e+00	 2.7945766204e-01	 2.9260418691e+01
 1.2384154418e+00	 3.0323620109e-01	 2.7112254724e+01
 1.2323457289e+00	 3.2703058654e-01	 2.5408794396e+01
 1.2257836717e+00	 3.5082672392e-01	 2.4171061855e+01
 1.2187256388e+00	 3.7461022057e-01	 2.3419013126e+01
 1.2111685290e+00	 3.9836640711e-01	 2.3171418406e+01
 1.2031097911e+00	 4.2208036044e-01	 2.3445745930e+01
 1.1945474419e+00	 4.4573692822e-01	 2.4258048195e+01
 1.1854800839e+00	 4.6932075467e-01	 2.5622851406e+01
 1.2660056618e+00	 2.3427742998e-01	 2.7704640337e+01
 1.2613409156e+00	 2.5821569419e-01	 2.5375180188e+01
 1.2561930000e+00	 2.8219744304e-01	 2.3379198589e+01
 1.2505567696e+00	 3.0620910502e-01	 2.1735392629e+01
 1.2444275498e+00	 3.3023676875e-01	 2.0461760708e+01
 1.2378011587e+00	 3.5426620160e-01	 1.9575504671e+01
 1.2306739294e+00	 3.7828286979e-01	 1.9092931984e+01
 1.2230427303e+00	 4.0227196012e-01	 1.9029358601e+01
 1.2149049851e+00	 4.2621840319e-01	 1.9399013163e+01
 1.2062586913e+00	 4.5010689810e-01	 2.0214943216e+01
 1.1971024376e+00	 4.7392193854e-01	 2.1488924138e+01
 1.2782969789e+00	 2.3655196814e-01	 2.0788052008e+01
 1.2735869439e+00	 2.6072264268e-01	 1.9074477386e+01
 1.2683890485e+00	 2.8493722404e-01	 1.7629278836e+01
 1.2626980975e+00	 3.0918200895e-01	 1.6467109328e+01
 1.2565093706e+00	 3.3344295097e-01	 1.5602053987e+01
 1.2498186457e+00	 3.5770567928e-01	 1.5047552558e+01
 1.2426222199e+00	 3.8195551901e-01	 1.4816321964e+01
 1.2349169316e+00	 4.0617751313e-01	 1.4920279469e+01
 1.2267001791e+00	 4.3035644594e-01	 1.5370466963e+01
 1.2179699407e+00	 4.5447686798e-01	 1.6176976908e+01
 1.2087247914e+00	 4.7852312241e-01	 1.7348880494e+01
 1.2905882961e+00	 2.3882650630e-01	 1.4047198869e+01
 1.2858329722e+00	 2.6322959116e-01	 1.2924766058e+01
 1.2805850970e+00	 2.8767700504e-01	 1.2006912179e+01
 1.2748394253e+00	 3.1215491288e-01	 1.1304308069e+01
 1.2685911915e+00	 3.3664913319e-01	 1.0827185940e+01
 1.2618361326e+00	 3.6114515697e-01	 1.0585281925e+01
 1.2545705105e+00	 3.8562816823e-01	 1.0587778758e+01
 1.2467911328e+00	 4.1008306613e-01	 1.0843248984e+01
 1.2384953731e+00	 4.3449448868e-01	 1.1359599072e+01
 1.2296811901e+00	 4.5884683786e-01	 1.2144014840e+01
 1.2203471452e+00	 4.8312430627e-01	 1.3202908604e+01
 1.3028796132e+00	 2.4110104445e-01	 7.4771086655e+00
 1.2980790005e+00	 2.6573653965e-01	 6.9217756210e+00
 1.2927811456e+00	 2.9041678604e-01	 6.5084927182e+00
 1.2869807532e+00	 3.1512781681e-01	 6.2440088891e+00
 1.2806730124e+00	 3.3985531541e-01	 6.1347620892e+00
 1.2738536196e+00	 3.6458463465e-01	 6.1868416687e+00
 1.2665188011e+00	 3.8930081745e-01	 6.4059509354e+00
 1.2586653341e+00	 4.1398861914e-01	 6.7973701563e+00
 1.2502905672e+00	 4.3863253143e-01	 7.3659202578e+00
 1.2413924396e+00	 4.6321680775e-01	 8.1159274886e+00
 1.2319694989e+00	 4.8772549014e-01	 9.0511893177e+00
 1.3151709303e+00	 2.4337558261e-01	 1.0729949979e+00
 1.3103250288e+00	 2.6824348814e-01	 1.0613951039e+00
 1.3049771941e+00	 2.9315656704e-01	 1.1305493005e+00
 1.2991220810e+00	 3.1810072074e-01	 1.2833431583e+00
 1.2927548332e+00	 3.4306149763e-01	 1.5224773844e+00
 1.2858711066e+00	 3.6802411234e-01	 1.8504497863e+00
 1.2784670917e+00	 3.9297346667e-01	 2.2695374697e+00
 1.2705395353e+00	 4.1789417216e-01	 2.7817793966e+00
 1.2620857612e+00	 4.4277057418e-01	 3.3889594314e+00
 1.2531036890e+00	 4.6758677763e-01	 4.0925900064e+00
 1.2435918527e+00	 4.9232667401e-01	 4.8938965403e+00
 1.3274622474e+00	 2.4565012076e-01	-5.1697512827e+00
 1.3225710571e+00	 2.7075043663e-01	-4.6603342457e+00
 1.3171732427e+00	 2.9589634804e-01	-4.1302607181e+00
 1.3112634089e+00	 3.2107362467e-01	-3.5804515757e+00
 1.3048366541e+00	 3.4626767985e-01	-3.0118879334e+00
 1.2978885936e+00	 3.7146359002e-01	-2.4256098229e+00
 1.2904153822e+00	 3.9664611589e-01	-1.8227145929e+00
 1.2824137366e+00	 4.2179972517e-01	-1.2043550295e+00
 1.2738809552e+00	 4.4690861693e-01	-5.7173719568e-01
 1.2648149384e+00	 4.7195674752e-01	 7.3882007879e-02
 1.2552142064e+00	 4.9692785789e-01	 7.3119755785e-01
 1.3397535645e+00	 2.4792465892e-01	-1.1255570206e+01
 1.3348170854e+00	 2.7325738511e-01	-1.0247225942e+01
 1.3293692912e+00	 2.9863612904e-01	-9.2771573676e+00
 1.3234047368e+00	 3.2404652861e-01	-8.3500364572e+00
 1.3169184750e+00	 3.4947386207e-01	-7.4704722466e+00
 1.3099060805e+00	 3.7490306771e-01	-6.6429903807e+00
 1.3023636728e+00	 4.0031876511e-01	-5.8720123393e+00
 1.2942879379e+00	 4.2570527818e-01	-5.1618344629e+00
 1.2856761493e+00	 4.5104665968e-01	-4.5166069036e+00
 1.2765261879e+00	 4.7632671740e-01	-3.9403126355e+00
 1.2668365602e+00	 5.0152904176e-01	-3.4367466599e+00
 1.3520448816e+00	 2.5019919707e-01	-1.7188740368e+01
 1.3470631137e+00	 2.7576433360e-01	-1.5702954863e+01
 1.3415653398e+00	 3.0137591004e-01	-1.4313243638e+01
 1.3355460646e+00	 3.2701943254e-01	-1.3027975928e+01
 1.3290002958e+00	 3.5268004430e-01	-1.1855336259e+01
 1.3219235675e+00	 3.7834254540e-01	-1.0803285088e+01
 1.3143119634e+00	 4.0399141433e-01	-9.8795190739e+00
 1.3061621391e+00	 4.2961083119e-01	-9.0914312318e+00
 1.2974713433e+00	 4.5518470244e-01	-8.4460712147e+00
 1.2882374373e+00	 4.8069668729e-01	-7.9501059887e+00
 1.2784589140e+00	 5.0613022563e-01	-7.6097811714e+00
 1.1622353763e+00	 4.6011838694e-01	 3.3871565683e+01
 1.1528499225e+00	 4.8315324299e-01	 3.3108346427e+01
 1.1429684046e+00	 5.0608618433e-01	 3.2200417715e+01
 1.1325912624e+00	 5.2890172284e-01	 3.1147092269e+01
 1.1217195625e+00	 5.5158428467e-01	 2.9948167949e+01
 1.1103550085e+00	 5.7411824130e-01	 2.8603940676e+01
 1.0984999480e+00	 5.9648794137e-01	 2.7115215132e+01
 1.0861573780e+00	 6.1867774334e-01	 2.5483313101e+01
 1.0733309490e+00	 6.4067204861e-01	 2.3710079320e+01
 1.0600249661e+00	 6.6245533520e-01	 2.1797884754e+01
 1.0462443890e+00	 6.8401219171e-01	 1.9749627204e+01
 1.1738577301e+00	 4.6471957081e-01	 2.9750466522e+01
 1.1643784217e+00	 4.8798477542e-01	 2.8824394014e+01
 1.1543980887e+00	 5.1114704617e-01	 2.7797325939e+01
 1.1439171750e+00	 5.3419074006e-01	 2.6669000504e+01
 1.1329367581e+00	 5.5710012751e-01	 2.5439489203e+01
 1.1214585586e+00	 5.7985942371e-01	 2.4109205018e+01
 1.1094849475e+00	 6.0245282079e-01	 2.2678909086e+01
 1.0970189518e+00	 6.2486452077e-01	 2.1149715750e+01
 1.0840642585e+00	 6.4707876909e-01	 1.9523095904e+01
 1.0706252158e+00	 6.6907988855e-01	 1.7800878577e+01
 1.0567068329e+00	 6.9085231363e-01	 1.5985250702e+01
 1.1854800839e+00	 4.6932075467e-01	 2.5622851406e+01
 1.1759069209e+00	 4.9281630785e-01	 2.4533546878e+01
 1.1658277727e+00	 5.1620790801e-01	 2.3386116626e+01
 1.1552430876e+00	 5.3947975729e-01	 2.2180716941e+01
 1.1441539537e+00	 5.6261597036e-01	 2.0917687541e+01
 1.1325621087e+00	 5.8560060612e-01	 1.9597555119e+01
 1.1204699470e+00	 6.0841770020e-01	 1.8221036023e+01
 1.1078805256e+00	 6.3105129820e-01	 1.6789038067e+01
 1.0947975680e+00	 6.5348548958e-01	 1.5302661398e+01
 1.0812254655e+00	 6.7570444191e-01	 1.3763198422e+01
 1.0671692768e+00	 6.9769243555e-01	 1.2172132745e+01
 1.1971024376e+00	 4.7392193854e-01	 2.1488924138e+01
 1.1874354202e+00	 4.9764784027e-01	 2.0236020854e+01
 1.1772574568e+00	 5.2126876985e-01	 1.8967042184e+01
 1.1665690002e+00	 5.4476877451e-01	 1.7682555316e+01
 1.1553711494e+00	 5.6813181320e-01	 1.6383162948e+01
 1.1436656588e+00	 5.9134178853e-01	 1.5069502228e+01
 1.1314549464e+00	 6.1438257961e-01	 1.3742243512e+01
 1.1187420994e+00	 6.3723807564e-01	 1.2402088968e+01
 1.1055308775e+00	 6.5989221007e-01	 1.1049771009e+01
 1.0918257151e+00	 6.8232899526e-01	 9.6860505742e+00
 1.0776317207e+00	 7.0453255747e-01	 8.3117152680e+00
 1.2087247914e+00	 4.7852312241e-01	 1.7348880494e+01
 1.1989639194e+00	 5.0247937270e-01	 1.5932023268e+01
 1.1886871408e+00	 5.2632963169e-01	 1.4540345086e+01
 1.1778949129e+00	 5.5005779174e-01	 1.3174817058e+01
 1.1665883450e+00	 5.7364765605e-01	 1.1836299765e+01
 1.1547692089e+00	 5.9708297095e-01	 1.0525537653e+01
 1.1424399459e+00	 6.2034745903e-01	 9.2431539186e+00
 1.1296036732e+00	 6.4342485307e-01	 7.9896459457e+00
 1.1162641870e+00	 6.6629893055e-01	 6.7653813370e+00
 1.1024259648e+00	 6.8895354861e-01	 5.5705945795e+00
 1.0880941646e+00	 7.1137267938e-01	 4.4053843884e+00
 1.2203471452e+00	 4.8312430627e-01	 1.3202908604e+01
 1.2104924186e+00	 5.0731090513e-01	 1.1621753344e+01
 1.2001168249e+00	 5.3139049354e-01	 1.0106258349e+01
 1.1892208255e+00	 5.5534680897e-01	 8.6577918750e+00
 1.1778055406e+00	 5.7916349890e-01	 7.2774674371e+00
 1.1658727590e+00	 6.0282415336e-01	 5.9661337149e+00
 1.1534249454e+00	 6.2631233844e-01	 4.7243656109e+00
 1.1404652469e+00	 6.4961163051e-01	 3.5524565665e+00
 1.1269974965e+00	 6.7270565104e-01	 2.4504122175e+00
 1.1130262144e+00	 6.9557810197e-01	 1.4179454696e+00
 1.0985566085e+00	 7.1821280130e-01	 4.5447306153e-01
 1.2319694989e+00	 4.8772549014e-01	 9.0511893177e+00
 1.2220209178e+00	 5.1214243756e-01	 7.3054025894e+00
 1.2115465089e+00	 5.3645135538e-01	 5.6650059798e+00
 1.2005467381e+00	 5.6063582620e-01	 4.1317583067e+00
 1.1890227363e+00	 5.8467934175e-01	 2.7070212144e+00
 1.1769763091e+00	 6.0856533577e-01	 1.3917446394e+00
 1.1644099449e+00	 6.3227721786e-01	 1.8645409113e-01
 1.1513268207e+00	 6.5579840794e-01	-9.0876011486e-01
 1.1377308060e+00	 6.7911237153e-01	-1.8942515437e+00
 1.1236264641e+00	 7.0220265532e-01	-2.7708241353e+00
 1.1090190524e+00	 7.2505292322e-01	-3.5397364078e+00
 1.2435918527e+00	 4.9232667401e-01	 4.8938965403e+00
 1.2335494171e+00	 5.1697396999e-01	 2.9831551522e+00
 1.2229761930e+00	 5.4151221723e-01	 1.2168033935e+00
 1.2118726507e+00	 5.6592484343e-01	-4.0301575142e-01
 1.2002399319e+00	 5.9019518460e-01	-1.8746971808e+00
 1.1880798591e+00	 6.1430651819e-01	-3.1971925917e+00
 1.1753949444e+00	 6.3824209727e-01	-4.3700269345e+00
 1.1621883945e+00	 6.6198518538e-01	-5.3933122225e+00
 1.1484641155e+00	 6.8551909201e-01	-6.2677585319e+00
 1.1342267138e+00	 7.0882720867e-01	-6.9946820430e+00
 1.1194814963e+00	 7.3189304514e-01	-7.5760099972e+00
 1.2552142064e+00	 4.9692785789e-01	 7.3119755785e-01
 1.2450779163e+00	 5.2180550243e-01	-1.3448118348e+00
 1.2344058770e+00	 5.4657307907e-01	-3.2381421837e+00
 1.2231985634e+00	 5.7121386066e-01	-4.9462725550e+00
 1.2114571275e+00	 5.9571102745e-01	-6.4673589282e+00
 1.1991834092e+00	 6.2004770061e-01	-7.8002574434e+00
 1.1863799439e+00	 6.4420697669e-01	-8.9445445454e+00
 1.1730499683e+00	 6.6817196281e-01	-9.9005337998e+00
 1.1591974249e+00	 6.9192581250e-01	-1.0669289176e+01
 1.1448269634e+00	 7.1545176203e-01	-1.1252634616e+01
 1.1299439402e+00	 7.3873316706e-01	-1.1653159730e+01
 1.2668365602e+00	 5.0152904176e-01	-3.4367466599e+00
 1.2566064155e+00	 5.2663703486e-01	-5.6783279327e+00
 1.2458355611e+00	 5.5163394092e-01	-7.6996313404e+00
 1.2345244760e+00	 5.7650287789e-01	-9.4977640439e+00
 1.2226743231e+00	 6.0122687030e-01	-1.1070647517e+01
 1.2102869593e+00	 6.2578888302e-01	-1.2417045071e+01
 1.1973649433e+00	 6.5017185611e-01	-1.3536585652e+01
 1.1839115421e+00	 6.7435874025e-01	-1.4429783619e+01
 1.1699307344e+00	 6.9833253299e-01	-1.5098054287e+01
 1.1554272131e+00	 7.2207631538e-01	-1.5543725002e+01
 1.1404063840e+00	 7.4557328897e-01	-1.5770041560e+01
 1.2784589140e+00	 5.0613022563e-01	-7.6097811714e+00
 1.2681349147e+00	 5.3146856729e-01	-1.0017229091e+01
 1.2572652451e+00	 5.5669480277e-01	-1.2167472123e+01
 1.2458503886e+00	 5.8179189513e-01	-1.4057251402e+01
 1.2338915188e+00	 6.0674271315e-01	-1.5684258183e+01
 1.2213905094e+00	 6.3153006544e-01	-1.7047165607e+01
 1.2083499428e+00	 6.5613673552e-01	-1.8145656092e+01
 1.1947731159e+00	 6.8054551769e-01	-1.8980444054e+01
 1.1806640439e+00	 7.0473925348e-01	-1.9553293675e+01
 1.1660274628e+00	 7.2870086873e-01	-1.9867031458e+01
 1.1508688279e+00	 7.5241341089e-01	-1.9925553374e+01
 1.0462443890e+00	 6.8401219171e-01	 1.9749627204e+01
 1.0319948291e+00	 7.0532735141e-01	 1.8103080576e+01
 1.0172825451e+00	 7.2638572638e-01	 1.6613952005e+01
 1.0021144359e+00	 7.4717244154e-01	 1.5273547763e+01
 9.8649803203e-01	 7.6767286833e-01	 1.4072369543e+01
 9.7044148446e-01	 7.8787265799e-01	 1.3000146953e+01
 9.5395355135e-01	 8.0775777424e-01	 1.2045874680e+01
 9.3704358299e-01	 8.2731452517e-01	 1.1197854142e+01
 9.1972150459e-01	 8.4652959426e-01	 1.0443739387e+01
 9.0199779716e-01	 8.6539007037e-01	 9.7705869606e+00
 8.8388347647e-01	 8.8388347647e-01	 9.1649094480e+00
 1.0567068329e+00	 6.9085231363e-01	 1.5985250702e+01
 1.0423147774e+00	 7.1238062492e-01	 1.4479179181e+01
 1.0274553705e+00	 7.3364958364e-01	 1.3081926300e+01
 1.0121355802e+00	 7.5464416595e-01	 1.1786807234e+01
 9.9636301235e-01	 7.7534959701e-01	 1.0586530972e+01
 9.8014589930e-01	 7.9575138457e-01	 9.4732253972e+00
 9.6349308686e-01	 8.1583535198e-01	 8.4384659368e+00
 9.4641401882e-01	 8.3558767042e-01	 7.4733076333e+00
 9.2891871964e-01	 8.5499489020e-01	 6.5683204540e+00
 9.1101777513e-01	 8.7404397107e-01	 5.7136276327e+00
 8.9272231124e-01	 8.9272231124e-01	 4.8989468016e+00
 1.0671692768e+00	 6.9769243555e-01	 1.2172132745e+01
 1.0526347257e+00	 7.1943389844e-01	 1.0824292445e+01
 1.0376281960e+00	 7.4091344091e-01	 9.5376675674e+00
 1.0221567246e+00	 7.6211589037e-01	 8.3075519041e+00
 1.0062279927e+00	 7.8302632570e-01	 7.1288287352e+00
 9.8985031415e-01	 8.0363011115e-01	 5.9959885905e+00
 9.7303262237e-01	 8.2391292973e-01	 4.9031494878e+00
 9.5578445465e-01	 8.4386081567e-01	 3.8440795423e+00
 9.3811593468e-01	 8.6346018615e-01	 2.8122218219e+00
 9.2003775310e-01	 8.8269787178e-01	 1.8007212985e+00
 9.0156114600e-01	 9.0156114600e-01	 8.0245373017e-01
 1.0776317207e+00	 7.0453255747e-01	 8.3117152680e+00
 1.0629546740e+00	 7.2648717195e-01	 7.1393457853e+00
 1.0478010214e+00	 7.4817729817e-01	 5.9815556679e+00
 1.0321778689e+00	 7.6958761479e-01	 4.8355879230e+00
 1.0160929730e+00	 7.9070305438e-01	 3.6984680815e+00
 9.9955472899e-01	 8.1150883773e-01	 2.5670147304e+00
 9.8257215788e-01	 8.3199050747e-01	 1.4378514418e+00
 9.6515489048e-01	 8.5213396092e-01	 3.0742003694e-01
 9.4731314973e-01	 8.7192548209e-01	-8.2800488740e-01
 9.2905773107e-01	 8.9135177248e-01	-1.9723002576e+00
 9.1039998077e-01	 9.1039998077e-01	-3.1294777428e+00
 1.0880941646e+00	 7.1137267938e-01	 4.4053843884e+00
 1.0732746223e+00	 7.3354044547e-01	 3.4252286504e+00
 1.0579738469e+00	 7.5544115544e-01	 2.4139554606e+00
 1.0421990133e+00	 7.7705933920e-01	 1.3707284893e+00
 1.0259579533e+00	 7.9837978306e-01	 2.9468440464e-01
 1.0092591438e+00	 8.1938756431e-01	-8.1506373834e-01
 9.9211169340e-01	 8.4006808521e-01	-1.9594227784e+00
 9.7452532631e-01	 8.6040710618e-01	-3.1393154174e+00
 9.5651036478e-01	 8.8039077803e-01	-4.3556758995e+00
 9.3807770905e-01	 9.0000567318e-01	-5.6094454248e+00
 9.1923881553e-01	 9.1923881553e-01	-6.9015673265e+00
 1.0985566085e+00	 7.1821280130e-01	 4.5447306153e-01
 1.0835945706e+00	 7.4059371898e-01	-3.1720376680e-01
 1.0681466723e+00	 7.6270501270e-01	-1.1647824822e+00
 1.0522201577e+00	 7.8453106362e-01	-2.0872064845e+00
 1.0358229336e+00	 8.0605651175e-01	-3.0832581907e+00
 1.0189635587e+00	 8.2726629089e-01	-4.1515627045e+00
 1.0016512289e+00	 8.4814566296e-01	-5.2905922106e+00
 9.8389576214e-01	 8.6868025143e-01	-6.4986710687e+00
 9.6570757982e-01	 8.8885607398e-01	-7.7739815775e+00
 9.4709768702e-01	 9.0865957389e-01	-9.1145703738e+00
 9.2807765030e-01	 9.2807765030e-01	-1.0518355425e+01
 1.1090190524e+00	 7.2505292322e-01	-3.5397364078e+00
 1.0939145189e+00	 7.4764699250e-01	-4.0871289114e+00
 1.0783194978e+00	 7.6996886997e-01	-4.7543211991e+00
 1.0622413020e+00	 7.9200278803e-01	-5.5383906867e+00
 1.0456879140e+00	 8.1373324043e-01	-6.4360682408e+00
 1.0286679735e+00	 8.3514501747e-01	-7.4437488251e+00
 1.0111907644e+00	 8.5622324070e-01	-8.5575039140e+00
 9.9326619797e-01	 8.7695339668e-01	-9.7730956061e+00
 9.7490479487e-01	 8.9732136992e-01	-1.1085992356e+01
 9.5611766499e-01	 9.1731347459e-01	-1.2491386233e+01
 9.3691648507e-01	 9.3691648507e-01	-1.3984211590e+01
 1.1194814963e+00	 7.3189304514e-01	-7.5760099972e+00
 1.1042344672e+00	 7.5470026601e-01	-7.8837553392e+00
 1.0884923232e+00	 7.7723272723e-01	-8.3543367010e+00
 1.0722624464e+00	 7.9947451245e-01	-8.9829917027e+00
 1.0555528943e+00	 8.2140996911e-01	-9.7644281991e+00
 1.0383723884e+00	 8.4302374405e-01	-1.0692841824e+01
 1.0207302999e+00	 8.6430081844e-01	-1.1761936330e+01
 1.0026366338e+00	 8.8522654193e-01	-1.2964946623e+01
 9.8410200992e-01	 9.0578666586e-01	-1.4294664344e+01
 9.6513764296e-01	 9.2596737530e-01	-1.5743465866e+01
 9.4575531983e-01	 9.4575531983e-01	-1.7303342506e+01
 1.1299439402e+00	 7.3873316706e-01	-1.1653159730e+01
 1.1145544155e+00	 7.6175353953e-01	-1.1706321274e+01
 1.0986651487e+00	 7.8449658449e-01	-1.1964517369e+01
 1.0822835907e+00	 8.0694623686e-01	-1.2421171296e+01
 1.0654178746e+00	 8.2908669779e-01	-1.3068995641e+01
 1.0480768032e+00	 8.5090247063e-01	-1.3900016660e+01
 1.0302698355e+00	 8.7237839618e-01	-1.4905602456e+01
 1.0120070696e+00	 8.9349968718e-01	-1.6076494830e+01
 9.9329922497e-01	 9.1425196180e-01	-1.7402844612e+01
 9.7415762093e-01	 9.3462127600e-01	-1.8874250266e+01
 9.5459415459e-01	 9.5459415459e-01	-2.0479799524e+01
 1.1404063840e+00	 7.4557328897e-01	-1.5770041560e+01
 1.1248743638e+00	 7.6880681304e-01	-1.5554093247e+01
 1.1088379741e+00	 7.9176044176e-01	-1.5584563385e+01
 1.0923047351e+00	 8.1441796128e-01	-1.5853085672e+01
 1.0752828549e+00	 8.3676342648e-01	-1.6350404404e+01
 1.0577812181e+00	 8.5878119721e-01	-1.7066405582e+01
 1.0398093710e+00	 8.8045597392e-01	-1.7990152846e+01
 1.0213775055e+00	 9.0177283243e-01	-1.9109928042e+01
 1.0024964400e+00	 9.2271725774e-01	-2.0413276193e+01
 9.8317759891e-01	 9.4327517670e-01	-2.1887054604e+01
 9.6343298936e-01	 9.6343298936e-01	-2.3517485783e+01
 1.1508688279e+00	 7.5241341089e-01	-1.9925553374e+01
 1.1351943120e+00	 7.7586008655e-01	-1.9426364804e+01
 1.1190107996e+00	 7.9902429902e-01	-1.9214186191e+01
 1.1023258795e+00	 8.2188968569e-01	-1.9278885730e+01
 1.0851478353e+00	 8.4444015516e-01	-1.9609265663e+01
 1.0674856329e+00	 8.6665992379e-01	-2.0193100066e+01
 1.0493489065e+00	 8.8853355166e-01	-2.1017178445e+01
 1.0307479413e+00	 9.1004597768e-01	-2.2067354938e+01
 1.0116936551e+00	 9.3118255368e-01	-2.3328602810e+01
 9.9219757688e-01	 9.5192907740e-01	-2.4785073948e+01
 9.7227182412e-01	 9.7227182412e-01	-2.6420162949e+01
 8.8388347647e-01	 8.8388347647e-01	 9.1649094480e+00
 8.6539007037e-01	 9.0199779716e-01	 9.7271124318e+00
 8.4652959426e-01	 9.1972150459e-01	 9.8566569368e+00
 8.2731452517e-01	 9.3704358299e-01	 9.5617648979e+00
 8.0775777424e-01	 9.5395355135e-01	 8.8520077670e+00
 7.8787265799e-01	 9.7044148446e-01	 7.7382612244e+00
 7.6767286833e-01	 9.8649803203e-01	 6.2326534469e+00
 7.4717244154e-01	 1.0021144359e+00	 4.3485073152e+00
 7.2638572638e-01	 1.0172825451e+00	 2.1002769938e+00
 7.0532735141e-01	 1.0319948291e+00	-4.9652064475e-01
 6.8401219171e-01	 1.0462443890e+00	-3.4253792409e+00
 8.9272231124e-01	 8.9272231124e-01	 4.8989468016e+00
 8.7404397107e-01	 9.1101777513e-01	 5.4119750130e+00
 8.5499489020e-01	 9.2891871964e-01	 5.5580042393e+00
 8.3558767042e-01	 9.4641401882e-01	 5.3416182631e+00
 8.1583535198e-01	 9.6349308686e-01	 4.7685437921e+00
 7.9575138457e-01	 9.8014589930e-01	 3.8456221865e+00
 7.7534959701e-01	 9.9636301235e-01	 2.5807756529e+00
 7.5464416595e-01	 1.0121355802e+00	 9.8296816329e-01
 7.3364958364e-01	 1.0274553705e+00	-9.3783859959e-01
 7.1238062492e-01	 1.0423147774e+00	-3.1707339332e+00
 6.9085231363e-01	 1.0567068329e+00	-5.7039110711e+00
 9.0156114600e-01	 9.0156114600e-01	 8.0245373017e-01
 8.8269787178e-01	 9.2003775310e-01	 1.2398140536e+00
 8.6346018615e-01	 9.3811593468e-01	 1.3746938434e+00
 8.4386081567e-01	 9.5578445465e-01	 1.2080931909e+00
 8.2391292973e-01	 9.7303262237e-01	 7.4195119824e-01
 8.0363011115e-01	 9.8985031415e-01	-2.0865490135e-02
 7.8302632570e-01	 1.0062279927e+00	-1.0765787907e+00
 7.6211589037e-01	 1.0221567246e+00	-2.4205197824e+00
 7.4091344091e-01	 1.0376281960e+00	-4.0471536368e+00
 7.1943389844e-01	 1.0526347257e+00	-5.9501086708e+00
 6.9769243555e-01	 1.0671692768e+00	-8.1222092883e+00
 9.1039998077e-01	 9.1039998077e-01	-3.1294777428e+00
 8.9135177248e-01	 9.2905773107e-01	-2.7935062530e+00
 8.7192548209e-01	 9.4731314973e-01	-2.6966046530e+00
 8.5213396092e-01	 9.6515489048e-01	-2.8413036663e+00
 8.3199050747e-01	 9.8257215788e-01	-3.2293963200e+00
 8.1150883773e-01	 9.9955472899e-01	-3.8619328154e+00
 7.9070305438e-01	 1.0160929730e+00	-4.7392191444e+00
 7.6958761479e-01	 1.0321778689e+00	-5.8608194381e+00
 7.4817729817e-01	 1.0478010214e+00	-7.2255620048e+00
 7.2648717195e-01	 1.0629546740e+00	-8.8315489851e+00
 7.0453255747e-01	 1.0776317207e+00	-1.0676169523e+01
 9.1923881553e-01	 9.1923881553e-01	-6.9015673265e+00
 9.0000567318e-01	 9.3807770905e-01	-6.6919631555e+00
 8.8039077803e-01	 9.5651036478e-01	-6.6590940811e+00
 8.6040710618e-01	 9.7452532631e-01	-6.8089702887e+00
 8.4006808521e-01	 9.9211169340e-01	-7.1470630569e+00
 8.1938756431e-01	 1.0092591438e+00	-7.6782832301e+00
 7.9837978306e-01	 1.0259579533e+00	-8.4069625586e+00
 7.7705933920e-01	 1.0421990133e+00	-9.3368380135e+00
 7.5544115544e-01	 1.0579738469e+00	-1.0471039160e+01
 7.3354044547e-01	 1.0732746223e+00	-1.1812078645e+01
 7.1137267938e-01	 1.0880941646e+00	-1.3361845837e+01
 9.2807765030e-01	 9.2807765030e-01	-1.0518355425e+01
 9.0865957389e-01	 9.4709768702e-01	-1.0459382892e+01
 8.8885607398e-01	 9.6570757982e-01	-1.0515855773e+01
 8.6868025143e-01	 9.8389576214e-01	-1.0697213828e+01
 8.4814566296e-01	 1.0016512289e+00	-1.1012554245e+01
 8.2726629089e-01	 1.0189635587e+00	-1.1470593915e+01
 8.0605651175e-01	 1.0358229336e+00	-1.2079633694e+01
 7.8453106362e-01	 1.0522201577e+00	-1.2847524900e+01
 7.6270501270e-01	 1.0681466723e+00	-1.3781638239e+01
 7.4059371898e-01	 1.0835945706e+00	-1.4888835358e+01
 7.1821280130e-01	 1.0985566085e+00	-1.6175443178e+01
 9.3691648507e-01	 9.3691648507e-01	-1.3984211590e+01
 9.1731347459e-01	 9.5611766499e-01	-1.4099447809e+01
 8.9732136992e-01	 9.7490479487e-01	-1.4269855289e+01
 8.7695339668e-01	 9.9326619797e-01	-1.4508254886e+01
 8.5622324070e-01	 1.0111907644e+00	-1.4827318840e+01
 8.3514501747e-01	 1.0286679735e+00	-1.5239517029e+01
 8.1373324043e-01	 1.0456879140e+00	-1.5757064365e+01
 7.9200278803e-01	 1.0622413020e+00	-1.6391869675e+01
 7.6996886997e-01	 1.0783194978e+00	-1.7155486394e+01
 7.4764699250e-01	 1.0939145189e+00	-1.8059065398e+01
 7.2505292322e-01	 1.1090190524e+00	-1.9113310259e+01
 9.4575531983e-01	 9.4575531983e-01	-1.7303342506e+01
 9.2596737530e-01	 9.6513764296e-01	-1.7615703084e+01
 9.0578666586e-01	 9.8410200992e-01	-1.7923947825e+01
 8.8522654193e-01	 1.0026366338e+00	-1.8244231560e+01
 8.6430081844e-01	 1.0207302999e+00	-1.8592752141e+01
 8.4302374405e-01	 1.0383723884e+00	-1.8985680869e+01
 8.2140996911e-01	 1.0555528943e+00	-1.9439093201e+01
 7.9947451245e-01	 1.0722624464e+00	-1.9968900225e+01
 7.7723272723e-01	 1.0884923232e+00	-2.0590781327e+01
 7.5470026601e-01	 1.1042344672e+00	-2.1320118520e+01
 7.3189304514e-01	 1.1194814963e+00	-2.2171932834e+01
 9.5459415459e-01	 9.5459415459e-01	-2.0479799524e+01
 9.3462127600e-01	 9.7415762093e-01	-2.1011563073e+01
 9.1425196180e-01	 9.9329922497e-01	-2.1480883319e+01
 8.9349968718e-01	 1.0120070696e+00	-2.1907203255e+01
 8.7237839618e-01	 1.0302698355e+00	-2.2310198281e+01
 8.5090247063e-01	 1.0480768032e+00	-2.2709690978e+01
 8.2908669779e-01	 1.0654178746e+00	-2.3125565328e+01
 8.0694623686e-01	 1.0822835907e+00	-2.3577680964e+01
 7.8449658449e-01	 1.0986651487e+00	-2.4085788024e+01
 7.6175353953e-01	 1.1145544155e+00	-2.4669443174e+01
 7.3873316706e-01	 1.1299439402e+00	-2.5347927353e+01
 9.6343298936e-01	 9.6343298936e-01	-2.3517485783e+01
 9.4327517670e-01	 9.8317759891e-01	-2.4290317305e+01
 9.2271725774e-01	 1.0024964400e+00	-2.4943311276e+01
 9.0177283243e-01	 1.0213775055e+00	-2.5499154294e+01
 8.8045597392e-01	 1.0398093710e+00	-2.5980952561e+01
 8.5878119721e-01	 1.0577812181e+00	-2.6412131182e+01
 8.3676342648e-01	 1.0752828549e+00	-2.6816332067e+01
 8.1441796128e-01	 1.0923047351e+00	-2.7217311159e+01
 7.9176044176e-01	 1.1088379741e+00	-2.7638835663e+01
 7.6880681304e-01	 1.1248743638e+00	-2.8104581971e+01
 7.4557328897e-01	 1.1404063840e+00	-2.8638034961e+01
 9.7227182412e-01	 9.7227182412e-01	-2.6420162949e+01
 9.5192907740e-01	 9.9219757688e-01	-2.7455136160e+01
 9.3118255368e-01	 1.0116936551e+00	-2.8313785331e+01
 9.1004597768e-01	 1.0307479413e+00	-2.9021997324e+01
 8.8853355166e-01	 1.0493489065e+00	-2.9606263674e+01
 8.6665992379e-01	 1.0674856329e+00	-3.0093564575e+01
 8.4444015516e-01	 1.0851478353e+00	-3.0511250650e+01
 8.2188968569e-01	 1.1023258795e+00	-3.0886923340e+01
 7.9902429902e-01	 1.1190107996e+00	-3.1248314693e+01
 7.7586008655e-01	 1.1351943120e+00	-3.1623167397e+01
 7.5241341089e-01	 1.1508688279e+00	-3.2039115830e+01
 6.8401219171e-01	 1.0462443890e+00	-3.4253792409e+00
 6.6245533520e-01	 1.0600249661e+00	-7.5747952836e+00
 6.4067204861e-01	 1.0733309490e+00	-1.1848934942e+01
 6.1867774334e-01	 1.0861573780e+00	-1.6268637390e+01
 5.9648794137e-01	 1.0984999480e+00	-2.0854187263e+01
 5.7411824130e-01	 1.1103550085e+00	-2.5625231090e+01
 5.5158428467e-01	 1.1217195625e+00	-3.0600698473e+01
 5.2890172284e-01	 1.1325912624e+00	-3.5798728468e+01
 5.0608618433e-01	 1.1429684046e+00	-4.1236601525e+01
 4.8315324299e-01	 1.1528499225e+00	-4.6930677309e+01
 4.6011838694e-01	 1.1622353763e+00	-5.2896338667e+01
 6.9085231363e-01	 1.0567068329e+00	-5.7039110711e+00
 6.6907988855e-01	 1.0706252158e+00	-9.7488517628e+00
 6.4707876909e-01	 1.0840642585e+00	-1.4000461556e+01
 6.2486452077e-01	 1.0970189518e+00	-1.8472198093e+01
 6.0245282079e-01	 1.1094849475e+00	-2.3176795613e+01
 5.7985942371e-01	 1.1214585586e+00	-2.8126215827e+01
 5.5710012751e-01	 1.1329367581e+00	-3.3331603542e+01
 5.3419074006e-01	 1.1439171750e+00	-3.8803247277e+01
 5.1114704617e-01	 1.1543980887e+00	-4.4550544992e+01
 4.8798477542e-01	 1.1643784217e+00	-5.0581975057e+01
 4.6471957081e-01	 1.1738577301e+00	-5.6905072530e+01
 6.9769243555e-01	 1.0671692768e+00	-8.1222092883e+00
 6.7570444191e-01	 1.0812254655e+00	-1.2008912853e+01
 6.5348548958e-01	 1.0947975680e+00	-1.6182814405e+01
 6.3105129820e-01	 1.1078805256e+00	-2.0650103928e+01
 6.0841770020e-01	 1.1204699470e+00	-2.5416081078e+01
 5.8560060612e-01	 1.1325621087e+00	-3.0485140065e+01
 5.6261597036e-01	 1.1441539537e+00	-3.5860759302e+01
 5.3947975729e-01	 1.1552430876e+00	-4.1545495811e+01
 5.1620790801e-01	 1.1658277727e+00	-4.7540984328e+01
 4.9281630785e-01	 1.1759069209e+00	-5.3847941011e+01
 4.6932075467e-01	 1.1854800839e+00	-6.0466171615e+01
 7.0453255747e-01	 1.0776317207e+00	-1.0676169523e+01
 6.8232899526e-01	 1.0918257151e+00	-1.4352439463e+01
 6.5989221007e-01	 1.1055308775e+00	-1.8395060922e+01
 6.3723807564e-01	 1.1187420994e+00	-2.2803066781e+01
 6.1438257961e-01	 1.1314549464e+00	-2.7574434554e+01
 5.9134178853e-01	 1.1436656588e+00	-3.2706104854e+01
 5.6813181320e-01	 1.1553711494e+00	-3.8194004643e+01
 5.4476877451e-01	 1.1665690002e+00	-4.4033075024e+01
 5.2126876985e-01	 1.1772574568e+00	-5.0217303306e+01
 4.9764784027e-01	 1.1874354202e+00	-5.6739759044e+01
 4.7392193854e-01	 1.1971024376e+00	-6.3592633730e+01
 7.1137267938e-01	 1.0880941646e+00	-1.3361845837e+01
 6.8895354861e-01	 1.1024259648e+00	-1.6776990732e+01
 6.6629893055e-01	 1.1162641870e+00	-2.0636304983e+01
 6.4342485307e-01	 1.1296036732e+00	-2.4931771736e+01
 6.2034745903e-01	 1.1424399459e+00	-2.9654155558e+01
 5.9708297095e-01	 1.1547692089e+00	-3.4793054084e+01
 5.7364765605e-01	 1.1665883450e+00	-4.0336954455e+01
 5.5005779174e-01	 1.1778949129e+00	-4.6273294098e+01
 5.2632963169e-01	 1.1886871408e+00	-5.2588525350e+01
 5.0247937270e-01	 1.1989639194e+00	-5.9268183442e+01
 4.7852312241e-01	 1.2087247914e+00	-6.6296957323e+01
 7.1821280130e-01	 1.0985566085e+00	-1.6175443178e+01
 6.9557810197e-01	 1.1130262144e+00	-1.9280219350e+01
 6.7270565104e-01	 1.1269974965e+00	-2.2905685169e+01
 6.4961163051e-01	 1.1404652469e+00	-2.7036878345e+01
 6.2631233844e-01	 1.1534249454e+00	-3.1657456573e+01
 6.0282415336e-01	 1.1658727590e+00	-3.6749781966e+01
 5.7916349890e-01	 1.1778055406e+00	-4.2295010290e+01
 5.5534680897e-01	 1.1892208255e+00	-4.8273184329e+01
 5.3139049354e-01	 1.2001168249e+00	-5.4663330692e+01
 5.0731090513e-01	 1.2104924186e+00	-6.1443559353e+01
 4.8312430627e-01	 1.2203471452e+00	-6.8591165254e+01
 7.2505292322e-01	 1.1090190524e+00	-1.9113310259e+01
 7.0220265532e-01	 1.1236264641e+00	-2.1859867143e+01
 6.7911237153e-01	 1.1377308060e+00	-2.5202373127e+01
 6.5579840794e-01	 1.1513268207e+00	-2.9119021831e+01
 6.3227721786e-01	 1.1644099449e+00	-3.3586467152e+01
 6.0856533577e-01	 1.1769763091e+00	-3.8579940095e+01
 5.8467934175e-01	 1.1890227363e+00	-4.4073370425e+01
 5.6063582620e-01	 1.2005467381e+00	-5.0039512236e+01
 5.3645135538e-01	 1.2115465089e+00	-5.6450072554e+01
 5.1214243756e-01	 1.2220209178e+00	-6.3275842090e+01
 4.8772549014e-01	 1.2319694989e+00	-7.0486827230e+01
 7.3189304514e-01	 1.1194814963e+00	-2.2171932834e+01
 7.0882720867e-01	 1.1342267138e+00	-2.4513760903e+01
 6.8551909201e-01	 1.1484641155e+00	-2.7525572021e+01
 6.6198518538e-01	 1.1621883945e+00	-3.1178814222e+01
 6.3824209727e-01	 1.1753949444e+00	-3.5443237787e+01
 6.1430651819e-01	 1.1880798591e+00	-4.0287044105e+01
 5.9019518460e-01	 1.2002399319e+00	-4.5677039357e+01
 5.6592484343e-01	 1.2118726507e+00	-5.1578791924e+01
 5.4151221723e-01	 1.2229761930e+00	-5.7956792433e+01
 5.1697396999e-01	 1.2335494171e+00	-6.4774615338e+01
 4.9232667401e-01	 1.2435918527e+00	-7.1995080975e+01
 7.3873316706e-01	 1.1299439402e+00	-2.5347927353e+01
 7.1545176203e-01	 1.1448269634e+00	-2.7239808451e+01
 6.9192581250e-01	 1.1591974249e+00	-2.9874515068e+01
 6.6817196281e-01	 1.1730499683e+00	-3.3216845418e+01
 6.4420697669e-01	 1.1863799439e+00	-3.7229743570e+01
 6.2004770061e-01	 1.1991834092e+00	-4.1874479963e+01
 5.9571102745e-01	 1.2114571275e+00	-4.7110836768e+01
 5.7121386066e-01	 1.2231985634e+00	-5.2897296776e+01
 5.4657307907e-01	 1.2344058770e+00	-5.9191234522e+01
 5.2180550243e-01	 1.2450779163e+00	-6.5949108357e+01
 4.9692785789e-01	 1.2552142064e+00	-7.3126652228e+01
 7.4557328897e-01	 1.1404063840e+00	-2.8638034961e+01
 7.2207631538e-01	 1.1554272131e+00	-3.0035994917e+01
 6.9833253299e-01	 1.1699307344e+00	-3.2248464157e+01
 6.7435874025e-01	 1.1839115421e+00	-3.5233684208e+01
 6.5017185611e-01	 1.1973649433e+00	-3.8947887645e+01
 6.2578888302e-01	 1.2102869593e+00	-4.3345509911e+01
 6.0122687030e-01	 1.2226743231e+00	-4.8379406003e+01
 5.7650287789e-01	 1.2345244760e+00	-5.4001070485e+01
 5.5163394092e-01	 1.2458355611e+00	-6.0160859349e+01
 5.2663703486e-01	 1.2566064155e+00	-6.6808212242e+01
 5.0152904176e-01	 1.2668365602e+00	-7.3891873635e+01
 7.5241341089e-01	 1.1508688279e+00	-3.2039115830e+01
 7.2870086873e-01	 1.1660274628e+00	-3.2900379223e+01
 7.0473925348e-01	 1.1806640439e+00	-3.4646708543e+01
 6.8054551769e-01	 1.1947731159e+00	-3.7229879223e+01
 6.5613673552e-01	 1.2083499428e+00	-4.0599504478e+01
 6.3153006544e-01	 1.2213905094e+00	-4.4703278093e+01
 6.0674271315e-01	 1.2338915188e+00	-4.9487222082e+01
 5.8179189513e-01	 1.2458503886e+00	-5.4895937493e+01
 5.5669480277e-01	 1.2572652451e+00	-6.0872856667e+01
 5.3146856729e-01	 1.2681349147e+00	-6.7360495287e+01
 5.0613022563e-01	 1.2784589140e+00	-7.4300702620e+01
 4.6011838694e-01	 1.1622353763e+00	-5.2896338667e+01
 4.3699698846e-01	 1.1711249430e+00	-3.6225493563e+01
 4.1380427495e-01	 1.1795194030e+00	-2.0631484508e+01
 3.9055530110e-01	 1.1874201265e+00	-6.0573195001e+00
 3.6726492214e-01	 1.1948290577e+00	 7.5554285834e+00
 3.4394776856e-01	 1.2017486978e+00	 2.0266338299e+01
 3.2061822210e-01	 1.2081820871e+00	 3.2135860826e+01
 2.9729039323e-01	 1.2141327860e+00	 4.3225047557e+01
 2.7397810005e-01	 1.2196048543e+00	 5.3595285531e+01
 2.5069484873e-01	 1.2246028307e+00	 6.3308041976e+01
 2.2745381552e-01	 1.2291317105e+00	 7.2424619139e+01
 4.6471957081e-01	 1.1738577301e+00	-5.6905072530e+01
 4.4136695834e-01	 1.1828361924e+00	-4.0007602572e+01
 4.1794231770e-01	 1.1913145970e+00	-2.4078340199e+01
 3.9446085410e-01	 1.1992943278e+00	-9.0720317510e+00
 3.7093757136e-01	 1.2067773482e+00	 5.0580073274e+00
 3.4738724624e-01	 1.2137661847e+00	 1.8359654969e+01
 3.2382440432e-01	 1.2202639080e+00	 3.0881748040e+01
 3.0026329716e-01	 1.2262741139e+00	 4.2673852300e+01
 2.7671788104e-01	 1.2318009029e+00	 5.3786038007e+01
 2.5320179722e-01	 1.2368488590e+00	 6.4268662306e+01
 2.2972835367e-01	 1.2414230276e+00	 7.4172159427e+01
 4.6932075467e-01	 1.1854800839e+00	-6.0466171615e+01
 4.4573692822e-01	 1.1945474419e+00	-4.3430008511e+01
 4.2208036044e-01	 1.2031097911e+00	-2.7254917026e+01
 3.9836640711e-01	 1.2111685290e+00	-1.1907204136e+01
 3.7461022057e-01	 1.2187256388e+00	 2.6482493316e+00
 3.5082672392e-01	 1.2257836717e+00	 1.6447796773e+01
 3.2703058654e-01	 1.2323457289e+00	 2.9528835180e+01
 3.0323620109e-01	 1.2384154418e+00	 4.1929616936e+01
 2.7945766204e-01	 1.2439969514e+00	 5.3689065102e+01
 2.5570874570e-01	 1.2490948873e+00	 6.4846593176e+01
 2.3200289183e-01	 1.2537143447e+00	 7.5441930213e+01
 4.7392193854e-01	 1.1971024376e+00	-6.3592633730e+01
 4.5010689810e-01	 1.2062586913e+00	-4.6503147346e+01
 4.2621840319e-01	 1.2149049851e+00	-3.0169045632e+01
 4.0227196012e-01	 1.2230427303e+00	-1.4568023674e+01
 3.7828286979e-01	 1.2306739294e+00	 3.2364434101e-01
 3.5426620160e-01	 1.2378011587e+00	 1.4530958229e+01
 3.3023676875e-01	 1.2444275498e+00	 2.8080044461e+01
 3.0620910502e-01	 1.2505567696e+00	 4.0998009288e+01
 2.8219744304e-01	 1.2561930000e+00	 5.3312793215e+01
 2.5821569419e-01	 1.2613409156e+00	 6.5053027672e+01
 2.3427742998e-01	 1.2660056618e+00	 7.6247894644e+01
 4.7852312241e-01	 1.2087247914e+00	-6.6296957323e+01
 4.5447686798e-01	 1.2179699407e+00	-4.9237054207e+01
 4.3035644594e-01	 1.2267001791e+00	-3.2828256021e+01
 4.0617751313e-01	 1.2349169316e+00	-1.7059478412e+01
 3.8195551901e-01	 1.2426222199e+00	-1.9182218713e+00
 3.5770567928e-01	 1.2498186457e+00	 1.2609325863e+01
 3.3344295097e-01	 1.2565093706e+00	 2.6538185212e+01
 3.0918200895e-01	 1.2626980975e+00	 3.9884478704e+01
 2.8493722404e-01	 1.2683890485e+00	 5.2665324179e+01
 2.6072264268e-01	 1.2735869439e+00	 6.4898727921e+01
 2.3655196814e-01	 1.2782969789e+00	 7.6603478381e+01
 4.8312430627e-01	 1.2203471452e+00	-6.8591165254e+01
 4.5884683786e-01	 1.2296811901e+00	-5.1641382470e+01
 4.3449448868e-01	 1.2384953731e+00	-3.5239791870e+01
 4.1008306613e-01	 1.2467911328e+00	-1.9386366902e+01
 3.8562816823e-01	 1.2545705105e+00	-4.0796720747e+00
 3.6114515697e-01	 1.2618361326e+00	 1.0683078596e+01
 3.3664913319e-01	 1.2685911915e+00	 2.4905959246e+01
 3.1215491288e-01	 1.2748394253e+00	 3.8594266457e+01
 2.8767700504e-01	 1.2805850970e+00	 5.1754450720e+01
 2.6322959116e-01	 1.2858329722e+00	 6.4394045611e+01
 2.3882650630e-01	 1.2905882961e+00	 7.6521595195e+01
 4.8772549014e-01	 1.2319694989e+00	-7.0486827230e+01
 4.6321680775e-01	 1.2413924396e+00	-5.3725421766e+01
 4.3863253143e-01	 1.2502905672e+00	-3.7410624034e+01
 4.1398861914e-01	 1.2586653341e+00	-2.1553307130e+01
 3.8930081745e-01	 1.2665188011e+00	-6.1629418928e+00
 3.6458463465e-01	 1.2738536196e+00	 8.7523880971e+00
 3.3985531541e-01	 1.2806730124e+00	 2.3185965936e+01
 3.1512781681e-01	 1.2869807532e+00	 3.7132415561e+01
 2.9041678604e-01	 1.2927811456e+00	 5.0587671039e+01
 2.6573653965e-01	 1.2980790005e+00	 6.3548941355e+01
 2.4110104445e-01	 1.3028796132e+00	 7.6014671111e+01
 4.9232667401e-01	 1.2435918527e+00	-7.1995080975e+01
 4.6758677763e-01	 1.2531036890e+00	-5.5498114972e+01
 4.4277057418e-01	 1.2620857612e+00	-3.9347463291e+01
 4.1789417216e-01	 1.2705395353e+00	-2.3564744957e+01
 3.9297346667e-01	 1.2784670917e+00	-8.1701838728e+00
 3.6802411234e-01	 1.2858711066e+00	 6.8174191332e+00
 3.4306149763e-01	 1.2927548332e+00	 2.1380707006e+01
 3.1810072074e-01	 1.2991220810e+00	 3.5503780045e+01
 2.9315656704e-01	 1.3049771941e+00	 4.9172202578e+01
 2.6824348814e-01	 1.3103250288e+00	 6.2373002964e+01
 2.4337558261e-01	 1.3151709303e+00	 7.5094667204e+01
 4.9692785789e-01	 1.2552142064e+00	-7.3126652228e+01
 4.7195674752e-01	 1.2648149384e+00	-5.6968074265e+01
 4.4690861693e-01	 1.2738809552e+00	-4.1056772380e+01
 4.2179972517e-01	 1.2824137366e+00	-2.5424962082e+01
 3.9664611589e-01	 1.2904153822e+00	-1.0103471330e+01
 3.7146359002e-01	 1.2978885936e+00	 4.8783298851e+00
 3.4626767985e-01	 1.3048366541e+00	 1.9492591052e+01
 3.2107362467e-01	 1.3112634089e+00	 3.3713033696e+01
 2.9589634804e-01	 1.3171732427e+00	 4.7514995019e+01
 2.7075043663e-01	 1.3225710571e+00	 6.0875462714e+01
 2.4565012076e-01	 1.3274622474e+00	 7.3773101125e+01
 5.0152904176e-01	 1.2668365602e+00	-7.3891873635e+01
 4.7632671740e-01	 1.2765261879e+00	-5.8143596287e+01
 4.5104665968e-01	 1.2856761493e+00	-4.2544777378e+01
 4.2570527818e-01	 1.2942879379e+00	-2.7138083571e+01
 4.0031876511e-01	 1.3023636728e+00	-1.1964801979e+01
 3.7490306771e-01	 1.3099060805e+00	 2.9352722539e+00
 3.4947386207e-01	 1.3169184750e+00	 1.7523937816e+01
 3.2404652861e-01	 1.3234047368e+00	 3.1764678334e+01
 2.9863612904e-01	 1.3293692912e+00	 4.5622742565e+01
 2.7325738511e-01	 1.3348170854e+00	 5.9065213650e+01
 2.4792465892e-01	 1.3397535645e+00	 7.2061067446e+01
 5.0613022563e-01	 1.2784589140e+00	-7.4300702620e+01
 4.8069668729e-01	 1.2882374373e+00	-5.9032676484e+01
 4.5518470244e-01	 1.2974713433e+00	-4.3817478453e+01
 4.2961083119e-01	 1.3061621391e+00	-2.8708084976e+01
 4.0399141433e-01	 1.3143119634e+00	-1.3756101368e+01
 3.7834254540e-01	 1.3219235675e+00	 9.8839214854e-01
 3.5268004430e-01	 1.3290002958e+00	 1.5476982228e+01
 3.2701943254e-01	 1.3355460646e+00	 2.9663051627e+01
 3.0137591004e-01	 1.3415653398e+00	 4.3501895562e+01
 2.7576433360e-01	 1.3470631137e+00	 5.6950825011e+01
 2.5019919707e-01	 1.3520448816e+00	 6.9969256886e+01
 2.2745381552e-01	 1.2291317105e+00	 7.2424619139e+01
 2.0426783021e-01	 1.2331969241e+00	 5.6443977371e+01
 1.8114936128e-01	 1.2368043131e+00	 4.1957364096e+01
 1.5811050247e-01	 1.2399601078e+00	 2.8974949891e+01
 1.3516296103e-01	 1.2426709033e+00	 1.7502168438e+01
 1.1231804737e-01	 1.2449436358e+00	 7.5398881860e+00
 8.9586666336e-02	 1.2467855586e+00	-9.1540321564e-01
 6.6979309859e-02	 1.2482042189e+00	-7.8714034217e+00
 4.4506051105e-02	 1.2492074333e+00	-1.3339790548e+01
 2.2176539980e-02	 1.2498032649e+00	-1.7336010642e+01
 0.0000000000e+00	 1.2500000000e+00	-1.9879059088e+01
 2.2972835367e-01	 1.2414230276e+00	 7.4172159427e+01
 2.0631050852e-01	 1.2455288933e+00	 5.8753335377e+01
 1.8296085490e-01	 1.2491723562e+00	 4.4724845501e+01
 1.5969160750e-01	 1.2523597089e+00	 3.2095775266e+01
 1.3651459064e-01	 1.2550976124e+00	 2.0870805075e+01
 1.1344122785e-01	 1.2573930721e+00	 1.1050372187e+01
 9.0482533003e-02	 1.2592534142e+00	 2.6308443708e+00
 6.7649102962e-02	 1.2606862611e+00	-4.3952962801e+00
 4.4951111618e-02	 1.2616995076e+00	-1.0039260992e+01
 2.2398305381e-02	 1.2623012976e+00	-1.4315754946e+01
 0.0000000000e+00	 1.2625000000e+00	-1.7242772430e+01
 2.3200289183e-01	 1.2537143447e+00	 7.5441930213e+01
 2.0835318682e-01	 1.2578608626e+00	 6.0555079725e+01
 1.8477234851e-01	 1.2615403994e+00	 4.6956703617e+01
 1.6127271253e-01	 1.2647593100e+00	 3.4654814207e+01
 1.3786622026e-01	 1.2675243214e+00	 2.3653346108e+01
 1.1456440833e-01	 1.2698425085e+00	 1.3952308521e+01
 9.1378399670e-02	 1.2717212698e+00	 5.5479482723e+00
 6.8318896063e-02	 1.2731683033e+00	-1.5670779019e+00
 4.5396172132e-02	 1.2741915820e+00	-7.4035233097e+00
 2.2620070782e-02	 1.2747993302e+00	-1.1975364930e+01
 0.0000000000e+00	 1.2750000000e+00	-1.5299612118e+01
 2.3427742998e-01	 1.2660056618e+00	 7.6247894644e+01
 2.1039586513e-01	 1.2701928318e+00	 6.1864043543e+01
 1.8658384213e-01	 1.2739084425e+00	 4.8668588103e+01
 1.6285381756e-01	 1.2771589111e+00	 3.6668479116e+01
 1.3921784987e-01	 1.2799510304e+00	 2.5866912664e+01
 1.1568758880e-01	 1.2822919448e+00	 1.6263472932e+01
 9.2274266337e-02	 1.2841891254e+00	 7.8542847696e+00
 6.8988689165e-02	 1.2856503455e+00	 6.3217459742e-01
 4.5841232645e-02	 1.2866836563e+00	-5.4131616874e+00
 2.2841836183e-02	 1.2872973629e+00	-1.0294985157e+01
 0.0000000000e+00	 1.2875000000e+00	-1.4029335932e+01
 2.3655196814e-01	 1.2782969789e+00	 7.6603478381e+01
 2.1243854343e-01	 1.2825248010e+00	 6.2694489025e+01
 1.8839533574e-01	 1.2862764856e+00	 4.9875546299e+01
 1.6443492259e-01	 1.2895585121e+00	 3.8152550751e+01
 1.4056947948e-01	 1.2923777395e+00	 2.7527966985e+01
 1.1681076928e-01	 1.2947413812e+00	 1.8000957123e+01
 9.3170133003e-02	 1.2966569810e+00	 9.5675230238e+00
 6.9658482265e-02	 1.2981323876e+00	 2.2206559795e+00
 4.6286293158e-02	 1.2991757306e+00	-4.0495073721e+00
 2.3063601584e-02	 1.2997953955e+00	-9.2555241391e+00
 0.0000000000e+00	 1.3000000000e+00	-1.3412480458e+01
 2.3882650630e-01	 1.2905882961e+00	 7.6521595195e+01
 2.1448122173e-01	 1.2948567703e+00	 6.3060134620e+01
 1.9020682936e-01	 1.2986445288e+00	 5.0592051906e+01
 1.6601602761e-01	 1.3019581132e+00	 3.9122208313e+01
 1.4192110910e-01	 1.3048044485e+00	 2.8652343813e+01
 1.1793394976e-01	 1.3071908176e+00	 1.9181201329e+01
 9.4065999669e-02	 1.3091248366e+00	 1.0704658750e+01
 7.0328275366e-02	 1.3106144298e+00	 3.2158675557e+00
 4.6731353670e-02	 1.3116678050e+00	-3.2946030989e+00
 2.3285366984e-02	 1.3122934282e+00	-8.8386179622e+00
 0.0000000000e+00	 1.3125000000e+00	-1.3430324000e+01
 2.4110104445e-01	 1.3028796132e+00	 7.6014671111e+01
 2.1652390004e-01	 1.3071887395e+00	 6.2974180685e+01
 1.9201832297e-01	 1.3110125719e+00	 5.0832032047e+01
 1.6759713264e-01	 1.3143577143e+00	 3.9592057815e+01
 1.4327273871e-01	 1.3172311575e+00	 2.9255279982e+01
 1.1905713023e-01	 1.3196402539e+00	 1.9820025050e+01
 9.4961866334e-02	 1.3215926922e+00	 1.1282045983e+01
 7.0998068466e-02	 1.3230964720e+00	 3.6346498976e+00
 4.7176414182e-02	 1.3241598793e+00	-3.1311695287e+00
 2.3507132385e-02	 1.3247914608e+00	-9.0265959625e+00
 0.0000000000e+00	 1.3250000000e+00	-1.4064851596e+01
 2.4337558261e-01	 1.3151709303e+00	 7.5094667204e+01
 2.1856657834e-01	 1.3195207088e+00	 6.2449333692e+01
 1.9382981658e-01	 1.3233806150e+00	 5.0608892809e+01
 1.6917823767e-01	 1.3267573154e+00	 3.9576158874e+01
 1.4462436832e-01	 1.3296578666e+00	 2.9351442362e+01
 1.2018031071e-01	 1.3320896903e+00	 1.9932656057e+01
 9.5857732998e-02	 1.3340605477e+00	 1.1315427065e+01
 7.1667861566e-02	 1.3355785142e+00	 3.4932137131e+00
 4.7621474694e-02	 1.3366519536e+00	-3.5425735698e+00
 2.3728897785e-02	 1.3372894935e+00	-9.8024483334e+00
 0.0000000000e+00	 1.3375000000e+00	-1.5298721993e+01
 2.4565012076e-01	 1.3274622474e+00	 7.3773101125e+01
 2.2060925664e-01	 1.3318526780e+00	 6.1497829097e+01
 1.9564131020e-01	 1.3357486581e+00	 4.9935543365e+01
 1.7075934269e-01	 1.3391569165e+00	 3.9088050001e+01
 1.4597599793e-01	 1.3420845756e+00	 2.8954954246e+01
 1.2130349118e-01	 1.3445391266e+00	 1.9533757787e+01
 9.6753599662e-02	 1.3465284033e+00	 1.0819960962e+01
 7.2337654665e-02	 1.3480605564e+00	 2.8071690075e+00
 4.8066535206e-02	 1.3491440280e+00	-4.5127984586e+00
 2.3950663185e-02	 1.3497875261e+00	-1.1149795530e+01
 0.0000000000e+00	 1.3500000000e+00	-1.7115236453e+01
 2.4792465892e-01	 1.3397535645e+00	 7.2061067446e+01
 2.2265193494e-01	 1.3441846472e+00	 6.0131452949e+01
 1.9745280381e-01	 1.3481167013e+00	 4.8824418771e+01
 1.7234044772e-01	 1.3515565175e+00	 3.8140772514e+01
 1.4732762754e-01	 1.3545112846e+00	 2.8079420287e+01
 1.2242667166e-01	 1.3569885630e+00	 1.8637455231e+01
 9.7649466326e-02	 1.3589962589e+00	 9.8102500307e+00
 7.3007447764e-02	 1.3605425986e+00	 1.5915526386e+00
 4.8511595717e-02	 1.3616361023e+00	-6.0264154873e+00
 2.4172428585e-02	 1.3622855588e+00	-1.3052859356e+01
 0.0000000000e+00	 1.3625000000e+00	-1.9498309284e+01
 2.5019919707e-01	 1.3520448816e+00	 6.9969256886e+01
 2.2469461325e-01	 1.3565166165e+00	 5.8361562315e+01
 1.9926429742e-01	 1.3604847444e+00	 4.7287501519e+01
 1.7392155274e-01	 1.3639561186e+00	 3.6746893133e+01
 1.4867925715e-01	 1.3669379937e+00	 2.6737950073e+01
 1.2354985213e-01	 1.3694379993e+00	 1.7257359411e+01
 9.8545332989e-02	 1.3714641145e+00	 8.3003653119e+00
 7.3677240862e-02	 1.3730246408e+00	-1.3914563009e-01
 4.8956656228e-02	 1.3741281766e+00	-8.0685572736e+00
 2.4394193985e-02	 1.3747835914e+00	-1.5496435633e+01
 0.0000000000e+00	 1.3750000000e+00	-2.2432439973e+01
 1.3750000000e+00	 0.0000000000e+00	 5.8509656882e+01
 1.3747835914e+00	 2.4394193985e-02	 5.2525077082e+01
 1.3741281766e+00	 4.8956656228e-02	 4.6187666581e+01
 1.3730246408e+00	 7.3677240862e-02	 3.9496533058e+01
 1.3714641145e+00	 9.8545332989e-02	 3.2451385686e+01
 1.3694379993e+00	 1.2354985213e-01	 2.5052558430e+01
 1.3669379937e+00	 1.4867925715e-01	 1.7301031912e+01
 1.3639561186e+00	 1.7392155274e-01	 9.1984536486e+00
 1.3604847444e+00	 1.9926429742e-01	 7.4715647749e-01
 1.3565166165e+00	 2.2469461325e-01	-8.0498250332e+00
 1.3520448816e+00	 2.5019919707e-01	-1.7188740368e+01
 1.3875000000e+00	 0.0000000000e+00	 5.4586763093e+01
 1.3872816241e+00	 2.4615959384e-02	 4.8983926230e+01
 1.3866202510e+00	 4.9401716739e-02	 4.3000486617e+01
 1.3855066830e+00	 7.4347033960e-02	 3.6635957360e+01
 1.3839319701e+00	 9.9441199652e-02	 2.9890568153e+01
 1.3818874357e+00	 1.2467303260e-01	 2.2765291824e+01
 1.3793647027e+00	 1.5003088676e-01	 1.5261869033e+01
 1.3763557197e+00	 1.7550265777e-01	 7.3828308989e+00
 1.3728527875e+00	 2.0107579104e-01	-8.6848068343e-01
 1.3688485857e+00	 2.2673729155e-01	-9.4878952573e+00
 1.3643361987e+00	 2.5247373523e-01	-1.8470398787e+01
 1.4000000000e+00	 0.0000000000e+00	 5.0536337949e+01
 1.3997796567e+00	 2.4837724784e-02	 4.5325563312e+01
 1.3991123253e+00	 4.9846777249e-02	 3.9706978773e+01
 1.3979887252e+00	 7.5016827059e-02	 3.3680498448e+01
 1.3963998257e+00	 1.0033706631e-01	 2.7246866766e+01
 1.3943368721e+00	 1.2579621308e-01	 2.0407688205e+01
 1.3917914117e+00	 1.5138251637e-01	 1.3165454799e+01
 1.3887553208e+00	 1.7708376279e-01	 5.5235711160e+00
 1.3852208307e+00	 2.0288728465e-01	-2.5136235483e+00
 1.3811805550e+00	 2.2877996985e-01	-1.0940836039e+01
 1.3766275158e+00	 2.5474827338e-01	-1.9751803531e+01
 1.4125000000e+00	 0.0000000000e+00	 4.6361753990e+01
 1.4122776894e+00	 2.5059490184e-02	 4.1553088522e+01
 1.4116043996e+00	 5.0291837760e-02	 3.6309955862e+01
 1.4104707673e+00	 7.5686620157e-02	 3.0632666843e+01
 1.4088676813e+00	 1.0123293298e-01	 2.4522474984e+01
 1.4067863084e+00	 1.2691939355e-01	 1.7981609394e+01
 1.4042181208e+00	 1.5273414598e-01	 1.1013305045e+01
 1.4011549218e+00	 1.7866486781e-01	 3.6218300726e+00
 1.3975888738e+00	 2.0469877826e-01	-4.1874901773e+00
 1.3935125242e+00	 2.3082264815e-01	-1.2408252691e+01
 1.3889188329e+00	 2.5702281154e-01	-2.1032960199e+01
 1.4250000000e+00	 0.0000000000e+00	 4.2066265506e+01
 1.4247757220e+00	 2.5281255583e-02	 3.7669493352e+01
 1.4240964740e+00	 5.0736898271e-02	 3.2812132073e+01
 1.4229528095e+00	 7.6356413255e-02	 2.7494885032e+01
 1.4213355368e+00	 1.0212879964e-01	 2.1719509346e+01
 1.4192357448e+00	 1.2804257402e-01	 1.5488851920e+01
 1.4166448298e+00	 1.5408577559e-01	 8.8068824440e+00
 1.4135545229e+00	 1.8024597284e-01	 1.6787230023e+00
 1.4099569169e+00	 2.0651027187e-01	-5.8893260647e+00
 1.4058444934e+00	 2.3286532645e-01	-1.3889764386e+01
 1.4012101500e+00	 2.5929734969e-01	-2.2313874214e+01
 1.4375000000e+00	 0.0000000000e+00	 3.7653013674e+01
 1.4372737547e+00	 2.5503020983e-02	 3.3677665316e+01
 1.4365885483e+00	 5.1181958781e-02	 2.9216127252e+01
 1.4354348517e+00	 7.7026206353e-02	 2.4269491299e+01
 1.4338033924e+00	 1.0302466630e-01	 1.8840012823e+01
 1.4316851811e+00	 1.2916575450e-01	 1.2931149861e+01
 1.4290715388e+00	 1.5543740520e-01	 6.5475988210e+00
 1.4259541240e+00	 1.8182707786e-01	-3.0467363818e-01
 1.4223249601e+00	 2.0832176549e-01	-7.6184029463e+00
 1.4181764627e+00	 2.3490800476e-01	-1.5385003554e+01
 1.4135014671e+00	 2.6157188785e-01	-2.3594550834e+01
 1.4500000000e+00	 0.0000000000e+00	 3.3125031442e+01
 1.4497717873e+00	 2.5724786382e-02	 2.9580392432e+01
 1.4490806226e+00	 5.1627019292e-02	 2.5524470970e+01
 1.4479168939e+00	 7.7695999451e-02	 2.0958743355e+01
 1.4462712480e+00	 1.0392053297e-01	 1.5885957983e+01
 1.4441346175e+00	 1.3028893497e-01	 1.0310177535e+01
 1.4414982479e+00	 1.5678903481e-01	 4.2368173413e+00
 1.4383537251e+00	 1.8340818289e-01	-2.3273204974e+00
 1.4346930032e+00	 2.1013325910e-01	-9.3740176689e+00
 1.4305084319e+00	 2.3695068306e-01	-1.6893615307e+01
 1.4257927842e+00	 2.6384642601e-01	-2.4874995159e+01
 1.4625000000e+00	 0.0000000000e+00	 2.8485248144e+01
 1.4622698200e+00	 2.5946551782e-02	 2.5380367475e+01
 1.4615726970e+00	 5.2072079803e-02	 2.1739606386e+01
 1.4603989361e+00	 7.8365792550e-02	 1.7564821778e+01
 1.4587391036e+00	 1.0481639963e-01	 1.2859250002e+01
 1.4565840538e+00	 1.3141211544e-01	 7.6275520549e+00
 1.4539249569e+00	 1.5814066442e-01	 1.8758545910e+00
 1.4507533262e+00	 1.8498928791e-01	-4.3882137441e+00
 1.4470610463e+00	 2.1194475271e-01	-1.1155491117e+01
 1.4428404012e+00	 2.3899336136e-01	-1.8415256904e+01
 1.4380841013e+00	 2.6612096416e-01	-2.6155212138e+01
 1.4750000000e+00	 0.0000000000e+00	 2.3736493899e+01
 1.4747678526e+00	 2.6168317182e-02	 2.1080192015e+01
 1.4740647713e+00	 5.2517140314e-02	 1.7863893899e+01
 1.4728809783e+00	 7.9035585648e-02	 1.4089833285e+01
 1.4712069592e+00	 1.0571226629e-01	 9.7617295185e+00
 1.4690334902e+00	 1.3253529592e-01	 4.8848357499e+00
 1.4663516659e+00	 1.5949229403e-01	-5.3401744930e-01
 1.4631529272e+00	 1.8657039294e-01	-6.4863835617e+00
 1.4594290895e+00	 2.1375624632e-01	-1.2962167193e+01
 1.4551723704e+00	 2.4103603966e-01	-1.9949597231e+01
 1.4503754184e+00	 2.6839550232e-01	-2.7435206573e+01
 1.4875000000e+00	 0.0000000000e+00	 1.8881503776e+01
 1.4872658853e+00	 2.6390082581e-02	 1.6682380242e+01
 1.4865568456e+00	 5.2962200824e-02	 1.3899614634e+01
 1.4853630205e+00	 7.9705378746e-02	 1.0535813832e+01
 1.4836748148e+00	 1.0660813296e-01	 6.5951753464e+00
 1.4814829266e+00	 1.3365847639e-01	 2.0835384695e+00
 1.4787783750e+00	 1.6084392364e-01	-2.9915695308e+00
 1.4755525283e+00	 1.8815149796e-01	-8.6208927199e+00
 1.4717971326e+00	 2.1556773994e-01	-1.4793411854e+01
 1.4675043396e+00	 2.4307871796e-01	-2.1496316313e+01
 1.4626667355e+00	 2.7067004047e-01	-2.8714983130e+01
 1.5000000000e+00	 0.0000000000e+00	 1.3922921752e+01
 1.4997639179e+00	 2.6611847981e-02	 1.2189362616e+01
 1.4990489200e+00	 5.3407261335e-02	 9.8489737421e+00
 1.4978450627e+00	 8.0375171844e-02	 6.9047315650e+00
 1.4961426704e+00	 1.0750399962e-01	 3.3613070500e+00
 1.4939323629e+00	 1.3478165686e-01	-7.7488023142e-01
 1.4912050840e+00	 1.6219555325e-01	-5.4956133558e+00
 1.4879521294e+00	 1.8973260298e-01	-1.0790835217e+01
 1.4841651757e+00	 2.1737923355e-01	-1.6648612188e+01
 1.4798363089e+00	 2.4512139627e-01	-2.3055104853e+01
 1.4749580526e+00	 2.7294457863e-01	-2.9994546339e+01
 1.3520448816e+00	 2.5019919707e-01	-1.7188740368e+01
 1.3470631137e+00	 2.7576433360e-01	-1.5702954863e+01
 1.3415653398e+00	 3.0137591004e-01	-1.4313243638e+01
 1.3355460646e+00	 3.2701943254e-01	-1.3027975928e+01
 1.3290002958e+00	 3.5268004430e-01	-1.1855336259e+01
 1.3219235675e+00	 3.7834254540e-01	-1.0803285088e+01
 1.3143119634e+00	 4.0399141433e-01	-9.8795190739e+00
 1.3061621391e+00	 4.2961083119e-01	-9.0914312318e+00
 1.2974713433e+00	 4.5518470244e-01	-8.4460712147e+00
 1.2882374373e+00	 4.8069668729e-01	-7.9501059887e+00
 1.2784589140e+00	 5.0613022563e-01	-7.6097811714e+00
 1.3643361987e+00	 2.5247373523e-01	-1.8470398787e+01
 1.3593091420e+00	 2.7827128209e-01	-1.6929704399e+01
 1.3537613883e+00	 3.0411569104e-01	-1.5451112433e+01
 1.3476873925e+00	 3.2999233647e-01	-1.4043446202e+01
 1.3410821167e+00	 3.5588622652e-01	-1.2715475900e+01
 1.3339410545e+00	 3.8178202308e-01	-1.1475881805e+01
 1.3262602540e+00	 4.0766406356e-01	-1.0333216568e+01
 1.3180363404e+00	 4.3351638421e-01	-9.2958667689e+00
 1.3092665373e+00	 4.5932274519e-01	-8.3720139644e+00
 1.2999486867e+00	 4.8506665718e-01	-7.5695954501e+00
 1.2900812677e+00	 5.1073140950e-01	-6.8962649894e+00
 1.3766275158e+00	 2.5474827338e-01	-1.9751803531e+01
 1.3715551703e+00	 2.8077823058e-01	-1.8162985425e+01
 1.3659574368e+00	 3.0685547204e-01	-1.6602929656e+01
 1.3598287203e+00	 3.3296524041e-01	-1.5080911721e+01
 1.3531639376e+00	 3.5909240874e-01	-1.3606284026e+01
 1.3459585415e+00	 3.8522150077e-01	-1.2188441640e+01
 1.3382085445e+00	 4.1133671278e-01	-1.0836786554e+01
 1.3299105417e+00	 4.3742193722e-01	-9.5606906211e+00
 1.3210617313e+00	 4.6346078794e-01	-8.3694573418e+00
 1.3116599361e+00	 4.8943662707e-01	-7.2722827108e+00
 1.3017036215e+00	 5.1533259338e-01	-6.2782153250e+00
 1.3889188329e+00	 2.5702281154e-01	-2.1032960199e+01
 1.3838011986e+00	 2.8328517906e-01	-1.9402622201e+01
 1.3781534854e+00	 3.0959525305e-01	-1.7768321508e+01
 1.3719700482e+00	 3.3593814434e-01	-1.6139783946e+01
 1.3652457584e+00	 3.6229859096e-01	-1.4526940777e+01
 1.3579760284e+00	 3.8866097846e-01	-1.2939896959e+01
 1.3501568351e+00	 4.1500936201e-01	-1.1388897351e+01
 1.3417847429e+00	 4.4132749023e-01	-9.8842910007e+00
 1.3328569254e+00	 4.6759883069e-01	-8.4364936634e+00
 1.3233711856e+00	 4.9380659695e-01	-7.0559487072e+00
 1.3133259753e+00	 5.1993377725e-01	-5.7530866026e+00
 1.4012101500e+00	 2.5929734969e-01	-2.2313874214e+01
 1.3960472269e+00	 2.8579212755e-01	-2.0648445191e+01
 1.3903495339e+00	 3.1233503405e-01	-1.8946927354e+01
 1.3841113761e+00	 3.3891104827e-01	-1.7219495052e+01
 1.3773275793e+00	 3.6550477318e-01	-1.5476655136e+01
 1.3699935154e+00	 3.9210045614e-01	-1.3729217681e+01
 1.3621051257e+00	 4.1868201123e-01	-1.1988264106e+01
 1.3536589442e+00	 4.4523304325e-01	-1.0265112796e+01
 1.3446521194e+00	 4.7173687344e-01	-8.5712823185e+00
 1.3350824350e+00	 4.9817656684e-01	-6.9184523892e+00
 1.3249483290e+00	 5.2453496112e-01	-5.3184227316e+00
 1.4135014671e+00	 2.6157188785e-01	-2.3594550834e+01
 1.4082932552e+00	 2.8829907604e-01	-2.1900290793e+01
 1.4025455825e+00	 3.1507481505e-01	-2.0138399152e+01
 1.3962527039e+00	 3.4188395221e-01	-1.8319497028e+01
 1.3894094002e+00	 3.6871095541e-01	-1.6454663678e+01
 1.3820110024e+00	 3.9553993383e-01	-1.4555409643e+01
 1.3740534163e+00	 4.2235466045e-01	-1.2633646766e+01
 1.3655331454e+00	 4.4913859626e-01	-1.0701655107e+01
 1.3564473134e+00	 4.7587491620e-01	-8.7720468530e+00
 1.3467936844e+00	 5.0254653673e-01	-6.8577273278e+00
 1.3365706828e+00	 5.2913614499e-01	-4.9718532155e+00
 1.4257927842e+00	 2.6384642601e-01	-2.4874995159e+01
 1.4205392835e+00	 2.9080602453e-01	-2.3158001080e+01
 1.4147416310e+00	 3.1781459605e-01	-2.1342400911e+01
 1.4083940318e+00	 3.4485685614e-01	-1.9439260824e+01
 1.4014912211e+00	 3.7191713763e-01	-1.7460229378e+01
 1.3940284894e+00	 3.9897941152e-01	-1.5417513058e+01
 1.3860017068e+00	 4.2602730967e-01	-1.3323848142e+01
 1.3774073467e+00	 4.5304414927e-01	-1.1192468906e+01
 1.3682425075e+00	 4.8001295895e-01	-9.0370722031e+00
 1.3585049339e+00	 5.0691650661e-01	-6.8717784983e+00
 1.3481930365e+00	 5.3373732887e-01	-4.7110894615e+00
 1.4380841013e+00	 2.6612096416e-01	-2.6155212138e+01
 1.4327853118e+00	 2.9331297302e-01	-2.4421423563e+01
 1.4269376796e+00	 3.2055437705e-01	-2.2558608175e+01
 1.4205353596e+00	 3.4782976007e-01	-2.0578275538e+01
 1.4135730419e+00	 3.7512331985e-01	-1.8492640487e+01
 1.4060459763e+00	 4.0241888921e-01	-1.6314601038e+01
 1.3979499974e+00	 4.2969995890e-01	-1.4057712077e+01
 1.3892815480e+00	 4.5694970228e-01	-1.1736154825e+01
 1.3800377015e+00	 4.8415100170e-01	-9.3647020720e+00
 1.3702161833e+00	 5.1128647650e-01	-6.9586792284e+00
 1.3598153903e+00	 5.3833851274e-01	-4.5339212802e+00
 1.4503754184e+00	 2.6839550232e-01	-2.7435206573e+01
 1.4450313402e+00	 2.9581992150e-01	-2.5690410955e+01
 1.4391337281e+00	 3.2329415805e-01	-2.3786707537e+01
 1.4326766875e+00	 3.5080266401e-01	-2.1736047648e+01
 1.4256548628e+00	 3.7832950207e-01	-1.9551209456e+01
 1.4180634633e+00	 4.0585836689e-01	-1.7245778206e+01
 1.4098982880e+00	 4.3337260812e-01	-1.4834121709e+01
 1.4011557492e+00	 4.6085525530e-01	-1.2331361048e+01
 1.3918328955e+00	 4.8828904445e-01	-9.7533364390e+00
 1.3819274327e+00	 5.1565644639e-01	-7.1165683016e+00
 1.3714377441e+00	 5.4293969661e-01	-4.4382135628e+00
 1.4626667355e+00	 2.7067004047e-01	-2.8714983130e+01
 1.4572773685e+00	 2.9832686999e-01	-2.6964820956e+01
 1.4513297766e+00	 3.2603393905e-01	-2.5026396170e+01
 1.4448180154e+00	 3.5377556794e-01	-2.2912100283e+01
 1.4377366837e+00	 3.8153568429e-01	-2.0635271923e+01
 1.4300809503e+00	 4.0929784458e-01	-1.8210179368e+01
 1.4218465786e+00	 4.3704525734e-01	-1.5651997822e+01
 1.4130299505e+00	 4.6476080831e-01	-1.2976781313e+01
 1.4036280896e+00	 4.9242708720e-01	-1.0201429195e+01
 1.3936386821e+00	 5.2002641627e-01	-7.3436472063e+00
 1.3830600978e+00	 5.4754088048e-01	-4.4219031261e+00
 1.4749580526e+00	 2.7294457863e-01	-2.9994546339e+01
 1.4695233968e+00	 3.0083381848e-01	-2.8244516044e+01
 1.4635258252e+00	 3.2877372005e-01	-2.6277381392e+01
 1.4569593432e+00	 3.5674847187e-01	-2.4105972529e+01
 1.4498185046e+00	 3.8474186652e-01	-2.1744185742e+01
 1.4420984373e+00	 4.1273732226e-01	-1.9206968260e+01
 1.4337948692e+00	 4.4071790656e-01	-1.6510297269e+01
 1.4249041518e+00	 4.6866636132e-01	-1.3671153014e+01
 1.4154232836e+00	 4.9656512995e-01	-1.0707485895e+01
 1.4053499316e+00	 5.2439638616e-01	-7.6381775228e+00
 1.3946824516e+00	 5.5214206435e-01	-4.4829957148e+00
 1.2784589140e+00	 5.0613022563e-01	-7.6097811714e+00
 1.2681349147e+00	 5.3146856729e-01	-1.0017229091e+01
 1.2572652451e+00	 5.5669480277e-01	-1.2167472123e+01
 1.2458503886e+00	 5.8179189513e-01	-1.4057251402e+01
 1.2338915188e+00	 6.0674271315e-01	-1.5684258183e+01
 1.2213905094e+00	 6.3153006544e-01	-1.7047165607e+01
 1.2083499428e+00	 6.5613673552e-01	-1.8145656092e+01
 1.1947731159e+00	 6.8054551769e-01	-1.8980444054e+01
 1.1806640439e+00	 7.0473925348e-01	-1.9553293675e+01
 1.1660274628e+00	 7.2870086873e-01	-1.9867031458e+01
 1.1508688279e+00	 7.5241341089e-01	-1.9925553374e+01
 1.2900812677e+00	 5.1073140950e-01	-6.8962649894e+00
 1.2796634140e+00	 5.3630009973e-01	-8.9563831929e+00
 1.2686949292e+00	 5.6175566461e-01	-1.0835951085e+01
 1.2571763012e+00	 5.8708091236e-01	-1.2530285908e+01
 1.2451087144e+00	 6.1225855600e-01	-1.4035349097e+01
 1.2324940595e+00	 6.3727124786e-01	-1.5347778192e+01
 1.2193349423e+00	 6.6210161494e-01	-1.6464916012e+01
 1.2056346896e+00	 6.8673229512e-01	-1.7384836780e+01
 1.1913973534e+00	 7.1114597397e-01	-1.8106368977e+01
 1.1766277124e+00	 7.3532542209e-01	-1.8629114646e+01
 1.1613312718e+00	 7.5925353281e-01	-1.8953464965e+01
 1.3017036215e+00	 5.1533259338e-01	-6.2782153250e+00
 1.2911919132e+00	 5.4113163216e-01	-7.9739823834e+00
 1.2801246132e+00	 5.6681652646e-01	-9.5644667920e+00
 1.2685022139e+00	 5.9236992959e-01	-1.1043579429e+01
 1.2563259100e+00	 6.1777439885e-01	-1.2405573151e+01
 1.2435976096e+00	 6.4301243028e-01	-1.3645074877e+01
 1.2303199418e+00	 6.6806649436e-01	-1.4757116509e+01
 1.2164962634e+00	 6.9291907256e-01	-1.5737164453e+01
 1.2021306629e+00	 7.1755269446e-01	-1.6581147490e+01
 1.1872279621e+00	 7.4194997544e-01	-1.7285482786e+01
 1.1717937157e+00	 7.6609365473e-01	-1.7847099790e+01
 1.3133259753e+00	 5.1993377725e-01	-5.7530866026e+00
 1.3027204124e+00	 5.4596316460e-01	-7.0679322305e+00
 1.2915542973e+00	 5.7187738831e-01	-8.3514128149e+00
 1.2798281265e+00	 5.9765894683e-01	-9.5960499300e+00
 1.2675431056e+00	 6.2329024170e-01	-1.0794408537e+01
 1.2547011597e+00	 6.4875361269e-01	-1.1939129237e+01
 1.2413049413e+00	 6.7403137378e-01	-1.3022960943e+01
 1.2273578372e+00	 6.9910585000e-01	-1.4038793748e+01
 1.2128639724e+00	 7.2395941495e-01	-1.4979691792e+01
 1.1978282118e+00	 7.4857452879e-01	-1.5838925880e+01
 1.1822561596e+00	 7.7293377665e-01	-1.6610005655e+01
 1.3249483290e+00	 5.2453496112e-01	-5.3184227316e+00
 1.3142489116e+00	 5.5079469703e-01	-6.2362119719e+00
 1.3029839813e+00	 5.7693825016e-01	-7.1952392866e+00
 1.2911540391e+00	 6.0294796406e-01	-8.1866535548e+00
 1.2787603013e+00	 6.2880608455e-01	-9.2013519770e+00
 1.2658047098e+00	 6.5449479511e-01	-1.0230012505e+01
 1.2522899408e+00	 6.7999625319e-01	-1.1263128247e+01
 1.2382194110e+00	 7.0529262743e-01	-1.2291043664e+01
 1.2235972819e+00	 7.3036613543e-01	-1.3303992372e+01
 1.2084284614e+00	 7.5519908215e-01	-1.4292136335e+01
 1.1927186035e+00	 7.7977389856e-01	-1.5245606198e+01
 1.3365706828e+00	 5.2913614499e-01	-4.9718532155e+00
 1.3257774109e+00	 5.5562622946e-01	-5.4768713127e+00
 1.3144136654e+00	 5.8199911200e-01	-6.0944504429e+00
 1.3024799517e+00	 6.0823698129e-01	-6.8143829650e+00
 1.2899774969e+00	 6.3432192740e-01	-7.6259179265e+00
 1.2769082598e+00	 6.6023597752e-01	-8.5177936768e+00
 1.2632749402e+00	 6.8596113261e-01	-9.4782739935e+00
 1.2490809848e+00	 7.1147940487e-01	-1.0495187582e+01
 1.2343305914e+00	 7.3677285592e-01	-1.1555970771e+01
 1.2190287111e+00	 7.6182363550e-01	-1.2647713203e+01
 1.2031810474e+00	 7.8661402048e-01	-1.3757206279e+01
 1.3481930365e+00	 5.3373732887e-01	-4.7110894615e+00
 1.3373059101e+00	 5.6045776189e-01	-4.7880273866e+00
 1.3258433494e+00	 5.8705997385e-01	-5.0476022897e+00
 1.3138058643e+00	 6.1352599852e-01	-5.4782657637e+00
 1.3011946925e+00	 6.3983777025e-01	-6.0676378029e+00
 1.2880118099e+00	 6.6597715994e-01	-6.8025396023e+00
 1.2742599397e+00	 6.9192601202e-01	-7.6690313984e+00
 1.2599425586e+00	 7.1766618230e-01	-8.6524552406e+00
 1.2450639009e+00	 7.4317957641e-01	-9.7374825414e+00
 1.2296289607e+00	 7.6844818885e-01	-1.0908166206e+01
 1.2136434913e+00	 7.9345414240e-01	-1.2147997102e+01
 1.3598153903e+00	 5.3833851274e-01	-4.5339212802e+00
 1.3488344093e+00	 5.6528929432e-01	-4.1678618740e+00
 1.3372730334e+00	 5.9212083569e-01	-4.0533003896e+00
 1.3251317770e+00	 6.1881501575e-01	-4.1773630027e+00
 1.3124118881e+00	 6.4535361310e-01	-4.5260592618e+00
 1.2991153600e+00	 6.7171834235e-01	-5.0843150792e+00
 1.2852449392e+00	 6.9789089144e-01	-5.8360122749e+00
 1.2708041323e+00	 7.2385295974e-01	-6.7640345955e+00
 1.2557972104e+00	 7.4958629690e-01	-7.8503200753e+00
 1.2402292104e+00	 7.7507274221e-01	-9.0759195492e+00
 1.2241059352e+00	 8.0029426432e-01	-1.0421061072e+01
 1.3714377441e+00	 5.4293969661e-01	-4.4382135628e+00
 1.3603629085e+00	 5.7012082675e-01	-3.6146182665e+00
 1.3487027175e+00	 5.9718169753e-01	-3.1101977615e+00
 1.3364576896e+00	 6.2410403298e-01	-2.9107677636e+00
 1.3236290838e+00	 6.5086945594e-01	-3.0007455079e+00
 1.3102189101e+00	 6.7745952476e-01	-3.3631829374e+00
 1.2962299387e+00	 7.0385577085e-01	-3.9798079398e+00
 1.2816657061e+00	 7.3003973717e-01	-4.8310735885e+00
 1.2665305199e+00	 7.5599301738e-01	-5.8962152739e+00
 1.2508294601e+00	 7.8169729556e-01	-7.1533155433e+00
 1.2345683791e+00	 8.0713438623e-01	-8.5793763995e+00
 1.3830600978e+00	 5.4754088048e-01	-4.4219031261e+00
 1.3718914078e+00	 5.7495235918e-01	-3.1265992687e+00
 1.3601324015e+00	 6.0224255938e-01	-2.2169928860e+00
 1.3477836022e+00	 6.2939305020e-01	-1.6776038116e+00
 1.3348462794e+00	 6.5638529879e-01	-1.4912746408e+00
 1.3213224602e+00	 6.8320070718e-01	-1.6392041213e+00
 1.3072149381e+00	 7.0982065027e-01	-2.1009900735e+00
 1.2925272799e+00	 7.3622651460e-01	-2.8546818283e+00
 1.2772638293e+00	 7.6239973787e-01	-3.8768420896e+00
 1.2614297097e+00	 7.8832184891e-01	-5.1426180462e+00
 1.2450308230e+00	 8.1397450815e-01	-6.6258214785e+00
 1.3946824516e+00	 5.5214206435e-01	-4.4829957148e+00
 1.3834199070e+00	 5.7978389161e-01	-2.7021643312e+00
 1.3715620856e+00	 6.0730342122e-01	-1.3724278105e+00
 1.3591095148e+00	 6.3468206743e-01	-4.7702431590e-01
 1.3460634750e+00	 6.6190114164e-01	 2.7609668813e-03
 1.3324260103e+00	 6.8894188959e-01	 8.7562232892e-02
 1.3181999376e+00	 7.1578552968e-01	-2.0011153686e-01
 1.3033888537e+00	 7.4241329204e-01	-8.3593218646e-01
 1.2879971388e+00	 7.6880645835e-01	-1.7938189393e+00
 1.2720299594e+00	 7.9494640226e-01	-3.0460157288e+00
 1.2554932668e+00	 8.2081463007e-01	-4.5631790453e+00
 1.1508688279e+00	 7.5241341089e-01	-1.9925553374e+01
 1.1351943120e+00	 7.7586008655e-01	-1.9426364804e+01
 1.1190107996e+00	 7.9902429902e-01	-1.9214186191e+01
 1.1023258795e+00	 8.2188968569e-01	-1.9278885730e+01
 1.0851478353e+00	 8.4444015516e-01	-1.9609265663e+01
 1.0674856329e+00	 8.6665992379e-01	-2.0193100066e+01
 1.0493489065e+00	 8.8853355166e-01	-2.1017178445e+01
 1.0307479413e+00	 9.1004597768e-01	-2.2067354938e+01
 1.0116936551e+00	 9.3118255368e-01	-2.3328602810e+01
 9.9219757688e-01	 9.5192907740e-01	-2.4785073948e+01
 9.7227182412e-01	 9.7227182412e-01	-2.6420162949e+01
 1.1613312718e+00	 7.5925353281e-01	-1.8953464965e+01
 1.1455142603e+00	 7.8291336007e-01	-1.8613033429e+01
 1.1291836250e+00	 8.0628815628e-01	-1.8498434245e+01
 1.1123470238e+00	 8.2936141010e-01	-1.8602369436e+01
 1.0950128156e+00	 8.5211688384e-01	-1.8916714830e+01
 1.0771900478e+00	 8.7453865036e-01	-1.9432547143e+01
 1.0588884420e+00	 8.9661112940e-01	-2.0140175546e+01
 1.0401183771e+00	 9.1831912293e-01	-2.1029177553e+01
 1.0208908701e+00	 9.3964784962e-01	-2.2088439024e+01
 1.0012175549e+00	 9.6058297811e-01	-2.3306198045e+01
 9.8111065889e-01	 9.8111065889e-01	-2.4670092415e+01
 1.1717937157e+00	 7.6609365473e-01	-1.7847099790e+01
 1.1558342086e+00	 7.8996663358e-01	-1.7687694415e+01
 1.1393564505e+00	 8.1355201354e-01	-1.7694000968e+01
 1.1223681682e+00	 8.3683313452e-01	-1.7861516379e+01
 1.1048777959e+00	 8.5979361252e-01	-1.8185148223e+01
 1.0868944626e+00	 8.8241737694e-01	-1.8659231225e+01
 1.0684279775e+00	 9.0468870714e-01	-1.9277546929e+01
 1.0494888130e+00	 9.2659226818e-01	-2.0033346424e+01
 1.0300880852e+00	 9.4811314557e-01	-2.0919376020e+01
 1.0102375328e+00	 9.6923687881e-01	-2.1927905694e+01
 9.8994949365e-01	 9.8994949365e-01	-2.3050760154e+01
 1.1822561596e+00	 7.7293377665e-01	-1.6610005655e+01
 1.1661541569e+00	 7.9701990710e-01	-1.6653303903e+01
 1.1495292759e+00	 8.2081587081e-01	-1.6803222786e+01
 1.1323893126e+00	 8.4430485893e-01	-1.7058016252e+01
 1.1147427762e+00	 8.6747034120e-01	-1.7415582893e+01
 1.0965988775e+00	 8.9029610352e-01	-1.7873471993e+01
 1.0779675130e+00	 9.1276628488e-01	-1.8428891428e+01
 1.0588592488e+00	 9.3486541343e-01	-1.9078717385e+01
 1.0392853002e+00	 9.5657844151e-01	-1.9819505859e+01
 1.0192575108e+00	 9.7789077951e-01	-2.0647505847e+01
 9.9878832842e-01	 9.9878832842e-01	-2.1558674170e+01
 1.1927186035e+00	 7.7977389856e-01	-1.5245606198e+01
 1.1764741052e+00	 8.0407318061e-01	-1.5512714637e+01
 1.1597021014e+00	 8.2807972807e-01	-1.5828354485e+01
 1.1424104569e+00	 8.5177658335e-01	-1.6193499812e+01
 1.1246077565e+00	 8.7514706988e-01	-1.6609000569e+01
 1.1063032923e+00	 8.9817483010e-01	-1.7075578286e+01
 1.0875070486e+00	 9.2084386262e-01	-1.7593822342e+01
 1.0682296846e+00	 9.4313855868e-01	-1.8164186815e+01
 1.0484825153e+00	 9.6504373745e-01	-1.8786987957e+01
 1.0282774888e+00	 9.8654468022e-01	-1.9462402303e+01
 1.0076271632e+00	 1.0076271632e+00	-2.0190465426e+01
 1.2031810474e+00	 7.8661402048e-01	-1.3757206279e+01
 1.1867940535e+00	 8.1112645412e-01	-1.4268680456e+01
 1.1698749268e+00	 8.3534358534e-01	-1.4771572759e+01
 1.1524316013e+00	 8.5924830776e-01	-1.5269541444e+01
 1.1344727369e+00	 8.8282379857e-01	-1.5766349191e+01
 1.1160077072e+00	 9.0605355668e-01	-1.6265848572e+01
 1.0970465841e+00	 9.2892144036e-01	-1.6771966803e+01
 1.0776001205e+00	 9.5141170393e-01	-1.7288689873e+01
 1.0576797303e+00	 9.7350903339e-01	-1.7820046154e+01
 1.0372974667e+00	 9.9519858092e-01	-1.8370089575e+01
 1.0164659980e+00	 1.0164659980e+00	-1.8942882491e+01
 1.2136434913e+00	 7.9345414240e-01	-1.2147997102e+01
 1.1971140018e+00	 8.1817972764e-01	-1.2923860557e+01
 1.1800477523e+00	 8.4260744260e-01	-1.3634979572e+01
 1.1624527456e+00	 8.6672003218e-01	-1.4287661583e+01
 1.1443377172e+00	 8.9050052725e-01	-1.4888544368e+01
 1.1257121220e+00	 9.1393228326e-01	-1.5444571392e+01
 1.1065861196e+00	 9.3699901811e-01	-1.5962965175e+01
 1.0869705563e+00	 9.5968484918e-01	-1.6451198826e+01
 1.0668769453e+00	 9.8197432933e-01	-1.6916965935e+01
 1.0463174447e+00	 1.0038524816e+00	-1.7368148979e+01
 1.0253048327e+00	 1.0253048327e+00	-1.7812786468e+01
 1.2241059352e+00	 8.0029426432e-01	-1.0421061072e+01
 1.2074339501e+00	 8.2523300115e-01	-1.1480823536e+01
 1.1902205777e+00	 8.4987129986e-01	-1.2420605351e+01
 1.1724738900e+00	 8.7419175659e-01	-1.3249329022e+01
 1.1542026975e+00	 8.9817725593e-01	-1.3976470753e+01
 1.1354165368e+00	 9.2181100984e-01	-1.4612025785e+01
 1.1161256551e+00	 9.4507659585e-01	-1.5166470491e+01
 1.0963409921e+00	 9.6795799444e-01	-1.5650721458e+01
 1.0760741604e+00	 9.9043962528e-01	-1.6076091793e+01
 1.0553374227e+00	 1.0125063823e+00	-1.6454244924e+01
 1.0341436675e+00	 1.0341436675e+00	-1.6797146185e+01
 1.2345683791e+00	 8.0713438623e-01	-8.5793763995e+00
 1.2177538984e+00	 8.3228627467e-01	-9.9420512260e+00
 1.2003934032e+00	 8.5713515713e-01	-1.1130412018e+01
 1.1824950344e+00	 8.8166348101e-01	-1.2155963096e+01
 1.1640676778e+00	 9.0585398462e-01	-1.3030983355e+01
 1.1451209517e+00	 9.2968973642e-01	-1.3768481683e+01
 1.1256651906e+00	 9.5315417359e-01	-1.4382147910e+01
 1.1057114279e+00	 9.7623113969e-01	-1.4886299562e+01
 1.0852713754e+00	 9.9890492122e-01	-1.5295824724e+01
 1.0643574007e+00	 1.0211602830e+00	-1.5626121385e+01
 1.0429825022e+00	 1.0429825022e+00	-1.5893033623e+01
 1.2450308230e+00	 8.1397450815e-01	-6.6258214785e+00
 1.2280738467e+00	 8.3933954818e-01	-8.3099423422e+00
 1.2105662286e+00	 8.6439901439e-01	-9.7662958601e+00
 1.1925161787e+00	 8.8913520543e-01	-1.1008935760e+01
 1.1739326581e+00	 9.1353071330e-01	-1.2052908783e+01
 1.1548253665e+00	 9.3756846300e-01	-1.2914200297e+01
 1.1352047261e+00	 9.6123175134e-01	-1.3609674209e+01
 1.1150818638e+00	 9.8450428494e-01	-1.4157007512e+01
 1.0944685905e+00	 1.0073702172e+00	-1.4574619855e+01
 1.0733773786e+00	 1.0298141837e+00	-1.4881598563e+01
 1.0518213370e+00	 1.0518213370e+00	-1.5097619586e+01
 1.2554932668e+00	 8.2081463007e-01	-4.5631790453e+00
 1.2383937950e+00	 8.4639282170e-01	-6.5868159414e+00
 1.2207390541e+00	 8.7166287166e-01	-8.3300902699e+00
 1.2025373231e+00	 8.9660692984e-01	-9.8095735595e+00
 1.1837976385e+00	 9.2120744199e-01	-1.1043046426e+01
 1.1645297814e+00	 9.4544718958e-01	-1.2049434475e+01
 1.1447442616e+00	 9.6930932908e-01	-1.2848737291e+01
 1.1244522996e+00	 9.9277743019e-01	-1.3461950902e+01
 1.1036658055e+00	 1.0158355131e+00	-1.3910984182e+01
 1.0823973566e+00	 1.0384680844e+00	-1.4218569698e+01
 1.0606601718e+00	 1.0606601718e+00	-1.4408169574e+01
 9.7227182412e-01	 9.7227182412e-01	-2.6420162949e+01
 9.5192907740e-01	 9.9219757688e-01	-2.7455136160e+01
 9.3118255368e-01	 1.0116936551e+00	-2.8313785331e+01
 9.1004597768e-01	 1.0307479413e+00	-2.9021997324e+01
 8.8853355166e-01	 1.0493489065e+00	-2.9606263674e+01
 8.6665992379e-01	 1.0674856329e+00	-3.0093564575e+01
 8.4444015516e-01	 1.0851478353e+00	-3.0511250650e+01
 8.2188968569e-01	 1.1023258795e+00	-3.0886923340e+01
 7.9902429902e-01	 1.1190107996e+00	-3.1248314693e+01
 7.7586008655e-01	 1.1351943120e+00	-3.1623167397e+01
 7.5241341089e-01	 1.1508688279e+00	-3.2039115830e+01
 9.8111065889e-01	 9.8111065889e-01	-2.4670092415e+01
 9.6058297811e-01	 1.0012175549e+00	-2.5712617945e+01
 9.3964784962e-01	 1.0208908701e+00	-2.6636457395e+01
 9.1831912293e-01	 1.0401183771e+00	-2.7462213722e+01
 8.9661112940e-01	 1.0588884420e+00	-2.8210918044e+01
 8.7453865036e-01	 1.0771900478e+00	-2.8903937435e+01
 8.5211688384e-01	 1.0950128156e+00	-2.9562881200e+01
 8.2936141010e-01	 1.1123470238e+00	-3.0209506285e+01
 8.0628815628e-01	 1.1291836250e+00	-3.0865622445e+01
 7.8291336007e-01	 1.1455142603e+00	-3.1552997838e+01
 7.5925353281e-01	 1.1613312718e+00	-3.2293265642e+01
 9.8994949365e-01	 9.8994949365e-01	-2.3050760154e+01
 9.6923687881e-01	 1.0102375328e+00	-2.4064232348e+01
 9.4811314557e-01	 1.0300880852e+00	-2.5015719159e+01
 9.2659226818e-01	 1.0494888130e+00	-2.5920612822e+01
 9.0468870714e-01	 1.0684279775e+00	-2.6794559300e+01
 8.8241737694e-01	 1.0868944626e+00	-2.7653389616e+01
 8.5979361252e-01	 1.1048777959e+00	-2.8513050341e+01
 8.3683313452e-01	 1.1223681682e+00	-2.9389533741e+01
 8.1355201354e-01	 1.1393564505e+00	-3.0298808040e+01
 7.8996663358e-01	 1.1558342086e+00	-3.1256748273e+01
 7.6609365473e-01	 1.1717937157e+00	-3.2279068183e+01
 9.9878832842e-01	 9.9878832842e-01	-2.1558674170e+01
 9.7789077951e-01	 1.0192575108e+00	-2.2507458823e+01
 9.5657844151e-01	 1.0392853002e+00	-2.3450046400e+01
 9.3486541343e-01	 1.0588592488e+00	-2.4396689656e+01
 9.1276628488e-01	 1.0779675130e+00	-2.5357722664e+01
 8.9029610352e-01	 1.0965988775e+00	-2.6343515410e+01
 8.6747034120e-01	 1.1147427762e+00	-2.7364428229e+01
 8.4430485893e-01	 1.1323893126e+00	-2.8430766407e+01
 8.2081587081e-01	 1.1495292759e+00	-2.9552735251e+01
 7.9701990710e-01	 1.1661541569e+00	-3.0740395916e+01
 7.7293377665e-01	 1.1822561596e+00	-3.2003622301e+01
 1.0076271632e+00	 1.0076271632e+00	-2.0190465426e+01
 9.8654468022e-01	 1.0282774888e+00	-2.1039865701e+01
 9.6504373745e-01	 1.0484825153e+00	-2.1937968824e+01
 9.4313855868e-01	 1.0682296846e+00	-2.2889957430e+01
 9.2084386262e-01	 1.0875070486e+00	-2.3900925038e+01
 8.9817483010e-01	 1.1063032923e+00	-2.4975853636e+01
 8.7514706988e-01	 1.1246077565e+00	-2.6119591807e+01
 8.5177658335e-01	 1.1424104569e+00	-2.7336833510e+01
 8.2807972807e-01	 1.1597021014e+00	-2.8632097674e+01
 8.0407318061e-01	 1.1764741052e+00	-3.0009708740e+01
 7.7977389856e-01	 1.1927186035e+00	-3.1473778254e+01
 1.0164659980e+00	 1.0164659980e+00	-1.8942882491e+01
 9.9519858092e-01	 1.0372974667e+00	-1.9659106327e+01
 9.7350903339e-01	 1.0576797303e+00	-2.0478067716e+01
 9.5141170393e-01	 1.0776001205e+00	-2.1399946730e+01
 9.2892144036e-01	 1.0970465841e+00	-2.2424665798e+01
 9.0605355668e-01	 1.1160077072e+00	-2.3551890050e+01
 8.8282379857e-01	 1.1344727369e+00	-2.4781028852e+01
 8.5924830776e-01	 1.1524316013e+00	-2.6111238511e+01
 8.3534358534e-01	 1.1698749268e+00	-2.7541426129e+01
 8.1112645412e-01	 1.1867940535e+00	-2.9070254572e+01
 7.8661402048e-01	 1.2031810474e+00	-3.0696148510e+01
 1.0253048327e+00	 1.0253048327e+00	-1.7812786468e+01
 1.0038524816e+00	 1.0463174447e+00	-1.8362915388e+01
 9.8197432933e-01	 1.0668769453e+00	-1.9068973717e+01
 9.5968484918e-01	 1.0869705563e+00	-1.9926204767e+01
 9.3699901811e-01	 1.1065861196e+00	-2.0929427550e+01
 9.1393228326e-01	 1.1257121220e+00	-2.2073059629e+01
 8.9050052725e-01	 1.1443377172e+00	-2.3351141814e+01
 8.6672003218e-01	 1.1624527456e+00	-2.4757364531e+01
 8.4260744260e-01	 1.1800477523e+00	-2.6285095669e+01
 8.1817972764e-01	 1.1971140018e+00	-2.7927409721e+01
 7.9345414240e-01	 1.2136434913e+00	-2.9677118000e+01
 1.0341436675e+00	 1.0341436675e+00	-1.6797146185e+01
 1.0125063823e+00	 1.0553374227e+00	-1.7149105438e+01
 9.9043962528e-01	 1.0760741604e+00	-1.7709364711e+01
 9.6795799444e-01	 1.0963409921e+00	-1.8468294668e+01
 9.4507659585e-01	 1.1161256551e+00	-1.9415676841e+01
 9.2181100984e-01	 1.1354165368e+00	-2.0540748739e+01
 8.9817725593e-01	 1.1542026975e+00	-2.1832251463e+01
 8.7419175659e-01	 1.1724738900e+00	-2.3278479484e+01
 8.4987129986e-01	 1.1902205777e+00	-2.4867332234e+01
 8.2523300115e-01	 1.2074339501e+00	-2.6586367155e+01
 8.0029426432e-01	 1.2241059352e+00	-2.8422853834e+01
 1.0429825022e+00	 1.0429825022e+00	-1.5893033623e+01
 1.0211602830e+00	 1.0643574007e+00	-1.6015563594e+01
 9.9890492122e-01	 1.0852713754e+00	-1.6397963818e+01
 9.7623113969e-01	 1.1057114279e+00	-1.7025794799e+01
 9.5315417359e-01	 1.1256651906e+00	-1.7883864839e+01
 9.2968973642e-01	 1.1451209517e+00	-1.8956297192e+01
 9.0585398462e-01	 1.1640676778e+00	-2.0226600344e+01
 8.8166348101e-01	 1.1824950344e+00	-2.1677740960e+01
 8.5713515713e-01	 1.2003934032e+00	-2.3292218969e+01
 8.3228627467e-01	 1.2177538984e+00	-2.5052144267e+01
 8.0713438623e-01	 1.2345683791e+00	-2.6939314530e+01
 1.0518213370e+00	 1.0518213370e+00	-1.5097619586e+01
 1.0298141837e+00	 1.0733773786e+00	-1.4960248401e+01
 1.0073702172e+00	 1.0944685905e+00	-1.5133537497e+01
 9.8450428494e-01	 1.1150818638e+00	-1.5598298117e+01
 9.6123175134e-01	 1.1352047261e+00	-1.6334427974e+01
 9.3756846300e-01	 1.1548253665e+00	-1.7321000196e+01
 9.1353071330e-01	 1.1739326581e+00	-1.8536356061e+01
 8.8913520543e-01	 1.1925161787e+00	-1.9958200856e+01
 8.6439901439e-01	 1.2105662286e+00	-2.1563702217e+01
 8.3933954818e-01	 1.2280738467e+00	-2.3329590252e+01
 8.1397450815e-01	 1.2450308230e+00	-2.5232258776e+01
 1.0606601718e+00	 1.0606601718e+00	-1.4408169574e+01
 1.0384680844e+00	 1.0823973566e+00	-1.3981186853e+01
 1.0158355131e+00	 1.1036658055e+00	-1.3914893728e+01
 9.9277743019e-01	 1.1244522996e+00	-1.4185411564e+01
 9.6930932908e-01	 1.1447442616e+00	-1.4767788548e+01
 9.4544718958e-01	 1.1645297814e+00	-1.5636110217e+01
 9.2120744199e-01	 1.1837976385e+00	-1.6763614400e+01
 8.9660692984e-01	 1.2025373231e+00	-1.8122809776e+01
 8.7166287166e-01	 1.2207390541e+00	-1.9685597220e+01
 8.4639282170e-01	 1.2383937950e+00	-2.1423393111e+01
 8.2081463007e-01	 1.2554932668e+00	-2.3307253750e+01
 7.5241341089e-01	 1.1508688279e+00	-3.2039115830e+01
 7.2870086873e-01	 1.1660274628e+00	-3.2900379223e+01
 7.0473925348e-01	 1.1806640439e+00	-3.4646708543e+01
 6.8054551769e-01	 1.1947731159e+00	-3.7229879223e+01
 6.5613673552e-01	 1.2083499428e+00	-4.0599504478e+01
 6.3153006544e-01	 1.2213905094e+00	-4.4703278093e+01
 6.0674271315e-01	 1.2338915188e+00	-4.9487222082e+01
 5.8179189513e-01	 1.2458503886e+00	-5.4895937493e+01
 5.5669480277e-01	 1.2572652451e+00	-6.0872856667e+01
 5.3146856729e-01	 1.2681349147e+00	-6.7360495287e+01
 5.0613022563e-01	 1.2784589140e+00	-7.4300702620e+01
 7.5925353281e-01	 1.1613312718e+00	-3.2293265642e+01
 7.3532542209e-01	 1.1766277124e+00	-3.3027656794e+01
 7.1114597397e-01	 1.1913973534e+00	-3.4615873127e+01
 6.8673229512e-01	 1.2056346896e+00	-3.7015165564e+01
 6.6210161494e-01	 1.2193349423e+00	-4.0180602906e+01
 6.3727124786e-01	 1.2324940595e+00	-4.4065292699e+01
 6.1225855600e-01	 1.2451087144e+00	-4.8620607658e+01
 5.8708091236e-01	 1.2571763012e+00	-5.3796416047e+01
 5.6175566461e-01	 1.2686949292e+00	-5.9541314422e+01
 5.3630009973e-01	 1.2796634140e+00	-6.5802861202e+01
 5.1073140950e-01	 1.2900812677e+00	-7.2527809523e+01
 7.6609365473e-01	 1.1717937157e+00	-3.2279068183e+01
 7.4194997544e-01	 1.1872279621e+00	-3.2925632473e+01
 7.1755269446e-01	 1.2021306629e+00	-3.4395080645e+01
 6.9291907256e-01	 1.2164962634e+00	-3.6650063003e+01
 6.6806649436e-01	 1.2303199418e+00	-3.9651028164e+01
 6.4301243028e-01	 1.2435976096e+00	-4.3356422262e+01
 6.1777439885e-01	 1.2563259100e+00	-4.7722894387e+01
 5.9236992959e-01	 1.2685022139e+00	-5.2705506780e+01
 5.6681652646e-01	 1.2801246132e+00	-5.8257948302e+01
 5.4113163216e-01	 1.2911919132e+00	-6.4332749732e+01
 5.1533259338e-01	 1.3017036215e+00	-7.0881499452e+01
 7.7293377665e-01	 1.1822561596e+00	-3.2003622301e+01
 7.4857452879e-01	 1.1978282118e+00	-3.2600367981e+01
 7.2395941495e-01	 1.2128639724e+00	-3.3989347721e+01
 6.9910585000e-01	 1.2273578372e+00	-3.6138537118e+01
 6.7403137378e-01	 1.2413049413e+00	-3.9013690845e+01
 6.4875361269e-01	 1.2547011597e+00	-4.2578520448e+01
 6.2329024170e-01	 1.2675431056e+00	-4.6794879037e+01
 5.9765894683e-01	 1.2798281265e+00	-5.1622951539e+01
 5.7187738831e-01	 1.2915542973e+00	-5.7021449115e+01
 5.4596316460e-01	 1.3027204124e+00	-6.2947806400e+01
 5.1993377725e-01	 1.3133259753e+00	-6.9358380223e+01
 7.7977389856e-01	 1.1927186035e+00	-3.1473778254e+01
 7.5519908215e-01	 1.2084284614e+00	-3.2057712842e+01
 7.3036613543e-01	 1.2235972819e+00	-3.3403515453e+01
 7.0529262743e-01	 1.2382194110e+00	-3.5484414840e+01
 6.7999625319e-01	 1.2522899408e+00	-3.8271399913e+01
 6.5449479511e-01	 1.2658047098e+00	-4.1733376375e+01
 6.2880608455e-01	 1.2787603013e+00	-4.5837330911e+01
 6.0294796406e-01	 1.2911540391e+00	-5.0548501719e+01
 5.7693825016e-01	 1.3029839813e+00	-5.5830554094e+01
 5.5079469703e-01	 1.3142489116e+00	-6.1645759829e+01
 5.2453496112e-01	 1.3249483290e+00	-6.7955179159e+01
 7.8661402048e-01	 1.2031810474e+00	-3.0696148510e+01
 7.6182363550e-01	 1.2190287111e+00	-3.1303313602e+01
 7.3677285592e-01	 1.2343305914e+00	-3.2642257040e+01
 7.1147940487e-01	 1.2490809848e+00	-3.4691390476e+01
 6.8596113261e-01	 1.2632749402e+00	-3.7426867115e+01
 6.6023597752e-01	 1.2769082598e+00	-4.0822717420e+01
 6.3432192740e-01	 1.2899774969e+00	-4.4850993041e+01
 6.0823698129e-01	 1.3024799517e+00	-4.9481917843e+01
 5.8199911200e-01	 1.3144136654e+00	-5.4684044873e+01
 5.5562622946e-01	 1.3257774109e+00	-6.0424418122e+01
 5.2913614499e-01	 1.3365706828e+00	-6.6668737884e+01
 7.9345414240e-01	 1.2136434913e+00	-2.9677118000e+01
 7.6844818885e-01	 1.2296289607e+00	-3.0342622577e+01
 7.4317957641e-01	 1.2450639009e+00	-3.1710085016e+01
 7.1766618230e-01	 1.2599425586e+00	-3.3763031426e+01
 6.9192601202e-01	 1.2742599397e+00	-3.6482711169e+01
 6.6597715994e-01	 1.2880118099e+00	-3.9848211873e+01
 6.3983777025e-01	 1.3011946925e+00	-4.3836583316e+01
 6.1352599852e-01	 1.3138058643e+00	-4.8422969171e+01
 5.8705997385e-01	 1.3258433494e+00	-5.3580745574e+01
 5.6045776189e-01	 1.3373059101e+00	-5.9281665434e+01
 5.3373732887e-01	 1.3481930365e+00	-6.5496007401e+01
 8.0029426432e-01	 1.2241059352e+00	-2.8422853834e+01
 7.7507274221e-01	 1.2402292104e+00	-2.9180906150e+01
 7.4958629690e-01	 1.2557972104e+00	-3.0611358113e+01
 7.2385295974e-01	 1.2708041323e+00	-3.2702783600e+01
 6.9789089144e-01	 1.2852449392e+00	-3.5441461742e+01
 6.7171834235e-01	 1.2991153600e+00	-3.8811471465e+01
 6.4535361310e-01	 1.3124118881e+00	-4.2794795552e+01
 6.1881501575e-01	 1.3251317770e+00	-4.7371433321e+01
 5.9212083569e-01	 1.3372730334e+00	-5.2519520988e+01
 5.6528929432e-01	 1.3488344093e+00	-5.8215458721e+01
 5.3833851274e-01	 1.3598153903e+00	-6.4434043408e+01
 8.0713438623e-01	 1.2345683791e+00	-2.6939314530e+01
 7.8169729556e-01	 1.2508294601e+00	-2.7823252649e+01
 7.5599301738e-01	 1.2665305199e+00	-2.9350287775e+01
 7.3003973717e-01	 1.2816657061e+00	-3.1513976564e+01
 7.0385577085e-01	 1.2962299387e+00	-3.4305563213e+01
 6.7745952476e-01	 1.3102189101e+00	-3.7714053756e+01
 6.5086945594e-01	 1.3236290838e+00	-4.1726300513e+01
 6.2410403298e-01	 1.3364576896e+00	-4.6327095913e+01
 5.9718169753e-01	 1.3487027175e+00	-5.1499274844e+01
 5.7012082675e-01	 1.3603629085e+00	-5.7223824651e+01
 5.4293969661e-01	 1.3714377441e+00	-6.3480001863e+01
 8.1397450815e-01	 1.2450308230e+00	-2.5232258776e+01
 7.8832184891e-01	 1.2614297097e+00	-2.6274579821e+01
 7.6239973787e-01	 1.2772638293e+00	-2.7930944344e+01
 7.3622651460e-01	 1.2925272799e+00	-3.0199828426e+01
 7.0982065027e-01	 1.3072149381e+00	-3.3077378259e+01
 6.8320070718e-01	 1.3213224602e+00	-3.6557464410e+01
 6.5638529879e-01	 1.3348462794e+00	-4.0631746873e+01
 6.2939305020e-01	 1.3477836022e+00	-4.5289750228e+01
 6.0224255938e-01	 1.3601324015e+00	-5.0518948178e+01
 5.7495235918e-01	 1.3718914078e+00	-5.6304856673e+01
 5.4754088048e-01	 1.3830600978e+00	-6.2631134770e+01
 8.2081463007e-01	 1.2554932668e+00	-2.3307253750e+01
 7.9494640226e-01	 1.2720299594e+00	-2.4539641939e+01
 7.6880645835e-01	 1.2879971388e+00	-2.6357262936e+01
 7.4241329204e-01	 1.3033888537e+00	-2.8763450477e+01
 7.1578552968e-01	 1.3181999376e+00	-3.1759191253e+01
 6.8894188959e-01	 1.3324260103e+00	-3.5343159358e+01
 6.6190114164e-01	 1.3460634750e+00	-3.9511762136e+01
 6.3468206743e-01	 1.3591095148e+00	-4.4259196887e+01
 6.0730342122e-01	 1.3715620856e+00	-4.9577517771e+01
 5.7978389161e-01	 1.3834199070e+00	-5.5456712233e+01
 5.5214206435e-01	 1.3946824516e+00	-6.1884786171e+01
 5.0613022563e-01	 1.2784589140e+00	-7.4300702620e+01
 4.8069668729e-01	 1.2882374373e+00	-5.9032676484e+01
 4.5518470244e-01	 1.2974713433e+00	-4.3817478453e+01
 4.2961083119e-01	 1.3061621391e+00	-2.8708084976e+01
 4.0399141433e-01	 1.3143119634e+00	-1.3756101368e+01
 3.7834254540e-01	 1.3219235675e+00	 9.8839214854e-01
 3.5268004430e-01	 1.3290002958e+00	 1.5476982228e+01
 3.2701943254e-01	 1.3355460646e+00	 2.9663051627e+01
 3.0137591004e-01	 1.3415653398e+00	 4.3501895562e+01
 2.7576433360e-01	 1.3470631137e+00	 5.6950825011e+01
 2.5019919707e-01	 1.3520448816e+00	 6.9969256886e+01
 5.1073140950e-01	 1.2900812677e+00	-7.2527809523e+01
 4.8506665718e-01	 1.2999486867e+00	-5.7730081215e+01
 4.5932274519e-01	 1.3092665373e+00	-4.2921853501e+01
 4.3351638421e-01	 1.3180363404e+00	-2.8157969017e+01
 4.0766406356e-01	 1.3262602540e+00	-1.3492079046e+01
 3.8178202308e-01	 1.3339410545e+00	 1.0235245613e+00
 3.5588622652e-01	 1.3410821167e+00	 1.5338065649e+01
 3.2999233647e-01	 1.3476873925e+00	 2.9402427681e+01
 3.0411569104e-01	 1.3537613883e+00	 4.3169284930e+01
 2.7827128209e-01	 1.3593091420e+00	 5.6593220647e+01
 2.5247373523e-01	 1.3643361987e+00	 6.9630832043e+01
 5.1533259338e-01	 1.3017036215e+00	-7.0881499452e+01
 4.8943662707e-01	 1.3116599361e+00	-5.6559648423e+01
 4.6346078794e-01	 1.3210617313e+00	-4.2165119430e+01
 4.3742193722e-01	 1.3299105417e+00	-2.7754594359e+01
 4.1133671278e-01	 1.3382085445e+00	-1.3383741402e+01
 3.8522150077e-01	 1.3459585415e+00	 8.9296700610e-01
 3.5909240874e-01	 1.3531639376e+00	 1.5022424763e+01
 3.3296524041e-01	 1.3598287203e+00	 2.8953050563e+01
 3.0685547204e-01	 1.3659574368e+00	 4.2634933761e+01
 2.8077823058e-01	 1.3715551703e+00	 5.6019967246e+01
 2.5474827338e-01	 1.3766275158e+00	 6.9061967065e+01
 5.1993377725e-01	 1.3133259753e+00	-6.9358380223e+01
 4.9380659695e-01	 1.3233711856e+00	-5.5517837077e+01
 4.6759883069e-01	 1.3328569254e+00	-4.1543555839e+01
 4.4132749023e-01	 1.3417847429e+00	-2.7494031433e+01
 4.1500936201e-01	 1.3501568351e+00	-1.3426920667e+01
 3.8866097846e-01	 1.3579760284e+00	 6.0115365563e-01
 3.6229859096e-01	 1.3652457584e+00	 1.4534787474e+01
 3.3593814434e-01	 1.3719700482e+00	 2.8319968322e+01
 3.0959525305e-01	 1.3781534854e+00	 4.1904235702e+01
 2.8328517906e-01	 1.3838011986e+00	 5.5236828510e+01
 2.5702281154e-01	 1.3889188329e+00	 6.8268819143e+01
 5.2453496112e-01	 1.3249483290e+00	-6.7955179159e+01
 4.9817656684e-01	 1.3350824350e+00	-5.4601230868e+01
 4.7173687344e-01	 1.3446521194e+00	-4.1053573340e+01
 4.4523304325e-01	 1.3536589442e+00	-2.7372489011e+01
 4.1868201123e-01	 1.3621051257e+00	-1.3617595763e+01
 3.9210045614e-01	 1.3699935154e+00	 1.5236265378e-01
 3.6550477318e-01	 1.3773275793e+00	 1.3879715364e+01
 3.3891104827e-01	 1.3841113761e+00	 2.7508051460e+01
 3.1233503405e-01	 1.3903495339e+00	 4.0982394737e+01
 2.8579212755e-01	 1.3960472269e+00	 5.4249365506e+01
 2.5929734969e-01	 1.4012101500e+00	 6.7257329036e+01
 5.2913614499e-01	 1.3365706828e+00	-6.6668737884e+01
 5.0254653673e-01	 1.3467936844e+00	-5.3806532779e+01
 4.7587491620e-01	 1.3564473134e+00	-4.0691707849e+01
 4.4913859626e-01	 1.3655331454e+00	-2.7386308186e+01
 4.2235466045e-01	 1.3740534163e+00	-1.3951885919e+01
 3.9553993383e-01	 1.3820110024e+00	-4.4927709841e-01
 3.6871095541e-01	 1.3894094002e+00	 1.3061610920e+01
 3.4188395221e-01	 1.3962527039e+00	 2.6522000651e+01
 3.1507481505e-01	 1.4025455825e+00	 3.9874433431e+01
 2.8829907604e-01	 1.4082932552e+00	 5.3062945471e+01
 2.6157188785e-01	 1.4135014671e+00	 6.6033230482e+01
 5.3373732887e-01	 1.3481930365e+00	-6.5496007401e+01
 5.0691650661e-01	 1.3585049339e+00	-5.3130559947e+01
 4.8001295895e-01	 1.3682425075e+00	-4.0454615192e+01
 4.5304414927e-01	 1.3774073467e+00	-2.7531956669e+01
 4.2602730967e-01	 1.3860017068e+00	-1.4426044627e+01
 3.9897941152e-01	 1.3940284894e+00	-1.1997795078e+00
 3.7191713763e-01	 1.4014912211e+00	 1.2084724396e+01
 3.4485685614e-01	 1.4083940318e+00	 2.5366354063e+01
 3.1781459605e-01	 1.4147416310e+00	 3.8585200756e+01
 2.9080602453e-01	 1.4205392835e+00	 5.1682750178e+01
 2.6384642601e-01	 1.4257927842e+00	 6.4602059124e+01
 5.3833851274e-01	 1.3598153903e+00	-6.4434043408e+01
 5.1128647650e-01	 1.3702161833e+00	-5.2570238776e+01
 4.8415100170e-01	 1.3800377015e+00	-4.0339065971e+01
 4.5694970228e-01	 1.3892815480e+00	-2.7806023374e+01
 4.2969995890e-01	 1.3979499974e+00	-1.5036453898e+01
 4.0241888921e-01	 1.4060459763e+00	-2.0952951842e+00
 3.7512331985e-01	 1.4135730419e+00	 1.0953160323e+01
 3.4782976007e-01	 1.4205353596e+00	 2.4045494304e+01
 3.2055437705e-01	 1.4269376796e+00	 3.7119379508e+01
 2.9331297302e-01	 1.4327853118e+00	 5.0113783853e+01
 2.6612096416e-01	 1.4380841013e+00	 6.2969160979e+01
 5.4293969661e-01	 1.3714377441e+00	-6.3480001863e+01
 5.1565644639e-01	 1.3819274327e+00	-5.2122600309e+01
 4.8828904445e-01	 1.3918328955e+00	-4.0341940701e+01
 4.6085525530e-01	 1.4011557492e+00	-2.8205213281e+01
 4.3337260812e-01	 1.4098982880e+00	-1.5779618814e+01
 4.0585836689e-01	 1.4180634633e+00	-3.1321056459e+00
 3.7832950207e-01	 1.4256548628e+00	 9.6708836801e+00
 3.5080266401e-01	 1.4326766875e+00	 2.2563655019e+01
 3.2329415805e-01	 1.4391337281e+00	 3.5481493353e+01
 2.9581992150e-01	 1.4450313402e+00	 4.8360880710e+01
 2.6839550232e-01	 1.4503754184e+00	 6.1139700468e+01
 5.4754088048e-01	 1.3830600978e+00	-6.2631134770e+01
 5.2002641627e-01	 1.3936386821e+00	-5.1784775828e+01
 4.9242708720e-01	 1.4036280896e+00	-4.0460225192e+01
 4.6476080831e-01	 1.4130299505e+00	-2.8726342556e+01
 4.3704525734e-01	 1.4218465786e+00	-1.6652162357e+01
 4.0929784458e-01	 1.4300809503e+00	-4.3066178172e+00
 3.8153568429e-01	 1.4377366837e+00	 8.2417257653e+00
 3.5377556794e-01	 1.4448180154e+00	 2.0924927144e+01
 3.2603393905e-01	 1.4513297766e+00	 3.3675913510e+01
 2.9832686999e-01	 1.4572773685e+00	 4.6428712086e+01
 2.7067004047e-01	 1.4626667355e+00	 5.9118668053e+01
 5.5214206435e-01	 1.3946824516e+00	-6.1884786171e+01
 5.2439638616e-01	 1.4053499316e+00	-5.1553992671e+01
 4.9656512995e-01	 1.4154232836e+00	-4.0691006155e+01
 4.6866636132e-01	 1.4249041518e+00	-2.9366333918e+01
 4.4071790656e-01	 1.4337948692e+00	-1.7650820495e+01
 4.1273732226e-01	 1.4420984373e+00	-5.6153588015e+00
 3.8474186652e-01	 1.4498185046e+00	 6.6693897642e+00
 3.5674847187e-01	 1.4569593432e+00	 1.9133264862e+01
 3.2877372005e-01	 1.4635258252e+00	 3.1706865111e+01
 3.0083381848e-01	 1.4695233968e+00	 4.4321793238e+01
 2.7294457863e-01	 1.4749580526e+00	 5.6910887486e+01
 2.5019919707e-01	 1.3520448816e+00	 6.9969256886e+01
 2.2469461325e-01	 1.3565166165e+00	 5.8361562315e+01
 1.9926429742e-01	 1.3604847444e+00	 4.7287501519e+01
 1.7392155274e-01	 1.3639561186e+00	 3.6746893133e+01
 1.4867925715e-01	 1.3669379937e+00	 2.6737950073e+01
 1.2354985213e-01	 1.3694379993e+00	 1.7257359411e+01
 9.8545332989e-02	 1.3714641145e+00	 8.3003653119e+00
 7.3677240862e-02	 1.3730246408e+00	-1.3914563009e-01
 4.8956656228e-02	 1.3741281766e+00	-8.0685572736e+00
 2.4394193985e-02	 1.3747835914e+00	-1.5496435633e+01
 0.0000000000e+00	 1.3750000000e+00	-2.2432439973e+01
 2.5247373523e-01	 1.3643361987e+00	 6.9630832043e+01
 2.2673729155e-01	 1.3688485857e+00	 5.8398358455e+01
 2.0107579104e-01	 1.3728527875e+00	 4.7564737904e+01
 1.7550265777e-01	 1.3763557197e+00	 3.7140378620e+01
 1.5003088676e-01	 1.3793647027e+00	 2.7134099871e+01
 1.2467303260e-01	 1.3818874357e+00	 1.7553171410e+01
 9.9441199652e-02	 1.3839319701e+00	 8.4033579630e+00
 7.4347033960e-02	 1.3855066830e+00	-3.1103177041e-01
 4.9401716739e-02	 1.3866202510e+00	-8.5870921165e+00
 2.4615959384e-02	 1.3872816241e+00	-1.6423263965e+01
 0.0000000000e+00	 1.3875000000e+00	-2.3819275351e+01
 2.5474827338e-01	 1.3766275158e+00	 6.9061967065e+01
 2.2877996985e-01	 1.3811805550e+00	 5.8273386022e+01
 2.0288728465e-01	 1.3852208307e+00	 4.7750690232e+01
 1.7708376279e-01	 1.3887553208e+00	 3.7514730569e+01
 1.5138251637e-01	 1.3917914117e+00	 2.7584786133e+01
 1.2579621308e-01	 1.3943368721e+00	 1.7978563685e+01
 1.0033706631e-01	 1.3963998257e+00	 8.7122041206e+00
 7.5016827059e-02	 1.3979887252e+00	-1.9970446795e-01
 4.9846777249e-02	 1.3991123253e+00	-8.7441075395e+00
 2.4837724784e-02	 1.3997796567e+00	-1.6909459126e+01
 0.0000000000e+00	 1.4000000000e+00	-2.4685691586e+01
 2.5702281154e-01	 1.3889188329e+00	 6.8268819143e+01
 2.3082264815e-01	 1.3935125242e+00	 5.7990979873e+01
 2.0469877826e-01	 1.3975888738e+00	 4.7847822885e+01
 1.7866486781e-01	 1.4011549218e+00	 3.7870498661e+01
 1.5273414598e-01	 1.4042181208e+00	 2.8088603484e+01
 1.2691939355e-01	 1.4067863084e+00	 1.8530139323e+01
 1.0123293298e-01	 1.4088676813e+00	 9.2214826817e+00
 7.5686620157e-02	 1.4104707673e+00	 1.8736211819e-01
 5.0291837760e-02	 1.4116043996e+00	-8.5491558915e+00
 2.5059490184e-02	 1.4122776894e+00	-1.6966673122e+01
 0.0000000000e+00	 1.4125000000e+00	-2.5045458207e+01
 2.5929734969e-01	 1.4012101500e+00	 6.7257329036e+01
 2.3286532645e-01	 1.4058444934e+00	 5.7555322384e+01
 2.0651027187e-01	 1.4099569169e+00	 4.7858513418e+01
 1.8024597284e-01	 1.4135545229e+00	 3.8208212937e+01
 1.5408577559e-01	 1.4166448298e+00	 2.8644195525e+01
 1.2804257402e-01	 1.4192357448e+00	 1.9204620281e+01
 1.0212879964e-01	 1.4213355368e+00	 9.9259624534e+00
 7.6356413255e-02	 1.4229528095e+00	 8.4295579261e-01
 5.0736898271e-02	 1.4240964740e+00	-8.0114546221e+00
 2.5281255583e-02	 1.4247757220e+00	-1.6606149368e+01
 0.0000000000e+00	 1.4250000000e+00	-2.4911861837e+01
 2.6157188785e-01	 1.4135014671e+00	 6.6033230482e+01
 2.3490800476e-01	 1.4181764627e+00	 5.6970450089e+01
 2.0832176549e-01	 1.4223249601e+00	 4.7785056324e+01
 1.8182707786e-01	 1.4259541240e+00	 3.8528384659e+01
 1.5543740520e-01	 1.4290715388e+00	 2.9250252706e+01
 1.2916575450e-01	 1.4316851811e+00	 1.9998842218e+01
 1.0302466630e-01	 1.4338033924e+00	 1.0820593897e+01
 7.7026206353e-02	 1.4354348517e+00	 1.7601149343e+00
 5.1181958781e-02	 1.4365885483e+00	-7.1399008419e+00
 2.5503020983e-02	 1.4372737547e+00	-1.5838740454e+01
 0.0000000000e+00	 1.4375000000e+00	-2.4297727189e+01
 2.6384642601e-01	 1.4257927842e+00	 6.4602059124e+01
 2.3695068306e-01	 1.4305084319e+00	 5.6240259959e+01
 2.1013325910e-01	 1.4346930032e+00	 4.7629666623e+01
 1.8340818289e-01	 1.4383537251e+00	 3.8831507115e+01
 1.5678903481e-01	 1.4414982479e+00	 2.9905510305e+01
 1.3028893497e-01	 1.4441346175e+00	 2.0909749599e+01
 1.0392053297e-01	 1.4462712480e+00	 1.1900501298e+01
 7.7695999451e-02	 1.4479168939e+00	 2.9321176963e+00
 5.1627019292e-02	 1.4490806226e+00	-5.9430851303e+00
 2.5724786382e-02	 1.4497717873e+00	-1.4674924995e+01
 0.0000000000e+00	 1.4500000000e+00	-2.3215436977e+01
 2.6612096416e-01	 1.4380841013e+00	 6.2969160979e+01
 2.3899336136e-01	 1.4428404012e+00	 5.5368515374e+01
 2.1194475271e-01	 1.4470610463e+00	 4.7394483256e+01
 1.8498928791e-01	 1.4507533262e+00	 3.9118056394e+01
 1.5814066442e-01	 1.4539249569e+00	 3.0608746515e+01
 1.3141211544e-01	 1.4565840538e+00	 2.1934391037e+01
 1.0481639963e-01	 1.4587391036e+00	 1.3160975339e+01
 7.8365792550e-02	 1.4603989361e+00	 4.3524717598e+00
 5.2072079803e-02	 1.4615726970e+00	-4.4293046345e+00
 2.5946551782e-02	 1.4622698200e+00	-1.3124823606e+01
 0.0000000000e+00	 1.4625000000e+00	-2.1676950803e+01
 2.6839550232e-01	 1.4503754184e+00	 6.1139700468e+01
 2.4103603966e-01	 1.4551723704e+00	 5.4358851780e+01
 2.1375624632e-01	 1.4594290895e+00	 4.7081572312e+01
 1.8657039294e-01	 1.4631529272e+00	 3.9388492109e+01
 1.5949229403e-01	 1.4663516659e+00	 3.1358780628e+01
 1.3253529592e-01	 1.4690334902e+00	 2.3069914892e+01
 1.0571226629e-01	 1.4712069592e+00	 1.4597466049e+01
 7.9035585648e-02	 1.4728809783e+00	 6.0149046081e+00
 5.2517140314e-02	 1.4740647713e+00	-2.6065755029e+00
 2.6168317182e-02	 1.4747678526e+00	-1.1198214075e+01
 0.0000000000e+00	 1.4750000000e+00	-1.9693823089e+01
 2.7067004047e-01	 1.4626667355e+00	 5.9118668053e+01
 2.4307871796e-01	 1.4675043396e+00	 5.3214782072e+01
 2.1556773994e-01	 1.4717971326e+00	 4.6692930087e+01
 1.8815149796e-01	 1.4755525283e+00	 3.9643258097e+01
 1.6084392364e-01	 1.4787783750e+00	 3.2154471303e+01
 1.3365847639e-01	 1.4814829266e+00	 2.4313565070e+01
 1.0660813296e-01	 1.4836748148e+00	 1.6205576109e+01
 7.9705378746e-02	 1.4853630205e+00	 7.9133542922e+00
 5.2962200824e-02	 1.4865568456e+00	-4.8264469174e-01
 2.6390082581e-02	 1.4872658853e+00	-8.9045457700e+00
 0.0000000000e+00	 1.4875000000e+00	-1.7277220097e+01
 2.7294457863e-01	 1.4749580526e+00	 5.6910887486e+01
 2.4512139627e-01	 1.4798363089e+00	 5.1939701694e+01
 2.1737923355e-01	 1.4841651757e+00	 4.6230485996e+01
 1.8973260298e-01	 1.4879521294e+00	 3.9882783073e+01
 1.6219555325e-01	 1.4912050840e+00	 3.2994714935e+01
 1.3478165686e-01	 1.4939323629e+00	 2.5662677049e+01
 1.0750399962e-01	 1.4961426704e+00	 1.7981054491e+01
 8.0375171844e-02	 1.4978450627e+00	 1.0041960657e+01
 5.3407261335e-02	 1.4990489200e+00	 1.9349988192e+00
 2.6611847981e-02	 1.4997639179e+00	-6.2529533169e+00
 0.0000000000e+00	 1.5000000000e+00	-1.4437936105e+01
 1.5000000000e+00	 0.0000000000e+00	 1.3922921752e+01
 1.4997639179e+00	 2.6611847981e-02	 1.2189362616e+01
 1.4990489200e+00	 5.3407261335e-02	 9.8489737421e+00
 1.4978450627e+00	 8.0375171844e-02	 6.9047315650e+00
 1.4961426704e+00	 1.0750399962e-01	 3.3613070500e+00
 1.4939323629e+00	 1.3478165686e-01	-7.7488023142e-01
 1.4912050840e+00	 1.6219555325e-01	-5.4956133558e+00
 1.4879521294e+00	 1.8973260298e-01	-1.0790835217e+01
 1.4841651757e+00	 2.1737923355e-01	-1.6648612188e+01
 1.4798363089e+00	 2.4512139627e-01	-2.3055104853e+01
 1.4749580526e+00	 2.7294457863e-01	-2.9994546339e+01
 1.5125000000e+00	 0.0000000000e+00	 1.5386286888e+01
 1.5122619506e+00	 2.6833613381e-02	 1.3003545968e+01
 1.5115409943e+00	 5.3852321846e-02	 1.0189554266e+01
 1.5103271049e+00	 8.1044964942e-02	 6.9401805011e+00
 1.5086105259e+00	 1.0839986628e-01	 3.2521343192e+00
 1.5063817993e+00	 1.3590483734e-01	-8.7698901068e-01
 1.5036317930e+00	 1.6354718286e-01	-5.4486655903e+00
 1.5003517305e+00	 1.9131370801e-01	-1.0463401912e+01
 1.4965332189e+00	 2.1919072716e-01	-1.5920696254e+01
 1.4921682781e+00	 2.4716407457e-01	-2.1819002788e+01
 1.4872493697e+00	 2.7521911678e-01	-2.8155698767e+01
 1.5250000000e+00	 0.0000000000e+00	 1.7472604331e+01
 1.5247599832e+00	 2.7055378780e-02	 1.4348892557e+01
 1.5240330686e+00	 5.4297382357e-02	 1.0966212763e+01
 1.5228091470e+00	 8.1714758041e-02	 7.3134001979e+00
 1.5210783815e+00	 1.0929573294e-01	 3.3792870206e+00
 1.5188312356e+00	 1.3702801781e-01	-8.4726224717e-01
 1.5160585021e+00	 1.6489881247e-01	-5.3773133554e+00
 1.5127513316e+00	 1.9289481303e-01	-1.0221823137e+01
 1.5089012620e+00	 2.2100222078e-01	-1.5391598606e+01
 1.5045002474e+00	 2.4920675287e-01	-2.0897254480e+01
 1.4995406868e+00	 2.7749365494e-01	-2.6749169271e+01
 1.5375000000e+00	 0.0000000000e+00	 2.0166668726e+01
 1.5372580159e+00	 2.7277144180e-02	 1.6212437195e+01
 1.5365251430e+00	 5.4742442867e-02	 1.2168304570e+01
 1.5352911892e+00	 8.2384551139e-02	 8.0161450589e+00
 1.5335462371e+00	 1.1019159961e-01	 3.7369951232e+00
 1.5312806720e+00	 1.3815119828e-01	-6.8892019076e-01
 1.5284852111e+00	 1.6625044208e-01	-5.2821554269e+00
 1.5251509326e+00	 1.9447591806e-01	-1.0064007261e+01
 1.5212693051e+00	 2.2281371439e-01	-1.5056471287e+01
 1.5168322166e+00	 2.5124943117e-01	-2.0282192963e+01
 1.5118320039e+00	 2.7976819309e-01	-2.5764412680e+01
 1.5500000000e+00	 0.0000000000e+00	 2.3453765294e+01
 1.5497560485e+00	 2.7498909579e-02	 1.8581632998e+01
 1.5490172173e+00	 5.5187503378e-02	 1.3785528459e+01
 1.5477732314e+00	 8.3054344237e-02	 9.0404355264e+00
 1.5460140927e+00	 1.1108746627e-01	 4.3196747685e+00
 1.5437301084e+00	 1.3927437876e-01	-4.0507917976e-01
 1.5409119201e+00	 1.6760207169e-01	-5.1637712430e+00
 1.5375505337e+00	 1.9605702308e-01	-9.9879301180e+00
 1.5336373482e+00	 2.2462520800e-01	-1.4910622725e+01
 1.5291641859e+00	 2.5329210948e-01	-1.9966398603e+01
 1.5241233210e+00	 2.8204273125e-01	-2.5191224013e+01
 1.5625000000e+00	 0.0000000000e+00	 2.7319650203e+01
 1.5622540812e+00	 2.7720674979e-02	 2.1444334648e+01
 1.5615092916e+00	 5.5632563889e-02	 1.5807912903e+01
 1.5602552736e+00	 8.3724137335e-02	 1.0378547440e+01
 1.5584819483e+00	 1.1198333293e-01	 5.1219208236e+00
 1.5561795447e+00	 1.4039755923e-01	 1.2442025022e-03
 1.5533386292e+00	 1.6895370130e-01	-5.0227216779e+00
 1.5499501348e+00	 1.9763812811e-01	-9.9916323012e+00
 1.5460053914e+00	 2.2643670161e-01	-1.4949511478e+01
 1.5414961551e+00	 2.5533478778e-01	-1.9942689206e+01
 1.5364146382e+00	 2.8431726940e-01	-2.5019724873e+01
 1.5750000000e+00	 0.0000000000e+00	 3.1750531883e+01
 1.5747521138e+00	 2.7942440379e-02	 2.4788782462e+01
 1.5740013660e+00	 5.6077624400e-02	 1.8225802991e+01
 1.5727373158e+00	 8.4393930433e-02	 1.2023001900e+01
 1.5709498039e+00	 1.1287919960e-01	 6.1384997881e+00
 1.5686289811e+00	 1.4152073970e-01	 5.2712916898e-01
 1.5657653382e+00	 1.7030533091e-01	-4.8595497785e+00
 1.5623497359e+00	 1.9921923313e-01	-1.0073216597e+01
 1.5583734345e+00	 2.2824819523e-01	-1.5168740275e+01
 1.5538281243e+00	 2.5737746608e-01	-2.0204110594e+01
 1.5487059553e+00	 2.8659180756e-01	-2.5240350481e+01
 1.5875000000e+00	 0.0000000000e+00	 3.6733053220e+01
 1.5872501465e+00	 2.8164205778e-02	 2.8603587208e+01
 1.5864934403e+00	 5.6522684910e-02	 2.1029847962e+01
 1.5852193580e+00	 8.5063723532e-02	 1.3966555616e+01
 1.5834176595e+00	 1.1377506626e-01	 7.3643430377e+00
 1.5810784174e+00	 1.4264392017e-01	 1.1697469573e+00
 1.5781920472e+00	 1.7165696052e-01	-4.6747814666e+00
 1.5747493369e+00	 2.0080033816e-01	-1.0230845536e+01
 1.5707414776e+00	 2.3005968884e-01	-1.5564050344e+01
 1.5661600936e+00	 2.5942014438e-01	-2.0743927628e+01
 1.5609972724e+00	 2.8886634572e-01	-2.5843837337e+01
 1.6000000000e+00	 0.0000000000e+00	 4.2254274582e+01
 1.5997481791e+00	 2.8385971178e-02	 3.2877715634e+01
 1.5989855146e+00	 5.6967745421e-02	 2.4210989325e+01
 1.5977014002e+00	 8.5733516630e-02	 1.6202191696e+01
 1.5958855151e+00	 1.1467093292e-01	 8.7945403830e+00
 1.5935278538e+00	 1.4376710065e-01	 1.9263572349e+00
 1.5906187563e+00	 1.7300859013e-01	-4.4689262080e+00
 1.5871489380e+00	 2.0238144318e-01	-1.0462739057e+01
 1.5831095208e+00	 2.3187118245e-01	-1.6131315997e+01
 1.5784920628e+00	 2.6146282268e-01	-2.1555615654e+01
 1.5732885895e+00	 2.9114088387e-01	-2.6821211445e+01
 1.6125000000e+00	 0.0000000000e+00	 4.8301657642e+01
 1.6122462118e+00	 2.8607736578e-02	 3.7600476671e+01
 1.6114775890e+00	 5.7412805932e-02	 2.7760449530e+01
 1.6101834424e+00	 8.6403309728e-02	 1.8723110880e+01
 1.6083533706e+00	 1.1556679958e-01	 1.0424333929e+01
 1.6059772901e+00	 1.4489028112e-01	 2.7943046713e+00
 1.6030454653e+00	 1.7436021974e-01	-4.2424776504e+00
 1.5995485391e+00	 2.0396254820e-01	-1.0767172288e+01
 1.5954775639e+00	 2.3368267606e-01	-1.6866539475e+01
 1.5908240321e+00	 2.6350550099e-01	-2.2632852345e+01
 1.5855799066e+00	 2.9341542203e-01	-2.8163777094e+01
 1.6250000000e+00	 0.0000000000e+00	 5.4863049942e+01
 1.6247442444e+00	 2.8829501977e-02	 4.2761508272e+01
 1.6239696633e+00	 5.7857866443e-02	 3.1669721165e+01
 1.6226654846e+00	 8.7073102826e-02	 2.1522723160e+01
 1.6208212262e+00	 1.1646266625e-01	 1.2249112216e+01
 1.6184267265e+00	 1.4601346159e-01	 3.7710156689e+00
 1.6154721743e+00	 1.7571184935e-01	-3.9959142317e+00
 1.6119481402e+00	 2.0554365323e-01	-1.1142473414e+01
 1.6078456070e+00	 2.3549416968e-01	-1.7765846029e+01
 1.6031560013e+00	 2.6554817929e-01	-2.3969509917e+01
 1.5978712237e+00	 2.9568996018e-01	-2.9863106157e+01
 1.4749580526e+00	 2.7294457863e-01	-2.9994546339e+01
 1.4695233968e+00	 3.0083381848e-01	-2.8244516044e+01
 1.4635258252e+00	 3.2877372005e-01	-2.6277381392e+01
 1.4569593432e+00	 3.5674847187e-01	-2.4105972529e+01
 1.4498185046e+00	 3.8474186652e-01	-2.1744185742e+01
 1.4420984373e+00	 4.1273732226e-01	-1.9206968260e+01
 1.4337948692e+00	 4.4071790656e-01	-1.6510297269e+01
 1.4249041518e+00	 4.6866636132e-01	-1.3671153014e+01
 1.4154232836e+00	 4.9656512995e-01	-1.0707485895e+01
 1.4053499316e+00	 5.2439638616e-01	-7.6381775228e+00
 1.3946824516e+00	 5.5214206435e-01	-4.4829957148e+00
 1.4872493697e+00	 2.7521911678e-01	-2.8155698767e+01
 1.4817694251e+00	 3.0334076697e-01	-2.6041172358e+01
 1.4757218737e+00	 3.3151350105e-01	-2.3868996535e+01
 1.4691006711e+00	 3.5972137580e-01	-2.1645222004e+01
 1.4619003254e+00	 3.8794804874e-01	-1.9376213810e+01
 1.4541159243e+00	 4.1617679995e-01	-1.7068639305e+01
 1.4457431597e+00	 4.4439055579e-01	-1.4729454242e+01
 1.4367783530e+00	 4.7257191433e-01	-1.2365886992e+01
 1.4272184776e+00	 5.0070317270e-01	-9.9854209065e+00
 1.4170611810e+00	 5.2876635604e-01	-7.5957748545e+00
 1.4063048054e+00	 5.5674324821e-01	-5.2048819804e+00
 1.4995406868e+00	 2.7749365494e-01	-2.6749169271e+01
 1.4940154534e+00	 3.0584771545e-01	-2.4200420965e+01
 1.4879179223e+00	 3.3425328206e-01	-2.1750706565e+01
 1.4812419989e+00	 3.6269427974e-01	-1.9399372962e+01
 1.4739821463e+00	 3.9115423096e-01	-1.7145337949e+01
 1.4661334112e+00	 4.1961627764e-01	-1.4987081343e+01
 1.4576914503e+00	 4.4806320501e-01	-1.2922638104e+01
 1.4486525543e+00	 4.7647746734e-01	-1.0949593582e+01
 1.4390136716e+00	 5.0484121545e-01	-9.0650810154e+00
 1.4287724304e+00	 5.3313632592e-01	-7.2657813799e+00
 1.4179271591e+00	 5.6134443208e-01	-5.5479256920e+00
 1.5118320039e+00	 2.7976819309e-01	-2.5764412680e+01
 1.5062614817e+00	 3.0835466394e-01	-2.2713416347e+01
 1.5001139708e+00	 3.3699306306e-01	-1.9915433257e+01
 1.4933833268e+00	 3.6566718367e-01	-1.7363180273e+01
 1.4860639672e+00	 3.9436041318e-01	-1.5048209879e+01
 1.4781508982e+00	 4.2305575532e-01	-1.2960904443e+01
 1.4696397409e+00	 4.5173585423e-01	-1.1090476315e+01
 1.4605267556e+00	 4.8038302035e-01	-9.4249740250e+00
 1.4508088657e+00	 5.0897925820e-01	-7.9512947774e+00
 1.4404836799e+00	 5.3750629581e-01	-6.6552034585e+00
 1.4295495129e+00	 5.6594561595e-01	-5.5213582676e+00
 1.5241233210e+00	 2.8204273125e-01	-2.5191224013e+01
 1.5185075100e+00	 3.1086161243e-01	-2.1571598356e+01
 1.5123100194e+00	 3.3973284406e-01	-1.8356326762e+01
 1.5055246547e+00	 3.6864008760e-01	-1.5531568066e+01
 1.4981457880e+00	 3.9756659540e-01	-1.3081589401e+01
 1.4901683852e+00	 4.2649523301e-01	-1.0988763591e+01
 1.4815880315e+00	 4.5540850345e-01	-9.2335761916e+00
 1.4724009568e+00	 4.8428857336e-01	-7.7946425327e+00
 1.4626040597e+00	 5.1311730095e-01	-6.6487351106e+00
 1.4521949293e+00	 5.4187626569e-01	-5.7708215734e+00
 1.4411718666e+00	 5.7054679982e-01	-5.1341134858e+00
 1.5364146382e+00	 2.8431726940e-01	-2.5019724873e+01
 1.5307535383e+00	 3.1336856092e-01	-2.0766680805e+01
 1.5245060679e+00	 3.4247262506e-01	-1.7066756472e+01
 1.5176659825e+00	 3.7161299154e-01	-1.3899622954e+01
 1.5102276089e+00	 4.0077277763e-01	-1.1242340070e+01
 1.5021858722e+00	 4.2993471070e-01	-9.0693569005e+00
 1.4935363220e+00	 4.5908115267e-01	-7.3525257101e+00
 1.4842751581e+00	 4.8819412638e-01	-6.0611297718e+00
 1.4743992537e+00	 5.1725534370e-01	-5.1619255206e+00
 1.4639061787e+00	 5.4624623558e-01	-4.6191993662e+00
 1.4527942204e+00	 5.7514798369e-01	-4.3948393909e+00
 1.5487059553e+00	 2.8659180756e-01	-2.5240350481e+01
 1.5429995666e+00	 3.1587550940e-01	-2.0290640591e+01
 1.5367021165e+00	 3.4521240606e-01	-1.6040302320e+01
 1.5298073104e+00	 3.7458589547e-01	-1.2462587589e+01
 1.5223094298e+00	 4.0397895985e-01	-9.5274250840e+00
 1.5142033592e+00	 4.3337418838e-01	-7.2014238942e+00
 1.5054846126e+00	 4.6275380190e-01	-5.4478942769e+00
 1.4961493594e+00	 4.9209967939e-01	-4.2268861773e+00
 1.4861944478e+00	 5.2139338645e-01	-3.4952460296e+00
 1.4756174282e+00	 5.5061620546e-01	-3.2066922414e+00
 1.4644165742e+00	 5.7974916756e-01	-3.3119096311e+00
 1.5609972724e+00	 2.8886634572e-01	-2.5843837337e+01
 1.5552455949e+00	 3.1838245789e-01	-2.0135707345e+01
 1.5488981650e+00	 3.4795218706e-01	-1.5270746491e+01
 1.5419486383e+00	 3.7755879940e-01	-1.1215854517e+01
 1.5343912507e+00	 4.0718514207e-01	-7.9339033552e+00
 1.5262208461e+00	 4.3681366607e-01	-5.3837438772e+00
 1.5174329032e+00	 4.6642645112e-01	-3.5202334579e+00
 1.5080235606e+00	 4.9600523240e-01	-2.2942851112e+00
 1.4979896418e+00	 5.2553142920e-01	-1.6529388248e+00
 1.4873286776e+00	 5.5498617535e-01	-1.5394555642e+00
 1.4760389279e+00	 5.8435035143e-01	-1.8934342612e+00
 1.5732885895e+00	 2.9114088387e-01	-2.6821211445e+01
 1.5674916232e+00	 3.2088940638e-01	-2.0294353553e+01
 1.5610942135e+00	 3.5069196806e-01	-1.4752065524e+01
 1.5540899661e+00	 3.8053170334e-01	-1.0154960325e+01
 1.5464730715e+00	 4.1039132429e-01	-6.4589257746e+00
 1.5382383331e+00	 4.4025314375e-01	-3.6151343824e+00
 1.5293811938e+00	 4.7009910034e-01	-1.5700776755e+00
 1.5198977619e+00	 4.9991078541e-01	-2.6562587327e-01
 1.5097848358e+00	 5.2966947195e-01	 3.6088635762e-01
 1.4990399270e+00	 5.5935614523e-01	 3.7654752581e-01
 1.4876612817e+00	 5.8895153530e-01	-1.4727003847e-01
 1.5855799066e+00	 2.9341542203e-01	-2.8163777094e+01
 1.5797376515e+00	 3.2339635487e-01	-2.0759285144e+01
 1.5732902621e+00	 3.5343174906e-01	-1.4478422772e+01
 1.5662312940e+00	 3.8350460727e-01	-9.2755800568e+00
 1.5585548924e+00	 4.1359750651e-01	-5.0997316455e+00
 1.5502558201e+00	 4.4369262144e-01	-1.8944496879e+00
 1.5413294843e+00	 4.7377174956e-01	 4.0205512712e-01
 1.5317719632e+00	 5.0381633842e-01	 1.8568634290e+00
 1.5215800299e+00	 5.3380751470e-01	 2.5422470989e+00
 1.5107511764e+00	 5.6372611512e-01	 2.5355386644e+00
 1.4992836355e+00	 5.9355271917e-01	 1.9189697600e+00
 1.5978712237e+00	 2.9568996018e-01	-2.9863106157e+01
 1.5919836798e+00	 3.2590330336e-01	-2.1523432517e+01
 1.5854863106e+00	 3.5617153006e-01	-1.4444161227e+01
 1.5783726218e+00	 3.8647751120e-01	-8.5735218864e+00
 1.5706367133e+00	 4.1680368873e-01	-3.8536452835e+00
 1.5622733071e+00	 4.4713209913e-01	-2.2057940446e-01
 1.5532777749e+00	 4.7744439878e-01	 2.3956628525e+00
 1.5436461644e+00	 5.0772189143e-01	 4.0710231423e+00
 1.5333752239e+00	 5.3794555745e-01	 4.8872834014e+00
 1.5224624259e+00	 5.6809608500e-01	 4.9319171563e+00
 1.5109059892e+00	 5.9815390303e-01	 4.2979059731e+00
 1.3946824516e+00	 5.5214206435e-01	-4.4829957148e+00
 1.3834199070e+00	 5.7978389161e-01	-2.7021643312e+00
 1.3715620856e+00	 6.0730342122e-01	-1.3724278105e+00
 1.3591095148e+00	 6.3468206743e-01	-4.7702431590e-01
 1.3460634750e+00	 6.6190114164e-01	 2.7609668813e-03
 1.3324260103e+00	 6.8894188959e-01	 8.7562232892e-02
 1.3181999376e+00	 7.1578552968e-01	-2.0011153686e-01
 1.3033888537e+00	 7.4241329204e-01	-8.3593218646e-01
 1.2879971388e+00	 7.6880645835e-01	-1.7938189393e+00
 1.2720299594e+00	 7.9494640226e-01	-3.0460157288e+00
 1.2554932668e+00	 8.2081463007e-01	-4.5631790453e+00
 1.4063048054e+00	 5.5674324821e-01	-5.2048819804e+00
 1.3949484062e+00	 5.8461542404e-01	-3.9374893053e+00
 1.3829917696e+00	 6.1236428306e-01	-2.9660976787e+00
 1.3704354275e+00	 6.3997108466e-01	-2.2810202046e+00
 1.3572806706e+00	 6.6741698448e-01	-1.8713016518e+00
 1.3435295603e+00	 6.9468307200e-01	-1.7247356031e+00
 1.3291849371e+00	 7.2175040909e-01	-1.8278886639e+00
 1.3142504274e+00	 7.4860006947e-01	-2.1661317727e+00
 1.2987304483e+00	 7.7521317884e-01	-2.7236785932e+00
 1.2826302090e+00	 8.0157095562e-01	-3.4836309107e+00
 1.2659557107e+00	 8.2765475199e-01	-4.4280308929e+00
 1.4179271591e+00	 5.6134443208e-01	-5.5479256920e+00
 1.4064769054e+00	 5.8944695647e-01	-4.8542902655e+00
 1.3944214537e+00	 6.1742514490e-01	-4.3041266374e+00
 1.3817613401e+00	 6.4526010189e-01	-3.8947374035e+00
 1.3684978662e+00	 6.7293282733e-01	-3.6228337877e+00
 1.3546331104e+00	 7.0042425441e-01	-3.4845365031e+00
 1.3401699366e+00	 7.2771528851e-01	-3.4753797762e+00
 1.3251120012e+00	 7.5478684690e-01	-3.5903185957e+00
 1.3094637578e+00	 7.8161989933e-01	-3.8237392214e+00
 1.2932304587e+00	 8.0819550897e-01	-4.1694729618e+00
 1.2764181546e+00	 8.3449487391e-01	-4.6208132040e+00
 1.4295495129e+00	 5.6594561595e-01	-5.5213582676e+00
 1.4180054047e+00	 5.9427848890e-01	-5.4603268892e+00
 1.4058511377e+00	 6.2248600675e-01	-5.3927401089e+00
 1.3930872527e+00	 6.5054911911e-01	-5.3228066475e+00
 1.3797150619e+00	 6.7844867017e-01	-5.2548133250e+00
 1.3657366605e+00	 7.0616543683e-01	-5.1931097906e+00
 1.3511549360e+00	 7.3368016792e-01	-5.1420925578e+00
 1.3359735750e+00	 7.6097362433e-01	-5.1061884248e+00
 1.3201970673e+00	 7.8802661981e-01	-5.0898373724e+00
 1.3038307084e+00	 8.1482006232e-01	-5.0974750320e+00
 1.2868805985e+00	 8.4133499582e-01	-5.1335148290e+00
 1.4411718666e+00	 5.7054679982e-01	-5.1341134858e+00
 1.4295339039e+00	 5.9911002133e-01	-5.7631087030e+00
 1.4172808218e+00	 6.2754686859e-01	-6.2379628695e+00
 1.4044131653e+00	 6.5583813634e-01	-6.5697094796e+00
 1.3909322575e+00	 6.8396451302e-01	-6.7701222867e+00
 1.3768402106e+00	 7.1190661924e-01	-6.8516840556e+00
 1.3621399355e+00	 7.3964504733e-01	-6.8275507984e+00
 1.3468351488e+00	 7.6716040177e-01	-6.7115115961e+00
 1.3309303768e+00	 7.9443334030e-01	-6.5179441488e+00
 1.3144309580e+00	 8.2144461567e-01	-6.2617662370e+00
 1.2973430424e+00	 8.4817511774e-01	-5.9583833146e+00
 1.4527942204e+00	 5.7514798369e-01	-4.3948393909e+00
 1.4410624031e+00	 6.0394155376e-01	-5.7699050882e+00
 1.4287105058e+00	 6.3260773043e-01	-6.8456270749e+00
 1.4157390779e+00	 6.6112715357e-01	-7.6397842183e+00
 1.4021494531e+00	 6.8948035586e-01	-8.1715506683e+00
 1.3879437607e+00	 7.1764780165e-01	-8.4614487826e+00
 1.3731249350e+00	 7.4560992674e-01	-8.5312937485e+00
 1.3576967225e+00	 7.7334717920e-01	-8.4041300287e+00
 1.3416636863e+00	 8.0084006078e-01	-8.1041598234e+00
 1.3250312077e+00	 8.2806916902e-01	-7.6566638180e+00
 1.3078054863e+00	 8.5501523966e-01	-7.0879145547e+00
 1.4644165742e+00	 5.7974916756e-01	-3.3119096311e+00
 1.4525909023e+00	 6.0877308619e-01	-5.4877548093e+00
 1.4401401898e+00	 6.3766859227e-01	-7.2213799030e+00
 1.4270649906e+00	 6.6641617079e-01	-8.5372316401e+00
 1.4133666487e+00	 6.9499619871e-01	-9.4618000890e+00
 1.3990473108e+00	 7.2338898406e-01	-1.0023555902e+01
 1.3841099345e+00	 7.5157480616e-01	-1.0252875504e+01
 1.3685582963e+00	 7.7953395663e-01	-1.0181954383e+01
 1.3523969957e+00	 8.0724678127e-01	-9.8447087124e+00
 1.3356314573e+00	 8.3469372238e-01	-9.2766656749e+00
 1.3182679302e+00	 8.6185536158e-01	-8.5148429338e+00
 1.4760389279e+00	 5.8435035143e-01	-1.8934342612e+00
 1.4641194016e+00	 6.1360461862e-01	-4.9234750934e+00
 1.4515698739e+00	 6.4272945412e-01	-7.3706908358e+00
 1.4383909032e+00	 6.7170518802e-01	-9.2661203937e+00
 1.4245838444e+00	 7.0051204155e-01	-1.0643487270e+01
 1.4101508608e+00	 7.2913016647e-01	-1.1539121266e+01
 1.3950949340e+00	 7.5753968557e-01	-1.1991864422e+01
 1.3794198701e+00	 7.8572073407e-01	-1.2042961353e+01
 1.3631303052e+00	 8.1365350175e-01	-1.1735934290e+01
 1.3462317070e+00	 8.4131827573e-01	-1.1116443253e+01
 1.3287303741e+00	 8.6869548350e-01	-1.0232131936e+01
 1.4876612817e+00	 5.8895153530e-01	-1.4727003847e-01
 1.4756479008e+00	 6.1843615105e-01	-4.0836702832e+00
 1.4629995579e+00	 6.4779031596e-01	-7.2988586003e+00
 1.4497168158e+00	 6.7699420525e-01	-9.8303921611e+00
 1.4358010400e+00	 7.0602788440e-01	-1.1719147349e+01
 1.4212544109e+00	 7.3487134888e-01	-1.3009226060e+01
 1.4060799334e+00	 7.6350456498e-01	-1.3747842561e+01
 1.3902814439e+00	 7.9190751150e-01	-1.3985191087e+01
 1.3738636147e+00	 8.2006022224e-01	-1.3774294534e+01
 1.3568319566e+00	 8.4794282908e-01	-1.3170834762e+01
 1.3391928179e+00	 8.7553560541e-01	-1.2232965195e+01
 1.4992836355e+00	 5.9355271917e-01	 1.9189697600e+00
 1.4871764000e+00	 6.2326768348e-01	-2.9747400879e+00
 1.4744292420e+00	 6.5285117780e-01	-7.0110177857e+00
 1.4610427284e+00	 6.8228322248e-01	-1.0233866577e+01
 1.4470182356e+00	 7.1154372724e-01	-1.2691237044e+01
 1.4323579610e+00	 7.4061253130e-01	-1.4434918143e+01
 1.4170649329e+00	 7.6946944439e-01	-1.5520405151e+01
 1.4011430177e+00	 7.9809428893e-01	-1.6006744725e+01
 1.3845969242e+00	 8.2646694273e-01	-1.5956357485e+01
 1.3674322063e+00	 8.5456738243e-01	-1.5434838710e+01
 1.3496552618e+00	 8.8237572733e-01	-1.4510737959e+01
 1.5109059892e+00	 5.9815390303e-01	 4.2979059731e+00
 1.4987048992e+00	 6.2809921591e-01	-1.6028874530e+00
 1.4858589260e+00	 6.5791203964e-01	-6.5121451565e+00
 1.4723686411e+00	 6.8757223970e-01	-1.0480245924e+01
 1.4582354312e+00	 7.1705957009e-01	-1.3562137667e+01
 1.4434615111e+00	 7.4635371371e-01	-1.5817213329e+01
 1.4280499324e+00	 7.7543432381e-01	-1.7309160082e+01
 1.4120045914e+00	 8.0428106636e-01	-1.8105782052e+01
 1.3953302337e+00	 8.3287366321e-01	-1.8278797011e+01
 1.3780324560e+00	 8.6119193579e-01	-1.7903607740e+01
 1.3601177057e+00	 8.8921584925e-01	-1.7059048950e+01
 1.2554932668e+00	 8.2081463007e-01	-4.5631790453e+00
 1.2383937950e+00	 8.4639282170e-01	-6.5868159414e+00
 1.2207390541e+00	 8.7166287166e-01	-8.3300902699e+00
 1.2025373231e+00	 8.9660692984e-01	-9.8095735595e+00
 1.1837976385e+00	 9.2120744199e-01	-1.1043046426e+01
 1.1645297814e+00	 9.4544718958e-01	-1.2049434475e+01
 1.1447442616e+00	 9.6930932908e-01	-1.2848737291e+01
 1.1244522996e+00	 9.9277743019e-01	-1.3461950902e+01
 1.1036658055e+00	 1.0158355131e+00	-1.3910984182e+01
 1.0823973566e+00	 1.0384680844e+00	-1.4218569698e+01
 1.0606601718e+00	 1.0606601718e+00	-1.4408169574e+01
 1.2659557107e+00	 8.2765475199e-01	-4.4280308929e+00
 1.2487137432e+00	 8.5344609521e-01	-6.1657526401e+00
 1.2309118795e+00	 8.7892672892e-01	-7.7479416152e+00
 1.2125584674e+00	 9.0407865426e-01	-9.1820105497e+00
 1.1936626188e+00	 9.2888417067e-01	-1.0476070796e+01
 1.1742341962e+00	 9.5332591617e-01	-1.1638904392e+01
 1.1542837971e+00	 9.7738690683e-01	-1.2679932131e+01
 1.1338227354e+00	 1.0010505754e+00	-1.3609177810e+01
 1.1128630206e+00	 1.0243008091e+00	-1.4437228855e+01
 1.0914173346e+00	 1.0471219851e+00	-1.5175193547e+01
 1.0694990065e+00	 1.0694990065e+00	-1.5834655133e+01
 1.2764181546e+00	 8.3449487391e-01	-4.6208132040e+00
 1.2590336915e+00	 8.6049936873e-01	-6.0096432898e+00
 1.2410847050e+00	 8.8619058619e-01	-7.3658084856e+00
 1.2225796118e+00	 9.1155037868e-01	-8.6876759699e+00
 1.2035275991e+00	 9.3656089936e-01	-9.9738067167e+00
 1.1839386111e+00	 9.6120464275e-01	-1.1222963348e+01
 1.1638233327e+00	 9.8546448457e-01	-1.2434116892e+01
 1.1431931713e+00	 1.0093237207e+00	-1.3606452383e+01
 1.1220602356e+00	 1.0327661050e+00	-1.4739373255e+01
 1.1004373125e+00	 1.0557758859e+00	-1.5832504480e+01
 1.0783378413e+00	 1.0783378413e+00	-1.6885694431e+01
 1.2868805985e+00	 8.4133499582e-01	-5.1335148290e+00
 1.2693536398e+00	 8.6755264225e-01	-6.1120124594e+00
 1.2512575304e+00	 8.9345444346e-01	-7.1787990338e+00
 1.2326007561e+00	 9.1902210310e-01	-8.3233066567e+00
 1.2133925794e+00	 9.4423762804e-01	-9.5346619056e+00
 1.1936430259e+00	 9.6908336933e-01	-1.0801729111e+01
 1.1733628682e+00	 9.9354206231e-01	-1.2113155411e+01
 1.1525636071e+00	 1.0175968660e+00	-1.3457417285e+01
 1.1312574507e+00	 1.0412314009e+00	-1.4822868280e+01
 1.1094572905e+00	 1.0644297866e+00	-1.6197787593e+01
 1.0871766761e+00	 1.0871766761e+00	-1.7570429208e+01
 1.2973430424e+00	 8.4817511774e-01	-5.9583833146e+00
 1.2796735881e+00	 8.7460591576e-01	-6.4665938866e+00
 1.2614303559e+00	 9.0071830072e-01	-7.1821795088e+00
 1.2426219005e+00	 9.2649382751e-01	-8.0857450156e+00
 1.2232575597e+00	 9.5191435673e-01	-9.1570957615e+00
 1.2033474407e+00	 9.7696209591e-01	-1.0375315977e+01
 1.1829024037e+00	 1.0016196401e+00	-1.1718851735e+01
 1.1619340429e+00	 1.0258700112e+00	-1.3165598019e+01
 1.1404546657e+00	 1.0496966969e+00	-1.4692989343e+01
 1.1184772685e+00	 1.0730836873e+00	-1.6278093336e+01
 1.0960155108e+00	 1.0960155108e+00	-1.7897706678e+01
 1.3078054863e+00	 8.5501523966e-01	-7.0879145547e+00
 1.2899935364e+00	 8.8165918928e-01	-7.0673221089e+00
 1.2716031813e+00	 9.0798215799e-01	-7.3713679301e+00
 1.2526430448e+00	 9.3396555193e-01	-7.9719347960e+00
 1.2331225400e+00	 9.5959108542e-01	-8.8396172936e+00
 1.2130518556e+00	 9.8484082249e-01	-9.9438349042e+00
 1.1924419392e+00	 1.0096972178e+00	-1.1252952513e+01
 1.1713044787e+00	 1.0341431565e+00	-1.2734407611e+01
 1.1496518808e+00	 1.0581619928e+00	-1.4354843395e+01
 1.1274972465e+00	 1.0817375880e+00	-1.6080246905e+01
 1.1048543456e+00	 1.1048543456e+00	-1.7876091311e+01
 1.3182679302e+00	 8.6185536158e-01	-8.5148429338e+00
 1.3003134847e+00	 8.8871246279e-01	-7.9083244944e+00
 1.2817760068e+00	 9.1524601525e-01	-7.7419280634e+00
 1.2626641892e+00	 9.4143727635e-01	-7.9789170682e+00
 1.2429875204e+00	 9.6726781410e-01	-8.5807831507e+00
 1.2227562704e+00	 9.9271954908e-01	-9.5073936457e+00
 1.2019814747e+00	 1.0177747955e+00	-1.0717149271e+01
 1.1806749146e+00	 1.0424163017e+00	-1.2167151074e+01
 1.1588490958e+00	 1.0666272888e+00	-1.3813375603e+01
 1.1365172244e+00	 1.0903914887e+00	-1.5610857173e+01
 1.1136931804e+00	 1.1136931804e+00	-1.7513876047e+01
 1.3287303741e+00	 8.6869548350e-01	-1.0232131936e+01
 1.3106334330e+00	 8.9576573631e-01	-8.9839136480e+00
 1.2919488322e+00	 9.2250987252e-01	-8.2895636810e+00
 1.2726853336e+00	 9.4890900077e-01	-8.1038263900e+00
 1.2528525007e+00	 9.7494454279e-01	-8.3791957445e+00
 1.2324606853e+00	 1.0005982757e+00	-9.0660968732e+00
 1.2115210102e+00	 1.0258523733e+00	-1.0113080578e+01
 1.1900453504e+00	 1.0506894470e+00	-1.1467029654e+01
 1.1680463108e+00	 1.0750925847e+00	-1.3073375721e+01
 1.1455372024e+00	 1.0990453894e+00	-1.4876325207e+01
 1.1225320151e+00	 1.1225320151e+00	-1.6819092986e+01
 1.3391928179e+00	 8.7553560541e-01	-1.2232965195e+01
 1.3209533813e+00	 9.0281900982e-01	-1.0288580174e+01
 1.3021216577e+00	 9.2977372978e-01	-9.0101130912e+00
 1.2827064779e+00	 9.5638072518e-01	-8.3438871529e+00
 1.2627174810e+00	 9.8262127147e-01	-8.2335014597e+00
 1.2421651001e+00	 1.0084770022e+00	-8.6200462947e+00
 1.2210605457e+00	 1.0339299510e+00	-9.4423341182e+00
 1.1994157862e+00	 1.0589625922e+00	-1.0637144884e+01
 1.1772435259e+00	 1.0835578807e+00	-1.2139484156e+01
 1.1545571804e+00	 1.1076992901e+00	-1.3882852382e+01
 1.1313708499e+00	 1.1313708499e+00	-1.5799523573e+01
 1.3496552618e+00	 8.8237572733e-01	-1.4510737959e+01
 1.3312733296e+00	 9.0987228334e-01	-1.1816985777e+01
 1.3122944831e+00	 9.3703758705e-01	-9.8995439221e+00
 1.2927276223e+00	 9.6385244960e-01	-8.6964100986e+00
 1.2725824613e+00	 9.9029800016e-01	-8.1423889478e+00
 1.2518695150e+00	 1.0163557288e+00	-8.1693407684e+00
 1.2306000812e+00	 1.0420075288e+00	-8.7064486541e+00
 1.2087862221e+00	 1.0672357375e+00	-9.6805024475e+00
 1.1864407409e+00	 1.0920231766e+00	-1.1016197755e+01
 1.1635771583e+00	 1.1163531908e+00	-1.2636448118e+01
 1.1402096847e+00	 1.1402096847e+00	-1.4462708314e+01
 1.3601177057e+00	 8.8921584925e-01	-1.7059048950e+01
 1.3415932778e+00	 9.1692555685e-01	-1.3563956676e+01
 1.3224673086e+00	 9.4430144431e-01	-1.0953948146e+01
 1.3027487666e+00	 9.7132417402e-01	-9.1587889964e+00
 1.2824474416e+00	 9.9797472884e-01	-8.1045874997e+00
 1.2615739298e+00	 1.0242344554e+00	-7.7140764097e+00
 1.2401396167e+00	 1.0500851065e+00	-7.9069159113e+00
 1.2181566579e+00	 1.0755088827e+00	-8.6000158610e+00
 1.1956379560e+00	 1.1004884725e+00	-9.7078753263e+00
 1.1725971363e+00	 1.1250070915e+00	-1.1142937264e+01
 1.1490485194e+00	 1.1490485194e+00	-1.2815956037e+01
 1.0606601718e+00	 1.0606601718e+00	-1.4408169574e+01
 1.0384680844e+00	 1.0823973566e+00	-1.3981186853e+01
 1.0158355131e+00	 1.1036658055e+00	-1.3914893728e+01
 9.9277743019e-01	 1.1244522996e+00	-1.4185411564e+01
 9.6930932908e-01	 1.1447442616e+00	-1.4767788548e+01
 9.4544718958e-01	 1.1645297814e+00	-1.5636110217e+01
 9.2120744199e-01	 1.1837976385e+00	-1.6763614400e+01
 8.9660692984e-01	 1.2025373231e+00	-1.8122809776e+01
 8.7166287166e-01	 1.2207390541e+00	-1.9685597220e+01
 8.4639282170e-01	 1.2383937950e+00	-2.1423393111e+01
 8.2081463007e-01	 1.2554932668e+00	-2.3307253750e+01
 1.0694990065e+00	 1.0694990065e+00	-1.5834655133e+01
 1.0471219851e+00	 1.0914173346e+00	-1.5606534479e+01
 1.0243008091e+00	 1.1128630206e+00	-1.5635947292e+01
 1.0010505754e+00	 1.1338227354e+00	-1.5909553978e+01
 9.7738690683e-01	 1.1542837971e+00	-1.6413232496e+01
 9.5332591617e-01	 1.1742341962e+00	-1.7132141623e+01
 9.2888417067e-01	 1.1936626188e+00	-1.8050787590e+01
 9.0407865426e-01	 1.2125584674e+00	-1.9153093619e+01
 8.7892672892e-01	 1.2309118795e+00	-2.0422471884e+01
 8.5344609521e-01	 1.2487137432e+00	-2.1841897374e+01
 8.2765475199e-01	 1.2659557107e+00	-2.3393983159e+01
 1.0783378413e+00	 1.0783378413e+00	-1.6885694431e+01
 1.0557758859e+00	 1.1004373125e+00	-1.6922973308e+01
 1.0327661050e+00	 1.1220602356e+00	-1.7116034119e+01
 1.0093237207e+00	 1.1431931713e+00	-1.7461943889e+01
 9.8546448457e-01	 1.1638233327e+00	-1.7957274921e+01
 9.6120464275e-01	 1.1839386111e+00	-1.8598121300e+01
 9.3656089936e-01	 1.2035275991e+00	-1.9380117717e+01
 9.1155037868e-01	 1.2225796118e+00	-2.0298460509e+01
 8.8619058619e-01	 1.2410847050e+00	-2.1347930729e+01
 8.6049936873e-01	 1.2590336915e+00	-2.2522919085e+01
 8.3449487391e-01	 1.2764181546e+00	-2.3817452562e+01
 1.0871766761e+00	 1.0871766761e+00	-1.7570429208e+01
 1.0644297866e+00	 1.1094572905e+00	-1.7938021940e+01
 1.0412314009e+00	 1.1312574507e+00	-1.8361015405e+01
 1.0175968660e+00	 1.1525636071e+00	-1.8846754043e+01
 9.9354206231e-01	 1.1733628682e+00	-1.9402372379e+01
 9.6908336933e-01	 1.1936430259e+00	-2.0034765233e+01
 9.4423762804e-01	 1.2133925794e+00	-2.0750559235e+01
 9.1902210310e-01	 1.2326007561e+00	-2.1556085847e+01
 8.9345444346e-01	 1.2512575304e+00	-2.2457356056e+01
 8.6755264225e-01	 1.2693536398e+00	-2.3460036882e+01
 8.4133499582e-01	 1.2868805985e+00	-2.4569429858e+01
 1.0960155108e+00	 1.0960155108e+00	-1.7897706678e+01
 1.0730836873e+00	 1.1184772685e+00	-1.8658956821e+01
 1.0496966969e+00	 1.1404546657e+00	-1.9376563658e+01
 1.0258700112e+00	 1.1619340429e+00	-2.0068022971e+01
 1.0016196401e+00	 1.1829024037e+00	-2.0750902579e+01
 9.7696209591e-01	 1.2033474407e+00	-2.1442766719e+01
 9.5191435673e-01	 1.2232575597e+00	-2.2161100733e+01
 9.2649382751e-01	 1.2426219005e+00	-2.2923236562e+01
 9.0071830072e-01	 1.2614303559e+00	-2.3746279540e+01
 8.7460591576e-01	 1.2796735881e+00	-2.4647036966e+01
 8.4817511774e-01	 1.2973430424e+00	-2.5641948919e+01
 1.1048543456e+00	 1.1048543456e+00	-1.7876091311e+01
 1.0817375880e+00	 1.1274972465e+00	-1.9092821919e+01
 1.0581619928e+00	 1.1496518808e+00	-2.0168170244e+01
 1.0341431565e+00	 1.1713044787e+00	-2.1129660359e+01
 1.0096972178e+00	 1.1924419392e+00	-2.2005167534e+01
 9.8484082249e-01	 1.2130518556e+00	-2.2822797262e+01
 9.5959108542e-01	 1.2331225400e+00	-2.3610763567e+01
 9.3396555193e-01	 1.2526430448e+00	-2.4397267449e+01
 9.0798215799e-01	 1.2716031813e+00	-2.5210376254e+01
 8.8165918928e-01	 1.2899935364e+00	-2.6077904792e+01
 8.5501523966e-01	 1.3078054863e+00	-2.7027298951e+01
 1.1136931804e+00	 1.1136931804e+00	-1.7513876047e+01
 1.0903914887e+00	 1.1365172244e+00	-1.9246437953e+01
 1.0666272888e+00	 1.1588490958e+00	-2.0741152576e+01
 1.0424163017e+00	 1.1806749146e+00	-2.2035452153e+01
 1.0177747955e+00	 1.2019814747e+00	-2.3167396566e+01
 9.9271954908e-01	 1.2227562704e+00	-2.4175507443e+01
 9.6726781410e-01	 1.2429875204e+00	-2.5098600558e+01
 9.4143727635e-01	 1.2626641892e+00	-2.5975617675e+01
 9.1524601525e-01	 1.2817760068e+00	-2.6845458975e+01
 8.8871246279e-01	 1.3003134847e+00	-2.7746817162e+01
 8.6185536158e-01	 1.3182679302e+00	-2.8718014358e+01
 1.1225320151e+00	 1.1225320151e+00	-1.6819092986e+01
 1.0990453894e+00	 1.1455372024e+00	-1.9126411178e+01
 1.0750925847e+00	 1.1680463108e+00	-2.1100660955e+01
 1.0506894470e+00	 1.1900453504e+00	-2.2789065432e+01
 1.0258523733e+00	 1.2115210102e+00	-2.4239749160e+01
 1.0005982757e+00	 1.2324606853e+00	-2.5501527737e+01
 9.7494454279e-01	 1.2528525007e+00	-2.6623694748e+01
 9.4890900077e-01	 1.2726853336e+00	-2.7655807463e+01
 9.2250987252e-01	 1.2919488322e+00	-2.8647472759e+01
 8.9576573631e-01	 1.3106334330e+00	-2.9648134687e+01
 8.6869548350e-01	 1.3287303741e+00	-3.0706865084e+01
 1.1313708499e+00	 1.1313708499e+00	-1.5799523573e+01
 1.1076992901e+00	 1.1545571804e+00	-1.8739141758e+01
 1.0835578807e+00	 1.1772435259e+00	-2.1251685100e+01
 1.0589625922e+00	 1.1994157862e+00	-2.3394053051e+01
 1.0339299510e+00	 1.2210605457e+00	-2.5224317692e+01
 1.0084770022e+00	 1.2421651001e+00	-2.6801469296e+01
 9.8262127147e-01	 1.2627174810e+00	-2.8185158221e+01
 9.5638072518e-01	 1.2827064779e+00	-2.9435434914e+01
 9.2977372978e-01	 1.3021216577e+00	-3.0612489772e+01
 9.0281900982e-01	 1.3209533813e+00	-3.1776394604e+01
 8.7553560541e-01	 1.3391928179e+00	-3.2986847414e+01
 1.1402096847e+00	 1.1402096847e+00	-1.4462708314e+01
 1.1163531908e+00	 1.1635771583e+00	-1.8090831755e+01
 1.0920231766e+00	 1.1864407409e+00	-2.1199060367e+01
 1.0672357375e+00	 1.2087862221e+00	-2.3853858057e+01
 1.0420075288e+00	 1.2306000812e+00	-2.6123130030e+01
 1.0163557288e+00	 1.2518695150e+00	-2.8075924697e+01
 9.9029800016e-01	 1.2725824613e+00	-2.9782130972e+01
 9.6385244960e-01	 1.2927276223e+00	-3.1312172993e+01
 9.3703758705e-01	 1.3122944831e+00	-3.2736704360e+01
 9.0987228334e-01	 1.3312733296e+00	-3.4126303931e+01
 8.8237572733e-01	 1.3496552618e+00	-3.5551175191e+01
 1.1490485194e+00	 1.1490485194e+00	-1.2815956037e+01
 1.1250070915e+00	 1.1725971363e+00	-1.7187492744e+01
 1.1004884725e+00	 1.1956379560e+00	-2.0947473683e+01
 1.0755088827e+00	 1.2181566579e+00	-2.4171817921e+01
 1.0500851065e+00	 1.2401396167e+00	-2.6938152006e+01
 1.0242344554e+00	 1.2615739298e+00	-2.9325468652e+01
 9.9797472884e-01	 1.2824474416e+00	-3.1413779830e+01
 9.7132417402e-01	 1.3027487666e+00	-3.3283766641e+01
 9.4430144431e-01	 1.3224673086e+00	-3.5016428349e+01
 9.1692555685e-01	 1.3415932778e+00	-3.6692732929e+01
 8.8921584925e-01	 1.3601177057e+00	-3.8393271455e+01
 8.2081463007e-01	 1.2554932668e+00	-2.3307253750e+01
 7.9494640226e-01	 1.2720299594e+00	-2.4539641939e+01
 7.6880645835e-01	 1.2879971388e+00	-2.6357262936e+01
 7.4241329204e-01	 1.3033888537e+00	-2.8763450477e+01
 7.1578552968e-01	 1.3181999376e+00	-3.1759191253e+01
 6.8894188959e-01	 1.3324260103e+00	-3.5343159358e+01
 6.6190114164e-01	 1.3460634750e+00	-3.9511762136e+01
 6.3468206743e-01	 1.3591095148e+00	-4.4259196887e+01
 6.0730342122e-01	 1.3715620856e+00	-4.9577517771e+01
 5.7978389161e-01	 1.3834199070e+00	-5.5456712233e+01
 5.5214206435e-01	 1.3946824516e+00	-6.1884786171e+01
 8.2765475199e-01	 1.2659557107e+00	-2.3393983159e+01
 8.0157095562e-01	 1.2826302090e+00	-2.4481092780e+01
 7.7521317884e-01	 1.2987304483e+00	-2.6116381362e+01
 7.4860006947e-01	 1.3142504274e+00	-2.8300968178e+01
 7.2175040909e-01	 1.3291849371e+00	-3.1033832184e+01
 6.9468307200e-01	 1.3435295603e+00	-3.4311851339e+01
 6.6741698448e-01	 1.3572806706e+00	-3.8129852104e+01
 6.3997108466e-01	 1.3704354275e+00	-4.2480668557e+01
 6.1236428306e-01	 1.3829917696e+00	-4.7355210524e+01
 5.8461542404e-01	 1.3949484062e+00	-5.2742540030e+01
 5.5674324821e-01	 1.4063048054e+00	-5.8629955350e+01
 8.3449487391e-01	 1.2764181546e+00	-2.3817452562e+01
 8.0819550897e-01	 1.2932304587e+00	-2.4740859035e+01
 7.8161989933e-01	 1.3094637578e+00	-2.6176293828e+01
 7.5478684690e-01	 1.3251120012e+00	-2.8122688043e+01
 7.2771528851e-01	 1.3401699366e+00	-3.0577036557e+01
 7.0042425441e-01	 1.3546331104e+00	-3.3534442168e+01
 6.7293282733e-01	 1.3684978662e+00	-3.6988168714e+01
 6.4526010189e-01	 1.3817613401e+00	-4.0929702596e+01
 6.1742514490e-01	 1.3944214537e+00	-4.5348822119e+01
 5.8944695647e-01	 1.4064769054e+00	-5.0233673980e+01
 5.6134443208e-01	 1.4179271591e+00	-5.5570856235e+01
 8.4133499582e-01	 1.2868805985e+00	-2.4569429858e+01
 8.1482006232e-01	 1.3038307084e+00	-2.5311157522e+01
 7.8802661981e-01	 1.3201970673e+00	-2.6529644019e+01
 7.6097362433e-01	 1.3359735750e+00	-2.8221657929e+01
 7.3368016792e-01	 1.3511549360e+00	-3.0382233125e+01
 7.0616543683e-01	 1.3657366605e+00	-3.3004717707e+01
 6.7844867017e-01	 1.3797150619e+00	-3.6080830711e+01
 6.5054911911e-01	 1.3930872527e+00	-3.9600726020e+01
 6.2248600675e-01	 1.4058511377e+00	-4.3553062918e+01
 5.9427848890e-01	 1.4180054047e+00	-4.7925082629e+01
 5.6594561595e-01	 1.4295495129e+00	-5.2702690207e+01
 8.4817511774e-01	 1.2973430424e+00	-2.5641948919e+01
 8.2144461567e-01	 1.3144309580e+00	-2.6184456557e+01
 7.9443334030e-01	 1.3309303768e+00	-2.7169313349e+01
 7.6716040177e-01	 1.3468351488e+00	-2.8591150381e+01
 7.3964504733e-01	 1.3621399355e+00	-3.0443063042e+01
 7.1190661924e-01	 1.3768402106e+00	-3.2716664703e+01
 6.8396451302e-01	 1.3909322575e+00	-3.5402146982e+01
 6.5583813634e-01	 1.4044131653e+00	-3.8488346042e+01
 6.2754686859e-01	 1.4172808218e+00	-4.1962814343e+01
 5.9911002133e-01	 1.4295339039e+00	-4.5811897249e+01
 5.7054679982e-01	 1.4411718666e+00	-5.0020813860e+01
 8.5501523966e-01	 1.3078054863e+00	-2.7027298951e+01
 8.2806916902e-01	 1.3250312077e+00	-2.7353465887e+01
 8.0084006078e-01	 1.3416636863e+00	-2.8088411443e+01
 7.7334717920e-01	 1.3576967225e+00	-2.9224653645e+01
 7.4560992674e-01	 1.3731249350e+00	-3.0753371370e+01
 7.1764780165e-01	 1.3879437607e+00	-3.2664462747e+01
 6.8948035586e-01	 1.4021494531e+00	-3.4946608952e+01
 6.6112715357e-01	 1.4157390779e+00	-3.7587342863e+01
 6.3260773043e-01	 1.4287105058e+00	-4.0573122026e+01
 6.0394155376e-01	 1.4410624031e+00	-4.3889405324e+01
 5.7514798369e-01	 1.4527942204e+00	-4.7520732787e+01
 8.6185536158e-01	 1.3182679302e+00	-2.8718014358e+01
 8.3469372238e-01	 1.3356314573e+00	-2.8811127109e+01
 8.0724678127e-01	 1.3523969957e+00	-2.9280267087e+01
 7.7953395663e-01	 1.3685582963e+00	-3.0115863103e+01
 7.5157480616e-01	 1.3841099345e+00	-3.1307198979e+01
 7.2338898406e-01	 1.3990473108e+00	-3.2842476623e+01
 6.9499619871e-01	 1.4133666487e+00	-3.4708883334e+01
 6.6641617079e-01	 1.4270649906e+00	-3.6892662806e+01
 6.3766859227e-01	 1.4401401898e+00	-3.9379189290e+01
 6.0877308619e-01	 1.4525909023e+00	-4.2153044353e+01
 5.7974916756e-01	 1.4644165742e+00	-4.5198095665e+01
 8.6869548350e-01	 1.3287303741e+00	-3.0706865084e+01
 8.4131827573e-01	 1.3462317070e+00	-3.0550604537e+01
 8.1365350175e-01	 1.3631303052e+00	-3.0738419591e+01
 7.8572073407e-01	 1.3794198701e+00	-3.1258673119e+01
 7.5753968557e-01	 1.3950949340e+00	-3.2098774837e+01
 7.2913016647e-01	 1.4101508608e+00	-3.3245249009e+01
 7.0051204155e-01	 1.4245838444e+00	-3.4683805230e+01
 6.7170518802e-01	 1.4383909032e+00	-3.6399411771e+01
 6.4272945412e-01	 1.4515698739e+00	-3.8376370943e+01
 6.1360461862e-01	 1.4641194016e+00	-4.0598395936e+01
 5.8435035143e-01	 1.4760389279e+00	-4.3048688621e+01
 8.7553560541e-01	 1.3391928179e+00	-3.2986847414e+01
 8.4794282908e-01	 1.3568319566e+00	-3.2565276504e+01
 8.2006022224e-01	 1.3738636147e+00	-3.2456610562e+01
 7.9190751150e-01	 1.3902814439e+00	-3.2647169261e+01
 7.6350456498e-01	 1.4060799334e+00	-3.3122508665e+01
 7.3487134888e-01	 1.4212544109e+00	-3.3867493530e+01
 7.0602788440e-01	 1.4358010400e+00	-3.4866371546e+01
 6.7699420525e-01	 1.4497168158e+00	-3.6102849004e+01
 6.4779031596e-01	 1.4629995579e+00	-3.7560167354e+01
 6.1843615105e-01	 1.4756479008e+00	-3.9221180146e+01
 5.8895153530e-01	 1.4876612817e+00	-4.1068429860e+01
 8.8237572733e-01	 1.3496552618e+00	-3.5551175191e+01
 8.5456738243e-01	 1.3674322063e+00	-3.4848727060e+01
 8.2646694273e-01	 1.3845969242e+00	-3.4428776065e+01
 7.9809428893e-01	 1.4011430177e+00	-3.4275620888e+01
 7.6946944439e-01	 1.4170649329e+00	-3.4372983921e+01
 7.4061253130e-01	 1.4323579610e+00	-3.4704088126e+01
 7.1154372724e-01	 1.4470182356e+00	-3.5251734721e+01
 6.8228322248e-01	 1.4610427284e+00	-3.5998381143e+01
 6.5285117780e-01	 1.4744292420e+00	-3.6926218808e+01
 6.2326768348e-01	 1.4871764000e+00	-3.8017250160e+01
 5.9355271917e-01	 1.4992836355e+00	-3.9253364543e+01
 8.8921584925e-01	 1.3601177057e+00	-3.8393271455e+01
 8.6119193579e-01	 1.3780324560e+00	-3.7394738058e+01
 8.3287366321e-01	 1.3953302337e+00	-3.6649039138e+01
 8.0428106636e-01	 1.4120045914e+00	-3.6138474079e+01
 7.7543432381e-01	 1.4280499324e+00	-3.5844951118e+01
 7.4635371371e-01	 1.4434615111e+00	-3.5750068735e+01
 7.1705957009e-01	 1.4582354312e+00	-3.5835196743e+01
 6.8757223970e-01	 1.4723686411e+00	-3.6081556553e+01
 6.5791203964e-01	 1.4858589260e+00	-3.6470300127e+01
 6.2809921591e-01	 1.4987048992e+00	-3.6982587135e+01
 5.9815390303e-01	 1.5109059892e+00	-3.7599659901e+01
 5.5214206435e-01	 1.3946824516e+00	-6.1884786171e+01
 5.2439638616e-01	 1.4053499316e+00	-5.1553992671e+01
 4.9656512995e-01	 1.4154232836e+00	-4.0691006155e+01
 4.6866636132e-01	 1.4249041518e+00	-2.9366333918e+01
 4.4071790656e-01	 1.4337948692e+00	-1.7650820495e+01
 4.1273732226e-01	 1.4420984373e+00	-5.6153588015e+00
 3.8474186652e-01	 1.4498185046e+00	 6.6693897642e+00
 3.5674847187e-01	 1.4569593432e+00	 1.9133264862e+01
 3.2877372005e-01	 1.4635258252e+00	 3.1706865111e+01
 3.0083381848e-01	 1.4695233968e+00	 4.4321793238e+01
 2.7294457863e-01	 1.4749580526e+00	 5.6910887486e+01
 5.5674324821e-01	 1.4063048054e+00	-5.8629955350e+01
 5.2876635604e-01	 1.4170611810e+00	-4.8234904315e+01
 5.0070317270e-01	 1.4272184776e+00	-3.7547488937e+01
 4.7257191433e-01	 1.4367783530e+00	-2.6620320476e+01
 4.4439055579e-01	 1.4457431597e+00	-1.5506026549e+01
 4.1617679995e-01	 1.4541159243e+00	-4.2570443749e+00
 3.8794804874e-01	 1.4619003254e+00	 7.0745786531e+00
 3.5972137580e-01	 1.4691006711e+00	 1.8437376075e+01
 3.3151350105e-01	 1.4757218737e+00	 2.9780644302e+01
 3.0334076697e-01	 1.4817694251e+00	 4.1054614619e+01
 2.7521911678e-01	 1.4872493697e+00	 5.2210614600e+01
 5.6134443208e-01	 1.4179271591e+00	-5.5570856235e+01
 5.3313632592e-01	 1.4287724304e+00	-4.5008487249e+01
 5.0484121545e-01	 1.4390136716e+00	-3.4390182079e+01
 4.7647746734e-01	 1.4486525543e+00	-2.3750888769e+01
 4.4806320501e-01	 1.4576914503e+00	-1.3125253644e+01
 4.1961627764e-01	 1.4661334112e+00	-2.5474957829e+00
 3.9115423096e-01	 1.4739821463e+00	 7.9487127635e+00
 3.6269427974e-01	 1.4812419989e+00	 1.8330360478e+01
 3.3425328206e-01	 1.4879179223e+00	 2.8565203134e+01
 3.0584771545e-01	 1.4940154534e+00	 3.8621863414e+01
 2.7749365494e-01	 1.4995406868e+00	 4.8469923065e+01
 5.6594561595e-01	 1.4295495129e+00	-5.2702690207e+01
 5.3750629581e-01	 1.4404836799e+00	-4.1872455816e+01
 5.0897925820e-01	 1.4508088657e+00	-3.1219395797e+01
 4.8038302035e-01	 1.4605267556e+00	-2.0761022130e+01
 4.5173585423e-01	 1.4696397409e+00	-1.0514229724e+01
 4.2305575532e-01	 1.4781508982e+00	-4.9525128639e-01
 3.9436041318e-01	 1.4860639672e+00	 9.2803836370e+00
 3.6566718367e-01	 1.4933833268e+00	 1.8797885357e+01
 3.3699306306e-01	 1.5001139708e+00	 2.8043236392e+01
 3.0835466394e-01	 1.5062614817e+00	 3.7003219449e+01
 2.7976819309e-01	 1.5118320039e+00	 4.5665441017e+01
 5.7054679982e-01	 1.4411718666e+00	-5.0020813860e+01
 5.4187626569e-01	 1.4521949293e+00	-3.8824598499e+01
 5.1311730095e-01	 1.4626040597e+00	-2.8035430710e+01
 4.8428857336e-01	 1.4724009568e+00	-1.7653608061e+01
 4.5540850345e-01	 1.4815880315e+00	-7.6784983597e+00
 4.2649523301e-01	 1.4901683852e+00	 1.8914258929e+00
 3.9756659540e-01	 1.4981457880e+00	 1.1058550448e+01
 3.6864008760e-01	 1.5055246547e+00	 1.9826079970e+01
 3.3973284406e-01	 1.5123100194e+00	 2.8197996733e+01
 3.1086161243e-01	 1.5185075100e+00	 3.6179017685e+01
 2.8204273125e-01	 1.5241233210e+00	 4.3774550180e+01
 5.7514798369e-01	 1.4527942204e+00	-4.7520732787e+01
 5.4624623558e-01	 1.4639061787e+00	-3.5862774959e+01
 5.1725534370e-01	 1.4743992537e+00	-2.4838578217e+01
 4.8819412638e-01	 1.4842751581e+00	-1.4431442056e+01
 4.5908115267e-01	 1.4935363220e+00	-4.6234261167e+00
 4.2993471070e-01	 1.5021858722e+00	 4.6045365723e+00
 4.0077277763e-01	 1.5102276089e+00	 1.3272525303e+01
 3.7161299154e-01	 1.5176659825e+00	 2.1401517073e+01
 3.4247262506e-01	 1.5245060679e+00	 2.9013272368e+01
 3.1336856092e-01	 1.5307535383e+00	 3.6130222013e+01
 2.8431726940e-01	 1.5364146382e+00	 4.2775355720e+01
 5.7974916756e-01	 1.4644165742e+00	-4.5198095665e+01
 5.5061620546e-01	 1.4756174282e+00	-3.2984913203e+01
 5.2139338645e-01	 1.4861944478e+00	-2.1629120865e+01
 4.9209967939e-01	 1.4961493594e+00	-1.1097231257e+01
 4.6275380190e-01	 1.5054846126e+00	-1.3542095790e+00
 4.3337418838e-01	 1.5142033592e+00	 7.6363351327e+00
 4.0397895985e-01	 1.5223094298e+00	 1.5911959231e+01
 3.7458589547e-01	 1.5298073104e+00	 2.3511195315e+01
 3.4521240606e-01	 1.5367021165e+00	 3.0473365811e+01
 3.1587550940e-01	 1.5429995666e+00	 3.6838400299e+01
 2.8659180756e-01	 1.5487059553e+00	 4.2646657542e+01
 5.8435035143e-01	 1.4760389279e+00	-4.3048688621e+01
 5.5498617535e-01	 1.4873286776e+00	-3.0189006894e+01
 5.2553142920e-01	 1.4979896418e+00	-1.8407332692e+01
 4.9600523240e-01	 1.5080235606e+00	-7.6535979290e+00
 4.6642645112e-01	 1.5174329032e+00	 2.1241179606e+00
 4.3681366607e-01	 1.5262208461e+00	 1.0979319537e+01
 4.0718514207e-01	 1.5343912507e+00	 1.8966828850e+01
 3.7755879940e-01	 1.5419486383e+00	 2.6142522482e+01
 3.4795218706e-01	 1.5488981650e+00	 3.2563073633e+01
 3.1838245789e-01	 1.5552455949e+00	 3.8285700604e+01
 2.8886634572e-01	 1.5609972724e+00	 4.3367922936e+01
 5.8895153530e-01	 1.4876612817e+00	-4.1068429860e+01
 5.5935614523e-01	 1.4990399270e+00	-2.7473112785e+01
 5.2966947195e-01	 1.5097848358e+00	-1.5173479558e+01
 4.9991078541e-01	 1.5198977619e+00	-4.1030827695e+00
 4.7009910034e-01	 1.5293811938e+00	 5.8066801246e+00
 4.4025314375e-01	 1.5382383331e+00	 1.4626221819e+01
 4.1039132429e-01	 1.5464730715e+00	 2.2427423642e+01
 3.8053170334e-01	 1.5540899661e+00	 2.9283299507e+01
 3.5069196806e-01	 1.5610942135e+00	 3.5267667169e+01
 3.2088940638e-01	 1.5674916232e+00	 4.0454828526e+01
 2.9114088387e-01	 1.5732885895e+00	 4.4919260509e+01
 5.9355271917e-01	 1.4992836355e+00	-3.9253364543e+01
 5.6372611512e-01	 1.5107511764e+00	-2.4835348267e+01
 5.3380751470e-01	 1.5215800299e+00	-1.1927819460e+01
 5.0381633842e-01	 1.5317719632e+00	-4.4814807255e-01
 4.7377174956e-01	 1.5413294843e+00	 9.6887513699e+00
 4.4369262144e-01	 1.5502558201e+00	 1.8569999008e+01
 4.1359750651e-01	 1.5585548924e+00	 2.6284333837e+01
 3.8350460727e-01	 1.5662312940e+00	 3.2921705240e+01
 3.5343174906e-01	 1.5732902621e+00	 3.8572874109e+01
 3.2339635487e-01	 1.5797376515e+00	 4.3329025587e+01
 2.9341542203e-01	 1.5855799066e+00	 4.7281395330e+01
 5.9815390303e-01	 1.5109059892e+00	-3.7599659901e+01
 5.6809608500e-01	 1.5224624259e+00	-2.2273889042e+01
 5.3794555745e-01	 1.5333752239e+00	-8.6706028343e+00
 5.0772189143e-01	 1.5436461644e+00	 3.3088192596e+00
 4.7744439878e-01	 1.5532777749e+00	 1.3765751189e+01
 4.4713209913e-01	 1.5622733071e+00	 2.2803824483e+01
 4.1680368873e-01	 1.5706367133e+00	 3.0528438838e+01
 3.8647751120e-01	 1.5783726218e+00	 3.7046281913e+01
 3.5617153006e-01	 1.5854863106e+00	 4.2464860955e+01
 3.2590330336e-01	 1.5919836798e+00	 4.6892048625e+01
 2.9568996018e-01	 1.5978712237e+00	 5.0435645222e+01
 2.7294457863e-01	 1.4749580526e+00	 5.6910887486e+01
 2.4512139627e-01	 1.4798363089e+00	 5.1939701694e+01
 2.1737923355e-01	 1.4841651757e+00	 4.6230485996e+01
 1.8973260298e-01	 1.4879521294e+00	 3.9882783073e+01
 1.6219555325e-01	 1.4912050840e+00	 3.2994714935e+01
 1.3478165686e-01	 1.4939323629e+00	 2.5662677049e+01
 1.0750399962e-01	 1.4961426704e+00	 1.7981054491e+01
 8.0375171844e-02	 1.4978450627e+00	 1.0041960657e+01
 5.3407261335e-02	 1.4990489200e+00	 1.9349988192e+00
 2.6611847981e-02	 1.4997639179e+00	-6.2529533169e+00
 0.0000000000e+00	 1.5000000000e+00	-1.4437936105e+01
 2.7521911678e-01	 1.4872493697e+00	 5.2210614600e+01
 2.4716407457e-01	 1.4921682781e+00	 4.6911291066e+01
 2.1919072716e-01	 1.4965332189e+00	 4.1279548174e+01
 1.9131370801e-01	 1.5003517305e+00	 3.5377537985e+01
 1.6354718286e-01	 1.5036317930e+00	 2.9266140620e+01
 1.3590483734e-01	 1.5063817993e+00	 2.3004791656e+01
 1.0839986628e-01	 1.5086105259e+00	 1.6651324068e+01
 8.1044964942e-02	 1.5103271049e+00	 1.0261824887e+01
 5.3852321846e-02	 1.5115409943e+00	 3.8905066173e+00
 2.6833613381e-02	 1.5122619506e+00	-2.4104066556e+00
 0.0000000000e+00	 1.5125000000e+00	-8.5907786127e+00
 2.7749365494e-01	 1.4995406868e+00	 4.8469923065e+01
 2.4920675287e-01	 1.5045002474e+00	 4.2606716470e+01
 2.2100222078e-01	 1.5089012620e+00	 3.6811995620e+01
 1.9289481303e-01	 1.5127513316e+00	 3.1110996195e+01
 1.6489881247e-01	 1.5160585021e+00	 2.5527826742e+01
 1.3702801781e-01	 1.5188312356e+00	 2.0085428008e+01
 1.0929573294e-01	 1.5210783815e+00	 1.4805539424e+01
 8.1714758041e-02	 1.5228091470e+00	 9.7086725416e+00
 5.4297382357e-02	 1.5240330686e+00	 4.8140912145e+00
 2.7055378780e-02	 1.5247599832e+00	 1.3979826976e-01
 0.0000000000e+00	 1.5250000000e+00	-4.2974716151e+00
 2.7976819309e-01	 1.5118320039e+00	 4.5665441017e+01
 2.5124943117e-01	 1.5168322166e+00	 3.9008356781e+01
 2.2281371439e-01	 1.5212693051e+00	 3.2816072715e+01
 1.9447591806e-01	 1.5251509326e+00	 2.7077370792e+01
 1.6625044208e-01	 1.5284852111e+00	 2.1780046823e+01
 1.3815119828e-01	 1.5312806720e+00	 1.6911000444e+01
 1.1019159961e-01	 1.5335462371e+00	 1.2456324912e+01
 8.2384551139e-02	 1.5352911892e+00	 8.4013961777e+00
 5.4742442867e-02	 1.5365251430e+00	 4.7309607834e+00
 2.7277144180e-02	 1.5372580159e+00	 1.4292221092e+00
 0.0000000000e+00	 1.5375000000e+00	-1.5200754105e+00
 2.8204273125e-01	 1.5241233210e+00	 4.3774550180e+01
 2.5329210948e-01	 1.5291641859e+00	 3.6099158961e+01
 2.2462520800e-01	 1.5336373482e+00	 2.9280402732e+01
 1.9605702308e-01	 1.5375505337e+00	 2.3271061227e+01
 1.6760207169e-01	 1.5409119201e+00	 1.8023065264e+01
 1.3927437876e-01	 1.5437301084e+00	 1.3487716103e+01
 1.1108746627e-01	 1.5460140927e+00	 9.6158973690e+00
 8.3054344237e-02	 1.5477732314e+00	 6.3582786545e+00
 5.5187503378e-02	 1.5490172173e+00	 3.6655100837e+00
 2.7498909579e-02	 1.5497560485e+00	 1.4884071956e+00
 0.0000000000e+00	 1.5500000000e+00	-2.2187437549e-01
 2.8431726940e-01	 1.5364146382e+00	 4.2775355720e+01
 2.5533478778e-01	 1.5414961551e+00	 3.3862615340e+01
 2.2643670161e-01	 1.5460053914e+00	 2.6193972676e+01
 1.9763812811e-01	 1.5499501348e+00	 1.9686645861e+01
 1.6895370130e-01	 1.5533386292e+00	 1.4257137706e+01
 1.4039755923e-01	 1.5561795447e+00	 9.8215832091e+00
 1.1198333293e-01	 1.5584819483e+00	 6.2960824259e+00
 8.3724137335e-02	 1.5602552736e+00	 3.5970175219e+00
 5.5632563889e-02	 1.5615092916e+00	 1.6413529985e+00
 2.7720674979e-02	 1.5622540812e+00	 3.4691827731e-01
 0.0000000000e+00	 1.5625000000e+00	-3.6732800162e-01
 2.8659180756e-01	 1.5487059553e+00	 4.2646657542e+01
 2.5737746608e-01	 1.5538281243e+00	 3.2282741973e+01
 2.2824819523e-01	 1.5583734345e+00	 2.3546118856e+01
 1.9921923313e-01	 1.5623497359e+00	 1.6318874863e+01
 1.7030533091e-01	 1.5657653382e+00	 1.0482511384e+01
 1.4152073970e-01	 1.5686289811e+00	 5.9184189695e+00
 1.1287919960e-01	 1.5709498039e+00	 2.5083300257e+00
 8.4393930433e-02	 1.5727373158e+00	 1.3474824709e-01
 5.6077624400e-02	 1.5740013660e+00	-1.3186464779e+00
 2.7942440379e-02	 1.5747521138e+00	-1.9666186885e+00
 0.0000000000e+00	 1.5750000000e+00	-1.9220242640e+00
 2.8886634572e-01	 1.5609972724e+00	 4.3367922936e+01
 2.5942014438e-01	 1.5661600936e+00	 3.1344058023e+01
 2.3005968884e-01	 1.5707414776e+00	 2.1326513131e+01
 2.0080033816e-01	 1.5747493369e+00	 1.3162663451e+01
 1.7165696052e-01	 1.5781920472e+00	 6.6994254532e+00
 1.4264392017e-01	 1.5810784174e+00	 1.7838570930e+00
 1.1377506626e-01	 1.5834176595e+00	-1.7362707820e+00
 8.5063723532e-02	 1.5852193580e+00	-4.0119336554e+00
 5.6522684910e-02	 1.5864934403e+00	-5.1923447168e+00
 2.8164205778e-02	 1.5872501465e+00	-5.4244795754e+00
 0.0000000000e+00	 1.5875000000e+00	-4.8526351929e+00
 2.9114088387e-01	 1.5732885895e+00	 4.4919260509e+01
 2.6146282268e-01	 1.5784920628e+00	 3.1031566111e+01
 2.3187118245e-01	 1.5831095208e+00	 1.9525149808e+01
 2.0238144318e-01	 1.5871489380e+00	 1.0213085442e+01
 1.7300859013e-01	 1.5906187563e+00	 2.9081113079e+00
 1.4376710065e-01	 1.5935278538e+00	-2.5766450404e+00
 1.1467093292e-01	 1.5958855151e+00	-6.4269777439e+00
 8.5733516630e-02	 1.5977014002e+00	-8.8269515318e+00
 5.6967745421e-02	 1.5989855146e+00	-9.9582903156e+00
 2.8385971178e-02	 1.5997481791e+00	-9.9998068603e+00
 0.0000000000e+00	 1.6000000000e+00	-9.1268745275e+00
 2.9341542203e-01	 1.5855799066e+00	 4.7281395330e+01
 2.6350550099e-01	 1.5908240321e+00	 3.1330733573e+01
 2.3368267606e-01	 1.5954775639e+00	 1.8132333138e+01
 2.0396254820e-01	 1.5995485391e+00	 7.4653671096e+00
 1.7436021974e-01	 1.6030454653e+00	-8.9120711643e-01
 1.4489028112e-01	 1.6059772901e+00	-7.1577995450e+00
 1.1556679958e-01	 1.6083533706e+00	-1.1553381961e+01
 8.6403309728e-02	 1.6101834424e+00	-1.4294727477e+01
 5.7412805932e-02	 1.6114775890e+00	-1.5595697267e+01
 2.8607736578e-02	 1.6122462118e+00	-1.5666576033e+01
 0.0000000000e+00	 1.6125000000e+00	-1.4713457340e+01
 2.9568996018e-01	 1.5978712237e+00	 5.0435645222e+01
 2.6554817929e-01	 1.6031560013e+00	 3.2227474596e+01
 2.3549416968e-01	 1.6078456070e+00	 1.7138665402e+01
 2.0554365323e-01	 1.6119481402e+00	 4.9148813167e+00
 1.7571184935e-01	 1.6154721743e+00	-4.6983130565e+00
 1.4601346159e-01	 1.6184267265e+00	-1.1954481509e+01
 1.1646266625e-01	 1.6208212262e+00	-1.7105395066e+01
 8.7073102826e-02	 1.6226654846e+00	-2.0400163154e+01
 5.7857866443e-02	 1.6239696633e+00	-2.2084419365e+01
 2.8829501977e-02	 1.6247442444e+00	-2.2399563559e+01
 0.0000000000e+00	 1.6250000000e+00	-2.1582061522e+01
 1.6250000000e+00	 0.0000000000e+00	 5.4863049942e+01
 1.6247442444e+00	 2.8829501977e-02	 4.2761508272e+01
 1.6239696633e+00	 5.7857866443e-02	 3.1669721165e+01
 1.6226654846e+00	 8.7073102826e-02	 2.1522723160e+01
 1.6208212262e+00	 1.1646266625e-01	 1.2249112216e+01
 1.6184267265e+00	 1.4601346159e-01	 3.7710156689e+00
 1.6154721743e+00	 1.7571184935e-01	-3.9959142317e+00
 1.6119481402e+00	 2.0554365323e-01	-1.1142473414e+01
 1.6078456070e+00	 2.3549416968e-01	-1.7765846029e+01
 1.6031560013e+00	 2.6554817929e-01	-2.3969509917e+01
 1.5978712237e+00	 2.9568996018e-01	-2.9863106157e+01
 1.6375000000e+00	 0.0000000000e+00	 1.2316305103e+01
 1.6372422771e+00	 2.9051267377e-02	 9.7012775676e+00
 1.6364617376e+00	 5.8302926953e-02	 6.7332870400e+00
 1.6351475267e+00	 8.7742895924e-02	 3.3445258974e+00
 1.6332890818e+00	 1.1735853291e-01	-5.3467193928e-01
 1.6308761629e+00	 1.4713664207e-01	-4.9756599130e+00
 1.6278988834e+00	 1.7706347896e-01	-1.0051290380e+01
 1.6243477413e+00	 2.0712475825e-01	-1.5835708901e+01
 1.6202136502e+00	 2.3730566329e-01	-2.2404131508e+01
 1.6154879705e+00	 2.6759085759e-01	-2.9832605329e+01
 1.6101625408e+00	 2.9796449834e-01	-3.8197753100e+01
 1.6500000000e+00	 0.0000000000e+00	-3.2341108746e+01
 1.6497403097e+00	 2.9273032776e-02	-2.5243515142e+01
 1.6489538120e+00	 5.8747987464e-02	-1.9839283217e+01
 1.6476295689e+00	 8.8412689023e-02	-1.6198960567e+01
 1.6457569374e+00	 1.1825439957e-01	-1.4390421246e+01
 1.6433255992e+00	 1.4825982254e-01	-1.4478491625e+01
 1.6403255924e+00	 1.7841510857e-01	-1.6524571008e+01
 1.6367473423e+00	 2.0870586328e-01	-2.0586248983e+01
 1.6325816933e+00	 2.3911715690e-01	-2.6716921636e+01
 1.6278199398e+00	 2.6963353589e-01	-3.4965408894e+01
 1.6224538579e+00	 3.0023903649e-01	-4.5375575391e+01
 1.6625000000e+00	 0.0000000000e+00	-7.9061592348e+01
 1.6622383424e+00	 2.9494798176e-02	-6.2030369532e+01
 1.6614458863e+00	 5.9193047975e-02	-4.8011091685e+01
 1.6601116111e+00	 8.9082482121e-02	-3.7076946494e+01
 1.6582247930e+00	 1.1915026624e-01	-2.9293961193e+01
 1.6557750356e+00	 1.4938300301e-01	-2.4720427408e+01
 1.6527523014e+00	 1.7976673818e-01	-2.3406332776e+01
 1.6491469434e+00	 2.1028696830e-01	-2.5392803179e+01
 1.6449497364e+00	 2.4092865051e-01	-3.0711559589e+01
 1.6401519090e+00	 2.7167621419e-01	-3.9384393648e+01
 1.6347451750e+00	 3.0251357465e-01	-5.1422666268e+01
 1.6750000000e+00	 0.0000000000e+00	-1.2779896725e+02
 1.6747363750e+00	 2.9716563576e-02	-1.0061805388e+02
 1.6739379606e+00	 5.9638108486e-02	-7.7746341818e+01
 1.6725936533e+00	 8.9752275219e-02	-5.9259561197e+01
 1.6706926486e+00	 1.2004613290e-01	-4.5221838862e+01
 1.6682244719e+00	 1.5050618349e-01	-3.5684924191e+01
 1.6651790105e+00	 1.8111836779e-01	-3.0687433617e+01
 1.6615465445e+00	 2.1186807333e-01	-3.0254119520e+01
 1.6573177796e+00	 2.4274014413e-01	-3.4395169340e+01
 1.6524838783e+00	 2.7371889250e-01	-4.3105540907e+01
 1.6470364921e+00	 3.0478811280e-01	-5.6364340087e+01
 1.6875000000e+00	 0.0000000000e+00	-1.7850842317e+02
 1.6872344077e+00	 2.9938328975e-02	-1.4096655808e+02
 1.6864300350e+00	 6.0083168996e-02	-1.0901029765e+02
 1.6850756955e+00	 9.0422068317e-02	-8.2717818997e+01
 1.6831605042e+00	 1.2094199956e-01	-6.2151296194e+01
 1.6806739083e+00	 1.5162936396e-01	-4.7355929038e+01
 1.6776057195e+00	 1.8246999740e-01	-3.8359002323e+01
 1.6739461456e+00	 2.1344917835e-01	-3.5168983122e+01
 1.6696858227e+00	 2.4455163774e-01	-3.7774663785e+01
 1.6648158475e+00	 2.7576157080e-01	-4.6144358478e+01
 1.6593278092e+00	 3.0706265096e-01	-6.0225161170e+01
 1.7000000000e+00	 0.0000000000e+00	-2.3114646772e+02
 1.6997324403e+00	 3.0160094375e-02	-1.8303704874e+02
 1.6989221093e+00	 6.0528229507e-02	-1.4176924482e+02
 1.6975577377e+00	 9.1091861415e-02	-1.0742358669e+02
 1.6956283597e+00	 1.2183786622e-01	-8.0060244449e+01
 1.6931233446e+00	 1.5275254443e-01	-5.9717861133e+01
 1.6900324285e+00	 1.8382162701e-01	-4.6412428584e+01
 1.6863457466e+00	 2.1503028338e-01	-4.0136214824e+01
 1.6820538658e+00	 2.4636313135e-01	-4.0856752501e+01
 1.6771478167e+00	 2.7780424910e-01	-4.8515898065e+01
 1.6716191263e+00	 3.0933718911e-01	-6.3028971382e+01
 1.7125000000e+00	 0.0000000000e+00	-2.8567087829e+02
 1.7122304730e+00	 3.0381859775e-02	-2.2679182620e+02
 1.7114141836e+00	 6.0973290018e-02	-1.7599045325e+02
 1.7100397799e+00	 9.1761654514e-02	-1.3334955244e+02
 1.7080962153e+00	 1.2273373289e-01	-9.8927239779e+01
 1.7055727810e+00	 1.5387572491e-01	-7.2755594544e+01
 1.7024591376e+00	 1.8517325662e-01	-5.4839353469e+01
 1.6987453477e+00	 2.1661138840e-01	-4.5154669885e+01
 1.6944219089e+00	 2.4817462496e-01	-4.3647949163e+01
 1.6894797860e+00	 2.7984692740e-01	-5.0234771919e+01
 1.6839104434e+00	 3.1161172727e-01	-6.4798916494e+01
 1.7250000000e+00	 0.0000000000e+00	-3.4204065603e+02
 1.7247285056e+00	 3.0603625174e-02	-2.7219428353e+02
 1.7239062580e+00	 6.1418350529e-02	-2.1164214152e+02
 1.7225218221e+00	 9.2431447612e-02	-1.6046919600e+02
 1.7205640709e+00	 1.2362959955e-01	-1.1873145986e+02
 1.7180222174e+00	 1.5499890538e-01	-8.6454441745e+01
 1.7148858466e+00	 1.8652488623e-01	-6.3631660314e+01
 1.7111449488e+00	 2.1819249342e-01	-5.0223236737e+01
 1.7067899521e+00	 2.4998611858e-01	-4.6154578649e+01
 1.7018117552e+00	 2.8188960570e-01	-5.1315168759e+01
 1.6962017605e+00	 3.1388626542e-01	-6.5557471408e+01
 1.7375000000e+00	 0.0000000000e+00	-4.0021598186e+02
 1.7372265383e+00	 3.0825390574e-02	-3.1920886712e+02
 1.7363983323e+00	 6.1863411039e-02	-2.4869344275e+02
 1.7350038643e+00	 9.3101240710e-02	-1.8875676027e+02
 1.7330319265e+00	 1.2452546621e-01	-1.3945268153e+02
 1.7304716537e+00	 1.5612208585e-01	-1.0080013785e+02
 1.7273125556e+00	 1.8787651584e-01	-7.2781466013e+01
 1.7235445499e+00	 2.1977359845e-01	-5.5340835789e+01
 1.7191579952e+00	 2.5179761219e-01	-4.8382783823e+01
 1.7141437245e+00	 2.8393228401e-01	-5.1770869004e+01
 1.7084930776e+00	 3.1616080358e-01	-6.5326464289e+01
 1.7500000000e+00	 0.0000000000e+00	-4.6015817432e+02
 1.7497245709e+00	 3.1047155973e-02	-3.6780103917e+02
 1.7488904066e+00	 6.2308471550e-02	-2.8711437187e+02
 1.7474859064e+00	 9.3771033808e-02	-2.1818722399e+02
 1.7454997821e+00	 1.2542133288e-01	-1.6107125940e+02
 1.7429210901e+00	 1.5724526633e-01	-1.1577882550e+02
 1.7397392647e+00	 1.8922814545e-01	-8.2281112671e+01
 1.7359441510e+00	 2.2135470347e-01	-6.0506418288e+01
 1.7315260383e+00	 2.5360910580e-01	-5.0338532044e+01
 1.7264756937e+00	 2.8597496231e-01	-5.1615259361e+01
 1.7207843947e+00	 3.1843534174e-01	-6.4127099658e+01
 1.5978712237e+00	 2.9568996018e-01	-2.9863106157e+01
 1.5919836798e+00	 3.2590330336e-01	-2.1523432517e+01
 1.5854863106e+00	 3.5617153006e-01	-1.4444161227e+01
 1.5783726218e+00	 3.8647751120e-01	-8.5735218864e+00
 1.5706367133e+00	 4.1680368873e-01	-3.8536452835e+00
 1.5622733071e+00	 4.4713209913e-01	-2.2057940446e-01
 1.5532777749e+00	 4.7744439878e-01	 2.3956628525e+00
 1.5436461644e+00	 5.0772189143e-01	 4.0710231423e+00
 1.5333752239e+00	 5.3794555745e-01	 4.8872834014e+00
 1.5224624259e+00	 5.6809608500e-01	 4.9319171563e+00
 1.5109059892e+00	 5.9815390303e-01	 4.2979059731e+00
 1.6101625408e+00	 2.9796449834e-01	-3.8197753100e+01
 1.6042297081e+00	 3.2841025184e-01	-3.1533815738e+01
 1.5976823592e+00	 3.5891131106e-01	-2.5535649944e+01
 1.5905139497e+00	 3.8945041513e-01	-2.0166256315e+01
 1.5827185341e+00	 4.2000987096e-01	-1.5385042981e+01
 1.5742907940e+00	 4.5057157681e-01	-1.1147862448e+01
 1.5652260655e+00	 4.8111704801e-01	-7.4070682261e+00
 1.5555203657e+00	 5.1162744444e-01	-4.1115917704e+00
 1.5451704179e+00	 5.4208360020e-01	-1.2070401335e+00
 1.5341736753e+00	 5.7246605488e-01	 1.3641854357e+00
 1.5225283430e+00	 6.0275508690e-01	 3.6627498593e+00
 1.6224538579e+00	 3.0023903649e-01	-4.5375575391e+01
 1.6164757364e+00	 3.3091720033e-01	-4.0557496362e+01
 1.6098784077e+00	 3.6165109207e-01	-3.5819961809e+01
 1.6026552775e+00	 3.9242331907e-01	-3.1140598938e+01
 1.5948003550e+00	 4.2321605318e-01	-2.6495923120e+01
 1.5863082810e+00	 4.5401105450e-01	-2.1861395296e+01
 1.5771743561e+00	 4.8478969723e-01	-1.7211487368e+01
 1.5673945670e+00	 5.1553299746e-01	-1.2519755510e+01
 1.5569656119e+00	 5.4622164295e-01	-7.7589212745e+00
 1.5458849247e+00	 5.7683602477e-01	-2.9009603079e+00
 1.5341506968e+00	 6.0735627077e-01	 2.0828016113e+00
 1.6347451750e+00	 3.0251357465e-01	-5.1422666268e+01
 1.6287217648e+00	 3.3342414882e-01	-4.8616729493e+01
 1.6220744563e+00	 3.6439087307e-01	-4.5315301718e+01
 1.6147966054e+00	 3.9539622300e-01	-4.1510495633e+01
 1.6068821759e+00	 4.2642223540e-01	-3.7195767582e+01
 1.5983257680e+00	 4.5745053219e-01	-3.2365995280e+01
 1.5891226466e+00	 4.8846234645e-01	-2.7017551813e+01
 1.5792687682e+00	 5.1943855047e-01	-2.1148375281e+01
 1.5687608060e+00	 5.5035968570e-01	-1.4758033441e+01
 1.5575961742e+00	 5.8120599466e-01	-7.8477827312e+00
 1.5457730505e+00	 6.1195745464e-01	-4.2062103833e-01
 1.6470364921e+00	 3.0478811280e-01	-5.6364340087e+01
 1.6409677931e+00	 3.3593109731e-01	-5.5733105931e+01
 1.6342705048e+00	 3.6713065407e-01	-5.4039331179e+01
 1.6269379333e+00	 3.9836912693e-01	-5.1289476037e+01
 1.6189639967e+00	 4.2962841762e-01	-4.7493775275e+01
 1.6103432550e+00	 4.6089000987e-01	-4.2666336010e+01
 1.6010709372e+00	 4.9213499567e-01	-3.6825220165e+01
 1.5911429695e+00	 5.2334410348e-01	-2.9992510411e+01
 1.5805560000e+00	 5.5449772845e-01	-2.2194358419e+01
 1.5693074236e+00	 5.8557596454e-01	-1.3461014384e+01
 1.5573954043e+00	 6.1655863851e-01	-3.8268368400e+00
 1.6593278092e+00	 3.0706265096e-01	-6.0225161170e+01
 1.6532138214e+00	 3.3843804579e-01	-6.1927576784e+01
 1.6464665533e+00	 3.6987043507e-01	-6.2009188442e+01
 1.6390792611e+00	 4.0134203087e-01	-6.0490668962e+01
 1.6310458176e+00	 4.3283459984e-01	-5.7398872609e+01
 1.6223607419e+00	 4.6432948756e-01	-5.2766952690e+01
 1.6130192278e+00	 4.9580764490e-01	-4.6634452340e+01
 1.6030171708e+00	 5.2724965649e-01	-3.9047366716e+01
 1.5923511940e+00	 5.5863577120e-01	-3.0058174940e+01
 1.5810186730e+00	 5.8994593443e-01	-1.9725840305e+01
 1.5690177580e+00	 6.2115982239e-01	-8.1157774534e+00
 1.6716191263e+00	 3.0933718911e-01	-6.3028971382e+01
 1.6654598497e+00	 3.4094499428e-01	-6.7220476981e+01
 1.6586626019e+00	 3.7261021607e-01	-6.9241507730e+01
 1.6512205890e+00	 4.0431493480e-01	-6.9126817132e+01
 1.6431276385e+00	 4.3604078207e-01	-6.6919723518e+01
 1.6343782289e+00	 4.6776896525e-01	-6.2672247215e+01
 1.6249675184e+00	 4.9948029412e-01	-5.6445209521e+01
 1.6148913720e+00	 5.3115520951e-01	-4.8308291116e+01
 1.6041463881e+00	 5.6277381395e-01	-3.8340047762e+01
 1.5927299225e+00	 5.9431590431e-01	-2.6627881386e+01
 1.5806401118e+00	 6.2576100626e-01	-1.3267964913e+01
 1.6839104434e+00	 3.1161172727e-01	-6.4798916494e+01
 1.6777058780e+00	 3.4345194277e-01	-7.1631547764e+01
 1.6708586504e+00	 3.7534999707e-01	-7.5752437640e+01
 1.6633619168e+00	 4.0728783873e-01	-7.7210291275e+01
 1.6552094594e+00	 4.3924696429e-01	-7.6064739037e+01
 1.6463957159e+00	 4.7120844293e-01	-7.2386493029e+01
 1.6369158090e+00	 5.0315294334e-01	-6.6257454109e+01
 1.6267655733e+00	 5.3506076252e-01	-5.7770766482e+01
 1.6159415821e+00	 5.6691185670e-01	-4.7030817232e+01
 1.6044411719e+00	 5.9868587420e-01	-3.4153178466e+01
 1.5922624656e+00	 6.3036219013e-01	-1.9264490082e+01
 1.6962017605e+00	 3.1388626542e-01	-6.5557471408e+01
 1.6899519063e+00	 3.4595889126e-01	-7.5179958194e+01
 1.6830546990e+00	 3.7808977807e-01	-8.1557658736e+01
 1.6755032447e+00	 4.1026074267e-01	-8.4753103599e+01
 1.6672912802e+00	 4.4245314651e-01	-8.4842086468e+01
 1.6584132029e+00	 4.7464792062e-01	-8.1913839785e+01
 1.6488640995e+00	 5.0682559256e-01	-7.6071149679e+01
 1.6386397746e+00	 5.3896631553e-01	-6.7430406710e+01
 1.6277367761e+00	 5.7104989945e-01	-5.6121589302e+01
 1.6161524213e+00	 6.0305584409e-01	-4.2288177112e+01
 1.6038848193e+00	 6.3496337400e-01	-2.6086992042e+01
 1.7084930776e+00	 3.1616080358e-01	-6.5326464289e+01
 1.7021979346e+00	 3.4846583975e-01	-7.7884325738e+01
 1.6952507475e+00	 3.8082955907e-01	-8.6672400382e+01
 1.6876445726e+00	 4.1323364660e-01	-9.1766920688e+01
 1.6793731011e+00	 4.4565932873e-01	-9.3259698143e+01
 1.6704306899e+00	 4.7808739831e-01	-9.1258317792e+01
 1.6608123901e+00	 5.1049824179e-01	-8.5886260938e+01
 1.6505139758e+00	 5.4287186855e-01	-7.7282952013e+01
 1.6395319702e+00	 5.7518794221e-01	-6.5603725970e+01
 1.6278636708e+00	 6.0742581398e-01	-5.1019713062e+01
 1.6155071731e+00	 6.3956455788e-01	-3.3717638370e+01
 1.7207843947e+00	 3.1843534174e-01	-6.4127099658e+01
 1.7144439629e+00	 3.5097278823e-01	-7.9762735966e+01
 1.7074467961e+00	 3.8356934007e-01	-9.1111456862e+01
 1.6997859004e+00	 4.1620655053e-01	-9.8263075847e+01
 1.6914549220e+00	 4.4886551095e-01	-1.0132527982e+02
 1.6824481768e+00	 4.8152687600e-01	-1.0042384228e+02
 1.6727606807e+00	 5.1417089101e-01	-9.5702753686e+01
 1.6623881771e+00	 5.4677742156e-01	-8.7324264403e+01
 1.6513271642e+00	 5.7932598496e-01	-7.5468836139e+01
 1.6395749202e+00	 6.1179578386e-01	-6.0334998292e+01
 1.6271295269e+00	 6.4416574175e-01	-4.2139106269e+01
 1.5109059892e+00	 5.9815390303e-01	 4.2979059731e+00
 1.4987048992e+00	 6.2809921591e-01	-1.6028874530e+00
 1.4858589260e+00	 6.5791203964e-01	-6.5121451565e+00
 1.4723686411e+00	 6.8757223970e-01	-1.0480245924e+01
 1.4582354312e+00	 7.1705957009e-01	-1.3562137667e+01
 1.4434615111e+00	 7.4635371371e-01	-1.5817213329e+01
 1.4280499324e+00	 7.7543432381e-01	-1.7309160082e+01
 1.4120045914e+00	 8.0428106636e-01	-1.8105782052e+01
 1.3953302337e+00	 8.3287366321e-01	-1.8278797011e+01
 1.3780324560e+00	 8.6119193579e-01	-1.7903607740e+01
 1.3601177057e+00	 8.8921584925e-01	-1.7059048950e+01
 1.5225283430e+00	 6.0275508690e-01	 3.6627498593e+00
 1.5102333985e+00	 6.3293074833e-01	-2.4059455751e-01
 1.4972886101e+00	 6.6297290149e-01	-3.6209038536e+00
 1.4836945537e+00	 6.9286125693e-01	-6.5100863899e+00
 1.4694526269e+00	 7.2257541294e-01	-8.9425794978e+00
 1.4545650612e+00	 7.5209489612e-01	-1.0955263805e+01
 1.4390349319e+00	 7.8139920322e-01	-1.2587362392e+01
 1.4228661652e+00	 8.1046784380e-01	-1.3880325004e+01
 1.4060635432e+00	 8.3928038370e-01	-1.4877697677e+01
 1.3886327056e+00	 8.6781648914e-01	-1.5624978282e+01
 1.3705801496e+00	 8.9605597117e-01	-1.6169458585e+01
 1.5341506968e+00	 6.0735627077e-01	 2.0828016113e+00
 1.5217618977e+00	 6.3776228076e-01	 3.2853937632e-01
 1.5087182941e+00	 6.6803376333e-01	-1.3639847240e+00
 1.4950204663e+00	 6.9815027416e-01	-3.0084156765e+00
 1.4806698225e+00	 7.2809125578e-01	-4.6189083539e+00
 1.4656686113e+00	 7.5783607853e-01	-6.2100799184e+00
 1.4500199314e+00	 7.8736408263e-01	-7.7969584818e+00
 1.4337277390e+00	 8.1665462123e-01	-9.3949282517e+00
 1.4167968527e+00	 8.4568710418e-01	-1.1019671428e+01
 1.3992329553e+00	 8.7444104249e-01	-1.2687107153e+01
 1.3810425935e+00	 9.0289609308e-01	-1.4413327844e+01
 1.5457730505e+00	 6.1195745464e-01	-4.2062103833e-01
 1.5332903969e+00	 6.4259381320e-01	 1.2241218179e-01
 1.5201479782e+00	 6.7309462517e-01	 2.7292764648e-01
 1.5063463789e+00	 7.0343929139e-01	 3.5341364015e-02
 1.4918870181e+00	 7.3360709863e-01	-5.8444205434e-01
 1.4767721614e+00	 7.6357726095e-01	-1.5790195388e+00
 1.4610049308e+00	 7.9332896205e-01	-2.9394872853e+00
 1.4445893128e+00	 8.2284139866e-01	-4.6554462893e+00
 1.4275301622e+00	 8.5209382467e-01	-6.7150158624e+00
 1.4098332050e+00	 8.8106559584e-01	-9.1048552428e+00
 1.3915050374e+00	 9.0973621500e-01	-1.1810193347e+01
 1.5573954043e+00	 6.1655863851e-01	-3.8268368400e+00
 1.5448188961e+00	 6.4742534563e-01	-8.4161271538e-01
 1.5315776622e+00	 6.7815548702e-01	 1.3037211912e+00
 1.5176722916e+00	 7.0872830862e-01	 2.6314440371e+00
 1.5031042137e+00	 7.3912294148e-01	 3.1673019366e+00
 1.4878757114e+00	 7.6931844336e-01	 2.9404804054e+00
 1.4719899303e+00	 7.9929384146e-01	 1.9835580027e+00
 1.4554508866e+00	 8.2902817610e-01	 3.3244094300e-01
 1.4382634717e+00	 8.5850054516e-01	-1.9737214066e+00
 1.4204334546e+00	 8.8769014920e-01	-4.8926400640e+00
 1.4019674813e+00	 9.1657633692e-01	-8.3790087706e+00
 1.5690177580e+00	 6.2115982239e-01	-8.1157774534e+00
 1.5563473954e+00	 6.5225687806e-01	-2.5466865037e+00
 1.5430073463e+00	 6.8321634886e-01	 1.7418721961e+00
 1.5289982042e+00	 7.1401732585e-01	 4.7898475047e+00
 1.5143214094e+00	 7.4463878433e-01	 6.6426139050e+00
 1.4989792615e+00	 7.7505962577e-01	 7.3509068582e+00
 1.4829749298e+00	 8.0525872088e-01	 6.9707282353e+00
 1.4663124604e+00	 8.3521495353e-01	 5.5632215936e+00
 1.4489967812e+00	 8.6490726564e-01	 3.1945173098e+00
 1.4310337043e+00	 8.9431470255e-01	-6.4452168235e-02
 1.4124299252e+00	 9.2341645884e-01	-4.1381664335e+00
 1.5806401118e+00	 6.2576100626e-01	-1.3267964913e+01
 1.5678758946e+00	 6.5708841049e-01	-4.9764560657e+00
 1.5544370303e+00	 6.8827721071e-01	 1.6004604341e+00
 1.5403241168e+00	 7.1930634308e-01	 6.5202139680e+00
 1.5255386050e+00	 7.5015462717e-01	 9.8475989558e+00
 1.5100828116e+00	 7.8080080819e-01	 1.1654673435e+01
 1.4939599293e+00	 8.1122360029e-01	 1.2020616694e+01
 1.4771740341e+00	 8.4140173097e-01	 1.1031545721e+01
 1.4597300907e+00	 8.7131398613e-01	 8.7802905807e+00
 1.4416339539e+00	 9.0093925590e-01	 5.3661291572e+00
 1.4228923691e+00	 9.3025658076e-01	 8.9448206288e-01
 1.5922624656e+00	 6.3036219013e-01	-1.9264490082e+01
 1.5794043938e+00	 6.6191994292e-01	-8.1150458863e+00
 1.5658667144e+00	 6.9333807255e-01	 8.9218363740e-01
 1.5516500294e+00	 7.2459536031e-01	 7.8319233596e+00
 1.5367558006e+00	 7.5567047002e-01	 1.2788183772e+01
 1.5211863617e+00	 7.8654199061e-01	 1.5854123101e+01
 1.5049449288e+00	 8.1718847971e-01	 1.7131857542e+01
 1.4880356079e+00	 8.4758850840e-01	 1.6732219385e+01
 1.4704634002e+00	 8.7772070662e-01	 1.4774463225e+01
 1.4522342036e+00	 9.0756380926e-01	 1.1385920881e+01
 1.4333548130e+00	 9.3709670267e-01	 6.7016061029e+00
 1.6038848193e+00	 6.3496337400e-01	-2.6086992042e+01
 1.5909328930e+00	 6.6675147536e-01	-1.1947040748e+01
 1.5772963984e+00	 6.9839893440e-01	-3.7062866023e-01
 1.5629759421e+00	 7.2988437754e-01	 8.7340835719e+00
 1.5479729963e+00	 7.6118631287e-01	 1.5470123081e+01
 1.5322899118e+00	 7.9228317302e-01	 1.9951530729e+01
 1.5159299283e+00	 8.2315335913e-01	 2.2303124343e+01
 1.4988971817e+00	 8.5377528584e-01	 2.2660198998e+01
 1.4811967096e+00	 8.8412742711e-01	 2.1168164643e+01
 1.4628344533e+00	 9.1418836261e-01	 1.7982121870e+01
 1.4438172569e+00	 9.4393682459e-01	 1.3266377182e+01
 1.6155071731e+00	 6.3956455788e-01	-3.3717638370e+01
 1.6024613923e+00	 6.7158300779e-01	-1.6457469173e+01
 1.5887260825e+00	 7.0345979625e-01	-2.1760018782e+00
 1.5743018547e+00	 7.3517339477e-01	 9.2355402428e+00
 1.5591901919e+00	 7.6670215573e-01	 1.7899005838e+01
 1.5433934619e+00	 7.9802435544e-01	 2.3949105553e+01
 1.5269149277e+00	 8.2911823854e-01	 2.7533128646e+01
 1.5097587555e+00	 8.5996206328e-01	 2.8810585915e+01
 1.4919300191e+00	 8.9053414760e-01	 2.7952779299e+01
 1.4734347029e+00	 9.2081291596e-01	 2.5142299158e+01
 1.4542797008e+00	 9.5077694651e-01	 2.0572450845e+01
 1.6271295269e+00	 6.4416574175e-01	-4.2139106269e+01
 1.6139898915e+00	 6.7641454023e-01	-2.1631787575e+01
 1.6001557665e+00	 7.0852065810e-01	-4.5123037115e+00
 1.5856277673e+00	 7.4046241201e-01	 9.3448861233e+00
 1.5704073875e+00	 7.7221799858e-01	 2.0080261152e+01
 1.5544970120e+00	 8.0376553786e-01	 2.7848993511e+01
 1.5378999272e+00	 8.3508311796e-01	 3.2820618629e+01
 1.5206203293e+00	 8.6614884071e-01	 3.5178621258e+01
 1.5026633286e+00	 8.9694086809e-01	 3.5119937611e+01
 1.4840349526e+00	 9.2743746932e-01	 3.2854374794e+01
 1.4647421446e+00	 9.5761706843e-01	 2.8603949403e+01
 1.3601177057e+00	 8.8921584925e-01	-1.7059048950e+01
 1.3415932778e+00	 9.1692555685e-01	-1.3563956676e+01
 1.3224673086e+00	 9.4430144431e-01	-1.0953948146e+01
 1.3027487666e+00	 9.7132417402e-01	-9.1587889964e+00
 1.2824474416e+00	 9.9797472884e-01	-8.1045874997e+00
 1.2615739298e+00	 1.0242344554e+00	-7.7140764097e+00
 1.2401396167e+00	 1.0500851065e+00	-7.9069159113e+00
 1.2181566579e+00	 1.0755088827e+00	-8.6000158610e+00
 1.1956379560e+00	 1.1004884725e+00	-9.7078753263e+00
 1.1725971363e+00	 1.1250070915e+00	-1.1142937264e+01
 1.1490485194e+00	 1.1490485194e+00	-1.2815956037e+01
 1.3705801496e+00	 8.9605597117e-01	-1.6169458585e+01
 1.3519132261e+00	 9.2397883037e-01	-1.3258390306e+01
 1.3326401340e+00	 9.5156530158e-01	-1.0957065940e+01
 1.3127699110e+00	 9.7879589844e-01	-9.2196866896e+00
 1.2923124220e+00	 1.0056514575e+00	-7.9979268983e+00
 1.2712783446e+00	 1.0321131820e+00	-7.2411180409e+00
 1.2496791523e+00	 1.0581626843e+00	-6.8964472568e+00
 1.2275270937e+00	 1.0837820280e+00	-6.9091692390e+00
 1.2048351710e+00	 1.1089537685e+00	-7.2228301715e+00
 1.1816171143e+00	 1.1336609922e+00	-7.7795022931e+00
 1.1578873542e+00	 1.1578873542e+00	-8.5200275667e+00
 1.3810425935e+00	 9.0289609308e-01	-1.4413327844e+01
 1.3622331744e+00	 9.3103210388e-01	-1.2241144274e+01
 1.3428129595e+00	 9.5882915884e-01	-1.0407277617e+01
 1.3227910553e+00	 9.8626762285e-01	-8.8900825460e+00
 1.3021774023e+00	 1.0133281862e+00	-7.6665058214e+00
 1.2809827595e+00	 1.0399919086e+00	-6.7121733775e+00
 1.2592186878e+00	 1.0662402620e+00	-6.0014854352e+00
 1.2368975295e+00	 1.0920551732e+00	-5.5077190947e+00
 1.2140323861e+00	 1.1174190644e+00	-5.2031377746e+00
 1.1906370923e+00	 1.1423148929e+00	-5.0591068092e+00
 1.1667261890e+00	 1.1667261890e+00	-5.0462144521e+00
 1.3915050374e+00	 9.0973621500e-01	-1.1810193347e+01
 1.3725531227e+00	 9.3808537740e-01	-1.0528261929e+01
 1.3529857849e+00	 9.6609301611e-01	-9.3170450102e+00
 1.3328121997e+00	 9.9373934727e-01	-8.1787749886e+00
 1.3120423826e+00	 1.0210049149e+00	-7.1153840161e+00
 1.2906871743e+00	 1.0478706351e+00	-6.1284950835e+00
 1.2687582233e+00	 1.0743178398e+00	-5.2194146973e+00
 1.2462679654e+00	 1.1003283185e+00	-4.3891272058e+00
 1.2232296011e+00	 1.1258843604e+00	-3.6382908198e+00
 1.1996570702e+00	 1.1509687936e+00	-2.9672353626e+00
 1.1755650237e+00	 1.1755650237e+00	-2.3759617653e+00
 1.4019674813e+00	 9.1657633692e-01	-8.3790087706e+00
 1.3828730710e+00	 9.4513865091e-01	-8.1353079641e+00
 1.3631586104e+00	 9.7335687337e-01	-7.6984582109e+00
 1.3428333441e+00	 1.0012110717e+00	-7.0943000668e+00
 1.3219073629e+00	 1.0286816436e+00	-6.3494704667e+00
 1.3003915892e+00	 1.0557493617e+00	-5.4912987126e+00
 1.2782977588e+00	 1.0823954175e+00	-4.5476976670e+00
 1.2556384012e+00	 1.1086014637e+00	-3.5470508202e+00
 1.2324268162e+00	 1.1343496563e+00	-2.5180959488e+00
 1.2086770482e+00	 1.1596226943e+00	-1.4898061138e+00
 1.1844038585e+00	 1.1844038585e+00	-4.9126877701e-01
 1.4124299252e+00	 9.2341645884e-01	-4.1381664335e+00
 1.3931930193e+00	 9.5219192443e-01	-5.0773861387e+00
 1.3733314358e+00	 9.8062073064e-01	-5.5632493412e+00
 1.3528544884e+00	 1.0086827961e+00	-5.6449411724e+00
 1.3317723432e+00	 1.0363583723e+00	-5.3735289771e+00
 1.3100960040e+00	 1.0636280883e+00	-4.8017640816e+00
 1.2878372943e+00	 1.0904729952e+00	-3.9838724366e+00
 1.2650088370e+00	 1.1168746090e+00	-2.9753354135e+00
 1.2416240312e+00	 1.1428149523e+00	-1.8326621308e+00
 1.2176970262e+00	 1.1682765950e+00	-6.1315477219e-01
 1.1932426932e+00	 1.1932426932e+00	 6.2533157125e-01
 1.4228923691e+00	 9.3025658076e-01	 8.9448206288e-01
 1.4035129676e+00	 9.5924519794e-01	-1.3691562262e+00
 1.3835042613e+00	 9.8788458790e-01	-2.9228057103e+00
 1.3628756328e+00	 1.0161545205e+00	-3.8387383266e+00
 1.3416373236e+00	 1.0440351009e+00	-4.1921835065e+00
 1.3198004189e+00	 1.0715068149e+00	-4.0610365817e+00
 1.2973768298e+00	 1.0985505730e+00	-3.5255497907e+00
 1.2743792729e+00	 1.1251477542e+00	-2.6680077674e+00
 1.2508212463e+00	 1.1512802482e+00	-1.5723895453e+00
 1.2267170041e+00	 1.1769304957e+00	-3.2401924251e-01
 1.2020815280e+00	 1.2020815280e+00	 9.9079228993e-01
 1.4333548130e+00	 9.3709670267e-01	 6.7016061029e+00
 1.4138329159e+00	 9.6629847146e-01	 2.9751497848e+00
 1.3936770867e+00	 9.9514844517e-01	 2.1181760200e-01
 1.3728967771e+00	 1.0236262449e+00	-1.6834970607e+00
 1.3515023039e+00	 1.0517118296e+00	-2.8099232714e+00
 1.3295048337e+00	 1.0793855415e+00	-3.2702284336e+00
 1.3069163653e+00	 1.1066281507e+00	-3.1704105510e+00
 1.2837497087e+00	 1.1334208995e+00	-2.6192693509e+00
 1.2600184613e+00	 1.1597455441e+00	-1.7279589524e+00
 1.2357369821e+00	 1.1855843964e+00	-6.0952494437e-01
 1.2109203628e+00	 1.2109203628e+00	 6.2157110429e-01
 1.4438172569e+00	 9.4393682459e-01	 1.3266377182e+01
 1.4241528642e+00	 9.7335174497e-01	 7.9417121924e+00
 1.4038499122e+00	 1.0024123024e+00	 3.8298857096e+00
 1.3829179215e+00	 1.0310979693e+00	 8.1320308924e-01
 1.3613672842e+00	 1.0593885583e+00	-1.2311076260e+00
 1.3392092486e+00	 1.0872642680e+00	-2.4304198876e+00
 1.3164559009e+00	 1.1147057285e+00	-2.9162030372e+00
 1.2931201445e+00	 1.1416940447e+00	-2.8234899885e+00
 1.2692156763e+00	 1.1682108401e+00	-2.2903215243e+00
 1.2447569601e+00	 1.1942382971e+00	-1.4571707697e+00
 1.2197591975e+00	 1.2197591975e+00	-4.6635159832e-01
 1.4542797008e+00	 9.5077694651e-01	 2.0572450845e+01
 1.4344728125e+00	 9.8040501848e-01	 1.3517108752e+01
 1.4140227376e+00	 1.0096761597e+00	 7.9209724038e+00
 1.3929390659e+00	 1.0385696938e+00	 3.6440004552e+00
 1.3712322645e+00	 1.0670652870e+00	 5.4002926820e-01
 1.3489136634e+00	 1.0951429946e+00	-1.5426603714e+00
 1.3259954364e+00	 1.1227833062e+00	-2.7607406369e+00
 1.3024905804e+00	 1.1499671900e+00	-3.2752018031e+00
 1.2784128914e+00	 1.1766761360e+00	-3.2506891168e+00
 1.2537769381e+00	 1.2028921978e+00	-2.8548156466e+00
 1.2285980323e+00	 1.2285980323e+00	-2.2574555960e+00
 1.4647421446e+00	 9.5761706843e-01	 2.8603949403e+01
 1.4447927608e+00	 9.8745829200e-01	 1.9688300484e+01
 1.4241955631e+00	 1.0169400170e+00	 1.2474949131e+01
 1.4029602102e+00	 1.0460414182e+00	 6.8017434573e+00
 1.3810972449e+00	 1.0747420157e+00	 2.4993739728e+00
 1.3586180783e+00	 1.1030217212e+00	-6.0796958974e-01
 1.3355349719e+00	 1.1308608839e+00	-2.7018994803e+00
 1.3118610162e+00	 1.1582403352e+00	-3.9690934172e+00
 1.2876101064e+00	 1.1851414320e+00	-4.6005249567e+00
 1.2627969160e+00	 1.2115460985e+00	-4.7906656785e+00
 1.2374368671e+00	 1.2374368671e+00	-4.7366643956e+00
 1.1490485194e+00	 1.1490485194e+00	-1.2815956037e+01
 1.1250070915e+00	 1.1725971363e+00	-1.7187492744e+01
 1.1004884725e+00	 1.1956379560e+00	-2.0947473683e+01
 1.0755088827e+00	 1.2181566579e+00	-2.4171817921e+01
 1.0500851065e+00	 1.2401396167e+00	-2.6938152006e+01
 1.0242344554e+00	 1.2615739298e+00	-2.9325468652e+01
 9.9797472884e-01	 1.2824474416e+00	-3.1413779830e+01
 9.7132417402e-01	 1.3027487666e+00	-3.3283766641e+01
 9.4430144431e-01	 1.3224673086e+00	-3.5016428349e+01
 9.1692555685e-01	 1.3415932778e+00	-3.6692732929e+01
 8.8921584925e-01	 1.3601177057e+00	-3.8393271455e+01
 1.1578873542e+00	 1.1578873542e+00	-8.5200275667e+00
 1.1336609922e+00	 1.1816171143e+00	-1.2820646598e+01
 1.1089537685e+00	 1.2048351710e+00	-1.6621129194e+01
 1.0837820280e+00	 1.2275270937e+00	-1.9968521189e+01
 1.0581626843e+00	 1.2496791523e+00	-2.2911409413e+01
 1.0321131820e+00	 1.2712783446e+00	-2.5499704840e+01
 1.0056514575e+00	 1.2923124220e+00	-2.7784419725e+01
 9.7879589844e-01	 1.3127699110e+00	-2.9817440255e+01
 9.5156530158e-01	 1.3326401340e+00	-3.1651296295e+01
 9.2397883037e-01	 1.3519132261e+00	-3.3338929788e+01
 8.9605597117e-01	 1.3705801496e+00	-3.4933463387e+01
 1.1667261890e+00	 1.1667261890e+00	-5.0462144521e+00
 1.1423148929e+00	 1.1906370923e+00	-9.1047157666e+00
 1.1174190644e+00	 1.2140323861e+00	-1.2773394170e+01
 1.0920551732e+00	 1.2368975295e+00	-1.6070755401e+01
 1.0662402620e+00	 1.2592186878e+00	-1.9016681028e+01
 1.0399919086e+00	 1.2809827595e+00	-2.1632334874e+01
 1.0133281862e+00	 1.3021774023e+00	-2.3940062997e+01
 9.8626762285e-01	 1.3227910553e+00	-2.5963287949e+01
 9.5882915884e-01	 1.3428129595e+00	-2.7726398072e+01
 9.3103210388e-01	 1.3622331744e+00	-2.9254632617e+01
 9.0289609308e-01	 1.3810425935e+00	-3.0573963518e+01
 1.1755650237e+00	 1.1755650237e+00	-2.3759617653e+00
 1.1509687936e+00	 1.1996570702e+00	-6.0250067917e+00
 1.1258843604e+00	 1.2232296011e+00	-9.3934615514e+00
 1.1003283185e+00	 1.2462679654e+00	-1.2471617308e+01
 1.0743178398e+00	 1.2687582233e+00	-1.5250977282e+01
 1.0478706351e+00	 1.2906871743e+00	-1.7724285179e+01
 1.0210049149e+00	 1.3120423826e+00	-1.9885546859e+01
 9.9373934727e-01	 1.3328121997e+00	-2.1730045044e+01
 9.6609301611e-01	 1.3529857849e+00	-2.3254347028e+01
 9.3808537740e-01	 1.3725531227e+00	-2.4456305418e+01
 9.0973621500e-01	 1.3915050374e+00	-2.5335051966e+01
 1.1844038585e+00	 1.1844038585e+00	-4.9126877701e-01
 1.1596226943e+00	 1.2086770482e+00	-3.5672651533e+00
 1.1343496563e+00	 1.2324268162e+00	-6.4708472121e+00
 1.1086014637e+00	 1.2556384012e+00	-9.1644100698e+00
 1.0823954175e+00	 1.2782977588e+00	-1.1611398190e+01
 1.0557493617e+00	 1.3003915892e+00	-1.3776454875e+01
 1.0286816436e+00	 1.3219073629e+00	-1.5625564484e+01
 1.0012110717e+00	 1.3428333441e+00	-1.7126186459e+01
 9.7335687337e-01	 1.3631586104e+00	-1.8247380354e+01
 9.4513865091e-01	 1.3828730710e+00	-1.8959921096e+01
 9.1657633692e-01	 1.4019674813e+00	-1.9236403840e+01
 1.1932426932e+00	 1.1932426932e+00	 6.2533157125e-01
 1.1682765950e+00	 1.2176970262e+00	-1.7176590092e+00
 1.1428149523e+00	 1.2416240312e+00	-3.9953779935e+00
 1.1168746090e+00	 1.2650088370e+00	-6.1426356022e+00
 1.0904729952e+00	 1.2878372943e+00	-8.0951300303e+00
 1.0636280883e+00	 1.3100960040e+00	-9.7897167846e+00
 1.0363583723e+00	 1.3317723432e+00	-1.1164670333e+01
 1.0086827961e+00	 1.3528544884e+00	-1.2159936359e+01
 9.8062073064e-01	 1.3733314358e+00	-1.2717373011e+01
 9.5219192443e-01	 1.3931930193e+00	-1.2780979640e+01
 9.2341645884e-01	 1.4124299252e+00	-1.2297111640e+01
 1.2020815280e+00	 1.2020815280e+00	 9.9079228993e-01
 1.1769304957e+00	 1.2267170041e+00	-4.6276365342e-01
 1.1512802482e+00	 1.2508212463e+00	-1.9571802706e+00
 1.1251477542e+00	 1.2743792729e+00	-3.3999872708e+00
 1.0985505730e+00	 1.2973768298e+00	-4.6994421727e+00
 1.0715068149e+00	 1.3198004189e+00	-5.7649183962e+00
 1.0440351009e+00	 1.3416373236e+00	-6.5072852566e+00
 1.0161545205e+00	 1.3628756328e+00	-6.8392773659e+00
 9.8788458790e-01	 1.3835042613e+00	-6.6758510481e+00
 9.5924519794e-01	 1.4035129676e+00	-5.9345255122e+00
 9.3025658076e-01	 1.4228923691e+00	-4.5357066798e+00
 1.2109203628e+00	 1.2109203628e+00	 6.2157110429e-01
 1.1855843964e+00	 1.2357369821e+00	 2.1045334493e-01
 1.1597455441e+00	 1.2600184613e+00	-3.4666901850e-01
 1.1334208995e+00	 1.2837497087e+00	-9.3034289998e-01
 1.1066281507e+00	 1.3069163653e+00	-1.4216840416e+00
 1.0793855415e+00	 1.3295048337e+00	-1.7028827887e+00
 1.0517118296e+00	 1.3515023039e+00	-1.6577013672e+00
 1.0236262449e+00	 1.3728967771e+00	-1.1719593753e+00
 9.9514844517e-01	 1.3936770867e+00	-1.3400433069e-01
 9.6629847146e-01	 1.4138329159e+00	 1.5648357330e+00
 9.3709670267e-01	 1.4333548130e+00	 4.0298204383e+00
 1.2197591975e+00	 1.2197591975e+00	-4.6635159832e-01
 1.1942382971e+00	 1.2447569601e+00	 3.1464635667e-01
 1.1682108401e+00	 1.2692156763e+00	 8.4546264722e-01
 1.1416940447e+00	 1.2931201445e+00	 1.2722419119e+00
 1.1147057285e+00	 1.3164559009e+00	 1.7407177861e+00
 1.0872642680e+00	 1.3392092486e+00	 2.3955904877e+00
 1.0593885583e+00	 1.3613672842e+00	 3.3799132995e+00
 1.0310979693e+00	 1.3829179215e+00	 4.8344920159e+00
 1.0024123024e+00	 1.4038499122e+00	 6.8973012786e+00
 9.7335174497e-01	 1.4241528642e+00	 9.7029215473e+00
 9.4393682459e-01	 1.4438172569e+00	 1.3382000232e+01
 1.2285980323e+00	 1.2285980323e+00	-2.2574555960e+00
 1.2028921978e+00	 1.2537769381e+00	-1.3789470590e-01
 1.1766761360e+00	 1.2784128914e+00	 1.6282534772e+00
 1.1499671900e+00	 1.3024905804e+00	 3.2135401899e+00
 1.1227833062e+00	 1.3259954364e+00	 4.7902623583e+00
 1.0951429946e+00	 1.3489136634e+00	 6.5297245676e+00
 1.0670652870e+00	 1.3712322645e+00	 8.6015103229e+00
 1.0385696938e+00	 1.3929390659e+00	 1.1172767443e+01
 1.0096761597e+00	 1.4140227376e+00	 1.4407512269e+01
 9.8040501848e-01	 1.4344728125e+00	 1.8465957175e+01
 9.5077694651e-01	 1.4542797008e+00	 2.3503865599e+01
 1.2374368671e+00	 1.2374368671e+00	-4.7366643956e+00
 1.2115460985e+00	 1.2627969160e+00	-1.1352313706e+00
 1.1851414320e+00	 1.2876101064e+00	 2.0104836670e+00
 1.1582403352e+00	 1.3118610162e+00	 4.8991597051e+00
 1.1308608839e+00	 1.3355349719e+00	 7.7293770065e+00
 1.1030217212e+00	 1.3586180783e+00	 1.0698764462e+01
 1.0747420157e+00	 1.3810972449e+00	 1.4003156628e+01
 1.0460414182e+00	 1.4029602102e+00	 1.7835766052e+01
 1.0169400170e+00	 1.4241955631e+00	 2.2386376329e+01
 9.8745829200e-01	 1.4447927608e+00	 2.7840561093e+01
 9.5761706843e-01	 1.4647421446e+00	 3.4378933875e+01
 8.8921584925e-01	 1.3601177057e+00	-3.8393271455e+01
 8.6119193579e-01	 1.3780324560e+00	-3.7394738058e+01
 8.3287366321e-01	 1.3953302337e+00	-3.6649039138e+01
 8.0428106636e-01	 1.4120045914e+00	-3.6138474079e+01
 7.7543432381e-01	 1.4280499324e+00	-3.5844951118e+01
 7.4635371371e-01	 1.4434615111e+00	-3.5750068735e+01
 7.1705957009e-01	 1.4582354312e+00	-3.5835196743e+01
 6.8757223970e-01	 1.4723686411e+00	-3.6081556553e+01
 6.5791203964e-01	 1.4858589260e+00	-3.6470300127e+01
 6.2809921591e-01	 1.4987048992e+00	-3.6982587135e+01
 5.9815390303e-01	 1.5109059892e+00	-3.7599659901e+01
 8.9605597117e-01	 1.3705801496e+00	-3.4933463387e+01
 8.6781648914e-01	 1.3886327056e+00	-3.3466735230e+01
 8.3928038370e-01	 1.4060635432e+00	-3.2696808352e+01
 8.1046784380e-01	 1.4228661652e+00	-3.2597227976e+01
 7.8139920322e-01	 1.4390349319e+00	-3.3139507803e+01
 7.5209489612e-01	 1.4545650612e+00	-3.4293284042e+01
 7.2257541294e-01	 1.4694526269e+00	-3.6026475984e+01
 6.9286125693e-01	 1.4836945537e+00	-3.8305451876e+01
 6.6297290149e-01	 1.4972886101e+00	-4.1095198927e+01
 6.3293074833e-01	 1.5102333985e+00	-4.4359496204e+01
 6.0275508690e-01	 1.5225283430e+00	-4.8061089249e+01
 9.0289609308e-01	 1.3810425935e+00	-3.0573963518e+01
 8.7444104249e-01	 1.3992329553e+00	-2.8613576190e+01
 8.4568710418e-01	 1.4167968527e+00	-2.7786582873e+01
 8.1665462123e-01	 1.4337277390e+00	-2.8057889826e+01
 7.8736408263e-01	 1.4500199314e+00	-2.9388748290e+01
 7.5783607853e-01	 1.4656686113e+00	-3.1736980453e+01
 7.2809125578e-01	 1.4806698225e+00	-3.5057218713e+01
 6.9815027416e-01	 1.4950204663e+00	-3.9301156341e+01
 6.6803376333e-01	 1.5087182941e+00	-4.4417807642e+01
 6.3776228076e-01	 1.5217618977e+00	-5.0353775667e+01
 6.0735627077e-01	 1.5341506968e+00	-5.7053525537e+01
 9.0973621500e-01	 1.3915050374e+00	-2.5335051966e+01
 8.8106559584e-01	 1.4098332050e+00	-2.2856115037e+01
 8.5209382467e-01	 1.4275301622e+00	-2.1939957085e+01
 8.2284139866e-01	 1.4445893128e+00	-2.2542958003e+01
 7.9332896205e-01	 1.4610049308e+00	-2.4616235670e+01
 7.6357726095e-01	 1.4767721614e+00	-2.8105943154e+01
 7.3360709863e-01	 1.4918870181e+00	-3.2953585905e+01
 7.0343929139e-01	 1.5063463789e+00	-3.9096356379e+01
 6.7309462517e-01	 1.5201479782e+00	-4.6467483505e+01
 6.4259381320e-01	 1.5332903969e+00	-5.4996594290e+01
 6.1195745464e-01	 1.5457730505e+00	-6.4610084914e+01
 9.1657633692e-01	 1.4019674813e+00	-1.9236403840e+01
 8.8769014920e-01	 1.4204334546e+00	-1.6214583727e+01
 8.5850054516e-01	 1.4382634717e+00	-1.5177881135e+01
 8.2902817610e-01	 1.4554508866e+00	-1.6074259658e+01
 7.9929384146e-01	 1.4719899303e+00	-1.8844830027e+01
 7.6931844336e-01	 1.4878757114e+00	-2.3424217847e+01
 7.3912294148e-01	 1.5031042137e+00	-2.9740957977e+01
 7.0872830862e-01	 1.5176722916e+00	-3.7717912331e+01
 6.7815548702e-01	 1.5315776622e+00	-4.7272707781e+01
 6.4742534563e-01	 1.5448188961e+00	-5.8318190793e+01
 6.1655863851e-01	 1.5573954043e+00	-7.0762895349e+01
 9.2341645884e-01	 1.4124299252e+00	-1.2297111640e+01
 8.9431470255e-01	 1.4310337043e+00	-8.7086151159e+00
 8.6490726564e-01	 1.4489967812e+00	-7.5206847864e+00
 8.3521495353e-01	 1.4663124604e+00	-8.6729755792e+00
 8.0525872088e-01	 1.4829749298e+00	-1.2096714477e+01
 7.7505962577e-01	 1.4989792615e+00	-1.7715138133e+01
 7.4463878433e-01	 1.5143214094e+00	-2.5443963703e+01
 7.1401732585e-01	 1.5289982042e+00	-3.5191889038e+01
 6.8321634886e-01	 1.5430073463e+00	-4.6861118211e+01
 6.5225687806e-01	 1.5563473954e+00	-6.0347908294e+01
 6.2115982239e-01	 1.5690177580e+00	-7.5543133229e+01
 9.3025658076e-01	 1.4228923691e+00	-4.5357066798e+00
 9.0093925590e-01	 1.4416339539e+00	-3.5726497697e-01
 8.7131398613e-01	 1.4597300907e+00	 1.0118997715e+00
 8.4140173097e-01	 1.4771740341e+00	-3.5966394766e-01
 8.1122360029e-01	 1.4939599293e+00	-4.3934200514e+00
 7.8080080819e-01	 1.5100828116e+00	-1.1001351691e+01
 7.5015462717e-01	 1.5255386050e+00	-2.0086507838e+01
 7.1930634308e-01	 1.5403241168e+00	-3.1543585090e+01
 6.8827721071e-01	 1.5544370303e+00	-4.5259540018e+01
 6.5708841049e-01	 1.5678758946e+00	-6.1114227238e+01
 6.2576100626e-01	 1.5806401118e+00	-7.8981058344e+01
 9.3709670267e-01	 1.4333548130e+00	 4.0298204383e+00
 9.0756380926e-01	 1.4522342036e+00	 8.8209669355e+00
 8.7772070662e-01	 1.4704634002e+00	 1.0400716118e+01
 8.4758850840e-01	 1.4880356079e+00	 8.8457169375e+00
 8.1718847971e-01	 1.5049449288e+00	 4.2441505066e+00
 7.8654199061e-01	 1.5211863617e+00	-3.3048453141e+00
 7.5567047002e-01	 1.5367558006e+00	-1.3691797548e+01
 7.2459536031e-01	 1.5516500294e+00	-2.6797560787e+01
 6.9333807255e-01	 1.5658667144e+00	-4.2494015560e+01
 6.6191994292e-01	 1.5794043938e+00	-6.0644796872e+01
 6.3036219013e-01	 1.5922624656e+00	-8.1106047335e+01
 9.4393682459e-01	 1.4438172569e+00	 1.3382000232e+01
 9.1418836261e-01	 1.4628344533e+00	 1.8808116745e+01
 8.8412742711e-01	 1.4811967096e+00	 2.0627162740e+01
 8.5377528584e-01	 1.4988971817e+00	 1.8923786929e+01
 8.2315335913e-01	 1.5159299283e+00	 1.3795699979e+01
 7.9228317302e-01	 1.5322899118e+00	 5.3530311564e+00
 7.6118631287e-01	 1.5479729963e+00	-6.2823676745e+00
 7.2988437754e-01	 1.5629759421e+00	-2.0977664885e+01
 6.9839893440e-01	 1.5772963984e+00	-3.8589832694e+01
 6.6675147536e-01	 1.5909328930e+00	-5.8966465366e+01
 6.3496337400e-01	 1.6038848193e+00	-8.1946625693e+01
 9.5077694651e-01	 1.4542797008e+00	 2.3503865599e+01
 9.2081291596e-01	 1.4734347029e+00	 2.9586737178e+01
 8.9053414760e-01	 1.4919300191e+00	 3.1673173079e+01
 8.5996206328e-01	 1.5097587555e+00	 2.9855723236e+01
 8.2911823854e-01	 1.5269149277e+00	 2.4241514893e+01
 7.9802435544e-01	 1.5433934619e+00	 1.4951541915e+01
 7.6670215573e-01	 1.5591901919e+00	 2.1198950770e+00
 7.3517339477e-01	 1.5743018547e+00	-1.4107060191e+01
 7.0345979625e-01	 1.5887260825e+00	-3.3571551913e+01
 6.7158300779e-01	 1.6024613923e+00	-5.6105308621e+01
 6.3956455788e-01	 1.6155071731e+00	-8.1530498368e+01
 9.5761706843e-01	 1.4647421446e+00	 3.4378933875e+01
 9.2743746932e-01	 1.4840349526e+00	 4.1139879118e+01
 8.9694086809e-01	 1.5026633286e+00	 4.3521196422e+01
 8.6614884071e-01	 1.5206203293e+00	 4.1623240521e+01
 8.3508311796e-01	 1.5378999272e+00	 3.5562444680e+01
 8.0376553786e-01	 1.5544970120e+00	 2.5470543266e+01
 7.7221799858e-01	 1.5704073875e+00	 1.1493728995e+01
 7.4046241201e-01	 1.5856277673e+00	-6.2082480590e+00
 7.0852065810e-01	 1.6001557665e+00	-2.7463032321e+01
 6.7641454023e-01	 1.6139898915e+00	-5.2086657852e+01
 6.4416574175e-01	 1.6271295269e+00	-7.9884579080e+01
 5.9815390303e-01	 1.5109059892e+00	-3.7599659901e+01
 5.6809608500e-01	 1.5224624259e+00	-2.2273889042e+01
 5.3794555745e-01	 1.5333752239e+00	-8.6706028343e+00
 5.0772189143e-01	 1.5436461644e+00	 3.3088192596e+00
 4.7744439878e-01	 1.5532777749e+00	 1.3765751189e+01
 4.4713209913e-01	 1.5622733071e+00	 2.2803824483e+01
 4.1680368873e-01	 1.5706367133e+00	 3.0528438838e+01
 3.8647751120e-01	 1.5783726218e+00	 3.7046281913e+01
 3.5617153006e-01	 1.5854863106e+00	 4.2464860955e+01
 3.2590330336e-01	 1.5919836798e+00	 4.6892048625e+01
 2.9568996018e-01	 1.5978712237e+00	 5.0435645222e+01
 6.0275508690e-01	 1.5225283430e+00	-4.8061089249e+01
 5.7246605488e-01	 1.5341736753e+00	-3.5219648487e+01
 5.4208360020e-01	 1.5451704179e+00	-2.2819181711e+01
 5.1162744444e-01	 1.5555203657e+00	-1.0867251702e+01
 4.8111704801e-01	 1.5652260655e+00	 6.2997067782e-01
 4.5057157681e-01	 1.5742907940e+00	 1.1667681734e+01
 4.2000987096e-01	 1.5827185341e+00	 2.2242414871e+01
 3.8945041513e-01	 1.5905139497e+00	 3.2352005596e+01
 3.5891131106e-01	 1.5976823592e+00	 4.1995552007e+01
 3.2841025184e-01	 1.6042297081e+00	 5.1173371186e+01
 2.9796449834e-01	 1.6101625408e+00	 5.9886951931e+01
 6.0735627077e-01	 1.5341506968e+00	-5.7053525537e+01
 5.7683602477e-01	 1.5458849247e+00	-4.7271050436e+01
 5.4622164295e-01	 1.5569656119e+00	-3.6664052626e+01
 5.1553299746e-01	 1.5673945670e+00	-2.5345023829e+01
 4.8478969723e-01	 1.5771743561e+00	-1.3426415843e+01
 4.5401105450e-01	 1.5863082810e+00	-1.0201986691e+00
 4.2321605318e-01	 1.5948003550e+00	 1.1762564426e+01
 3.9242331907e-01	 1.6026552775e+00	 2.4812122913e+01
 3.6165109207e-01	 1.6098784077e+00	 3.8020424315e+01
 3.3091720033e-01	 1.6164757364e+00	 5.1281477290e+01
 3.0023903649e-01	 1.6224538579e+00	 6.4491691204e+01
 6.1195745464e-01	 1.5457730505e+00	-6.4610084914e+01
 5.8120599466e-01	 1.5575961742e+00	-5.8448248640e+01
 5.5035968570e-01	 1.5687608060e+00	-5.0212045688e+01
 5.1943855047e-01	 1.5792687682e+00	-4.0117670643e+01
 4.8846234645e-01	 1.5891226466e+00	-2.8382620871e+01
 4.5745053219e-01	 1.5983257680e+00	-1.5224792382e+01
 4.2642223540e-01	 1.6068821759e+00	-8.6160413774e-01
 3.9539622300e-01	 1.6147966054e+00	 1.4490844853e+01
 3.6439087307e-01	 1.6220744563e+00	 3.0618581718e+01
 3.3342414882e-01	 1.6287217648e+00	 4.7310525716e+01
 3.0251357465e-01	 1.6347451750e+00	 6.4359211060e+01
 6.1655863851e-01	 1.5573954043e+00	-7.0762895349e+01
 5.8557596454e-01	 1.5693074236e+00	-6.8770795604e+01
 5.5449772845e-01	 1.5805560000e+00	-6.3469787480e+01
 5.2334410348e-01	 1.5911429695e+00	-5.5178569794e+01
 4.9213499567e-01	 1.6010709372e+00	-4.4218477770e+01
 4.6089000987e-01	 1.6103432550e+00	-3.0912120905e+01
 4.2962841762e-01	 1.6189639967e+00	-1.5582060659e+01
 3.9836912693e-01	 1.6269379333e+00	 1.4504653274e+00
 3.6713065407e-01	 1.6342705048e+00	 1.9866766423e+01
 3.3593109731e-01	 1.6409677931e+00	 3.9351864220e+01
 3.0478811280e-01	 1.6470364921e+00	 5.9595595089e+01
 6.2115982239e-01	 1.5690177580e+00	-7.5543133229e+01
 5.8994593443e-01	 1.5810186730e+00	-7.8257664857e+01
 5.5863577120e-01	 1.5923511940e+00	-7.6443708594e+01
 5.2724965649e-01	 1.6030171708e+00	-7.0521295498e+01
 4.9580764490e-01	 1.6130192278e+00	-6.0914417781e+01
 4.6432948756e-01	 1.6223607419e+00	-4.8049212847e+01
 4.3283459984e-01	 1.6310458176e+00	-3.2352198424e+01
 4.0134203087e-01	 1.6390792611e+00	-1.4248567824e+01
 3.6987043507e-01	 1.6464665533e+00	 5.8394464746e+00
 3.3843804579e-01	 1.6532138214e+00	 2.7494133645e+01
 3.0706265096e-01	 1.6593278092e+00	 5.0303783360e+01
 6.2576100626e-01	 1.5806401118e+00	-7.8981058344e+01
 5.9431590431e-01	 1.5927299225e+00	-8.6927272233e+01
 5.6277381395e-01	 1.6041463881e+00	-8.9140050834e+01
 5.3115520951e-01	 1.6148913720e+00	-8.6139611307e+01
 4.9948029412e-01	 1.6249675184e+00	-7.8451448033e+01
 4.6776896525e-01	 1.6343782289e+00	-6.6604066900e+01
 4.3604078207e-01	 1.6431276385e+00	-5.1126781836e+01
 4.0431493480e-01	 1.6512205890e+00	-3.2547584961e+01
 3.7261021607e-01	 1.6586626019e+00	-1.1391100634e+01
 3.4094499428e-01	 1.6654598497e+00	 1.1823367442e+01
 3.0933718911e-01	 1.6716191263e+00	 3.6583687993e+01
 6.3036219013e-01	 1.5922624656e+00	-8.1106047335e+01
 5.9868587420e-01	 1.6044411719e+00	-9.4797496225e+01
 5.6691185670e-01	 1.6159415821e+00	-1.0156487411e+02
 5.3506076252e-01	 1.6267655733e+00	-1.0202746320e+02
 5.0315294334e-01	 1.6369158090e+00	-9.6811130529e+01
 4.7120844293e-01	 1.6463957159e+00	-8.6545616426e+01
 4.3924696429e-01	 1.6552094594e+00	-7.1861896365e+01
 4.0728783873e-01	 1.6633619168e+00	-5.3389629744e+01
 3.7534999707e-01	 1.6708586504e+00	-3.1754708012e+01
 3.4345194277e-01	 1.6777058780e+00	-7.5769131692e+00
 3.1161172727e-01	 1.6839104434e+00	 1.8532303666e+01
 6.3496337400e-01	 1.6038848193e+00	-8.1946625693e+01
 6.0305584409e-01	 1.6161524213e+00	-1.0188569745e+02
 5.7104989945e-01	 1.6277367761e+00	-1.1372406301e+02
 5.3896631553e-01	 1.6386397746e+00	-1.1817897297e+02
 5.0682559256e-01	 1.6488640995e+00	-1.1597556203e+02
 4.7464792062e-01	 1.6584132029e+00	-1.0784369560e+02
 4.4245314651e-01	 1.6672912802e+00	-9.4514900691e+01
 4.1026074267e-01	 1.6755032447e+00	-7.6719397056e+01
 3.7808977807e-01	 1.6830546990e+00	-5.5183242903e+01
 3.4595889126e-01	 1.6899519063e+00	-3.0625608174e+01
 3.1388626542e-01	 1.6962017605e+00	-3.7561866745e+00
 6.3956455788e-01	 1.6155071731e+00	-8.1530498368e+01
 6.0742581398e-01	 1.6278636708e+00	-1.0820873728e+02
 5.7518794221e-01	 1.6395319702e+00	-1.2562333312e+02
 5.4287186855e-01	 1.6505139758e+00	-1.3458843189e+02
 5.1049824179e-01	 1.6608123901e+00	-1.3592735484e+02
 4.7808739831e-01	 1.6704306899e+00	-1.3046900700e+02
 4.4565932873e-01	 1.6793731011e+00	-1.1904438090e+02
 4.1323364660e-01	 1.6876445726e+00	-1.0248317360e+02
 3.8082955907e-01	 1.6952507475e+00	-8.1610533507e+01
 3.4846583975e-01	 1.7021979346e+00	-5.7243951669e+01
 3.1616080358e-01	 1.7084930776e+00	-3.0190310673e+01
 6.4416574175e-01	 1.6271295269e+00	-7.9884579080e+01
 6.1179578386e-01	 1.6395749202e+00	-1.1378299566e+02
 5.7932598496e-01	 1.6513271642e+00	-1.3726823706e+02
 5.4677742156e-01	 1.6623881771e+00	-1.5125029469e+02
 5.1417089101e-01	 1.6727606807e+00	-1.5664961836e+02
 4.8152687600e-01	 1.6824481768e+00	-1.5439309058e+02
 4.4886551095e-01	 1.6914549220e+00	-1.4541010663e+02
 4.1620655053e-01	 1.6997859004e+00	-1.3062878107e+02
 3.8356934007e-01	 1.7074467961e+00	-1.1097229895e+02
 3.5097278823e-01	 1.7144439629e+00	-8.7355428499e+01
 3.1843534174e-01	 1.7207843947e+00	-6.0681209759e+01
 2.9568996018e-01	 1.5978712237e+00	 5.0435645222e+01
 2.6554817929e-01	 1.6031560013e+00	 3.2227474596e+01
 2.3549416968e-01	 1.6078456070e+00	 1.7138665402e+01
 2.0554365323e-01	 1.6119481402e+00	 4.9148813167e+00
 1.7571184935e-01	 1.6154721743e+00	-4.6983130565e+00
 1.4601346159e-01	 1.6184267265e+00	-1.1954481509e+01
 1.1646266625e-01	 1.6208212262e+00	-1.7105395066e+01
 8.7073102826e-02	 1.6226654846e+00	-2.0400163154e+01
 5.7857866443e-02	 1.6239696633e+00	-2.2084419365e+01
 2.8829501977e-02	 1.6247442444e+00	-2.2399563559e+01
 0.0000000000e+00	 1.6250000000e+00	-2.1582061522e+01
 2.9796449834e-01	 1.6101625408e+00	 5.9886951931e+01
 2.6759085759e-01	 1.6154879705e+00	 4.4809751451e+01
 2.3730566329e-01	 1.6202136502e+00	 3.1069284620e+01
 2.0712475825e-01	 1.6243477413e+00	 1.8594596524e+01
 1.7706347896e-01	 1.6278988834e+00	 7.3131159807e+00
 1.4713664207e-01	 1.6308761629e+00	-2.8489925931e+00
 1.1735853291e-01	 1.6332890818e+00	-1.1966488086e+01
 8.7742895924e-02	 1.6351475267e+00	-2.0114723832e+01
 5.8302926953e-02	 1.6364617376e+00	-2.7369332257e+01
 2.9051267377e-02	 1.6372422771e+00	-3.3805924123e+01
 0.0000000000e+00	 1.6375000000e+00	-3.9499803299e+01
 3.0023903649e-01	 1.6224538579e+00	 6.4491691204e+01
 2.6963353589e-01	 1.6278199398e+00	 5.3639823148e+01
 2.3911715690e-01	 1.6325816933e+00	 4.2359535249e+01
 2.0870586328e-01	 1.6367473423e+00	 3.0761138620e+01
 1.7841510857e-01	 1.6403255924e+00	 1.8951836267e+01
 1.4825982254e-01	 1.6433255992e+00	 7.0354617972e+00
 1.1825439957e-01	 1.6457569374e+00	-4.8877543035e+00
 8.8412689023e-02	 1.6476295689e+00	-1.6721390904e+01
 5.8747987464e-02	 1.6489538120e+00	-2.8373015264e+01
 2.9273032776e-02	 1.6497403097e+00	-3.9754335322e+01
 0.0000000000e+00	 1.6500000000e+00	-5.0781325881e+01
 3.0251357465e-01	 1.6347451750e+00	 6.4359211060e+01
 2.7167621419e-01	 1.6401519090e+00	 5.8802353719e+01
 2.4092865051e-01	 1.6449497364e+00	 5.1069003192e+01
 2.1028696830e-01	 1.6491469434e+00	 4.1448668936e+01
 1.7976673818e-01	 1.6527523014e+00	 3.0226285271e+01
 1.4938300301e-01	 1.6557750356e+00	 1.7681342414e+01
 1.1915026624e-01	 1.6582247930e+00	 4.0870830862e+00
 8.9082482121e-02	 1.6601116111e+00	-1.0290234046e+01
 5.9193047975e-02	 1.6614458863e+00	-2.5192003407e+01
 2.9494798176e-02	 1.6622383424e+00	-4.0367873847e+01
 0.0000000000e+00	 1.6625000000e+00	-5.5576282611e+01
 3.0478811280e-01	 1.6470364921e+00	 5.9595595089e+01
 2.7371889250e-01	 1.6524838783e+00	 6.0379479617e+01
 2.4274014413e-01	 1.6573177796e+00	 5.7255495377e+01
 2.1186807333e-01	 1.6615465445e+00	 5.0690328785e+01
 1.8111836779e-01	 1.6651790105e+00	 4.1144648328e+01
 1.5050618349e-01	 1.6682244719e+00	 2.9071633310e+01
 1.2004613290e-01	 1.6706926486e+00	 1.4915605810e+01
 8.9752275219e-02	 1.6725936533e+00	-8.8923153769e-01
 5.9638108486e-02	 1.6739379606e+00	-1.7919950292e+01
 2.9716563576e-02	 1.6747363750e+00	-3.5765942672e+01
 0.0000000000e+00	 1.6750000000e+00	-5.4029859768e+01
 3.0706265096e-01	 1.6593278092e+00	 5.0303783360e+01
 2.7576157080e-01	 1.6648158475e+00	 5.8450903323e+01
 2.4455163774e-01	 1.6696858227e+00	 6.0975105647e+01
 2.1344917835e-01	 1.6739461456e+00	 5.8518277235e+01
 1.8246999740e-01	 1.6776057195e+00	 5.1714867976e+01
 1.5162936396e-01	 1.6806739083e+00	 4.1189822455e+01
 1.2094199956e-01	 1.6831605042e+00	 2.7556652186e+01
 9.0422068317e-02	 1.6850756955e+00	 1.1415652277e+01
 6.0083168996e-02	 1.6864300350e+00	-6.6477348268e+00
 2.9938328975e-02	 1.6872344077e+00	-2.6064407117e+01
 0.0000000000e+00	 1.6875000000e+00	-4.6282942016e+01
 3.0933718911e-01	 1.6716191263e+00	 3.6583687993e+01
 2.7780424910e-01	 1.6771478167e+00	 5.3093982838e+01
 2.4636313135e-01	 1.6820538658e+00	 6.2282277742e+01
 2.1503028338e-01	 1.6863457466e+00	 6.4963727226e+01
 1.8382162701e-01	 1.6900324285e+00	 6.1944652884e+01
 1.5275254443e-01	 1.6931233446e+00	 5.4019883215e+01
 1.2183786622e-01	 1.6956283597e+00	 4.1970270926e+01
 9.1091861415e-02	 1.6975577377e+00	 2.6560392950e+01
 6.0528229507e-02	 1.6989221093e+00	 8.5364367690e+00
 3.0160094375e-02	 1.6997324403e+00	-1.1375724908e+01
 0.0000000000e+00	 1.7000000000e+00	-3.2472270550e+01
 3.1161172727e-01	 1.6839104434e+00	 1.8532303666e+01
 2.7984692740e-01	 1.6894797860e+00	 4.4383817242e+01
 2.4817462496e-01	 1.6944219089e+00	 6.1229865525e+01
 2.1661138840e-01	 1.6987453477e+00	 7.0056980099e+01
 1.8517325662e-01	 1.7024591376e+00	 7.1841486389e+01
 1.5387572491e-01	 1.7055727810e+00	 6.7546256632e+01
 1.2273373289e-01	 1.7080962153e+00	 5.8117676961e+01
 9.1761654514e-02	 1.7100397799e+00	 4.4482835126e+01
 6.0973290018e-02	 1.7114141836e+00	 2.7546933420e+01
 3.0381859775e-02	 1.7122304730e+00	 8.1909294585e+00
 0.0000000000e+00	 1.7125000000e+00	-1.2730594316e+01
 3.1388626542e-01	 1.6962017605e+00	-3.7561866745e+00
 2.8188960570e-01	 1.7018117552e+00	 3.2393328549e+01
 2.4998611858e-01	 1.7067899521e+00	 5.7869190584e+01
 2.1819249342e-01	 1.7111449488e+00	 7.3827458627e+01
 1.8652488623e-01	 1.7148858466e+00	 8.1412634659e+01
 1.5499890538e-01	 1.7180222174e+00	 8.1753834484e+01
 1.2362959955e-01	 1.7205640709e+00	 7.5961209186e+01
 9.2431447612e-02	 1.7225218221e+00	 6.5122624827e+01
 6.1418350529e-02	 1.7239062580e+00	 5.0300605892e+01
 3.0603625174e-02	 1.7247285056e+00	 3.2529545757e+01
 0.0000000000e+00	 1.7250000000e+00	 1.2813185340e+01
 3.1616080358e-01	 1.7084930776e+00	-3.0190310673e+01
 2.8393228401e-01	 1.7141437245e+00	 1.7193340010e+01
 2.5179761219e-01	 1.7191579952e+00	 5.2250097352e+01
 2.1977359845e-01	 1.7235445499e+00	 7.6303738618e+01
 1.8787651584e-01	 1.7273125556e+00	 9.0665154507e+01
 1.5612208585e-01	 1.7304716537e+00	 9.6627943070e+01
 1.2452546621e-01	 1.7330319265e+00	 9.5464290034e+01
 9.3101240710e-02	 1.7350038643e+00	 8.8421144654e+01
 6.1863411039e-02	 1.7363983323e+00	 7.6716697519e+01
 3.0825390574e-02	 1.7372265383e+00	 6.1537164211e+01
 0.0000000000e+00	 1.7375000000e+00	 4.4033876269e+01
 3.1843534174e-01	 1.7207843947e+00	-6.0681209759e+01
 2.8597496231e-01	 1.7264756937e+00	-1.1473489209e+00
 2.5360910580e-01	 1.7315260383e+00	 4.4421005863e+01
 2.2135470347e-01	 1.7359441510e+00	 7.7513579166e+01
 1.8922814545e-01	 1.7397392647e+00	 9.9605900870e+01
 1.5724526633e-01	 1.7429210901e+00	 1.1215432769e+02
 1.2542133288e-01	 1.7454997821e+00	 1.1659138677e+02
 9.3771033808e-02	 1.7474859064e+00	 1.1432145176e+02
 6.2308471550e-02	 1.7488904066e+00	 1.0671675875e+02
 3.1047155973e-02	 1.7497245709e+00	 9.5113766548e+01
 0.0000000000e+00	 1.7500000000e+00	 8.0809863049e+01
 1.7500000000e+00	 0.0000000000e+00	-4.6015817432e+02
 1.7497245709e+00	 3.1047155973e-02	-3.6780103917e+02
 1.7488904066e+00	 6.2308471550e-02	-2.8711437187e+02
 1.7474859064e+00	 9.3771033808e-02	-2.1818722399e+02
 1.7454997821e+00	 1.2542133288e-01	-1.6107125940e+02
 1.7429210901e+00	 1.5724526633e-01	-1.1577882550e+02
 1.7397392647e+00	 1.8922814545e-01	-8.2281112671e+01
 1.7359441510e+00	 2.2135470347e-01	-6.0506418288e+01
 1.7315260383e+00	 2.5360910580e-01	-5.0338532044e+01
 1.7264756937e+00	 2.8597496231e-01	-5.1615259361e+01
 1.7207843947e+00	 3.1843534174e-01	-6.4127099658e+01
 1.7625000000e+00	 0.0000000000e+00	-3.1194632176e+02
 1.7622226036e+00	 3.1268921373e-02	-2.4953478895e+02
 1.7613824810e+00	 6.2753532061e-02	-1.9497083198e+02
 1.7599679486e+00	 9.4440826906e-02	-1.4828861601e+02
 1.7579676377e+00	 1.2631719954e-01	-1.0949597222e+02
 1.7553705264e+00	 1.5836844680e-01	-7.8573142903e+01
 1.7521659737e+00	 1.9057977506e-01	-5.5471593648e+01
 1.7483437520e+00	 2.2293580850e-01	-4.0112903966e+01
 1.7438940815e+00	 2.5542059941e-01	-3.2387747537e+01
 1.7388076629e+00	 2.8801764061e-01	-3.2154973519e+01
 1.7330757118e+00	 3.2070987989e-01	-3.9240800191e+01
 1.7750000000e+00	 0.0000000000e+00	-1.6009924915e+02
 1.7747206362e+00	 3.1490686773e-02	-1.2789344365e+02
 1.7738745553e+00	 6.3198592571e-02	-9.9769632061e+01
 1.7724499908e+00	 9.5110620005e-02	-7.5707845445e+01
 1.7704354933e+00	 1.2721306620e-01	-5.5672731297e+01
 1.7678199628e+00	 1.5949162727e-01	-3.9612966187e+01
 1.7645926827e+00	 1.9193140467e-01	-2.7460714653e+01
 1.7607433531e+00	 2.2451691352e-01	-1.9131140375e+01
 1.7562621246e+00	 2.5723209303e-01	-1.4521975687e+01
 1.7511396322e+00	 2.9006031891e-01	-1.3513155379e+01
 1.7453670289e+00	 3.2298441805e-01	-1.5966520668e+01
 1.7875000000e+00	 0.0000000000e+00	-4.6932283245e+00
 1.7872186689e+00	 3.1712452172e-02	-2.9478168387e+00
 1.7863666296e+00	 6.3643653082e-02	-1.5749252033e+00
 1.7849320330e+00	 9.5780413103e-02	-5.0118683520e-01
 1.7829033488e+00	 1.2810893287e-01	 3.5129907271e-01
 1.7802693991e+00	 1.6061480775e-01	 1.0648935384e+00
 1.7770193918e+00	 1.9328303428e-01	 1.7263182709e+00
 1.7731429542e+00	 2.2609801855e-01	 2.4265297173e+00
 1.7686301677e+00	 2.5904358664e-01	 3.2605658880e+00
 1.7634716014e+00	 2.9210299722e-01	 4.3273653341e+00
 1.7576583461e+00	 3.2525895620e-01	 5.7295578190e+00
 1.8000000000e+00	 0.0000000000e+00	 1.5419758764e+02
 1.7997167015e+00	 3.1934217572e-02	 1.2523324499e+02
 1.7988587040e+00	 6.4088713593e-02	 9.9550917591e+01
 1.7974140752e+00	 9.6450206201e-02	 7.7276648516e+01
 1.7953712044e+00	 1.2900479953e-01	 5.8530264727e+01
 1.7927188355e+00	 1.6173798822e-01	 4.3424647717e+01
 1.7894461008e+00	 1.9463466389e-01	 3.2064999266e+01
 1.7855425553e+00	 2.2767912357e-01	 2.4548106407e+01
 1.7809982109e+00	 2.6085508025e-01	 2.0961610053e+01
 1.7758035707e+00	 2.9414567552e-01	 2.1383281932e+01
 1.7699496632e+00	 3.2753349436e-01	 2.5880314743e+01
 1.8125000000e+00	 0.0000000000e+00	 3.1650109130e+02
 1.8122147342e+00	 3.2155982972e-02	 2.5658279463e+02
 1.8113507783e+00	 6.4533774104e-02	 2.0354724595e+02
 1.8098961174e+00	 9.7119999299e-02	 1.5757245862e+02
 1.8078390600e+00	 1.2990066619e-01	 1.1881957648e+02
 1.8051682719e+00	 1.6286116869e-01	 8.7431495090e+01
 1.8018728098e+00	 1.9598629350e-01	 6.3531498515e+01
 1.7979421564e+00	 2.2926022860e-01	 4.7221920830e+01
 1.7933662540e+00	 2.6266657387e-01	 3.8582841871e+01
 1.7881355399e+00	 2.9618835382e-01	 3.7670827210e+01
 1.7822409803e+00	 3.2980803251e-01	 4.4517722536e+01
 1.8250000000e+00	 0.0000000000e+00	 4.8214715086e+02
 1.8247127668e+00	 3.2377748371e-02	 3.9103571910e+02
 1.8238428526e+00	 6.4978834614e-02	 3.1035507120e+02
 1.8223781596e+00	 9.7789792397e-02	 2.4033449913e+02
 1.8203069156e+00	 1.3079653285e-01	 1.8117586682e+02
 1.8176177082e+00	 1.6398434917e-01	 1.3305158788e+02
 1.8142995189e+00	 1.9733792311e-01	 9.6102639087e+01
 1.8103417574e+00	 2.3084133362e-01	 7.0436623821e+01
 1.8057342971e+00	 2.6447806748e-01	 5.6125900235e+01
 1.8004675092e+00	 2.9823103212e-01	 5.3205789216e+01
 1.7945322974e+00	 3.3208257067e-01	 6.1672877651e+01
 1.8375000000e+00	 0.0000000000e+00	 6.5106754291e+02
 1.8372107995e+00	 3.2599513771e-02	 5.2852867724e+02
 1.8363349270e+00	 6.5423895125e-02	 4.1991700986e+02
 1.8348602018e+00	 9.8459585495e-02	 3.2551243373e+02
 1.8327747712e+00	 1.3169239952e-01	 2.4555694830e+02
 1.8300671446e+00	 1.6510752964e-01	 1.8025199937e+02
 1.8267262279e+00	 1.9868955272e-01	 1.2975587473e+02
 1.8227413585e+00	 2.3242243864e-01	 9.4181175045e+01
 1.8181023403e+00	 2.6628956109e-01	 7.3592379441e+01
 1.8127994784e+00	 3.0027371042e-01	 6.8003526383e+01
 1.8068236145e+00	 3.3435710882e-01	 7.7376030360e+01
 1.8500000000e+00	 0.0000000000e+00	 8.2319588799e+02
 1.8497088321e+00	 3.2821279170e-02	 6.6900003989e+02
 1.8488270013e+00	 6.5868955636e-02	 5.3217722940e+02
 1.8473422440e+00	 9.9129378594e-02	 4.1305728660e+02
 1.8452426268e+00	 1.3258826618e-01	 3.1192177375e+02
 1.8425165809e+00	 1.6623071011e-01	 2.2900069276e+02
 1.8391529369e+00	 2.0004118233e-01	 1.6446926858e+02
 1.8351409596e+00	 2.3400354367e-01	 1.1844483256e+02
 1.8304703834e+00	 2.6810105470e-01	 9.0983830694e+01
 1.8251314476e+00	 3.0231638873e-01	 8.2078982038e+01
 1.8191149316e+00	 3.3663164698e-01	 9.1656613339e+01
 1.8625000000e+00	 0.0000000000e+00	 9.9846758870e+02
 1.8622068648e+00	 3.3043044570e-02	 8.1238983243e+02
 1.8613190756e+00	 6.6314016147e-02	 6.4708139620e+02
 1.8598242861e+00	 9.9799171692e-02	 5.0292139675e+02
 1.8577104824e+00	 1.3348413284e-01	 3.8023039794e+02
 1.8549660173e+00	 1.6735389059e-01	 2.7926649135e+02
 1.8515796460e+00	 2.0139281194e-01	 2.0022147267e+02
 1.8475405607e+00	 2.3558464869e-01	 1.4321714281e+02
 1.8428384265e+00	 2.6991254832e-01	 1.0830176355e+02
 1.8374634169e+00	 3.0435906703e-01	 9.5446698333e+01
 1.8314062487e+00	 3.3890618513e-01	 1.0454326910e+02
 1.8750000000e+00	 0.0000000000e+00	 1.1768197703e+03
 1.8747048974e+00	 3.3264809970e-02	 9.5863967958e+02
 1.8738111500e+00	 6.6759076657e-02	 7.6457662557e+02
 1.8723063283e+00	 1.0046896479e-01	 5.9505837419e+02
 1.8701783380e+00	 1.3437999951e-01	 4.5044394089e+02
 1.8674154537e+00	 1.6847707106e-01	 3.3101904983e+02
 1.8640063550e+00	 2.0274444155e-01	 2.3699170836e+02
 1.8599401617e+00	 2.3716575372e-01	 1.6848793100e+02
 1.8552064697e+00	 2.7172404193e-01	 1.2554764732e+02
 1.8497953861e+00	 3.0640174533e-01	 1.0812082962e+02
 1.8436975658e+00	 3.4118072329e-01	 1.1606387635e+02
 1.7207843947e+00	 3.1843534174e-01	-6.4127099658e+01
 1.7144439629e+00	 3.5097278823e-01	-7.9762735966e+01
 1.7074467961e+00	 3.8356934007e-01	-9.1111456862e+01
 1.6997859004e+00	 4.1620655053e-01	-9.8263075847e+01
 1.6914549220e+00	 4.4886551095e-01	-1.0132527982e+02
 1.6824481768e+00	 4.8152687600e-01	-1.0042384228e+02
 1.6727606807e+00	 5.1417089101e-01	-9.5702753686e+01
 1.6623881771e+00	 5.4677742156e-01	-8.7324264403e+01
 1.6513271642e+00	 5.7932598496e-01	-7.5468836139e+01
 1.6395749202e+00	 6.1179578386e-01	-6.0334998292e+01
 1.6271295269e+00	 6.4416574175e-01	-4.2139106269e+01
 1.7330757118e+00	 3.2070987989e-01	-3.9240800191e+01
 1.7266899912e+00	 3.5347973672e-01	-5.1703701805e+01
 1.7196428446e+00	 3.8630912108e-01	-6.1124068016e+01
 1.7119272283e+00	 4.1917945447e-01	-6.7572616537e+01
 1.7035367429e+00	 4.5207169318e-01	-7.1133027251e+01
 1.6944656638e+00	 4.8496635368e-01	-7.1902074438e+01
 1.6847089713e+00	 5.1784354024e-01	-6.9989698059e+01
 1.6742623784e+00	 5.5068297457e-01	-6.5519010874e+01
 1.6631223582e+00	 5.8346402771e-01	-5.8626238550e+01
 1.6512861696e+00	 6.1616575375e-01	-4.9460590296e+01
 1.6387518806e+00	 6.4876692562e-01	-3.8184058031e+01
 1.7453670289e+00	 3.2298441805e-01	-1.5966520668e+01
 1.7389360195e+00	 3.5598668521e-01	-2.5002421008e+01
 1.7318388932e+00	 3.8904890208e-01	-3.2221974258e+01
 1.7240685562e+00	 4.2215235840e-01	-3.7676954577e+01
 1.7156185637e+00	 4.5527787540e-01	-4.1427233802e+01
 1.7064831508e+00	 4.8840583137e-01	-4.3540833551e+01
 1.6966572619e+00	 5.2151618946e-01	-4.4093938072e+01
 1.6861365796e+00	 5.5458852759e-01	-4.3170866008e+01
 1.6749175523e+00	 5.8760207046e-01	-4.0863999425e+01
 1.6629974191e+00	 6.2053572364e-01	-3.7273668784e+01
 1.6503742344e+00	 6.5336810950e-01	-3.2507992757e+01
 1.7576583461e+00	 3.2525895620e-01	 5.7295578190e+00
 1.7511820478e+00	 3.5849363370e-01	 3.6959170980e-01
 1.7440349417e+00	 3.9178868308e-01	-4.3824056121e+00
 1.7362098840e+00	 4.2512526233e-01	-8.5594137906e+00
 1.7277003846e+00	 4.5848405762e-01	-1.2197691418e+01
 1.7185006378e+00	 4.9184530906e-01	-1.5336748821e+01
 1.7086055524e+00	 5.2518883868e-01	-1.8019303144e+01
 1.6980107809e+00	 5.5849408060e-01	-2.0291215188e+01
 1.6867127463e+00	 5.9174011322e-01	-2.2201407633e+01
 1.6747086685e+00	 6.2490569353e-01	-2.3801764361e+01
 1.6619965882e+00	 6.5796929337e-01	-2.5147010758e+01
 1.7699496632e+00	 3.2753349436e-01	 2.5880314743e+01
 1.7634280761e+00	 3.6100058218e-01	 2.4440030344e+01
 1.7562309902e+00	 3.9452846408e-01	 2.2416775359e+01
 1.7483512119e+00	 4.2809816627e-01	 1.9796218721e+01
 1.7397822055e+00	 4.6169023984e-01	 1.6565524346e+01
 1.7305181248e+00	 4.9528478674e-01	 1.2713456847e+01
 1.7205538430e+00	 5.2886148791e-01	 8.2304835999e+00
 1.7098849822e+00	 5.6239963361e-01	 3.1088723686e+00
 1.6985079403e+00	 5.9587815597e-01	-2.6572163410e+00
 1.6864199179e+00	 6.2927566342e-01	-9.0716430036e+00
 1.6736189419e+00	 6.6257047724e-01	-1.6136209676e+01
 1.7822409803e+00	 3.2980803251e-01	 4.4517722536e+01
 1.7756741044e+00	 3.6350753067e-01	 4.7235824889e+01
 1.7684270388e+00	 3.9726824508e-01	 4.8197095364e+01
 1.7604925398e+00	 4.3107107020e-01	 4.7405708553e+01
 1.7518640264e+00	 4.6489642207e-01	 4.4872064093e+01
 1.7425356117e+00	 4.9872426443e-01	 4.0612970078e+01
 1.7325021336e+00	 5.3253413713e-01	 3.4651801663e+01
 1.7217591834e+00	 5.6630518663e-01	 2.7018632718e+01
 1.7103031344e+00	 6.0001619872e-01	 1.7750338514e+01
 1.6981311674e+00	 6.3364563330e-01	 6.8906675745e+00
 1.6852412957e+00	 6.6717166111e-01	-5.5097190612e+00
 1.7945322974e+00	 3.3208257067e-01	 6.1672877651e+01
 1.7879201328e+00	 3.6601447916e-01	 6.8783167500e+01
 1.7806230873e+00	 4.0000802608e-01	 7.2979491297e+01
 1.7726338676e+00	 4.3404397413e-01	 7.4284389319e+01
 1.7639458472e+00	 4.6810260429e-01	 7.2731313968e+01
 1.7545530987e+00	 5.0216374212e-01	 6.8364890122e+01
 1.7444504242e+00	 5.3620678635e-01	 6.1241129661e+01
 1.7336333847e+00	 5.7021073964e-01	 5.1427596726e+01
 1.7220983284e+00	 6.0415424147e-01	 3.9003520513e+01
 1.7098424168e+00	 6.3801560319e-01	 2.4059852641e+01
 1.6968636495e+00	 6.7177284498e-01	 6.6992664761e+00
 1.8068236145e+00	 3.3435710882e-01	 7.7376030360e+01
 1.8001661611e+00	 3.6852142765e-01	 8.9107537589e+01
 1.7928191359e+00	 4.0274780708e-01	 9.6784330304e+01
 1.7847751955e+00	 4.3701687807e-01	 1.0044717734e+02
 1.7760276681e+00	 4.7130878651e-01	 1.0015240465e+02
 1.7665705857e+00	 5.0560321981e-01	 9.5972231828e+01
 1.7563987147e+00	 5.3987943557e-01	 8.7995041950e+01
 1.7455075860e+00	 5.7411629265e-01	 7.6325580050e+01
 1.7338935224e+00	 6.0829228422e-01	 6.1085075762e+01
 1.7215536662e+00	 6.4238557307e-01	 4.2411286193e+01
 1.7084860032e+00	 6.7637402885e-01	 2.0458455464e+01
 1.8191149316e+00	 3.3663164698e-01	 9.1656613339e+01
 1.8124121894e+00	 3.7102837614e-01	 1.0823372591e+02
 1.8050151844e+00	 4.0548758808e-01	 1.1963142903e+02
 1.7969165233e+00	 4.3998978200e-01	 1.2590858575e+02
 1.7881094890e+00	 4.7451496873e-01	 1.2714421999e+02
 1.7785880727e+00	 5.0904269749e-01	 1.2343792849e+02
 1.7683470053e+00	 5.4355208480e-01	 1.1491020540e+02
 1.7573817872e+00	 5.7802184566e-01	 1.0170267351e+02
 1.7456887164e+00	 6.1243032697e-01	 8.3978216592e+01
 1.7332649156e+00	 6.4675554296e-01	 6.1921007690e+01
 1.7201083570e+00	 6.8097521272e-01	 3.5736429058e+01
 1.8314062487e+00	 3.3890618513e-01	 1.0454326910e+02
 1.8246582177e+00	 3.7353532462e-01	 1.2618585765e+02
 1.8172112330e+00	 4.0822736909e-01	 1.4154007207e+02
 1.8090578512e+00	 4.4296268593e-01	 1.5068273801e+02
 1.8001913098e+00	 4.7772115095e-01	 1.5371540529e+02
 1.7906055596e+00	 5.1248217518e-01	 1.5076483460e+02
 1.7802952959e+00	 5.4722473402e-01	 1.4198337627e+02
 1.7692559885e+00	 5.8192739867e-01	 1.2754923386e+02
 1.7574839105e+00	 6.1656836972e-01	 1.0766660592e+02
 1.7449761651e+00	 6.5112551284e-01	 8.2565699724e+01
 1.7317307107e+00	 6.8557639659e-01	 5.2502611760e+01
 1.8436975658e+00	 3.4118072329e-01	 1.1606387635e+02
 1.8369042460e+00	 3.7604227311e-01	 1.4298741465e+02
 1.8294072815e+00	 4.1096715009e-01	 1.6252902977e+02
 1.8211991790e+00	 4.4593558987e-01	 1.7478338091e+02
 1.8122731307e+00	 4.8092733318e-01	 1.7987437523e+02
 1.8026230466e+00	 5.1592165286e-01	 1.7795572845e+02
 1.7922435865e+00	 5.5089738324e-01	 1.6921139726e+02
 1.7811301897e+00	 5.8583295169e-01	 1.5385587491e+02
 1.7692791045e+00	 6.2070641247e-01	 1.3213434221e+02
 1.7566874145e+00	 6.5549548273e-01	 1.0432266658e+02
 1.7433530645e+00	 6.9017758046e-01	 7.0727243307e+01
 1.6271295269e+00	 6.4416574175e-01	-4.2139106269e+01
 1.6139898915e+00	 6.7641454023e-01	-2.1631787575e+01
 1.6001557665e+00	 7.0852065810e-01	-4.5123037115e+00
 1.5856277673e+00	 7.4046241201e-01	 9.3448861233e+00
 1.5704073875e+00	 7.7221799858e-01	 2.0080261152e+01
 1.5544970120e+00	 8.0376553786e-01	 2.7848993511e+01
 1.5378999272e+00	 8.3508311796e-01	 3.2820618629e+01
 1.5206203293e+00	 8.6614884071e-01	 3.5178621258e+01
 1.5026633286e+00	 8.9694086809e-01	 3.5119937611e+01
 1.4840349526e+00	 9.2743746932e-01	 3.2854374794e+01
 1.4647421446e+00	 9.5761706843e-01	 2.8603949403e+01
 1.6387518806e+00	 6.4876692562e-01	-3.8184058031e+01
 1.6255183907e+00	 6.8124607266e-01	-2.2344713114e+01
 1.6115854506e+00	 7.1358151994e-01	-8.9654950354e+00
 1.5969536799e+00	 7.4575142924e-01	 2.0493601635e+00
 1.5816245831e+00	 7.7773384143e-01	 1.0806660192e+01
 1.5656005621e+00	 8.0950672027e-01	 1.7424062585e+01
 1.5488849267e+00	 8.4104799738e-01	 2.2029818205e+01
 1.5314819031e+00	 8.7233561815e-01	 2.4762452067e+01
 1.5133966381e+00	 9.0334758858e-01	 2.5770381903e+01
 1.4946352023e+00	 9.3406202267e-01	 2.5211475423e+01
 1.4752045885e+00	 9.6445719035e-01	 2.3252547751e+01
 1.6503742344e+00	 6.5336810950e-01	-3.2507992757e+01
 1.6370468900e+00	 6.8607760509e-01	-2.1580329353e+01
 1.6230151346e+00	 7.1864238179e-01	-1.2198263823e+01
 1.6082795926e+00	 7.5104044647e-01	-4.2954915236e+00
 1.5928417788e+00	 7.8324968428e-01	 2.2014789032e+00
 1.5767041122e+00	 8.1524790269e-01	 7.3731827501e+00
 1.5598699262e+00	 8.4701287680e-01	 1.1307015249e+01
 1.5423434768e+00	 8.7852239559e-01	 1.4097006381e+01
 1.5241299476e+00	 9.0975430906e-01	 1.5843554875e+01
 1.5052354519e+00	 9.4068657602e-01	 1.6653122115e+01
 1.4856670324e+00	 9.7129731226e-01	 1.6637887044e+01
 1.6619965882e+00	 6.5796929337e-01	-2.5147010758e+01
 1.6485753892e+00	 6.9090913753e-01	-1.9369623582e+01
 1.6344448187e+00	 7.2370324364e-01	-1.4236207893e+01
 1.6196055052e+00	 7.5632946371e-01	-9.7096074891e+00
 1.6040589744e+00	 7.8876552713e-01	-5.7492996523e+00
 1.5878076622e+00	 8.2098908511e-01	-2.3114872028e+00
 1.5708549257e+00	 8.5297775622e-01	 6.5078939975e-01
 1.5532050506e+00	 8.8470917302e-01	 3.1875200624e+00
 1.5348632571e+00	 9.1616102955e-01	 5.3515735095e+00
 1.5158357016e+00	 9.4731112938e-01	 7.1985266856e+00
 1.4961294763e+00	 9.7813743418e-01	 8.7864757936e+00
 1.6736189419e+00	 6.6257047724e-01	-1.6136209676e+01
 1.6601038884e+00	 6.9574066996e-01	-1.5742722464e+01
 1.6458745027e+00	 7.2876410549e-01	-1.5104214152e+01
 1.6309314178e+00	 7.6161848094e-01	-1.4212372583e+01
 1.6152761700e+00	 7.9428136998e-01	-1.3059303210e+01
 1.5989112123e+00	 8.2673026752e-01	-1.1637570838e+01
 1.5818399252e+00	 8.5894263563e-01	-9.9402404228e+00
 1.5640666244e+00	 8.9089595046e-01	-7.9609166522e+00
 1.5455965666e+00	 9.2256775004e-01	-5.6937819892e+00
 1.5264359513e+00	 9.5393568273e-01	-3.1336329113e+00
 1.5065919202e+00	 9.8497755610e-01	-2.7591404838e-01
 1.6852412957e+00	 6.6717166111e-01	-5.5097190612e+00
 1.6716323876e+00	 7.0057220239e-01	-1.0728921708e+01
 1.6573041868e+00	 7.3382496733e-01	-1.4826483107e+01
 1.6422573304e+00	 7.6690749817e-01	-1.7822637048e+01
 1.6264933656e+00	 7.9979721283e-01	-1.9741783725e+01
 1.6100147624e+00	 8.3247144994e-01	-2.0612481577e+01
 1.5928249246e+00	 8.6490751505e-01	-2.0467417374e+01
 1.5749281982e+00	 8.9708272789e-01	-1.9343354127e+01
 1.5563298761e+00	 9.2897447053e-01	-1.7281056576e+01
 1.5370362009e+00	 9.6056023608e-01	-1.4325194175e+01
 1.5170543641e+00	 9.9181767802e-01	-1.0524221686e+01
 1.6968636495e+00	 6.7177284498e-01	 6.6992664761e+00
 1.6831608869e+00	 7.0540373482e-01	-4.3567145265e+00
 1.6687338708e+00	 7.3888582918e-01	-1.3426552373e+01
 1.6535832431e+00	 7.7219651540e-01	-2.0558734824e+01
 1.6377105613e+00	 8.0531305568e-01	-2.5809630236e+01
 1.6211183125e+00	 8.3821263235e-01	-2.9243429899e+01
 1.6038099241e+00	 8.7087239446e-01	-3.0932047980e+01
 1.5857897720e+00	 9.0326950533e-01	-3.0954978512e+01
 1.5670631856e+00	 9.3538119102e-01	-2.9399109232e+01
 1.5476364506e+00	 9.6718478944e-01	-2.6358492402e+01
 1.5275168080e+00	 9.9865779994e-01	-2.1934073122e+01
 1.7084860032e+00	 6.7637402885e-01	 2.0458455464e+01
 1.6946893861e+00	 7.1023526726e-01	 3.3461810670e+00
 1.6801635549e+00	 7.4394669102e-01	-1.0927319223e+01
 1.6649091557e+00	 7.7748553263e-01	-2.2438501115e+01
 1.6489277569e+00	 8.1082889853e-01	-3.1275381212e+01
 1.6322218626e+00	 8.4395381477e-01	-3.7537430238e+01
 1.6147949236e+00	 8.7683727388e-01	-4.1335403386e+01
 1.5966513457e+00	 9.0945628276e-01	-4.2791107124e+01
 1.5777964951e+00	 9.4178791150e-01	-4.2037102278e+01
 1.5582367002e+00	 9.7380934279e-01	-3.9216343757e+01
 1.5379792519e+00	 1.0054979219e+00	-3.4481757803e+01
 1.7201083570e+00	 6.8097521272e-01	 3.5736429058e+01
 1.7062178853e+00	 7.1506679969e-01	 1.2352796072e+01
 1.6915932389e+00	 7.4900755286e-01	-7.3510622120e+00
 1.6762350683e+00	 7.8277454986e-01	-2.3479289229e+01
 1.6601449525e+00	 8.1634474137e-01	-3.6151236397e+01
 1.6433254127e+00	 8.4969499718e-01	-4.5501307608e+01
 1.6257799231e+00	 8.8280215329e-01	-5.1678720548e+01
 1.6075129195e+00	 9.1564306020e-01	-5.4847184014e+01
 1.5885298046e+00	 9.4819463199e-01	-5.5184491131e+01
 1.5688369499e+00	 9.8043389614e-01	-5.2882029020e+01
 1.5484416958e+00	 1.0123380438e+00	-4.8144206194e+01
 1.7317307107e+00	 6.8557639659e-01	 5.2502611760e+01
 1.7177463845e+00	 7.1989833212e-01	 2.2636885365e+01
 1.7030229229e+00	 7.5406841471e-01	-2.7194619488e+00
 1.6875609809e+00	 7.8806356708e-01	-2.3697986759e+01
 1.6713621481e+00	 8.2186058422e-01	-4.0449068170e+01
 1.6544289627e+00	 8.5543617959e-01	-5.3141703959e+01
 1.6367649225e+00	 8.8876703271e-01	-6.1963203380e+01
 1.6183744933e+00	 9.2182983763e-01	-6.7118775712e+01
 1.5992631140e+00	 9.5460135247e-01	-6.8831014464e+01
 1.5794371996e+00	 9.8705844950e-01	-6.7339278001e+01
 1.5589041397e+00	 1.0191781657e+00	-6.2898968278e+01
 1.7433530645e+00	 6.9017758046e-01	 7.0727243307e+01
 1.7292748837e+00	 7.2472986455e-01	 3.4172903572e+01
 1.7144526070e+00	 7.5912927655e-01	 2.9463789801e+00
 1.6988868935e+00	 7.9335258431e-01	-2.3111031095e+01
 1.6825793438e+00	 8.2737642706e-01	-4.4180432463e+01
 1.6655325128e+00	 8.6117736201e-01	-6.0465084275e+01
 1.6477499220e+00	 8.9473191212e-01	-7.2190023854e+01
 1.6292360671e+00	 9.2801661506e-01	-7.9601567148e+01
 1.6099964235e+00	 9.6100807296e-01	-8.2966684763e+01
 1.5900374492e+00	 9.9368300285e-01	-8.2572254565e+01
 1.5693665835e+00	 1.0260182876e+00	-7.8724192894e+01
 1.4647421446e+00	 9.5761706843e-01	 2.8603949403e+01
 1.4447927608e+00	 9.8745829200e-01	 1.9688300484e+01
 1.4241955631e+00	 1.0169400170e+00	 1.2474949131e+01
 1.4029602102e+00	 1.0460414182e+00	 6.8017434573e+00
 1.3810972449e+00	 1.0747420157e+00	 2.4993739728e+00
 1.3586180783e+00	 1.1030217212e+00	-6.0796958974e-01
 1.3355349719e+00	 1.1308608839e+00	-2.7018994803e+00
 1.3118610162e+00	 1.1582403352e+00	-3.9690934172e+00
 1.2876101064e+00	 1.1851414320e+00	-4.6005249567e+00
 1.2627969160e+00	 1.2115460985e+00	-4.7906656785e+00
 1.2374368671e+00	 1.2374368671e+00	-4.7366643956e+00
 1.4752045885e+00	 9.6445719035e-01	 2.3252547751e+01
 1.4551127091e+00	 9.9451156551e-01	 1.4705604656e+01
 1.4343683886e+00	 1.0242038742e+00	 7.6487592774e+00
 1.4129813546e+00	 1.0535131426e+00	 1.9527353251e+00
 1.3909622252e+00	 1.0824187444e+00	-2.5180135912e+00
 1.3683224931e+00	 1.1109004478e+00	-5.9047828935e+00
 1.3450745074e+00	 1.1389384617e+00	-8.3540594395e+00
 1.3212314520e+00	 1.1665134805e+00	-1.0016930750e+01
 1.2968073215e+00	 1.1936067279e+00	-1.1048464725e+01
 1.2718168940e+00	 1.2201999992e+00	-1.1607063804e+01
 1.2462757018e+00	 1.2462757018e+00	-1.1853797762e+01
 1.4856670324e+00	 9.7129731226e-01	 1.6637887044e+01
 1.4654326574e+00	 1.0015648390e+00	 8.6526085312e+00
 1.4445412140e+00	 1.0314677315e+00	 1.9477989840e+00
 1.4230024990e+00	 1.0609848670e+00	-3.5733016497e+00
 1.4008272055e+00	 1.0900954730e+00	-8.0128445543e+00
 1.3780269080e+00	 1.1187791744e+00	-1.1477985504e+01
 1.3546140429e+00	 1.1470160394e+00	-1.4080467186e+01
 1.3306018879e+00	 1.1747866257e+00	-1.5936172846e+01
 1.3060045365e+00	 1.2020720239e+00	-1.7164654002e+01
 1.2808368720e+00	 1.2288538999e+00	-1.7888635203e+01
 1.2551145366e+00	 1.2551145366e+00	-1.8233499018e+01
 1.4961294763e+00	 9.7813743418e-01	 8.7864757936e+00
 1.4757526057e+00	 1.0086181125e+00	 1.5517726060e+00
 1.4547140395e+00	 1.0387315887e+00	-4.6095732101e+00
 1.4330236433e+00	 1.0684565914e+00	-9.7621572898e+00
 1.4106921858e+00	 1.0977722017e+00	-1.3975095786e+01
 1.3877313228e+00	 1.1266579009e+00	-1.7321772148e+01
 1.3641535784e+00	 1.1550936172e+00	-1.9879558112e+01
 1.3399723237e+00	 1.1830597710e+00	-2.1729510475e+01
 1.3152017516e+00	 1.2105373198e+00	-2.2956045480e+01
 1.2898568500e+00	 1.2375078006e+00	-2.3646592821e+01
 1.2639533714e+00	 1.2639533714e+00	-2.3891231472e+01
 1.5065919202e+00	 9.8497755610e-01	-2.7591404838e-01
 1.4860725540e+00	 1.0156713861e+00	-6.5750667415e+00
 1.4648868649e+00	 1.0459954460e+00	-1.2005508949e+01
 1.4430447877e+00	 1.0759283158e+00	-1.6600016378e+01
 1.4205571662e+00	 1.1054489304e+00	-2.0395022814e+01
 1.3974357376e+00	 1.1345366275e+00	-2.3430499055e+01
 1.3736931140e+00	 1.1631711949e+00	-2.5749811325e+01
 1.3493427595e+00	 1.1913329162e+00	-2.7399559925e+01
 1.3243989666e+00	 1.2190026157e+00	-2.8429398985e+01
 1.2988768279e+00	 1.2461617013e+00	-2.8891838403e+01
 1.2727922061e+00	 1.2727922061e+00	-2.8842029172e+01
 1.5170543641e+00	 9.9181767802e-01	-1.0524221686e+01
 1.4963925022e+00	 1.0227246596e+00	-1.5706675730e+01
 1.4750596904e+00	 1.0532593033e+00	-2.0222652469e+01
 1.4530659320e+00	 1.0834000402e+00	-2.4073445034e+01
 1.4304221465e+00	 1.1131256591e+00	-2.7263150219e+01
 1.4071401525e+00	 1.1424153541e+00	-2.9798678389e+01
 1.3832326495e+00	 1.1712487727e+00	-3.1689748138e+01
 1.3587131954e+00	 1.1996060615e+00	-3.2948865565e+01
 1.3335961817e+00	 1.2274679117e+00	-3.3591288129e+01
 1.3078968059e+00	 1.2548156020e+00	-3.3634973226e+01
 1.2816310409e+00	 1.2816310409e+00	-3.3100511709e+01
 1.5275168080e+00	 9.9865779994e-01	-2.1934073122e+01
 1.5067124505e+00	 1.0297779331e+00	-2.5822402539e+01
 1.4852325158e+00	 1.0605231605e+00	-2.9244123722e+01
 1.4630870764e+00	 1.0908717647e+00	-3.2169377657e+01
 1.4402871268e+00	 1.1208023878e+00	-3.4570262411e+01
 1.4168445673e+00	 1.1502940807e+00	-3.6420972903e+01
 1.3927721850e+00	 1.1793263504e+00	-3.7697930623e+01
 1.3680836312e+00	 1.2078792067e+00	-3.8379902310e+01
 1.3427933967e+00	 1.2359332076e+00	-3.8448106685e+01
 1.3169167839e+00	 1.2634695027e+00	-3.7886308385e+01
 1.2904698757e+00	 1.2904698757e+00	-3.6680898406e+01
 1.5379792519e+00	 1.0054979219e+00	-3.4481757803e+01
 1.5170323988e+00	 1.0368312066e+00	-3.6902157507e+01
 1.4954053413e+00	 1.0677870178e+00	-3.9053502201e+01
 1.4731082208e+00	 1.0983434891e+00	-4.0875104395e+01
 1.4501521071e+00	 1.1284791165e+00	-4.2307394797e+01
 1.4265489822e+00	 1.1581728073e+00	-4.3292190823e+01
 1.4023117205e+00	 1.1874039281e+00	-4.3772960220e+01
 1.3774540670e+00	 1.2161523520e+00	-4.3695077979e+01
 1.3519906118e+00	 1.2443985036e+00	-4.3006074699e+01
 1.3259367618e+00	 1.2721234034e+00	-4.1655874663e+01
 1.2993087104e+00	 1.2993087104e+00	-3.9597021932e+01
 1.5484416958e+00	 1.0123380438e+00	-4.8144206194e+01
 1.5273523471e+00	 1.0438844801e+00	-4.8926394147e+01
 1.5055781667e+00	 1.0750508751e+00	-4.9634811407e+01
 1.4831293651e+00	 1.1058152135e+00	-5.0178259126e+01
 1.4600170874e+00	 1.1361558451e+00	-5.0465825297e+01
 1.4362533970e+00	 1.1660515338e+00	-5.0407280921e+01
 1.4118512560e+00	 1.1954815059e+00	-4.9913476410e+01
 1.3868245028e+00	 1.2244254973e+00	-4.8896735559e+01
 1.3611878268e+00	 1.2528637995e+00	-4.7271244361e+01
 1.3349567398e+00	 1.2807773042e+00	-4.4953431996e+01
 1.3081475452e+00	 1.3081475452e+00	-4.1862341365e+01
 1.5589041397e+00	 1.0191781657e+00	-6.2898968278e+01
 1.5376722954e+00	 1.0509377536e+00	-6.1876090909e+01
 1.5157509922e+00	 1.0823147323e+00	-6.0972503950e+01
 1.4931505095e+00	 1.1132869379e+00	-6.0066807921e+01
 1.4698820678e+00	 1.1438325738e+00	-5.9037066204e+01
 1.4459578119e+00	 1.1739302604e+00	-5.7761327806e+01
 1.4213907915e+00	 1.2035590836e+00	-5.6118155434e+01
 1.3961949387e+00	 1.2326986425e+00	-5.3987155383e+01
 1.3703850419e+00	 1.2613290955e+00	-5.1249505631e+01
 1.3439767178e+00	 1.2894312049e+00	-4.7788478563e+01
 1.3169863800e+00	 1.3169863800e+00	-4.3489954720e+01
 1.5693665835e+00	 1.0260182876e+00	-7.8724192894e+01
 1.5479922437e+00	 1.0579910271e+00	-7.5732733688e+01
 1.5259238176e+00	 1.0895785896e+00	-7.3051447248e+01
 1.5031716538e+00	 1.1207586623e+00	-7.0529037970e+01
 1.4797470481e+00	 1.1515093025e+00	-6.8012856371e+01
 1.4556622267e+00	 1.1818089870e+00	-6.5349547391e+01
 1.4309303270e+00	 1.2116366614e+00	-6.2385709067e+01
 1.4055653745e+00	 1.2409717878e+00	-5.8968557212e+01
 1.3795822569e+00	 1.2697943914e+00	-5.4946591653e+01
 1.3529966958e+00	 1.2980851056e+00	-5.0170259508e+01
 1.3258252147e+00	 1.3258252147e+00	-4.4492610992e+01
 1.2374368671e+00	 1.2374368671e+00	-4.7366643956e+00
 1.2115460985e+00	 1.2627969160e+00	-1.1352313706e+00
 1.1851414320e+00	 1.2876101064e+00	 2.0104836670e+00
 1.1582403352e+00	 1.3118610162e+00	 4.8991597051e+00
 1.1308608839e+00	 1.3355349719e+00	 7.7293770065e+00
 1.1030217212e+00	 1.3586180783e+00	 1.0698764462e+01
 1.0747420157e+00	 1.3810972449e+00	 1.4003156628e+01
 1.0460414182e+00	 1.4029602102e+00	 1.7835766052e+01
 1.0169400170e+00	 1.4241955631e+00	 2.2386376329e+01
 9.8745829200e-01	 1.4447927608e+00	 2.7840561093e+01
 9.5761706843e-01	 1.4647421446e+00	 3.4378933875e+01
 1.2462757018e+00	 1.2462757018e+00	-1.1853797762e+01
 1.2201999992e+00	 1.2718168940e+00	-6.7005821325e+00
 1.1936067279e+00	 1.2968073215e+00	-2.5082949410e+00
 1.1665134805e+00	 1.3212314520e+00	 9.0252176095e-01
 1.1389384617e+00	 1.3450745074e+00	 3.7133776001e+00
 1.1109004478e+00	 1.3683224931e+00	 6.1070456867e+00
 1.0824187444e+00	 1.3909622252e+00	 8.2667719019e+00
 1.0535131426e+00	 1.4129813546e+00	 1.0375487005e+01
 1.0242038742e+00	 1.4343683886e+00	 1.2615026828e+01
 9.9451156551e-01	 1.4551127091e+00	 1.5165365704e+01
 9.6445719035e-01	 1.4752045885e+00	 1.8203868109e+01
 1.2551145366e+00	 1.2551145366e+00	-1.8233499018e+01
 1.2288538999e+00	 1.2808368720e+00	-1.1647900581e+01
 1.2020720239e+00	 1.3060045365e+00	-6.5207982595e+00
 1.1747866257e+00	 1.3306018879e+00	-2.6917469690e+00
 1.1470160394e+00	 1.3546140429e+00	 3.8798750852e-03
 1.1187791744e+00	 1.3780269080e+00	 1.7341660088e+00
 1.0900954730e+00	 1.4008272055e+00	 2.6699133592e+00
 1.0609848670e+00	 1.4230024990e+00	 2.9838935380e+00
 1.0314677315e+00	 1.4445412140e+00	 2.8500948893e+00
 1.0015648390e+00	 1.4654326574e+00	 2.4429701832e+00
 9.7129731226e-01	 1.4856670324e+00	 1.9366899752e+00
 1.2639533714e+00	 1.2639533714e+00	-2.3891231472e+01
 1.2375078006e+00	 1.2898568500e+00	-1.5990145018e+01
 1.2105373198e+00	 1.3152017516e+00	-1.0037639907e+01
 1.1830597710e+00	 1.3399723237e+00	-5.8920801054e+00
 1.1550936172e+00	 1.3641535784e+00	-3.4055384121e+00
 1.1266579009e+00	 1.3877313228e+00	-2.4244575474e+00
 1.0977722017e+00	 1.4106921858e+00	-2.7903378523e+00
 1.0684565914e+00	 1.4330236433e+00	-4.3404467939e+00
 1.0387315887e+00	 1.4547140395e+00	-6.9085453412e+00
 1.0086181125e+00	 1.4757526057e+00	-1.0325626179e+01
 9.7813743418e-01	 1.4961294763e+00	-1.4420658697e+01
 1.2727922061e+00	 1.2727922061e+00	-2.8842029172e+01
 1.2461617013e+00	 1.2988768279e+00	-1.9739914077e+01
 1.2190026157e+00	 1.3243989666e+00	-1.3069138966e+01
 1.1913329162e+00	 1.3493427595e+00	-8.7066772945e+00
 1.1631711949e+00	 1.3736931140e+00	-6.5211214070e+00
 1.1345366275e+00	 1.3974357376e+00	-6.3732809547e+00
 1.1054489304e+00	 1.4205571662e+00	-8.1168198114e+00
 1.0759283158e+00	 1.4430447877e+00	-1.1598926954e+01
 1.0459954460e+00	 1.4648868649e+00	-1.6661016533e+01
 1.0156713861e+00	 1.4860725540e+00	-2.3139452167e+01
 9.8497755610e-01	 1.5065919202e+00	-3.0866290334e+01
 1.2816310409e+00	 1.2816310409e+00	-3.3100511709e+01
 1.2548156020e+00	 1.3078968059e+00	-2.2909459119e+01
 1.2274679117e+00	 1.3335961817e+00	-1.5625330140e+01
 1.1996060615e+00	 1.3587131954e+00	-1.1143512275e+01
 1.1712487727e+00	 1.3832326495e+00	-9.3489412958e+00
 1.1424153541e+00	 1.4071401525e+00	-1.0116637560e+01
 1.1131256591e+00	 1.4304221465e+00	-1.3312292606e+01
 1.0834000402e+00	 1.4530659320e+00	-1.8792901782e+01
 1.0532593033e+00	 1.4750596904e+00	-2.6407438280e+01
 1.0227246596e+00	 1.4963925022e+00	-3.5997563665e+01
 9.9181767802e-01	 1.5170543641e+00	-4.7398369746e+01
 1.2904698757e+00	 1.2904698757e+00	-3.6680898406e+01
 1.2634695027e+00	 1.3169167839e+00	-2.5510696130e+01
 1.2359332076e+00	 1.3427933967e+00	-1.7715973491e+01
 1.2078792067e+00	 1.3680836312e+00	-1.3210340610e+01
 1.1793263504e+00	 1.3927721850e+00	-1.1894904193e+01
 1.1502940807e+00	 1.4168445673e+00	-1.3658742281e+01
 1.1208023878e+00	 1.4402871268e+00	-1.8379441002e+01
 1.0908717647e+00	 1.4630870764e+00	-2.5923689302e+01
 1.0605231605e+00	 1.4852325158e+00	-3.6147927201e+01
 1.0297779331e+00	 1.5067124505e+00	-4.8899042732e+01
 9.9865779994e-01	 1.5275168080e+00	-6.4015112331e+01
 1.2993087104e+00	 1.2993087104e+00	-3.9597021932e+01
 1.2721234034e+00	 1.3259367618e+00	-2.7555217121e+01
 1.2443985036e+00	 1.3519906118e+00	-1.9350563773e+01
 1.2161523520e+00	 1.3774540670e+00	-1.4914707111e+01
 1.1874039281e+00	 1.4023117205e+00	-1.4164755788e+01
 1.1581728073e+00	 1.4265489822e+00	-1.7003695634e+01
 1.1284791165e+00	 1.4501521071e+00	-2.3320877004e+01
 1.0983434891e+00	 1.4731082208e+00	-3.2992571967e+01
 1.0677870178e+00	 1.4954053413e+00	-4.5882597044e+01
 1.0368312066e+00	 1.5170323988e+00	-6.1842996705e+01
 1.0054979219e+00	 1.5379792519e+00	-8.0714782351e+01
 1.3081475452e+00	 1.3081475452e+00	-4.1862341365e+01
 1.2807773042e+00	 1.3349567398e+00	-2.9054301074e+01
 1.2528637995e+00	 1.3611878268e+00	-2.0538339402e+01
 1.2244254973e+00	 1.3868245028e+00	-1.6263952950e+01
 1.1954815059e+00	 1.4118512560e+00	-1.6164086760e+01
 1.1660515338e+00	 1.4362533970e+00	-2.0155487594e+01
 1.1361558451e+00	 1.4600170874e+00	-2.8139142310e+01
 1.1058152135e+00	 1.4831293651e+00	-4.0000797862e+01
 1.0750508751e+00	 1.5055781667e+00	-5.5611558774e+01
 1.0438844801e+00	 1.5273523471e+00	-7.4828557345e+01
 1.0123380438e+00	 1.5484416958e+00	-9.7495691281e+01
 1.3169863800e+00	 1.3169863800e+00	-4.3489954720e+01
 1.2894312049e+00	 1.3439767178e+00	-3.0018924442e+01
 1.2613290955e+00	 1.3703850419e+00	-2.1288291048e+01
 1.2326986425e+00	 1.3961949387e+00	-1.7265222493e+01
 1.2035590836e+00	 1.4213907915e+00	-1.7898337984e+01
 1.1739302604e+00	 1.4459578119e+00	-2.3118001306e+01
 1.1438325738e+00	 1.4698820678e+00	-3.2836710668e+01
 1.1132869379e+00	 1.4931505095e+00	-4.6949581854e+01
 1.0823147323e+00	 1.5157509922e+00	-6.5334920670e+01
 1.0509377536e+00	 1.5376722954e+00	-8.7854880015e+01
 1.0191781657e+00	 1.5589041397e+00	-1.1435619622e+02
 1.3258252147e+00	 1.3258252147e+00	-4.4492610992e+01
 1.2980851056e+00	 1.3529966958e+00	-3.0459771234e+01
 1.2697943914e+00	 1.3795822569e+00	-2.1609169896e+01
 1.2409717878e+00	 1.4055653745e+00	-1.7925469861e+01
 1.2116366614e+00	 1.4309303270e+00	-1.9372805515e+01
 1.1818089870e+00	 1.4556622267e+00	-2.5895016638e+01
 1.1515093025e+00	 1.4797470481e+00	-3.7415990141e+01
 1.1207586623e+00	 1.5031716538e+00	-5.3840106697e+01
 1.0895785896e+00	 1.5259238176e+00	-7.5052788410e+01
 1.0579910271e+00	 1.5479922437e+00	-1.0092114289e+02
 1.0260182876e+00	 1.5693665835e+00	-1.3129469837e+02
 9.5761706843e-01	 1.4647421446e+00	 3.4378933875e+01
 9.2743746932e-01	 1.4840349526e+00	 4.1139879118e+01
 8.9694086809e-01	 1.5026633286e+00	 4.3521196422e+01
 8.6614884071e-01	 1.5206203293e+00	 4.1623240521e+01
 8.3508311796e-01	 1.5378999272e+00	 3.5562444680e+01
 8.0376553786e-01	 1.5544970120e+00	 2.5470543266e+01
 7.7221799858e-01	 1.5704073875e+00	 1.1493728995e+01
 7.4046241201e-01	 1.5856277673e+00	-6.2082480590e+00
 7.0852065810e-01	 1.6001557665e+00	-2.7463032321e+01
 6.7641454023e-01	 1.6139898915e+00	-5.2086657852e+01
 6.4416574175e-01	 1.6271295269e+00	-7.9884579080e+01
 9.6445719035e-01	 1.4752045885e+00	 1.8203868109e+01
 9.3406202267e-01	 1.4946352023e+00	 2.1403239558e+01
 9.0334758858e-01	 1.5133966381e+00	 2.2527870731e+01
 8.7233561815e-01	 1.5314819031e+00	 2.1577778978e+01
 8.4104799738e-01	 1.5488849267e+00	 1.8562221293e+01
 8.0950672027e-01	 1.5656005621e+00	 1.3499483266e+01
 7.7773384143e-01	 1.5816245831e+00	 6.4166240388e+00
 7.4575142924e-01	 1.5969536799e+00	-2.6508200185e+00
 7.1358151994e-01	 1.6115854506e+00	-1.3659169871e+01
 6.8124607266e-01	 1.6255183907e+00	-2.6556973410e+01
 6.4876692562e-01	 1.6387518806e+00	-4.1285406635e+01
 9.7129731226e-01	 1.4856670324e+00	 1.9366899752e+00
 9.4068657602e-01	 1.5052354519e+00	 1.1279622863e+00
 9.0975430906e-01	 1.5241299476e+00	 5.1785040417e-01
 8.7852239559e-01	 1.5423434768e+00	 7.1612202066e-03
 8.4701287680e-01	 1.5598699262e+00	-5.0083449394e-01
 8.1524790269e-01	 1.5767041122e+00	-1.1000518486e+00
 7.8324968428e-01	 1.5928417788e+00	-1.8812644681e+00
 7.5104044647e-01	 1.6082795926e+00	-2.9318015530e+00
 7.1864238179e-01	 1.6230151346e+00	-4.3352706913e+00
 6.8607760509e-01	 1.6370468900e+00	-6.1713074883e+00
 6.5336810950e-01	 1.6503742344e+00	-8.5153528354e+00
 9.7813743418e-01	 1.4961294763e+00	-1.4420658697e+01
 9.4731112938e-01	 1.5158357016e+00	-1.9674642848e+01
 9.1616102955e-01	 1.5348632571e+00	-2.2487525155e+01
 8.8470917302e-01	 1.5532050506e+00	-2.3056605905e+01
 8.5297775622e-01	 1.5708549257e+00	-2.1583435461e+01
 8.2098908511e-01	 1.5878076622e+00	-1.8272907748e+01
 7.8876552713e-01	 1.6040589744e+00	-1.3332355629e+01
 7.5632946371e-01	 1.6196055052e+00	-6.9706540301e+00
 7.2370324364e-01	 1.6344448187e+00	 6.0266359779e-01
 6.9090913753e-01	 1.6485753892e+00	 9.1782701306e+00
 6.5796929337e-01	 1.6619965882e+00	 1.8547885909e+01
 9.8497755610e-01	 1.5065919202e+00	-3.0866290334e+01
 9.5393568273e-01	 1.5264359513e+00	-4.0993580475e+01
 9.2256775004e-01	 1.5455965666e+00	-4.6467509624e+01
 8.9089595046e-01	 1.5640666244e+00	-4.7582404949e+01
 8.5894263563e-01	 1.5818399252e+00	-4.4643497137e+01
 8.2673026752e-01	 1.5989112123e+00	-3.7965462488e+01
 7.9428136998e-01	 1.6152761700e+00	-2.7870946117e+01
 7.6161848094e-01	 1.6309314178e+00	-1.4689076324e+01
 7.2876410549e-01	 1.6458745027e+00	 1.2460199878e+00
 6.9574066996e-01	 1.6601038884e+00	 1.9596691283e+01
 6.6257047724e-01	 1.6736189419e+00	 4.0023215546e+01
 9.9181767802e-01	 1.5170543641e+00	-4.7398369746e+01
 9.6056023608e-01	 1.5370362009e+00	-6.2818158861e+01
 9.2897447053e-01	 1.5563298761e+00	-7.1401929311e+01
 8.9708272789e-01	 1.5749281982e+00	-7.3539977196e+01
 8.6490751505e-01	 1.5928249246e+00	-6.9640096317e+01
 8.3247144994e-01	 1.6100147624e+00	-6.0125573672e+01
 7.9979721283e-01	 1.6264933656e+00	-4.5433145431e+01
 7.6690749817e-01	 1.6422573304e+00	-2.6010927659e+01
 7.3382496733e-01	 1.6573041868e+00	-2.3163358677e+00
 7.0057220239e-01	 1.6716323876e+00	 2.5185992819e+01
 6.6717166111e-01	 1.6852412957e+00	 5.6026261546e+01
 9.9865779994e-01	 1.5275168080e+00	-6.4015112331e+01
 9.6718478944e-01	 1.5476364506e+00	-8.5137979507e+01
 9.3538119102e-01	 1.5670631856e+00	-9.7271163537e+01
 9.0326950533e-01	 1.5857897720e+00	-1.0089989325e+02
 8.7087239446e-01	 1.6038099241e+00	-9.6533431296e+01
 8.3821263235e-01	 1.6211183125e+00	-8.4702527773e+01
 8.0531305568e-01	 1.6377105613e+00	-6.5956813807e+01
 7.7219651540e-01	 1.6535832431e+00	-4.0862153621e+01
 7.3888582918e-01	 1.6687338708e+00	-9.9979733037e+00
 7.0540373482e-01	 1.6831608869e+00	 2.6045415744e+01
 6.7177284498e-01	 1.6968636495e+00	 6.6669481246e+01
 1.0054979219e+00	 1.5379792519e+00	-8.0714782351e+01
 9.7380934279e-01	 1.5582367002e+00	-1.0794292717e+02
 9.4178791150e-01	 1.5777964951e+00	-1.2405612583e+02
 9.0945628276e-01	 1.5966513457e+00	-1.2963352481e+02
 8.7683727388e-01	 1.6147949236e+00	-1.2528478372e+02
 8.4395381477e-01	 1.6322218626e+00	-1.1164699154e+02
 8.1082889853e-01	 1.6489277569e+00	-8.9381502672e+01
 7.7748553263e-01	 1.6649091557e+00	-5.9170715193e+01
 7.4394669102e-01	 1.6801635549e+00	-2.1714813820e+01
 7.1023526726e-01	 1.6946893861e+00	 2.2271500321e+01
 6.7637402885e-01	 1.7084860032e+00	 7.2062271616e+01
 1.0123380438e+00	 1.5484416958e+00	-9.7495691281e+01
 9.8043389614e-01	 1.5688369499e+00	-1.3122316030e+02
 9.4819463199e-01	 1.5885298046e+00	-1.5173824587e+02
 9.1564306020e-01	 1.6075129195e+00	-1.5971301765e+02
 8.8280215329e-01	 1.6257799231e+00	-1.5585648197e+02
 8.4969499718e-01	 1.6433254127e+00	-1.4091096535e+02
 8.1634474137e-01	 1.6601449525e+00	-1.1564839750e+02
 7.8277454986e-01	 1.6762350683e+00	-8.0866520664e+01
 7.4900755286e-01	 1.6915932389e+00	-3.7385051611e+01
 7.1506679969e-01	 1.7062178853e+00	 1.3958177313e+01
 6.8097521272e-01	 1.7201083570e+00	 7.2311072646e+01
 1.0191781657e+00	 1.5589041397e+00	-1.1435619622e+02
 9.8705844950e-01	 1.5794371996e+00	-1.5496910184e+02
 9.5460135247e-01	 1.5992631140e+00	-1.8029945216e+02
 9.2182983763e-01	 1.6183744933e+00	-1.9111126556e+02
 8.8876703271e-01	 1.6367649225e+00	-1.8821186607e+02
 8.5543617959e-01	 1.6544289627e+00	-1.7244773846e+02
 8.2186058422e-01	 1.6713621481e+00	-1.4470026299e+02
 7.8806356708e-01	 1.6875609809e+00	-1.0588136028e+02
 7.5406841471e-01	 1.7030229229e+00	-5.6929077305e+01
 7.1989833212e-01	 1.7177463845e+00	 1.1968555516e+00
 6.8557639659e-01	 1.7317307107e+00	 6.7519466578e+01
 1.0260182876e+00	 1.5693665835e+00	-1.3129469837e+02
 9.9368300285e-01	 1.5900374492e+00	-1.7917143041e+02
 9.6100807296e-01	 1.6099964235e+00	-2.0972215542e+02
 9.2801661506e-01	 1.6292360671e+00	-2.2380188551e+02
 8.9473191212e-01	 1.6477499220e+00	-2.2231525392e+02
 8.6117736201e-01	 1.6655325128e+00	-2.0621184607e+02
 8.2737642706e-01	 1.6825793438e+00	-1.7648139039e+02
 7.9335258431e-01	 1.6988868935e+00	-1.3414884351e+02
 7.5912927655e-01	 1.7144526070e+00	-8.0269404740e+01
 7.2472986455e-01	 1.7292748837e+00	-1.5923493997e+01
 6.9017758046e-01	 1.7433530645e+00	 5.7788273169e+01
 6.4416574175e-01	 1.6271295269e+00	-7.9884579080e+01
 6.1179578386e-01	 1.6395749202e+00	-1.1378299566e+02
 5.7932598496e-01	 1.6513271642e+00	-1.3726823706e+02
 5.4677742156e-01	 1.6623881771e+00	-1.5125029469e+02
 5.1417089101e-01	 1.6727606807e+00	-1.5664961836e+02
 4.8152687600e-01	 1.6824481768e+00	-1.5439309058e+02
 4.4886551095e-01	 1.6914549220e+00	-1.4541010663e+02
 4.1620655053e-01	 1.6997859004e+00	-1.3062878107e+02
 3.8356934007e-01	 1.7074467961e+00	-1.1097229895e+02
 3.5097278823e-01	 1.7144439629e+00	-8.7355428499e+01
 3.1843534174e-01	 1.7207843947e+00	-6.0681209759e+01
 6.4876692562e-01	 1.6387518806e+00	-4.1285406635e+01
 6.1616575375e-01	 1.6512861696e+00	-6.8105732514e+01
 5.8346402771e-01	 1.6631223582e+00	-8.8647873711e+01
 5.5068297457e-01	 1.6742623784e+00	-1.0350560685e+02
 5.1784354024e-01	 1.6847089713e+00	-1.1327825285e+02
 4.8496635368e-01	 1.6944656638e+00	-1.1856807772e+02
 4.5207169318e-01	 1.7035367429e+00	-1.1997776754e+02
 4.1917945447e-01	 1.7119272283e+00	-1.1810799042e+02
 3.8630912108e-01	 1.7196428446e+00	-1.1355505732e+02
 3.5347973672e-01	 1.7266899912e+00	-1.0690869212e+02
 3.2070987989e-01	 1.7330757118e+00	-9.8749919889e+01
 6.5336810950e-01	 1.6503742344e+00	-8.5153528354e+00
 6.2053572364e-01	 1.6629974191e+00	-2.6674700951e+01
 5.8760207046e-01	 1.6749175523e+00	-4.2643302225e+01
 5.5458852759e-01	 1.6861365796e+00	-5.6702224906e+01
 5.2151618946e-01	 1.6966572619e+00	-6.9133200687e+01
 4.8840583137e-01	 1.7064831508e+00	-8.0217439401e+01
 4.5527787540e-01	 1.7156185637e+00	-9.0234486390e+01
 4.2215235840e-01	 1.7240685562e+00	-9.9461128114e+01
 3.8904890208e-01	 1.7318388932e+00	-1.0817035094e+02
 3.5598668521e-01	 1.7389360195e+00	-1.1663035744e+02
 3.2298441805e-01	 1.7453670289e+00	-1.2510364386e+02
 6.5796929337e-01	 1.6619965882e+00	 1.8547885909e+01
 6.2490569353e-01	 1.6747086685e+00	 1.0599195870e+01
 5.9174011322e-01	 1.6867127463e+00	 8.0036990854e-01
 5.5849408060e-01	 1.6980107809e+00	-1.0820384699e+01
 5.2518883868e-01	 1.7086055524e+00	-2.4230675839e+01
 4.9184530906e-01	 1.7185006378e+00	-3.9394142743e+01
 4.5848405762e-01	 1.7277003846e+00	-5.6270683697e+01
 4.2512526233e-01	 1.7362098840e+00	-7.4816693503e+01
 3.9178868308e-01	 1.7440349417e+00	-9.4985308933e+01
 3.5849363370e-01	 1.7511820478e+00	-1.1672666044e+02
 3.2525895620e-01	 1.7576583461e+00	-1.3998812839e+02
 6.6257047724e-01	 1.6736189419e+00	 4.0023215546e+01
 6.2927566342e-01	 1.6864199179e+00	 4.3802579558e+01
 5.9587815597e-01	 1.6985079403e+00	 4.1736510092e+01
 5.6239963361e-01	 1.7098849822e+00	 3.4159128617e+01
 5.2886148791e-01	 1.7205538430e+00	 2.1413557829e+01
 4.9528478674e-01	 1.7305181248e+00	 3.8503161240e+00
 4.6169023984e-01	 1.7397822055e+00	-1.8174268605e+01
 4.2809816627e-01	 1.7483512119e+00	-4.4299616790e+01
 3.9452846408e-01	 1.7562309902e+00	-7.4162418228e+01
 3.6100058218e-01	 1.7634280761e+00	-1.0739810856e+02
 3.2753349436e-01	 1.7699496632e+00	-1.4364229416e+02
 6.6717166111e-01	 1.6852412957e+00	 5.6026261546e+01
 6.3364563330e-01	 1.6981311674e+00	 7.3019681851e+01
 6.0001619872e-01	 1.7103031344e+00	 8.0217013217e+01
 5.6630518663e-01	 1.7217591834e+00	 7.8254999516e+01
 5.3253413713e-01	 1.7325021336e+00	 6.7784171010e+01
 4.9872426443e-01	 1.7425356117e+00	 4.9465861359e+01
 4.6489642207e-01	 1.7518640264e+00	 2.3969274532e+01
 4.3107107020e-01	 1.7604925398e+00	-8.0313821239e+00
 3.9726824508e-01	 1.7684270388e+00	-4.5859683645e+01
 3.6350753067e-01	 1.7756741044e+00	-8.8839678301e+01
 3.2980803251e-01	 1.7822409803e+00	-1.3629847121e+02
 6.7177284498e-01	 1.6968636495e+00	 6.6669481246e+01
 6.3801560319e-01	 1.7098424168e+00	 9.8332426457e+01
 6.0415424147e-01	 1.7220983284e+00	 1.1629235209e+02
 5.7021073964e-01	 1.7336333847e+00	 1.2148540027e+02
 5.3620678635e-01	 1.7444504242e+00	 1.1486625408e+02
 5.0216374212e-01	 1.7545530987e+00	 9.7403788764e+01
 4.6810260429e-01	 1.7639458472e+00	 7.0076803104e+01
 4.3404397413e-01	 1.7726338676e+00	 3.3869854397e+01
 4.0000802608e-01	 1.7806230873e+00	-1.0230781383e+01
 3.6601447916e-01	 1.7879201328e+00	-6.1241004615e+01
 3.3208257067e-01	 1.7945322974e+00	-1.1818262464e+02
 6.7637402885e-01	 1.7084860032e+00	 7.2062271616e+01
 6.4238557307e-01	 1.7215536662e+00	 1.1982050756e+02
 6.0829228422e-01	 1.7338935224e+00	 1.5001162580e+02
 5.7411629265e-01	 1.7455075860e+00	 1.6386800836e+02
 5.3987943557e-01	 1.7563987147e+00	 1.6264530282e+02
 5.0560321981e-01	 1.7665705857e+00	 1.4761671914e+02
 4.7130878651e-01	 1.7760276681e+00	 1.2006743660e+02
 4.3701687807e-01	 1.7847751955e+00	 8.1289151521e+01
 4.0274780708e-01	 1.7928191359e+00	 3.2574793745e+01
 3.6852142765e-01	 1.8001661611e+00	-2.4786562590e+01
 3.3435710882e-01	 1.8068236145e+00	-8.9514571117e+01
 6.8097521272e-01	 1.7201083570e+00	 7.2311072646e+01
 6.4675554296e-01	 1.7332649156e+00	 1.3756146516e+02
 6.1243032697e-01	 1.7456887164e+00	 1.8142260615e+02
 5.7802184566e-01	 1.7573817872e+00	 2.0542002320e+02
 5.4355208480e-01	 1.7683470053e+00	 2.1110720473e+02
 5.0904269749e-01	 1.7785880727e+00	 2.0005855350e+02
 4.7451496873e-01	 1.7881094890e+00	 1.7386248017e+02
 4.3998978200e-01	 1.7969165233e+00	 1.3411467424e+02
 4.0548758808e-01	 1.8050151844e+00	 8.2411587051e+01
 3.7102837614e-01	 1.8124121894e+00	 2.0344158232e+01
 3.3663164698e-01	 1.8191149316e+00	-5.0508186576e+01
 6.8557639659e-01	 1.7317307107e+00	 6.7519466578e+01
 6.5112551284e-01	 1.7449761651e+00	 1.5163075734e+02
 6.1656836972e-01	 1.7574839105e+00	 2.1057178216e+02
 5.8192739867e-01	 1.7692559885e+00	 2.4615818220e+02
 5.4722473402e-01	 1.7802952959e+00	 2.6023822587e+02
 5.1248217518e-01	 1.7906055596e+00	 2.5468443016e+02
 4.7772115095e-01	 1.8001913098e+00	 2.3138535133e+02
 4.4296268593e-01	 1.8090578512e+00	 1.9223758954e+02
 4.0822736909e-01	 1.8172112330e+00	 1.3913804840e+02
 3.7353532462e-01	 1.8246582177e+00	 7.3976486551e+01
 3.3890618513e-01	 1.8314062487e+00	-1.3716055723e+00
 6.9017758046e-01	 1.7433530645e+00	 5.7788273169e+01
 6.5549548273e-01	 1.7566874145e+00	 1.6210182966e+02
 6.2070641247e-01	 1.7692791045e+00	 2.3750440289e+02
 5.8583295169e-01	 1.7811301897e+00	 2.8609877615e+02
 5.5089738324e-01	 1.7922435865e+00	 3.1002499827e+02
 5.1592165286e-01	 1.8026230466e+00	 3.1145068344e+02
 4.8092733318e-01	 1.8122731307e+00	 2.9256150949e+02
 4.4593558987e-01	 1.8211991790e+00	 2.5555196637e+02
 4.1096715009e-01	 1.8294072815e+00	 2.0261640206e+02
 3.7604227311e-01	 1.8369042460e+00	 1.3594040871e+02
 3.4118072329e-01	 1.8436975658e+00	 5.7692587333e+01
 3.1843534174e-01	 1.7207843947e+00	-6.0681209759e+01
 2.8597496231e-01	 1.7264756937e+00	-1.1473489209e+00
 2.5360910580e-01	 1.7315260383e+00	 4.4421005863e+01
 2.2135470347e-01	 1.7359441510e+00	 7.7513579166e+01
 1.8922814545e-01	 1.7397392647e+00	 9.9605900870e+01
 1.5724526633e-01	 1.7429210901e+00	 1.1215432769e+02
 1.2542133288e-01	 1.7454997821e+00	 1.1659138677e+02
 9.3771033808e-02	 1.7474859064e+00	 1.1432145176e+02
 6.2308471550e-02	 1.7488904066e+00	 1.0671675875e+02
 3.1047155973e-02	 1.7497245709e+00	 9.5113766548e+01
 0.0000000000e+00	 1.7500000000e+00	 8.0809863049e+01
 3.2070987989e-01	 1.7330757118e+00	-9.8749919889e+01
 2.8801764061e-01	 1.7388076629e+00	-4.4464721499e+01
 2.5542059941e-01	 1.7438940815e+00	-8.9627522197e-02
 2.2293580850e-01	 1.7483437520e+00	 3.5424258786e+01
 1.9057977506e-01	 1.7521659737e+00	 6.3116151111e+01
 1.5836844680e-01	 1.7553705264e+00	 8.4012046954e+01
 1.2631719954e-01	 1.7579676377e+00	 9.9121421612e+01
 9.4440826906e-02	 1.7599679486e+00	 1.0943415674e+02
 6.2753532061e-02	 1.7613824810e+00	 1.1591770880e+02
 3.1268921373e-02	 1.7622226036e+00	 1.1951452078e+02
 0.0000000000e+00	 1.7625000000e+00	 1.2113967838e+02
 3.2298441805e-01	 1.7453670289e+00	-1.2510364386e+02
 2.9006031891e-01	 1.7511396322e+00	-7.8572036306e+01
 2.5723209303e-01	 1.7562621246e+00	-3.7930452161e+01
 2.2451691352e-01	 1.7607433531e+00	-2.5660730807e+00
 1.9193140467e-01	 1.7645926827e+00	 2.8128682101e+01
 1.5949162727e-01	 1.7678199628e+00	 5.4754057302e+01
 1.2721306620e-01	 1.7704354933e+00	 7.7900992109e+01
 9.5110620005e-02	 1.7724499908e+00	 9.8149292238e+01
 6.3198592571e-02	 1.7738745553e+00	 1.1606594087e+02
 3.1490686773e-02	 1.7747206362e+00	 1.3220355293e+02
 0.0000000000e+00	 1.7750000000e+00	 1.4709897330e+02
 3.2525895620e-01	 1.7576583461e+00	-1.3998812839e+02
 2.9210299722e-01	 1.7634716014e+00	-1.0366248821e+02
 2.5904358664e-01	 1.7686301677e+00	-6.9241370080e+01
 2.2609801855e-01	 1.7731429542e+00	-3.6543384254e+01
 1.9328303428e-01	 1.7770193918e+00	-5.3879966689e+00
 1.6061480775e-01	 1.7802693991e+00	 2.4403792015e+01
 1.2810893287e-01	 1.7829033488e+00	 5.3008807060e+01
 9.5780413103e-02	 1.7849320330e+00	 8.0601101674e+01
 6.3643653082e-02	 1.7863666296e+00	 1.0735140172e+02
 3.1712452172e-02	 1.7872186689e+00	 1.3342659400e+02
 0.0000000000e+00	 1.7875000000e+00	 1.5898925867e+02
 3.2753349436e-01	 1.7699496632e+00	-1.4364229416e+02
 2.9414567552e-01	 1.7758035707e+00	-1.1992390583e+02
 2.6085508025e-01	 1.7809982109e+00	-9.4158397397e+01
 2.2767912357e-01	 1.7855425553e+00	-6.6591254810e+01
 1.9463466389e-01	 1.7894461008e+00	-3.7464501216e+01
 1.6173798822e-01	 1.7927188355e+00	-7.0159667890e+00
 1.2900479953e-01	 1.7953712044e+00	 2.4521388683e+01
 9.6450206201e-02	 1.7974140752e+00	 5.6920099247e+01
 6.4088713593e-02	 1.7988587040e+00	 8.9958761586e+01
 3.1934217572e-02	 1.7997167015e+00	 1.2342254888e+02
 0.0000000000e+00	 1.8000000000e+00	 1.5710366988e+02
 3.2980803251e-01	 1.7822409803e+00	-1.3629847121e+02
 2.9618835382e-01	 1.7881355399e+00	-1.2753893655e+02
 2.6266657387e-01	 1.7933662540e+00	-1.1281379832e+02
 2.2926022860e-01	 1.7979421564e+00	-9.2790959420e+01
 1.9598629350e-01	 1.8018728098e+00	-6.8130603222e+01
 1.6286116869e-01	 1.8051682719e+00	-3.9483065699e+01
 1.2990066619e-01	 1.8078390600e+00	-7.4868519905e+00
 9.7119999299e-02	 1.8098961174e+00	 2.7233198550e+01
 6.4533774104e-02	 1.8113507783e+00	 6.4067596154e+01
 3.2155982972e-02	 1.8122147342e+00	 1.0242373183e+02
 0.0000000000e+00	 1.8125000000e+00	 1.4172725565e+02
 3.3208257067e-01	 1.7945322974e+00	-1.1818262464e+02
 2.9823103212e-01	 1.8004675092e+00	-1.2668522402e+02
 2.6447806748e-01	 1.8057342971e+00	-1.2533621364e+02
 2.3084133362e-01	 1.8103417574e+00	-1.1522154630e+02
 1.9733792311e-01	 1.8142995189e+00	-9.7415258945e+01
 1.6398434917e-01	 1.8176177082e+00	-7.2975958478e+01
 1.3079653285e-01	 1.8203069156e+00	-4.2943542808e+01
 9.7789792397e-02	 1.8223781596e+00	-8.3361641205e+00
 6.4978834614e-02	 1.8238428526e+00	 2.9852561021e+01
 3.2377748371e-02	 1.8247127668e+00	 7.0656092102e+01
 0.0000000000e+00	 1.8250000000e+00	 1.1313725494e+02
 3.3435710882e-01	 1.8068236145e+00	-8.9514571117e+01
 3.0027371042e-01	 1.8127994784e+00	-1.1753557826e+02
 2.6628956109e-01	 1.8181023403e+00	-1.3185078397e+02
 2.3242243864e-01	 1.8227413585e+00	-1.3395991293e+02
 1.9868955272e-01	 1.8267262279e+00	-1.2534663695e+02
 1.6510752964e-01	 1.8300671446e+00	-1.0747368541e+02
 1.3169239952e-01	 1.8327747712e+00	-8.1778281150e+01
 9.8459585495e-02	 1.8348602018e+00	-4.9667911492e+01
 6.5423895125e-02	 1.8363349270e+00	-1.2516440952e+01
 3.2599513771e-02	 1.8372107995e+00	 2.8339430508e+01
 0.0000000000e+00	 1.8375000000e+00	 7.1603362624e+01
 3.3663164698e-01	 1.8191149316e+00	-5.0508186576e+01
 3.0231638873e-01	 1.8251314476e+00	-1.0025813903e+02
 2.6810105470e-01	 1.8304703834e+00	-1.3247926798e+02
 2.3400354367e-01	 1.8351409596e+00	-1.4908087875e+02
 2.0004118233e-01	 1.8391529369e+00	-1.5195214474e+02
 1.6623071011e-01	 1.8425165809e+00	-1.4295585349e+02
 1.3258826618e-01	 1.8452426268e+00	-1.2392256739e+02
 9.9129378594e-02	 1.8473422440e+00	-9.6645211833e+01
 6.5868955636e-02	 1.8488270013e+00	-6.2874099073e+01
 3.2821279170e-02	 1.8497088321e+00	-2.4312392911e+01
 0.0000000000e+00	 1.8500000000e+00	 1.7387984340e+01
 3.3890618513e-01	 1.8314062487e+00	-1.3716055723e+00
 3.0435906703e-01	 1.8374634169e+00	-7.5016532541e+01
 2.6991254832e-01	 1.8428384265e+00	-1.2734015593e+02
 2.3558464869e-01	 1.8475405607e+00	-1.6065725483e+02
 2.0139281194e-01	 1.8515796460e+00	-1.7725845427e+02
 1.6735389059e-01	 1.8549660173e+00	-1.7940261739e+02
 1.3348413284e-01	 1.8577104824e+00	-1.6930974103e+02
 9.9799171692e-02	 1.8598242861e+00	-1.4915437004e+02
 6.6314016147e-02	 1.8613190756e+00	-1.2105954072e+02
 3.3043044570e-02	 1.8622068648e+00	-8.7091259509e+01
 0.0000000000e+00	 1.8625000000e+00	-4.9253518903e+01
 3.4118072329e-01	 1.8436975658e+00	 5.7692587333e+01
 3.0640174533e-01	 1.8497953861e+00	-4.1970021861e+01
 2.7172404193e-01	 1.8552064697e+00	-1.1654877854e+02
 2.3716575372e-01	 1.8599401617e+00	-1.6875991087e+02
 2.0274444155e-01	 1.8640063550e+00	-2.0129152646e+02
 1.6847707106e-01	 1.8674154537e+00	-2.1679466122e+02
 1.3437999951e-01	 1.8701783380e+00	-2.1787491940e+02
 1.0046896479e-01	 1.8723063283e+00	-2.0708472310e+02
 6.6759076657e-02	 1.8738111500e+00	-1.8691618341e+02
 3.3264809970e-02	 1.8747048974e+00	-1.5979460066e+02
 0.0000000000e+00	 1.8750000000e+00	-1.2807259590e+02
 1.8750000000e+00	 0.0000000000e+00	 1.1768197703e+03
 1.8747048974e+00	 3.3264809970e-02	 9.5863967958e+02
 1.8738111500e+00	 6.6759076657e-02	 7.6457662557e+02
 1.8723063283e+00	 1.0046896479e-01	 5.9505837419e+02
 1.8701783380e+00	 1.3437999951e-01	 4.5044394089e+02
 1.8674154537e+00	 1.6847707106e-01	 3.3101904983e+02
 1.8640063550e+00	 2.0274444155e-01	 2.3699170836e+02
 1.8599401617e+00	 2.3716575372e-01	 1.6848793100e+02
 1.8552064697e+00	 2.7172404193e-01	 1.2554764732e+02
 1.8497953861e+00	 3.0640174533e-01	 1.0812082962e+02
 1.8436975658e+00	 3.4118072329e-01	 1.1606387635e+02
 1.8875000000e+00	 0.0000000000e+00	 9.3102636985e+02
 1.8872029301e+00	 3.3486575369e-02	 7.6290315624e+02
 1.8863032243e+00	 6.7204137168e-02	 6.1273615599e+02
 1.8847883705e+00	 1.0113875789e-01	 4.8084633876e+02
 1.8826461935e+00	 1.3527586617e-01	 3.6750302741e+02
 1.8798648900e+00	 1.6960025153e-01	 2.7292048021e+02
 1.8764330640e+00	 2.0409607116e-01	 1.9725455982e+02
 1.8723397628e+00	 2.3874685874e-01	 1.4059951439e+02
 1.8675745128e+00	 2.7353553554e-01	 1.0298489701e+02
 1.8621273554e+00	 3.0844442363e-01	 8.4372650320e+01
 1.8559888829e+00	 3.4345526144e-01	 8.4654383521e+01
 1.9000000000e+00	 0.0000000000e+00	 6.8051571751e+02
 1.8997009627e+00	 3.3708340769e-02	 5.6271713903e+02
 1.8987952986e+00	 6.7649197680e-02	 4.5679988588e+02
 1.8972704127e+00	 1.0180855099e-01	 3.6297944664e+02
 1.8951140491e+00	 1.3617173283e-01	 2.8143661762e+02
 1.8923143264e+00	 1.7072343201e-01	 2.1231519853e+02
 1.8888597731e+00	 2.0544770077e-01	 1.5571974608e+02
 1.8847393639e+00	 2.4032796377e-01	 1.1171340302e+02
 1.8799425559e+00	 2.7534702916e-01	 8.0315819973e+01
 1.8744593246e+00	 3.1048710194e-01	 6.1501188503e+01
 1.8682802000e+00	 3.4572979960e-01	 5.5196403468e+01
 1.9125000000e+00	 0.0000000000e+00	 4.2538030116e+02
 1.9121989954e+00	 3.3930106169e-02	 3.5816886656e+02
 1.9112873730e+00	 6.8094258191e-02	 2.9684811959e+02
 1.9097524549e+00	 1.0247834409e-01	 2.4152935702e+02
 1.9075819047e+00	 1.3706759950e-01	 1.9230599193e+02
 1.9047637627e+00	 1.7184661248e-01	 1.4925235293e+02
 1.9012864821e+00	 2.0679933038e-01	 1.1242251313e+02
 1.8971389650e+00	 2.4190906879e-01	 8.1849157826e+01
 1.8923105990e+00	 2.7715852277e-01	 5.7542499988e+01
 1.8867912938e+00	 3.1252978024e-01	 3.9489253167e+01
 1.8805715171e+00	 3.4800433776e-01	 2.7651671319e+01
 1.9250000000e+00	 0.0000000000e+00	 1.6571020643e+02
 1.9246970280e+00	 3.4151871570e-02	 1.4934331158e+02
 1.9237794473e+00	 6.8539318703e-02	 1.3295907567e+02
 1.9222344971e+00	 1.0314813719e-01	 1.1656586791e+02
 1.9200497603e+00	 1.3796346616e-01	 1.0017083908e+02
 1.9172131991e+00	 1.7296979296e-01	 8.3779814993e+01
 1.9137131911e+00	 2.0815095999e-01	 6.7397191471e+01
 1.9095385661e+00	 2.4349017382e-01	 5.1025831707e+01
 1.9046786422e+00	 2.7897001638e-01	 3.4666966713e+01
 1.8991232631e+00	 3.1457245854e-01	 1.8320099818e+01
 1.8928628342e+00	 3.5027887591e-01	 1.9829160788e+00
 1.9375000000e+00	 0.0000000000e+00	-9.8406805794e+01
 1.9371950607e+00	 3.4373636970e-02	-6.3676745976e+01
 1.9362715216e+00	 6.8984379215e-02	-3.4791045830e+01
 1.9347165393e+00	 1.0381793029e-01	-1.1843023924e+01
 1.9325176159e+00	 1.3885933283e-01	 5.0893074913e+00
 1.9296626354e+00	 1.7409297343e-01	 1.5944220942e+01
 1.9261399002e+00	 2.0950258961e-01	 2.0677225682e+01
 1.9219381671e+00	 2.4507127885e-01	 1.9261985864e+01
 1.9170466853e+00	 2.8078151000e-01	 1.1691197425e+01
 1.9114552323e+00	 3.1661513685e-01	-2.0225839318e+00
 1.9051541513e+00	 3.5255341407e-01	-2.1846171438e+01
 1.9500000000e+00	 0.0000000000e+00	-3.6688522482e+02
 1.9496930933e+00	 3.4595402371e-02	-2.8081064868e+02
 1.9487635960e+00	 6.9429439728e-02	-2.0632799864e+02
 1.9471985815e+00	 1.0448772339e-01	-1.4363106516e+02
 1.9449854715e+00	 1.3975519949e-01	-9.2881945388e+01
 1.9421120718e+00	 1.7521615391e-01	-5.4208988790e+01
 1.9385666092e+00	 2.1085421922e-01	-2.7704797197e+01
 1.9343377682e+00	 2.4665238388e-01	-1.3424294422e+01
 1.9294147284e+00	 2.8259300362e-01	-1.1382881301e+01
 1.9237872016e+00	 3.1865781515e-01	-2.1554692217e+01
 1.9174454684e+00	 3.5482795223e-01	-4.3870969432e+01
 1.9625000000e+00	 0.0000000000e+00	-6.3964171852e+02
 1.9621911260e+00	 3.4817167771e-02	-5.0197979400e+02
 1.9612556703e+00	 6.9874500241e-02	-3.8157942808e+02
 1.9596806237e+00	 1.0515751649e-01	-2.7873369044e+02
 1.9574533271e+00	 1.4065106616e-01	-1.9368770556e+02
 1.9545615082e+00	 1.7633933439e-01	-1.2663553146e+02
 1.9509933182e+00	 2.1220584883e-01	-7.7717120359e+01
 1.9467373693e+00	 2.4823348890e-01	-4.7015384635e+01
 1.9417827716e+00	 2.8440449723e-01	-3.4553391980e+01
 1.9361191708e+00	 3.2070049346e-01	-4.0291714238e+01
 1.9297367855e+00	 3.5710249039e-01	-6.4125954769e+01
 1.9750000000e+00	 0.0000000000e+00	-9.1659506438e+02
 1.9746891586e+00	 3.5038933172e-02	-7.2710756931e+02
 1.9737477446e+00	 7.0319560754e-02	-5.6047481120e+02
 1.9721626658e+00	 1.0582730959e-01	-4.1708796891e+02
 1.9699211826e+00	 1.4154693283e-01	-2.9727415684e+02
 1.9670109445e+00	 1.7746251487e-01	-2.0129224539e+02
 1.9634200273e+00	 2.1355747845e-01	-1.2932879095e+02
 1.9591369704e+00	 2.4981459393e-01	-8.1494106444e+01
 1.9541508147e+00	 2.8621599085e-01	-5.7818504659e+01
 1.9484511400e+00	 3.2274317177e-01	-5.8248747073e+01
 1.9420281026e+00	 3.5937702855e-01	-8.2644731502e+01
 1.9875000000e+00	 0.0000000000e+00	-1.1976660832e+03
 1.9871871913e+00	 3.5260698574e-02	-9.5611928927e+02
 1.9862398189e+00	 7.0764621268e-02	-7.4294539914e+02
 1.9846447080e+00	 1.0649710269e-01	-5.5863255286e+02
 1.9823890382e+00	 1.4244279949e-01	-4.0358883686e+02
 1.9794603809e+00	 1.7858569534e-01	-2.7813705471e+02
 1.9758467363e+00	 2.1490910806e-01	-1.8250963479e+02
 1.9715365715e+00	 2.5139569896e-01	-1.1684371367e+02
 1.9665188578e+00	 2.8802748447e-01	-8.1176435426e+01
 1.9607831093e+00	 3.2478585007e-01	-7.5440508014e+01
 1.9543194197e+00	 3.6165156671e-01	-9.9460058320e+01
 2.0000000000e+00	 0.0000000000e+00	-1.4827775751e+03
 1.9996852239e+00	 3.5482463975e-02	-1.1889421356e+03
 1.9987318933e+00	 7.1209681781e-02	-9.2892416173e+02
 1.9971267502e+00	 1.0716689579e-01	-7.0330762824e+02
 1.9948568938e+00	 1.4333866616e-01	-5.1258059479e+02
 1.9919098172e+00	 1.7970887582e-01	-3.5712893541e+02
 1.9882734453e+00	 2.1626073768e-01	-2.3723023205e+02
 1.9839361725e+00	 2.5297680400e-01	-1.5304787879e+02
 1.9788869010e+00	 2.8983897809e-01	-1.0462544497e+02
 1.9731150785e+00	 3.2682852838e-01	-9.1881346429e+01
 1.9666107368e+00	 3.6392610487e-01	-1.1460387496e+02
 1.8436975658e+00	 3.4118072329e-01	 1.1606387635e+02
 1.8369042460e+00	 3.7604227311e-01	 1.4298741465e+02
 1.8294072815e+00	 4.1096715009e-01	 1.6252902977e+02
 1.8211991790e+00	 4.4593558987e-01	 1.7478338091e+02
 1.8122731307e+00	 4.8092733318e-01	 1.7987437523e+02
 1.8026230466e+00	 5.1592165286e-01	 1.7795572845e+02
 1.7922435865e+00	 5.5089738324e-01	 1.6921139726e+02
 1.7811301897e+00	 5.8583295169e-01	 1.5385587491e+02
 1.7692791045e+00	 6.2070641247e-01	 1.3213434221e+02
 1.7566874145e+00	 6.5549548273e-01	 1.0432266658e+02
 1.7433530645e+00	 6.9017758046e-01	 7.0727243307e+01
 1.8559888829e+00	 3.4345526144e-01	 8.4654383521e+01
 1.8491502743e+00	 3.7854922160e-01	 1.0661135344e+02
 1.8416033300e+00	 4.1370693109e-01	 1.2295778368e+02
 1.8333405069e+00	 4.4890849380e-01	 1.3376721442e+02
 1.8243549516e+00	 4.8413351540e-01	 1.3913561954e+02
 1.8146405336e+00	 5.1936113055e-01	 1.3918183372e+02
 1.8041918770e+00	 5.5457003246e-01	 1.3404788105e+02
 1.7930043910e+00	 5.8973850470e-01	 1.2389919830e+02
 1.7810742985e+00	 6.2484445522e-01	 1.0892474712e+02
 1.7683986639e+00	 6.5986545261e-01	 8.9337009495e+01
 1.7549754183e+00	 6.9477876433e-01	 6.5371861856e+01
 1.8682802000e+00	 3.4572979960e-01	 5.5196403468e+01
 1.8613963026e+00	 3.8105617009e-01	 7.1884309500e+01
 1.8537993786e+00	 4.1644671209e-01	 8.4708928081e+01
 1.8454818348e+00	 4.5188139773e-01	 9.3722823550e+01
 1.8364367724e+00	 4.8733969762e-01	 9.8994240320e+01
 1.8266580206e+00	 5.2280060824e-01	 1.0060739779e+02
 1.8161401676e+00	 5.5824268168e-01	 9.8662716035e+01
 1.8048785923e+00	 5.9364405771e-01	 9.3276967704e+01
 1.7928694925e+00	 6.2898249797e-01	 8.4583351894e+01
 1.7801099133e+00	 6.6423542250e-01	 7.2731486221e+01
 1.7665977720e+00	 6.9937994820e-01	 5.7887313785e+01
 1.8805715171e+00	 3.4800433776e-01	 2.7651671319e+01
 1.8736423309e+00	 3.8356311858e-01	 3.8773949765e+01
 1.8659954271e+00	 4.1918649309e-01	 4.7756534806e+01
 1.8576231626e+00	 4.5485430167e-01	 5.4631155357e+01
 1.8485185933e+00	 4.9054587984e-01	 5.9438526202e+01
 1.8386755075e+00	 5.2624008592e-01	 6.2228511935e+01
 1.8280884582e+00	 5.6191533091e-01	 6.3060250831e+01
 1.8167527935e+00	 5.9754961072e-01	 6.2002236057e+01
 1.8046646866e+00	 6.3312054072e-01	 5.9132351798e+01
 1.7918211628e+00	 6.6860539238e-01	 5.4537862161e+01
 1.7782201258e+00	 7.0398113207e-01	 4.8315350972e+01
 1.8928628342e+00	 3.5027887591e-01	 1.9829160788e+00
 1.8858883592e+00	 3.8607006707e-01	 7.2487809477e+00
 1.8781914757e+00	 4.2192627409e-01	 1.2075349116e+01
 1.8697644905e+00	 4.5782720560e-01	 1.6473651749e+01
 1.8606004142e+00	 4.9375206206e-01	 2.0457069941e+01
 1.8506929945e+00	 5.2967956361e-01	 2.4041368905e+01
 1.8400367488e+00	 5.6558798013e-01	 2.7244721030e+01
 1.8286269948e+00	 6.0145516373e-01	 3.0087717163e+01
 1.8164598806e+00	 6.3725858347e-01	 3.2593365498e+01
 1.8035324122e+00	 6.7297536226e-01	 3.4787077544e+01
 1.7898424795e+00	 7.0858231593e-01	 3.6696640724e+01
 1.9051541513e+00	 3.5255341407e-01	-2.1846171438e+01
 1.8981343875e+00	 3.8857701556e-01	-2.2721877538e+01
 1.8903875242e+00	 4.2466605510e-01	-2.2359232032e+01
 1.8819058183e+00	 4.6080010953e-01	-2.0767766497e+01
 1.8726822351e+00	 4.9695824429e-01	-1.7961241380e+01
 1.8627104815e+00	 5.3311904130e-01	-1.3957740368e+01
 1.8519850393e+00	 5.6926062935e-01	-8.7797471564e+00
 1.8405011961e+00	 6.0536071674e-01	-2.4542033521e+00
 1.8282550746e+00	 6.4139662622e-01	 4.9874536709e+00
 1.8152436616e+00	 6.7734533215e-01	 1.3509274044e+01
 1.8014648333e+00	 7.1318349980e-01	 2.3070800761e+01
 1.9174454684e+00	 3.5482795223e-01	-4.3870969432e+01
 1.9103804158e+00	 3.9108396405e-01	-5.1167919623e+01
 1.9025835728e+00	 4.2740583610e-01	-5.5571180872e+01
 1.8940471462e+00	 4.6377301347e-01	-5.7110715080e+01
 1.8847640559e+00	 5.0016442651e-01	-5.5827235787e+01
 1.8747279685e+00	 5.3655851898e-01	-5.1772429910e+01
 1.8639333299e+00	 5.7293327857e-01	-4.5009133386e+01
 1.8523753973e+00	 6.0926626975e-01	-3.5611457522e+01
 1.8400502687e+00	 6.4553466897e-01	-2.3664863113e+01
 1.8269549110e+00	 6.8171530203e-01	-9.2661796288e+00
 1.8130871871e+00	 7.1778468367e-01	 7.4764328596e+00
 1.9297367855e+00	 3.5710249039e-01	-6.4125954769e+01
 1.9226264441e+00	 3.9359091254e-01	-7.8118477640e+01
 1.9147796213e+00	 4.3014561710e-01	-8.7583858916e+01
 1.9061884741e+00	 4.6674591740e-01	-9.2572360939e+01
 1.8968458768e+00	 5.0337060873e-01	-9.3151465487e+01
 1.8867454554e+00	 5.3999799667e-01	-8.9406221733e+01
 1.8758816205e+00	 5.7660592779e-01	-8.1439519818e+01
 1.8642495986e+00	 6.1317182276e-01	-6.9372284927e+01
 1.8518454627e+00	 6.4967271171e-01	-5.3343587188e+01
 1.8386661605e+00	 6.8608527191e-01	-3.3510663105e+01
 1.8247095408e+00	 7.2238586753e-01	-1.0048844793e+01
 1.9420281026e+00	 3.5937702855e-01	-8.2644731502e+01
 1.9348724724e+00	 3.9609786103e-01	-1.0360194642e+02
 1.9269756698e+00	 4.3288539810e-01	-1.1842003628e+02
 1.9183298019e+00	 4.6971882134e-01	-1.2716943645e+02
 1.9089276977e+00	 5.0657679095e-01	-1.2994421560e+02
 1.8987629424e+00	 5.4343747436e-01	-1.2686254875e+02
 1.8878299111e+00	 5.8027857701e-01	-1.1806708787e+02
 1.8761237998e+00	 6.1707737577e-01	-1.0372522296e+02
 1.8636406567e+00	 6.5381075446e-01	-8.4029227247e+01
 1.8503774099e+00	 6.9045524179e-01	-5.9196280678e+01
 1.8363318946e+00	 7.2698705140e-01	-2.9468366473e+01
 1.9543194197e+00	 3.6165156671e-01	-9.9460058320e+01
 1.9471185007e+00	 3.9860480952e-01	-1.2764600649e+02
 1.9391717184e+00	 4.3562517911e-01	-1.4810191030e+02
 1.9304711298e+00	 4.7269172527e-01	-1.6091825310e+02
 1.9210095185e+00	 5.0978297318e-01	-1.6621551254e+02
 1.9107804294e+00	 5.4687695204e-01	-1.6414475757e+02
 1.8997782016e+00	 5.8395122623e-01	-1.5488811509e+02
 1.8879980011e+00	 6.2098292878e-01	-1.3865909745e+02
 1.8754358507e+00	 6.5794879721e-01	-1.1570278242e+02
 1.8620886593e+00	 6.9482521167e-01	-8.6295838517e+01
 1.8479542483e+00	 7.3158823526e-01	-5.0746388967e+01
 1.9666107368e+00	 3.6392610487e-01	-1.1460387496e+02
 1.9593645290e+00	 4.0111175801e-01	-1.5027764640e+02
 1.9513677669e+00	 4.3836496011e-01	-1.7665112339e+02
 1.9426124577e+00	 4.7566462921e-01	-1.9383471463e+02
 1.9330913394e+00	 5.1298915540e-01	-2.0197513214e+02
 1.9227979164e+00	 5.5031642973e-01	-2.0125611119e+02
 1.9117264922e+00	 5.8762387546e-01	-1.9189897217e+02
 1.8998722024e+00	 6.2488848179e-01	-1.7416301366e+02
 1.8872310448e+00	 6.6208683996e-01	-1.4834572693e+02
 1.8737999088e+00	 6.9919518155e-01	-1.1478282273e+02
 1.8595766021e+00	 7.3618941913e-01	-7.3848062744e+01
 1.7433530645e+00	 6.9017758046e-01	 7.0727243307e+01
 1.7292748837e+00	 7.2472986455e-01	 3.4172903572e+01
 1.7144526070e+00	 7.5912927655e-01	 2.9463789801e+00
 1.6988868935e+00	 7.9335258431e-01	-2.3111031095e+01
 1.6825793438e+00	 8.2737642706e-01	-4.4180432463e+01
 1.6655325128e+00	 8.6117736201e-01	-6.0465084275e+01
 1.6477499220e+00	 8.9473191212e-01	-7.2190023854e+01
 1.6292360671e+00	 9.2801661506e-01	-7.9601567148e+01
 1.6099964235e+00	 9.6100807296e-01	-8.2966684763e+01
 1.5900374492e+00	 9.9368300285e-01	-8.2572254565e+01
 1.5693665835e+00	 1.0260182876e+00	-7.8724192894e+01
 1.7549754183e+00	 6.9477876433e-01	 6.5371861856e+01
 1.7408033830e+00	 7.2956139697e-01	 3.5497907614e+01
 1.7258822910e+00	 7.6419013839e-01	 9.8313053645e+00
 1.7102128062e+00	 7.9864160154e-01	-1.1752276545e+01
 1.6937965394e+00	 8.3289226991e-01	-2.9394923817e+01
 1.6766360629e+00	 8.6691854442e-01	-4.3256282744e+01
 1.6587349215e+00	 9.0069679153e-01	-5.3513269069e+01
 1.6400976408e+00	 9.3420339250e-01	-6.0359678297e+01
 1.6207297330e+00	 9.6741479345e-01	-6.4005697389e+01
 1.6006376989e+00	 1.0003075562e+00	-6.4677318556e+01
 1.5798290274e+00	 1.0328584095e+00	-6.2615656752e+01
 1.7665977720e+00	 6.9937994820e-01	 5.7887313785e+01
 1.7523318822e+00	 7.3439292940e-01	 3.4964239227e+01
 1.7373119751e+00	 7.6925100023e-01	 1.5142835327e+01
 1.7215387188e+00	 8.0393061877e-01	-1.6672112740e+00
 1.7050137350e+00	 8.3840811275e-01	-1.5569358973e+01
 1.6877396130e+00	 8.7265972683e-01	-2.6680075661e+01
 1.6697199210e+00	 9.0666167094e-01	-3.5128630935e+01
 1.6509592146e+00	 9.4039016993e-01	-4.1056815389e+01
 1.6314630425e+00	 9.7382151393e-01	-4.4618586860e+01
 1.6112379485e+00	 1.0069321096e+00	-4.5979644116e+01
 1.5902914713e+00	 1.0396985314e+00	-4.5316929119e+01
 1.7782201258e+00	 7.0398113207e-01	 4.8315350972e+01
 1.7638603814e+00	 7.3922446183e-01	 3.2608346647e+01
 1.7487416591e+00	 7.7431186207e-01	 1.8911823592e+01
 1.7328646314e+00	 8.0921963599e-01	 7.1691429465e+00
 1.7162309306e+00	 8.4392395560e-01	-2.6849114821e+00
 1.6988431631e+00	 8.7840090924e-01	-1.0724055118e+01
 1.6807049204e+00	 9.1262655035e-01	-1.7030377527e+01
 1.6618207884e+00	 9.4657694736e-01	-2.1694169809e+01
 1.6421963520e+00	 9.8022823441e-01	-2.4813704322e+01
 1.6218381982e+00	 1.0135566629e+00	-2.6494966993e+01
 1.6007539152e+00	 1.0465386534e+00	-2.6851342855e+01
 1.7898424795e+00	 7.0858231593e-01	 3.6696640724e+01
 1.7753888806e+00	 7.4405599426e-01	 2.8465731286e+01
 1.7601713431e+00	 7.7937272391e-01	 2.1168323342e+01
 1.7441905440e+00	 8.1450865322e-01	 1.4781115429e+01
 1.7274481262e+00	 8.4943979844e-01	 9.2767559667e+00
 1.7099467131e+00	 8.8414209165e-01	 4.6238643594e+00
 1.6916899199e+00	 9.1859142976e-01	 7.8707404251e-01
 1.6726823622e+00	 9.5276372479e-01	-2.2729021579e+00
 1.6529296615e+00	 9.8663495490e-01	-4.5991841785e+00
 1.6324384478e+00	 1.0201812163e+00	-6.2386143866e+00
 1.6112163591e+00	 1.0533787753e+00	-7.2416249538e+00
 1.8014648333e+00	 7.1318349980e-01	 2.3070800761e+01
 1.7869173798e+00	 7.4888752668e-01	 2.2570978274e+01
 1.7716010272e+00	 7.8443358575e-01	 2.1941612068e+01
 1.7555164566e+00	 8.1979767044e-01	 2.1192407501e+01
 1.7386653219e+00	 8.5495564128e-01	 2.0333507324e+01
 1.7210502632e+00	 8.8988327406e-01	 1.9375456217e+01
 1.7026749194e+00	 9.2455630917e-01	 1.8329162435e+01
 1.6835439359e+00	 9.5895050222e-01	 1.7205856753e+01
 1.6636629710e+00	 9.9304167538e-01	 1.6017048921e+01
 1.6430386975e+00	 1.0268057696e+00	 1.4774481866e+01
 1.6216788030e+00	 1.0602188972e+00	 1.3490083909e+01
 1.8130871871e+00	 7.1778468367e-01	 7.4764328596e+00
 1.7984458791e+00	 7.5371905911e-01	 1.4957785830e+01
 1.7830307112e+00	 7.8949444759e-01	 2.1260216434e+01
 1.7668423693e+00	 8.2508668766e-01	 2.6426112635e+01
 1.7498825175e+00	 8.6047148412e-01	 3.0502748354e+01
 1.7321538133e+00	 8.9562445646e-01	 3.3542191873e+01
 1.7136599189e+00	 9.3052118858e-01	 3.5601186705e+01
 1.6944055097e+00	 9.6513727965e-01	 3.6741004947e+01
 1.6743962804e+00	 9.9944839586e-01	 3.7027273355e+01
 1.6536389472e+00	 1.0334303230e+00	 3.6529772623e+01
 1.6321412469e+00	 1.0670590191e+00	 3.5322210590e+01
 1.8247095408e+00	 7.2238586753e-01	-1.0048844793e+01
 1.8099743783e+00	 7.5855059154e-01	 5.6589935093e+00
 1.7944603953e+00	 7.9455530943e-01	 1.9151936191e+01
 1.7781682819e+00	 8.3037570489e-01	 3.0504735807e+01
 1.7610997131e+00	 8.6598732697e-01	 3.9801441226e+01
 1.7432573634e+00	 9.0136563887e-01	 4.7135250337e+01
 1.7246449183e+00	 9.3648606799e-01	 5.2608310751e+01
 1.7052670835e+00	 9.7132405707e-01	 5.6331468369e+01
 1.6851295899e+00	 1.0058551163e+00	 5.8423964069e+01
 1.6642391968e+00	 1.0400548763e+00	 5.9013079252e+01
 1.6426036908e+00	 1.0738991410e+00	 5.8233731402e+01
 1.8363318946e+00	 7.2698705140e-01	-2.9468366473e+01
 1.8215028775e+00	 7.6338212396e-01	-5.2933906287e+00
 1.8058900793e+00	 7.9961617127e-01	 1.5643867179e+01
 1.7894941945e+00	 8.3566472211e-01	 3.3450212118e+01
 1.7723169087e+00	 8.7150316981e-01	 4.8246118554e+01
 1.7543609135e+00	 9.0710682128e-01	 6.0165527464e+01
 1.7356299178e+00	 9.4245094740e-01	 6.9355567591e+01
 1.7161286573e+00	 9.7751083450e-01	 7.5976199998e+01
 1.6958628994e+00	 1.0122618368e+00	 8.0199786354e+01
 1.6748394465e+00	 1.0466794296e+00	 8.2210581905e+01
 1.6530661346e+00	 1.0807392629e+00	 8.2204154729e+01
 1.8479542483e+00	 7.3158823526e-01	-5.0746388967e+01
 1.8330313767e+00	 7.6821365638e-01	-1.7868163867e+01
 1.8173197634e+00	 8.0467703310e-01	 1.0762423464e+01
 1.8008201071e+00	 8.4095373933e-01	 3.5283924721e+01
 1.7835341043e+00	 8.7701901264e-01	 5.5852896903e+01
 1.7654644635e+00	 9.1284800368e-01	 7.2643644862e+01
 1.7466149173e+00	 9.4841582680e-01	 8.5847863480e+01
 1.7269902311e+00	 9.8369761193e-01	 9.5674179000e+01
 1.7065962089e+00	 1.0186685573e+00	 1.0234758986e+02
 1.6854396961e+00	 1.0533039830e+00	 1.0610880824e+02
 1.6635285785e+00	 1.0875793848e+00	 1.0721350430e+02
 1.8595766021e+00	 7.3618941913e-01	-7.3848062744e+01
 1.8445598760e+00	 7.7304518881e-01	-3.2034903667e+01
 1.8287494474e+00	 8.0973789494e-01	 4.5333586449e+00
 1.8121460197e+00	 8.4624275655e-01	 3.6026722062e+01
 1.7947513000e+00	 8.8253485548e-01	 6.2637489794e+01
 1.7765680136e+00	 9.1858918609e-01	 8.4579958459e+01
 1.7575999168e+00	 9.5438070621e-01	 1.0208998187e+02
 1.7378518048e+00	 9.8988438935e-01	 1.1542440991e+02
 1.7173295184e+00	 1.0250752778e+00	 1.2486040285e+02
 1.6960399458e+00	 1.0599285363e+00	 1.3069462254e+02
 1.6739910224e+00	 1.0944195068e+00	 1.3324230306e+02
 1.5693665835e+00	 1.0260182876e+00	-7.8724192894e+01
 1.5479922437e+00	 1.0579910271e+00	-7.5732733688e+01
 1.5259238176e+00	 1.0895785896e+00	-7.3051447248e+01
 1.5031716538e+00	 1.1207586623e+00	-7.0529037970e+01
 1.4797470481e+00	 1.1515093025e+00	-6.8012856371e+01
 1.4556622267e+00	 1.1818089870e+00	-6.5349547391e+01
 1.4309303270e+00	 1.2116366614e+00	-6.2385709067e+01
 1.4055653745e+00	 1.2409717878e+00	-5.8968557212e+01
 1.3795822569e+00	 1.2697943914e+00	-5.4946591653e+01
 1.3529966958e+00	 1.2980851056e+00	-5.0170259508e+01
 1.3258252147e+00	 1.3258252147e+00	-4.4492610992e+01
 1.5798290274e+00	 1.0328584095e+00	-6.2615656752e+01
 1.5583121920e+00	 1.0650443007e+00	-5.9458890256e+01
 1.5360966431e+00	 1.0968424469e+00	-5.6850077233e+01
 1.5131927982e+00	 1.1282303867e+00	-5.4659518083e+01
 1.4896120284e+00	 1.1591860312e+00	-5.2755254698e+01
 1.4653666416e+00	 1.1896877136e+00	-5.1003619397e+01
 1.4404698626e+00	 1.2197142391e+00	-4.9269798610e+01
 1.4149358103e+00	 1.2492449330e+00	-4.7418407623e+01
 1.3887794720e+00	 1.2782596873e+00	-4.5314072614e+01
 1.3620166737e+00	 1.3067390063e+00	-4.2822016083e+01
 1.3346640495e+00	 1.3346640495e+00	-3.9808641718e+01
 1.5902914713e+00	 1.0396985314e+00	-4.5316929119e+01
 1.5686321403e+00	 1.0720975742e+00	-4.2108907000e+01
 1.5462694685e+00	 1.1041063041e+00	-3.9682961640e+01
 1.5232139425e+00	 1.1357021112e+00	-3.7930758573e+01
 1.4994770087e+00	 1.1668627599e+00	-3.6740808311e+01
 1.4750710564e+00	 1.1975664402e+00	-3.5998916798e+01
 1.4500093981e+00	 1.2277918169e+00	-3.5588654920e+01
 1.4243062462e+00	 1.2575180783e+00	-3.5391844126e+01
 1.3979766870e+00	 1.2867249833e+00	-3.5289055014e+01
 1.3710366517e+00	 1.3153929070e+00	-3.5160115601e+01
 1.3435028843e+00	 1.3435028843e+00	-3.4884625909e+01
 1.6007539152e+00	 1.0465386534e+00	-2.6851342855e+01
 1.5789520886e+00	 1.0791508477e+00	-2.3703880474e+01
 1.5564422939e+00	 1.1113701614e+00	-2.1569032439e+01
 1.5332350869e+00	 1.1431738356e+00	-2.0359603065e+01
 1.5093419890e+00	 1.1745394886e+00	-1.9984353103e+01
 1.4847754712e+00	 1.2054451667e+00	-2.0348352547e+01
 1.4595489336e+00	 1.2358693946e+00	-2.1353356805e+01
 1.4336766820e+00	 1.2657912235e+00	-2.2898203970e+01
 1.4071739020e+00	 1.2951902792e+00	-2.4879230686e+01
 1.3800566297e+00	 1.3240468077e+00	-2.7190703955e+01
 1.3523417190e+00	 1.3523417190e+00	-2.9725266072e+01
 1.6112163591e+00	 1.0533787753e+00	-7.2416249538e+00
 1.5892720368e+00	 1.0862041212e+00	-4.2643594628e+00
 1.5666151194e+00	 1.1186340187e+00	-2.5267300560e+00
 1.5432562312e+00	 1.1506455600e+00	-1.9624578917e+00
 1.5192069693e+00	 1.1822162172e+00	-2.5003398260e+00
 1.4944798861e+00	 1.2133238933e+00	-4.0645044112e+00
 1.4690884691e+00	 1.2439469723e+00	-6.5746955359e+00
 1.4430471178e+00	 1.2740643688e+00	-9.9465821023e+00
 1.4163711171e+00	 1.3036555752e+00	-1.4092091903e+01
 1.3890766076e+00	 1.3327007084e+00	-1.8919767639e+01
 1.3611805538e+00	 1.3611805538e+00	-2.4335142809e+01
 1.6216788030e+00	 1.0602188972e+00	 1.3490083909e+01
 1.5995919851e+00	 1.0932573947e+00	 1.6189637354e+01
 1.5767879448e+00	 1.1258978759e+00	 1.7425980770e+01
 1.5532773756e+00	 1.1581172844e+00	 1.7244693803e+01
 1.5290719497e+00	 1.1898929459e+00	 1.5697153484e+01
 1.5041843009e+00	 1.2212026199e+00	 1.2840374217e+01
 1.4786280046e+00	 1.2520245501e+00	 8.7368158862e+00
 1.4524175536e+00	 1.2823375140e+00	 3.4541610155e+00
 1.4255683321e+00	 1.3121208711e+00	-2.9349378224e+00
 1.3980965856e+00	 1.3413546091e+00	-1.0353138891e+01
 1.3700193886e+00	 1.3700193886e+00	-1.8718718755e+01
 1.6321412469e+00	 1.0670590191e+00	 3.5322210590e+01
 1.6099119334e+00	 1.1003106682e+00	 3.7638604409e+01
 1.5869607703e+00	 1.1331617332e+00	 3.8271595742e+01
 1.5632985200e+00	 1.1655890088e+00	 3.7246278501e+01
 1.5389369300e+00	 1.1975696746e+00	 3.4594409562e+01
 1.5138887158e+00	 1.2290813465e+00	 3.0354343926e+01
 1.4881675401e+00	 1.2601021278e+00	 2.4570933808e+01
 1.4617879895e+00	 1.2906106593e+00	 1.7295391892e+01
 1.4347655472e+00	 1.3205861671e+00	 8.5851193349e+00
 1.4071165636e+00	 1.3500085098e+00	-1.4965006344e+00
 1.3788582233e+00	 1.3788582233e+00	-1.2880342351e+01
 1.6426036908e+00	 1.0738991410e+00	 5.8233731402e+01
 1.6202318817e+00	 1.1073639417e+00	 6.0063532911e+01
 1.5971335957e+00	 1.1404255904e+00	 5.9993056343e+01
 1.5733196643e+00	 1.1730607332e+00	 5.8027119268e+01
 1.5488019103e+00	 1.2052464033e+00	 5.4178060426e+01
 1.5235931306e+00	 1.2369600731e+00	 4.8465769287e+01
 1.4977070756e+00	 1.2681797056e+00	 4.0917675348e+01
 1.4711584253e+00	 1.2988838045e+00	 3.1568696779e+01
 1.4439627622e+00	 1.3290514630e+00	 2.0461148327e+01
 1.4161365416e+00	 1.3586624105e+00	 7.6446087687e+00
 1.3876970581e+00	 1.3876970581e+00	-6.8242514801e+00
 1.6530661346e+00	 1.0807392629e+00	 8.2204154729e+01
 1.6305518300e+00	 1.1144172153e+00	 8.3445895119e+01
 1.6073064212e+00	 1.1476894477e+00	 8.2573735730e+01
 1.5833408087e+00	 1.1805324577e+00	 7.9572423201e+01
 1.5586668906e+00	 1.2129231320e+00	 7.4435076327e+01
 1.5332975455e+00	 1.2448387997e+00	 6.7163309233e+01
 1.5072466112e+00	 1.2762572833e+00	 5.7767310149e+01
 1.4805288611e+00	 1.3071569498e+00	 4.6265874724e+01
 1.4531599773e+00	 1.3375167590e+00	 3.2686393169e+01
 1.4251565195e+00	 1.3673163112e+00	 1.7064790944e+01
 1.3965358929e+00	 1.3965358929e+00	-5.5457696794e-01
 1.6635285785e+00	 1.0875793848e+00	 1.0721350430e+02
 1.6408717783e+00	 1.1214704888e+00	 1.0776762922e+02
 1.6174792466e+00	 1.1549533050e+00	 1.0599742516e+02
 1.5933619530e+00	 1.1880041821e+00	 1.0186776936e+02
 1.5685318710e+00	 1.2205998607e+00	 9.5352755110e+01
 1.5430019603e+00	 1.2527175262e+00	 8.6435907807e+01
 1.5167861467e+00	 1.2843348611e+00	 7.5110352435e+01
 1.4898992970e+00	 1.3154300950e+00	 6.1378930872e+01
 1.4623571923e+00	 1.3459820549e+00	 4.5254267620e+01
 1.4341764975e+00	 1.3759702119e+00	 2.6758783104e+01
 1.4053747276e+00	 1.4053747276e+00	 5.9246540567e+00
 1.6739910224e+00	 1.0944195068e+00	 1.3324230306e+02
 1.6511917266e+00	 1.1285237623e+00	 1.3301112479e+02
 1.6276520721e+00	 1.1622171622e+00	 1.3024832093e+02
 1.6033830974e+00	 1.1954759065e+00	 1.2489909713e+02
 1.5783968513e+00	 1.2282765894e+00	 1.1691871198e+02
 1.5527063752e+00	 1.2605962528e+00	 1.0627278525e+02
 1.5263256822e+00	 1.2924124388e+00	 9.2937553371e+01
 1.4992697328e+00	 1.3237032403e+00	 7.6900070034e+01
 1.4715544074e+00	 1.3544473509e+00	 5.8158349884e+01
 1.4431964755e+00	 1.3846241126e+00	 3.6721453815e+01
 1.4142135624e+00	 1.4142135624e+00	 1.2609514921e+01
 1.3258252147e+00	 1.3258252147e+00	-4.4492610992e+01
 1.2980851056e+00	 1.3529966958e+00	-3.0459771234e+01
 1.2697943914e+00	 1.3795822569e+00	-2.1609169896e+01
 1.2409717878e+00	 1.4055653745e+00	-1.7925469861e+01
 1.2116366614e+00	 1.4309303270e+00	-1.9372805515e+01
 1.1818089870e+00	 1.4556622267e+00	-2.5895016638e+01
 1.1515093025e+00	 1.4797470481e+00	-3.7415990141e+01
 1.1207586623e+00	 1.5031716538e+00	-5.3840106697e+01
 1.0895785896e+00	 1.5259238176e+00	-7.5052788410e+01
 1.0579910271e+00	 1.5479922437e+00	-1.0092114289e+02
 1.0260182876e+00	 1.5693665835e+00	-1.3129469837e+02
 1.3346640495e+00	 1.3346640495e+00	-3.9808641718e+01
 1.3067390063e+00	 1.3620166737e+00	-2.8631871109e+01
 1.2782596873e+00	 1.3887794720e+00	-2.1031857730e+01
 1.2492449330e+00	 1.4149358103e+00	-1.7024773934e+01
 1.2197142391e+00	 1.4404698626e+00	-1.6612167250e+01
 1.1896877136e+00	 1.4653666416e+00	-1.9781013860e+01
 1.1591860312e+00	 1.4896120284e+00	-2.6503850301e+01
 1.1282303867e+00	 1.5131927982e+00	-3.6738982000e+01
 1.0968424469e+00	 1.5360966431e+00	-5.0430766615e+01
 1.0650443007e+00	 1.5583121920e+00	-6.7509969569e+01
 1.0328584095e+00	 1.5798290274e+00	-8.7894188567e+01
 1.3435028843e+00	 1.3435028843e+00	-3.4884625909e+01
 1.3153929070e+00	 1.3710366517e+00	-2.6700490386e+01
 1.2867249833e+00	 1.3979766870e+00	-2.0508604298e+01
 1.2575180783e+00	 1.4243062462e+00	-1.6356325448e+01
 1.2277918169e+00	 1.4500093981e+00	-1.4282238104e+01
 1.1975664402e+00	 1.4750710564e+00	-1.4316027572e+01
 1.1668627599e+00	 1.4994770087e+00	-1.6478403601e+01
 1.1357021112e+00	 1.5232139425e+00	-2.0781072790e+01
 1.1041063041e+00	 1.5462694685e+00	-2.7226759787e+01
 1.0720975742e+00	 1.5686321403e+00	-3.5809276644e+01
 1.0396985314e+00	 1.5902914713e+00	-4.6513639304e+01
 1.3523417190e+00	 1.3523417190e+00	-2.9725266072e+01
 1.3240468077e+00	 1.3800566297e+00	-2.4667653750e+01
 1.2951902792e+00	 1.4071739020e+00	-2.0038345202e+01
 1.2657912235e+00	 1.4336766820e+00	-1.5915566012e+01
 1.2358693946e+00	 1.4595489336e+00	-1.2374568162e+01
 1.2054451667e+00	 1.4847754712e+00	-9.4873271800e+00
 1.1745394886e+00	 1.5093419890e+00	-7.3222589522e+00
 1.1431738356e+00	 1.5332350869e+00	-5.9439579356e+00
 1.1113701614e+00	 1.5564422939e+00	-5.4129583461e+00
 1.0791508477e+00	 1.5789520886e+00	-5.7855196670e+00
 1.0465386534e+00	 1.6007539152e+00	-7.1134376137e+00
 1.3611805538e+00	 1.3611805538e+00	-2.4335142809e+01
 1.3327007084e+00	 1.3890766076e+00	-2.2535333541e+01
 1.3036555752e+00	 1.4163711171e+00	-1.9620043940e+01
 1.2740643688e+00	 1.4430471178e+00	-1.5698055888e+01
 1.2439469723e+00	 1.4690884691e+00	-1.0880927244e+01
 1.2133238933e+00	 1.4944798861e+00	-5.2825130165e+00
 1.1822162172e+00	 1.5192069693e+00	 9.8152275057e-01
 1.1506455600e+00	 1.5432562312e+00	 7.7942010593e+00
 1.1186340187e+00	 1.5666151194e+00	 1.5037724689e+01
 1.0862041212e+00	 1.5892720368e+00	 2.2593974250e+01
 1.0533787753e+00	 1.6112163591e+00	 3.0345000289e+01
 1.3700193886e+00	 1.3700193886e+00	-1.8718718755e+01
 1.3413546091e+00	 1.3980965856e+00	-2.0305451444e+01
 1.3121208711e+00	 1.4255683321e+00	-1.9252691004e+01
 1.2823375140e+00	 1.4524175536e+00	-1.5699470163e+01
 1.2520245501e+00	 1.4786280046e+00	-9.7932978192e+00
 1.2212026199e+00	 1.5041843009e+00	-1.6895056632e+00
 1.1898929459e+00	 1.5290719497e+00	 8.4494432145e+00
 1.1581172844e+00	 1.5532773756e+00	 2.0454678853e+01
 1.1258978759e+00	 1.5767879448e+00	 3.4151677014e+01
 1.0932573947e+00	 1.5995919851e+00	 4.9361034556e+01
 1.0602188972e+00	 1.6216788030e+00	 6.5899262204e+01
 1.3788582233e+00	 1.3788582233e+00	-1.2880342351e+01
 1.3500085098e+00	 1.4071165636e+00	-1.7979880108e+01
 1.3205861671e+00	 1.4347655472e+00	-1.8935303018e+01
 1.2906106593e+00	 1.4617879895e+00	-1.5915595066e+01
 1.2601021278e+00	 1.4881675401e+00	-9.1038681819e+00
 1.2290813465e+00	 1.5138887158e+00	 1.3034643151e+00
 1.1975696746e+00	 1.5389369300e+00	 1.5097580768e+01
 1.1655890088e+00	 1.5632985200e+00	 3.2058204340e+01
 1.1331617332e+00	 1.5869607703e+00	 5.1954609453e+01
 1.1003106682e+00	 1.6099119334e+00	 7.4546674293e+01
 1.0670590191e+00	 1.6321412469e+00	 9.9585971876e+01
 1.3876970581e+00	 1.3876970581e+00	-6.8242514801e+00
 1.3586624105e+00	 1.4161365416e+00	-1.5560444706e+01
 1.3290514630e+00	 1.4439627622e+00	-1.8666921894e+01
 1.2988838045e+00	 1.4711584253e+00	-1.6342324428e+01
 1.2681797056e+00	 1.4977070756e+00	-8.8050259002e+00
 1.2369600731e+00	 1.5235931306e+00	 3.7078662446e+00
 1.2052464033e+00	 1.5488019103e+00	 2.0941603847e+01
 1.1730607332e+00	 1.5733196643e+00	 4.2624978032e+01
 1.1404255904e+00	 1.5971335957e+00	 6.8471577520e+01
 1.1073639417e+00	 1.6202318817e+00	 9.8181116102e+01
 1.0738991410e+00	 1.6426036908e+00	 1.3144081970e+02
 1.3965358929e+00	 1.3965358929e+00	-5.5457696794e-01
 1.3673163112e+00	 1.4251565195e+00	-1.3048924439e+01
 1.3375167590e+00	 1.4531599773e+00	-1.8446614042e+01
 1.3071569498e+00	 1.4805288611e+00	-1.6975656273e+01
 1.2762572833e+00	 1.5072466112e+00	-8.8893515053e+00
 1.2448387997e+00	 1.5332975455e+00	 5.5348788414e+00
 1.2129231320e+00	 1.5586668906e+00	 2.5996783967e+01
 1.1805324577e+00	 1.5833408087e+00	 5.2174688782e+01
 1.1476894477e+00	 1.6073064212e+00	 8.3727002153e+01
 1.1144172153e+00	 1.6305518300e+00	 1.2029381723e+02
 1.0807392629e+00	 1.6530661346e+00	 1.6149859224e+02
 1.4053747276e+00	 1.4053747276e+00	 5.9246540567e+00
 1.3759702119e+00	 1.4341764975e+00	-1.0447053975e+01
 1.3459820549e+00	 1.4623571923e+00	-1.8273469586e+01
 1.3154300950e+00	 1.4898992970e+00	-1.7811689541e+01
 1.2843348611e+00	 1.5167861467e+00	-9.3496124224e+00
 1.2527175262e+00	 1.5430019603e+00	 6.7953993523e+00
 1.2205998607e+00	 1.5685318710e+00	 3.0278008207e+01
 1.1880041821e+00	 1.5933619530e+00	 6.0726529878e+01
 1.1549533050e+00	 1.6174792466e+00	 9.7744689677e+01
 1.1214704888e+00	 1.6408717783e+00	 1.4091349362e+02
 1.0875793848e+00	 1.6635285785e+00	 1.8979320069e+02
 1.4142135624e+00	 1.4142135624e+00	 1.2609514921e+01
 1.3846241126e+00	 1.4431964755e+00	-7.7565248440e+00
 1.3544473509e+00	 1.4715544074e+00	-1.8146601632e+01
 1.3237032403e+00	 1.4992697328e+00	-1.8846620933e+01
 1.2924124388e+00	 1.5263256822e+00	-1.0178757128e+01
 1.2605962528e+00	 1.5527063752e+00	 7.5000523526e+00
 1.2282765894e+00	 1.5783968513e+00	 3.3799791228e+01
 1.1954759065e+00	 1.6033830974e+00	 6.8299214526e+01
 1.1622171622e+00	 1.6276520721e+00	 1.1054785101e+02
 1.1285237623e+00	 1.6511917266e+00	 1.6006814305e+02
 1.0944195068e+00	 1.6739910224e+00	 2.1635770819e+02
 1.0260182876e+00	 1.5693665835e+00	-1.3129469837e+02
 9.9368300285e-01	 1.5900374492e+00	-1.7917143041e+02
 9.6100807296e-01	 1.6099964235e+00	-2.0972215542e+02
 9.2801661506e-01	 1.6292360671e+00	-2.2380188551e+02
 8.9473191212e-01	 1.6477499220e+00	-2.2231525392e+02
 8.6117736201e-01	 1.6655325128e+00	-2.0621184607e+02
 8.2737642706e-01	 1.6825793438e+00	-1.7648139039e+02
 7.9335258431e-01	 1.6988868935e+00	-1.3414884351e+02
 7.5912927655e-01	 1.7144526070e+00	-8.0269404740e+01
 7.2472986455e-01	 1.7292748837e+00	-1.5923493997e+01
 6.9017758046e-01	 1.7433530645e+00	 5.7788273169e+01
 1.0328584095e+00	 1.5798290274e+00	-8.7894188567e+01
 1.0003075562e+00	 1.6006376989e+00	-1.3110619374e+02
 9.6741479345e-01	 1.6207297330e+00	-1.6138195611e+02
 9.3420339250e-01	 1.6400976408e+00	-1.7932568664e+02
 9.0069679153e-01	 1.6587349215e+00	-1.8557962941e+02
 8.6691854442e-01	 1.6766360629e+00	-1.8082068464e+02
 8.3289226991e-01	 1.6937965394e+00	-1.6575691884e+02
 7.9864160154e-01	 1.7102128062e+00	-1.4112398774e+02
 7.6419013839e-01	 1.7258822910e+00	-1.0768149737e+02
 7.2956139697e-01	 1.7408033830e+00	-6.6209328774e+01
 6.9477876433e-01	 1.7549754183e+00	-1.7503951136e+01
 1.0396985314e+00	 1.5902914713e+00	-4.6513639304e+01
 1.0069321096e+00	 1.6112379485e+00	-8.3935715866e+01
 9.7382151393e-01	 1.6314630425e+00	-1.1275729893e+02
 9.4039016993e-01	 1.6509592146e+00	-1.3333440523e+02
 9.0666167094e-01	 1.6697199210e+00	-1.4604959509e+02
 8.7265972683e-01	 1.6877396130e+00	-1.5130987649e+02
 8.3840811275e-01	 1.7050137350e+00	-1.4954452356e+02
 8.0393061877e-01	 1.7215387188e+00	-1.4120282576e+02
 7.6925100023e-01	 1.7373119751e+00	-1.2675178439e+02
 7.3439292940e-01	 1.7523318822e+00	-1.0667377272e+02
 6.9937994820e-01	 1.7665977720e+00	-8.1464176002e+01
 1.0465386534e+00	 1.6007539152e+00	-7.1134376137e+00
 1.0135566629e+00	 1.6218381982e+00	-3.7642446294e+01
 9.8022823441e-01	 1.6421963520e+00	-6.3853754947e+01
 9.4657694736e-01	 1.6618207884e+00	-8.5857741848e+01
 9.1262655035e-01	 1.6807049204e+00	-1.0377993594e+02
 8.7840090924e-01	 1.6988431631e+00	-1.1776019123e+02
 8.4392395560e-01	 1.7162309306e+00	-1.2795180262e+02
 8.0921963599e-01	 1.7328646314e+00	-1.3452057047e+02
 7.7431186207e-01	 1.7487416591e+00	-1.3764382128e+02
 7.3922446183e-01	 1.7638603814e+00	-1.3750939220e+02
 7.0398113207e-01	 1.7782201258e+00	-1.3431458697e+02
 1.0533787753e+00	 1.6112163591e+00	 3.0345000289e+01
 1.0201812163e+00	 1.6324384478e+00	 7.7907093449e+00
 9.8663495490e-01	 1.6529296615e+00	-1.4676750776e+01
 9.5276372479e-01	 1.6726823622e+00	-3.6924625893e+01
 9.1859142976e-01	 1.6916899199e+00	-5.8824014266e+01
 8.8414209165e-01	 1.7099467131e+00	-8.0250300813e+01
 8.4943979844e-01	 1.7274481262e+00	-1.0108355963e+02
 8.1450865322e-01	 1.7441905440e+00	-1.2120892302e+02
 7.7937272391e-01	 1.7601713431e+00	-1.4051691559e+02
 7.4405599426e-01	 1.7753888806e+00	-1.5890375216e+02
 7.0858231593e-01	 1.7898424795e+00	-1.7627159879e+02
 1.0602188972e+00	 1.6216788030e+00	 6.5899262204e+01
 1.0268057696e+00	 1.6430386975e+00	 5.2380404000e+01
 9.9304167538e-01	 1.6636629710e+00	 3.4768426725e+01
 9.5895050222e-01	 1.6835439359e+00	 1.3436759524e+01
 9.2455630917e-01	 1.7026749194e+00	-1.1233815542e+01
 8.8988327406e-01	 1.7210502632e+00	-3.8856847232e+01
 8.5495564128e-01	 1.7386653219e+00	-6.9041893844e+01
 8.1979767044e-01	 1.7555164566e+00	-1.0139618612e+02
 7.8443358575e-01	 1.7716010272e+00	-1.3552626401e+02
 7.4888752668e-01	 1.7869173798e+00	-1.7103957741e+02
 7.1318349980e-01	 1.8014648333e+00	-2.0754604162e+02
 1.0670590191e+00	 1.6321412469e+00	 9.9585971876e+01
 1.0334303230e+00	 1.6536389472e+00	 9.6142863352e+01
 9.9944839586e-01	 1.6743962804e+00	 8.4476625988e+01
 9.6513727965e-01	 1.6944055097e+00	 6.5198953661e+01
 9.3052118858e-01	 1.7136599189e+00	 3.8940007439e+01
 8.9562445646e-01	 1.7321538133e+00	 6.3454924217e+00
 8.6047148412e-01	 1.7498825175e+00	-3.1926286883e+01
 8.2508668766e-01	 1.7668423693e+00	-7.5207372928e+01
 7.8949444759e-01	 1.7830307112e+00	-1.2282308410e+02
 7.5371905911e-01	 1.7984458791e+00	-1.7409490779e+02
 7.1778468367e-01	 1.8130871871e+00	-2.2834333997e+02
 1.0738991410e+00	 1.6426036908e+00	 1.3144081970e+02
 1.0400548763e+00	 1.6642391968e+00	 1.3909389942e+02
 1.0058551163e+00	 1.6851295899e+00	 1.3444282643e+02
 9.7132405707e-01	 1.7052670835e+00	 1.1833519515e+02
 9.3648606799e-01	 1.7246449183e+00	 9.1648092132e+01
 9.0136563887e-01	 1.7432573634e+00	 5.5283943389e+01
 8.6598732697e-01	 1.7610997131e+00	 1.0166313935e+01
 8.3037570489e-01	 1.7781682819e+00	-4.2764311823e+01
 7.9455530943e-01	 1.7944603953e+00	-1.0255474100e+02
 7.5855059154e-01	 1.8099743783e+00	-1.6824324738e+02
 7.2238586753e-01	 1.8247095408e+00	-2.3886368488e+02
 1.0807392629e+00	 1.6530661346e+00	 1.6149859224e+02
 1.0466794296e+00	 1.6748394465e+00	 1.8124892366e+02
 1.0122618368e+00	 1.6958628994e+00	 1.8466213430e+02
 9.7751083450e-01	 1.7161286573e+00	 1.7281939984e+02
 9.4245094740e-01	 1.7356299178e+00	 1.4684232541e+02
 9.0710682128e-01	 1.7543609135e+00	 1.0788757304e+02
 8.7150316981e-01	 1.7723169087e+00	 5.7141415385e+01
 8.3566472211e-01	 1.7894941945e+00	-4.1857471920e+00
 7.9961617127e-01	 1.8058900793e+00	-7.4864869359e+01
 7.6338212396e-01	 1.8215028775e+00	-1.5365370799e+02
 7.2698705140e-01	 1.8363318946e+00	-2.3930219951e+02
 1.0875793848e+00	 1.6635285785e+00	 1.8979320069e+02
 1.0533039830e+00	 1.6854396961e+00	 2.2262295956e+02
 1.0186685573e+00	 1.7065962089e+00	 2.3512977871e+02
 9.8369761193e-01	 1.7269902311e+00	 2.2862613956e+02
 9.4841582680e-01	 1.7466149173e+00	 2.0447580427e+02
 9.1284800368e-01	 1.7654644635e+00	 1.6408723296e+02
 8.7701901264e-01	 1.7835341043e+00	 1.0890690117e+02
 8.4095373933e-01	 1.8008201071e+00	 4.0412563594e+01
 8.0467703310e-01	 1.8173197634e+00	-3.9893490648e+01
 7.6821365638e-01	 1.8330313767e+00	-1.3049114733e+02
 7.3158823526e-01	 1.8479542483e+00	-2.2984909856e+02
 1.0944195068e+00	 1.6739910224e+00	 2.1635770819e+02
 1.0599285363e+00	 1.6960399458e+00	 2.6323065476e+02
 1.0250752778e+00	 1.7173295184e+00	 2.8584110778e+02
 9.8988438935e-01	 1.7378518048e+00	 2.8573062155e+02
 9.5438070621e-01	 1.7575999168e+00	 2.6450279804e+02
 9.1858918609e-01	 1.7765680136e+00	 2.2381550317e+02
 8.8253485548e-01	 1.7947513000e+00	 1.6537295763e+02
 8.4624275655e-01	 1.8121460197e+00	 9.0917756838e+01
 8.0973789494e-01	 1.8287494474e+00	 2.2228739469e+00
 7.7304518881e-01	 1.8445598760e+00	-9.8916301930e+01
 7.3618941913e-01	 1.8595766021e+00	-2.1068984158e+02
 6.9017758046e-01	 1.7433530645e+00	 5.7788273169e+01
 6.5549548273e-01	 1.7566874145e+00	 1.6210182966e+02
 6.2070641247e-01	 1.7692791045e+00	 2.3750440289e+02
 5.8583295169e-01	 1.7811301897e+00	 2.8609877615e+02
 5.5089738324e-01	 1.7922435865e+00	 3.1002499827e+02
 5.1592165286e-01	 1.8026230466e+00	 3.1145068344e+02
 4.8092733318e-01	 1.8122731307e+00	 2.9256150949e+02
 4.4593558987e-01	 1.8211991790e+00	 2.5555196637e+02
 4.1096715009e-01	 1.8294072815e+00	 2.0261640206e+02
 3.7604227311e-01	 1.8369042460e+00	 1.3594040871e+02
 3.4118072329e-01	 1.8436975658e+00	 5.7692587333e+01
 6.9477876433e-01	 1.7549754183e+00	-1.7503951136e+01
 6.5986545261e-01	 1.7683986639e+00	 7.7429689655e+01
 6.2484445522e-01	 1.7810742985e+00	 1.5002137605e+02
 5.8973850470e-01	 1.7930043910e+00	 2.0183803654e+02
 5.5457003246e-01	 1.8041918770e+00	 2.3447745459e+02
 5.1936113055e-01	 1.8146405336e+00	 2.4956091353e+02
 4.8413351540e-01	 1.8243549516e+00	 2.4872597921e+02
 4.4890849380e-01	 1.8333405069e+00	 2.3361946024e+02
 4.1370693109e-01	 1.8416033300e+00	 2.0589058243e+02
 3.7854922160e-01	 1.8491502743e+00	 1.6718441046e+02
 3.4345526144e-01	 1.8559888829e+00	 1.1913554673e+02
 6.9937994820e-01	 1.7665977720e+00	-8.1464176002e+01
 6.6423542250e-01	 1.7801099133e+00	 1.5382517827e+00
 6.2898249797e-01	 1.7928694925e+00	 6.8699666216e+01
 5.9364405771e-01	 1.8048785923e+00	 1.2105666546e+02
 5.5824268168e-01	 1.8161401676e+00	 1.5967032817e+02
 5.2280060824e-01	 1.8266580206e+00	 1.8562118383e+02
 4.8733969762e-01	 1.8364367724e+00	 2.0000426097e+02
 4.5188139773e-01	 1.8454818348e+00	 2.0392424086e+02
 4.1644671209e-01	 1.8537993786e+00	 1.9849074282e+02
 3.8105617009e-01	 1.8613963026e+00	 1.8481376472e+02
 3.4572979960e-01	 1.8682802000e+00	 1.6399929997e+02
 7.0398113207e-01	 1.7782201258e+00	-1.3431458697e+02
 6.6860539238e-01	 1.7918211628e+00	-6.5744643409e+01
 6.3312054072e-01	 1.8046646866e+00	-6.5815249117e+00
 5.9754961072e-01	 1.8167527935e+00	 4.3686452568e+01
 5.6191533091e-01	 1.8280884582e+00	 8.5589114299e+01
 5.2624008592e-01	 1.8386755075e+00	 1.1967170368e+02
 4.9054587984e-01	 1.8485185933e+00	 1.4649217723e+02
 4.5485430167e-01	 1.8576231626e+00	 1.6661853395e+02
 4.1918649309e-01	 1.8659954271e+00	 1.8062619425e+02
 3.8356311858e-01	 1.8736423309e+00	 1.8909544272e+02
 3.4800433776e-01	 1.8805715171e+00	 1.9260894776e+02
 7.0858231593e-01	 1.7898424795e+00	-1.7627159879e+02
 6.7297536226e-01	 1.8035324122e+00	-1.2458668398e+02
 6.3725858347e-01	 1.8164598806e+00	-7.5939858272e+01
 6.0145516373e-01	 1.8286269948e+00	-3.0339041081e+01
 5.6558798013e-01	 1.8400367488e+00	 1.2219684773e+01
 5.2967956361e-01	 1.8506929945e+00	 5.1751637759e+01
 4.9375206206e-01	 1.8606004142e+00	 8.8283061293e+01
 4.5782720560e-01	 1.8697644905e+00	 1.2185061107e+02
 4.2192627409e-01	 1.8781914757e+00	 1.5250081080e+02
 3.8607006707e-01	 1.8858883592e+00	 1.8028948111e+02
 3.5027887591e-01	 1.8928628342e+00	 2.0528114640e+02
 7.1318349980e-01	 1.8014648333e+00	-2.0754604162e+02
 6.7734533215e-01	 1.8152436616e+00	-1.7515123083e+02
 6.4139662622e-01	 1.8282550746e+00	-1.3948995867e+02
 6.0536071674e-01	 1.8405011961e+00	-1.0108454013e+02
 5.6926062935e-01	 1.8519850393e+00	-6.0451724296e+01
 5.3311904130e-01	 1.8627104815e+00	-1.8100860216e+01
 4.9695824429e-01	 1.8726822351e+00	 2.5467837578e+01
 4.6080010953e-01	 1.8819058183e+00	 6.9764917145e+01
 4.2466605510e-01	 1.8903875242e+00	 1.1431320507e+02
 3.8857701556e-01	 1.8981343875e+00	 1.5864920569e+02
 3.5255341407e-01	 1.9051541513e+00	 2.0232438016e+02
 7.1778468367e-01	 1.8130871871e+00	-2.2834333997e+02
 6.8171530203e-01	 1.8269549110e+00	-2.1759745639e+02
 6.4553466897e-01	 1.8400502687e+00	-1.9734351208e+02
 6.0926626975e-01	 1.8523753973e+00	-1.6861310989e+02
 5.7293327857e-01	 1.8639333299e+00	-1.3243852414e+02
 5.3655851898e-01	 1.8747279685e+00	-8.9848615093e+01
 5.0016442651e-01	 1.8847640559e+00	-4.1864901133e+01
 4.6377301347e-01	 1.8940471462e+00	 1.0502193133e+01
 4.2740583610e-01	 1.9025835728e+00	 6.6256896758e+01
 3.9108396405e-01	 1.9103804158e+00	 1.2442144648e+02
 3.5482795223e-01	 1.9174454684e+00	 1.8403922320e+02
 7.2238586753e-01	 1.8247095408e+00	-2.3886368488e+02
 6.8608527191e-01	 1.8386661605e+00	-2.5208047800e+02
 6.4967271171e-01	 1.8518454627e+00	-2.4960935925e+02
 6.1317182276e-01	 1.8642495986e+00	-2.3298620918e+02
 5.7660592779e-01	 1.8758816205e+00	-2.0375378457e+02
 5.3999799667e-01	 1.8867454554e+00	-1.6345539912e+02
 5.0337060873e-01	 1.8968458768e+00	-1.1362881946e+02
 4.6674591740e-01	 1.9061884741e+00	-5.5800406017e+01
 4.3014561710e-01	 1.9147796213e+00	 8.5204748781e+00
 3.9359091254e-01	 1.9226264441e+00	 7.7846744559e+01
 3.5710249039e-01	 1.9297367855e+00	 1.5071859154e+02
 7.2698705140e-01	 1.8363318946e+00	-2.3930219951e+02
 6.9045524179e-01	 1.8503774099e+00	-2.7875148627e+02
 6.5381075446e-01	 1.8636406567e+00	-2.9639358572e+02
 6.1707737577e-01	 1.8761237998e+00	-2.9426374115e+02
 5.8027857701e-01	 1.8878299111e+00	-2.7441024476e+02
 5.4343747436e-01	 1.8987629424e+00	-2.3888590195e+02
 5.0657679095e-01	 1.9089276977e+00	-1.8973976798e+02
 4.6971882134e-01	 1.9183298019e+00	-1.2900919788e+02
 4.3288539810e-01	 1.9269756698e+00	-5.8712246207e+01
 3.9609786103e-01	 1.9348724724e+00	 1.9159551158e+01
 3.5937702855e-01	 1.9420281026e+00	 1.0264798533e+02
 7.3158823526e-01	 1.8479542483e+00	-2.2984909856e+02
 6.9482521167e-01	 1.8620886593e+00	-2.9775786850e+02
 6.5794879721e-01	 1.8754358507e+00	-3.3779960847e+02
 6.2098292878e-01	 1.8879980011e+00	-3.5250410221e+02
 5.8395122623e-01	 1.8997782016e+00	-3.4442032366e+02
 5.4687695204e-01	 1.9107804294e+00	-3.1610570181e+02
 5.0978297318e-01	 1.9210095185e+00	-2.7011571449e+02
 4.7269172527e-01	 1.9304711298e+00	-2.0899386337e+02
 4.3562517911e-01	 1.9391717184e+00	-1.3526207664e+02
 3.9860480952e-01	 1.9471185007e+00	-5.1411580897e+01
 3.6165156671e-01	 1.9543194197e+00	 4.0105722114e+01
 7.3618941913e-01	 1.8595766021e+00	-2.1068984158e+02
 6.9919518155e-01	 1.8737999088e+00	-3.0924332758e+02
 6.6208683996e-01	 1.8872310448e+00	-3.7392825932e+02
 6.2488848179e-01	 1.8998722024e+00	-4.0776422913e+02
 5.8762387546e-01	 1.9117264922e+00	-4.1379613003e+02
 5.5031642973e-01	 1.9227979164e+00	-3.9508123771e+02
 5.1298915540e-01	 1.9330913394e+00	-3.5467667783e+02
 4.7566462921e-01	 1.9426124577e+00	-2.9562734159e+02
 4.3836496011e-01	 1.9513677669e+00	-2.2095430654e+02
 4.0111175801e-01	 1.9593645290e+00	-1.3364381283e+02
 3.6392610487e-01	 1.9666107368e+00	-3.6636838753e+01
 3.4118072329e-01	 1.8436975658e+00	 5.7692587333e+01
 3.0640174533e-01	 1.8497953861e+00	-4.1970021861e+01
 2.7172404193e-01	 1.8552064697e+00	-1.1654877854e+02
 2.3716575372e-01	 1.8599401617e+00	-1.6875991087e+02
 2.0274444155e-01	 1.8640063550e+00	-2.0129152646e+02
 1.6847707106e-01	 1.8674154537e+00	-2.1679466122e+02
 1.3437999951e-01	 1.8701783380e+00	-2.1787491940e+02
 1.0046896479e-01	 1.8723063283e+00	-2.0708472310e+02
 6.6759076657e-02	 1.8738111500e+00	-1.8691618341e+02
 3.3264809970e-02	 1.8747048974e+00	-1.5979460066e+02
 0.0000000000e+00	 1.8750000000e+00	-1.2807259590e+02
 3.4345526144e-01	 1.8559888829e+00	 1.1913554673e+02
 3.0844442363e-01	 1.8621273554e+00	 2.4403139700e+01
 2.7353553554e-01	 1.8675745128e+00	-5.0742717124e+01
 2.3874685874e-01	 1.8723397628e+00	-1.0842054982e+02
 2.0409607116e-01	 1.8764330640e+00	-1.5072706129e+02
 1.6960025153e-01	 1.8798648900e+00	-1.7973012576e+02
 1.3527586617e-01	 1.8826461935e+00	-1.9746224561e+02
 1.0113875789e-01	 1.8847883705e+00	-2.0591448490e+02
 6.7204137168e-02	 1.8863032243e+00	-2.0703088907e+02
 3.3486575369e-02	 1.8872029301e+00	-2.0270339683e+02
 0.0000000000e+00	 1.8875000000e+00	-1.9476724577e+02
 3.4572979960e-01	 1.8682802000e+00	 1.6399929997e+02
 3.1048710194e-01	 1.8744593246e+00	 7.7383808656e+01
 2.7534702916e-01	 1.8799425559e+00	 4.9012992203e+00
 2.4032796377e-01	 1.8847393639e+00	-5.4975070823e+01
 2.0544770077e-01	 1.8888597731e+00	-1.0375653255e+02
 1.7072343201e-01	 1.8923143264e+00	-1.4293363027e+02
 1.3617173283e-01	 1.8951140491e+00	-1.7397148077e+02
 1.0180855099e-01	 1.8972704127e+00	-1.9830537749e+02
 6.7649197680e-02	 1.8987952986e+00	-2.1733674670e+02
 3.3708340769e-02	 1.8997009627e+00	-2.3242945993e+02
 0.0000000000e+00	 1.9000000000e+00	-2.4490650388e+02
 3.4800433776e-01	 1.8805715171e+00	 1.9260894776e+02
 3.1252978024e-01	 1.8867912938e+00	 1.1723460203e+02
 2.7715852277e-01	 1.8923105990e+00	 5.0582546320e+01
 2.4190906879e-01	 1.8971389650e+00	-8.2882787602e+00
 2.0679933038e-01	 1.9012864821e+00	-6.0309449004e+01
 1.7184661248e-01	 1.9047637627e+00	-1.0639989623e+02
 1.3706759950e-01	 1.9075819047e+00	-1.4746295580e+02
 1.0247834409e-01	 1.9097524549e+00	-1.8438362845e+02
 6.8094258191e-02	 1.9112873730e+00	-2.1802606095e+02
 3.3930106169e-02	 1.9121989954e+00	-2.4923124827e+02
 0.0000000000e+00	 1.9125000000e+00	-2.7881495812e+02
 3.5027887591e-01	 1.8928628342e+00	 2.0528114640e+02
 3.1457245854e-01	 1.8991232631e+00	 1.4421131540e+02
 2.7897001638e-01	 1.9046786422e+00	 8.6495123776e+01
 2.4349017382e-01	 1.9095385661e+00	 3.1771509708e+01
 2.0815095999e-01	 1.9137131911e+00	-2.0317150561e+01
 1.7296979296e-01	 1.9172131991e+00	-7.0123782427e+01
 1.3796346616e-01	 1.9200497603e+00	-1.1799543482e+02
 1.0314813719e-01	 1.9222344971e+00	-1.6427218694e+02
 6.8539318703e-02	 1.9237794473e+00	-2.0928614172e+02
 3.4151871570e-02	 1.9246970280e+00	-2.5336050712e+02
 0.0000000000e+00	 1.9250000000e+00	-2.9680876573e+02
 3.5255341407e-01	 1.9051541513e+00	 2.0232438016e+02
 3.1661513685e-01	 1.9114552323e+00	 1.5856314291e+02
 2.8078151000e-01	 1.9170466853e+00	 1.1282812193e+02
 2.4507127885e-01	 1.9219381671e+00	 6.5332579411e+01
 2.0950258961e-01	 1.9261399002e+00	 1.6287250763e+01
 1.7409297343e-01	 1.9296626354e+00	-3.4100280529e+01
 1.3885933283e-01	 1.9325176159e+00	-8.5626165622e+01
 1.0381793029e-01	 1.9347165393e+00	-1.3809082941e+02
 6.8984379215e-02	 1.9362715216e+00	-1.9129946531e+02
 3.4373636970e-02	 1.9371950607e+00	-2.4506248530e+02
 0.0000000000e+00	 1.9375000000e+00	-2.9919592522e+02
 3.5482795223e-01	 1.9174454684e+00	 1.8403922320e+02
 3.1865781515e-01	 1.9237872016e+00	 1.6053288887e+02
 2.8259300362e-01	 1.9294147284e+00	 1.2976578243e+02
 2.4665238388e-01	 1.9343377682e+00	 9.2519925599e+01
 2.1085421922e-01	 1.9385666092e+00	 4.9568927662e+01
 1.7521615391e-01	 1.9421120718e+00	 1.6754891534e+00
 1.3975519949e-01	 1.9449854715e+00	-5.0410928339e+01
 1.0448772339e-01	 1.9471985815e+00	-1.0595626134e+02
 6.9429439728e-02	 1.9487635960e+00	-1.6424382934e+02
 3.4595402371e-02	 1.9496930933e+00	-2.2457614336e+02
 0.0000000000e+00	 1.9500000000e+00	-2.8627653787e+02
 3.5710249039e-01	 1.9297367855e+00	 1.5071859154e+02
 3.2070049346e-01	 1.9361191708e+00	 1.5035717128e+02
 2.8440449723e-01	 1.9417827716e+00	 1.3748765263e+02
 2.4823348890e-01	 1.9467373693e+00	 1.1345535871e+02
 2.1220584883e-01	 1.9509933182e+00	 7.9591392163e+01
 1.7633933439e-01	 1.9545615082e+00	 3.7208281781e+01
 1.4065106616e-01	 1.9574533271e+00	-1.2404082149e+01
 1.0515751649e-01	 1.9596806237e+00	-6.7982215007e+01
 6.9874500241e-02	 1.9612556703e+00	-1.2829250171e+02
 3.4817167771e-02	 1.9621911260e+00	-1.9213435387e+02
 0.0000000000e+00	 1.9625000000e+00	-2.5834305923e+02
 3.5937702855e-01	 1.9420281026e+00	 1.0264798533e+02
 3.2274317177e-01	 1.9484511400e+00	 1.2826661757e+02
 2.8621599085e-01	 1.9541508147e+00	 1.3616873417e+02
 2.4981459393e-01	 1.9591369704e+00	 1.2825760514e+02
 2.1355747845e-01	 1.9634200273e+00	 1.0641654818e+02
 1.7746251487e-01	 1.9670109445e+00	 7.2502731921e+01
 1.4154693283e-01	 1.9699211826e+00	 2.8341389753e+01
 1.0582730959e-01	 1.9721626658e+00	-2.4279543579e+01
 7.0319560754e-02	 1.9737477446e+00	-8.3614364019e+01
 3.5038933172e-02	 1.9746891586e+00	-1.4796409409e+02
 0.0000000000e+00	 1.9750000000e+00	-2.1568054111e+02
 3.6165156671e-01	 1.9543194197e+00	 4.0105722114e+01
 3.2478585007e-01	 1.9607831093e+00	 9.4486052983e+01
 2.8802748447e-01	 1.9665188578e+00	 1.2597962589e+02
 2.5139569896e-01	 1.9715365715e+00	 1.3704240426e+02
 2.1490910806e-01	 1.9758467363e+00	 1.3010474207e+02
 1.7858569534e-01	 1.9794603809e+00	 1.0756335734e+02
 1.4244279949e-01	 1.9823890382e+00	 7.1773836879e+01
 1.0649710269e-01	 1.9846447080e+00	 2.5043688335e+01
 7.0764621268e-02	 1.9862398189e+00	-3.0374049422e+01
 3.5260698574e-02	 1.9871871913e+00	-9.2286631300e+01
 0.0000000000e+00	 1.9875000000e+00	-1.5856686434e+02
 3.6392610487e-01	 1.9666107368e+00	-3.6636838753e+01
 3.2682852838e-01	 1.9731150785e+00	 4.9234681915e+01
 2.8983897809e-01	 1.9788869010e+00	 1.0708666145e+02
 2.5297680400e-01	 1.9839361725e+00	 1.3992260172e+02
 2.1626073768e-01	 1.9882734453e+00	 1.5071481135e+02
 1.7970887582e-01	 1.9919098172e+00	 1.4239456267e+02
 1.4333866616e-01	 1.9948568938e+00	 1.1784289981e+02
 1.0716689579e-01	 1.9971267502e+00	 7.9882117553e+01
 7.1209681781e-02	 1.9987318933e+00	 3.1267924553e+01
 3.5482463975e-02	 1.9996852239e+00	-2.5317701308e+01
 0.0000000000e+00	 2.0000000000e+00	-8.7272962937e+01
