patch_n	x	y	stress_yy
0	 0.000000000000000e+00	 0.000000000000000e+00	 6.393631730641349e-01
0	 0.000000000000000e+00	 7.142881171115513e-01	-5.300567331793316e+00
0	 0.000000000000000e+00	 1.428580650948409e+00	-8.188300137443395e+00
0	 0.000000000000000e+00	 2.142877018163878e+00	-8.561360317959853e+00
0	 0.000000000000000e+00	 2.857176635411265e+00	-6.957274636982422e+00
0	 0.000000000000000e+00	 3.571478919343873e+00	-3.913571547605443e+00
0	 0.000000000000000e+00	 4.285783286615008e+00	 3.221880771285690e-02
0	 0.000000000000000e+00	 5.000089153877976e+00	 4.342564597220288e+00
0	 0.000000000000000e+00	 5.714395937786080e+00	 8.479932299920048e+00
0	 0.000000000000000e+00	 6.428703054992629e+00	 1.190678670559921e+01
0	 0.000000000000000e+00	 7.143009922150927e+00	 1.408559091483674e+01
0	 7.142881171115513e-01	 0.000000000000000e+00	 1.539486357688369e+00
0	 7.142881171115515e-01	 7.142881171115515e-01	-2.425869363717497e+00
0	 7.142881171115516e-01	 1.428580650948409e+00	-4.348408469818418e+00
0	 7.142881171115512e-01	 2.142877018163878e+00	-4.573369247497659e+00
0	 7.142881171115510e-01	 2.857176635411264e+00	-3.445990697760025e+00
0	 7.142881171115515e-01	 3.571478919343873e+00	-1.311512535675946e+00
0	 7.142881171115515e-01	 4.285783286615009e+00	 1.484824809665710e+00
0	 7.142881171115512e-01	 5.000089153877973e+00	 4.597780195196019e+00
0	 7.142881171115514e-01	 5.714395937786080e+00	 7.682111763895690e+00
0	 7.142881171115514e-01	 6.428703054992629e+00	 1.039257694481600e+01
0	 7.142881171115515e-01	 7.143009922150928e+00	 1.238393245309097e+01
0	 1.428580650948409e+00	 0.000000000000000e+00	-2.023450566542237e+00
0	 1.428580650948409e+00	 7.142881171115514e-01	-2.818562203772581e+00
0	 1.428580650948409e+00	 1.428580650948410e+00	-2.645425246172358e+00
0	 1.428580650948409e+00	 2.142877018163877e+00	-1.684603266727009e+00
0	 1.428580650948409e+00	 2.857176635411265e+00	-1.166607507708841e-01
0	 1.428580650948409e+00	 3.571478919343873e+00	 1.877836904093644e+00
0	 1.428580650948409e+00	 4.285783286615007e+00	 4.118323388065945e+00
0	 1.428580650948410e+00	 5.000089153877976e+00	 6.424231479205659e+00
0	 1.428580650948410e+00	 5.714395937786082e+00	 8.614993043480130e+00
0	 1.428580650948410e+00	 6.428703054992631e+00	 1.051003903480057e+01
0	 1.428580650948409e+00	 7.143009922150926e+00	 1.192879949504712e+01
0	 2.142877018163878e+00	 0.000000000000000e+00	-9.009298081680765e+00
0	 2.142877018163878e+00	 7.142881171115512e-01	-5.795619489740872e+00
0	 2.142877018163878e+00	 1.428580650948410e+00	-2.702483018122519e+00
0	 2.142877018163878e+00	 2.142877018163878e+00	 2.266096495907535e-01
0	 2.142877018163879e+00	 2.857176635411264e+00	 2.948154795346689e+00
0	 2.142877018163879e+00	 3.571478919343874e+00	 5.418646666793197e+00
0	 2.142877018163879e+00	 4.285783286615009e+00	 7.594577477422328e+00
0	 2.142877018163879e+00	 5.000089153877975e+00	 9.432437406689292e+00
0	 2.142877018163880e+00	 5.714395937786082e+00	 1.088871460010660e+01
0	 2.142877018163878e+00	 6.428703054992627e+00	 1.191989516931323e+01
0	 2.142877018163878e+00	 7.143009922150926e+00	 1.248246319211895e+01
0	 2.857176635411265e+00	 0.000000000000000e+00	-1.837790777808381e+01
0	 2.857176635411264e+00	 7.142881171115510e-01	-1.067401790992269e+01
0	 2.857176635411265e+00	 1.428580650948409e+00	-4.142718475794966e+00
0	 2.857176635411264e+00	 2.142877018163879e+00	 1.281937019067945e+00
0	 2.857176635411264e+00	 2.857176635411264e+00	 5.665891238733160e+00
0	 2.857176635411264e+00	 3.571478919343873e+00	 9.075083016868618e+00
0	 2.857176635411265e+00	 4.285783286615009e+00	 1.157544735699852e+01
0	 2.857176635411265e+00	 5.000089153877974e+00	 1.323291543271176e+01
0	 2.857176635411265e+00	 5.714395937786081e+00	 1.411341458782355e+01
0	 2.857176635411265e+00	 6.428703054992630e+00	 1.428286833649001e+01
0	 2.857176635411264e+00	 7.143009922150927e+00	 1.380719636327588e+01
0	 3.571478919343873e+00	 0.000000000000000e+00	-2.908913235433497e+01
0	 3.571478919343873e+00	 7.142881171115515e-01	-1.677073720292483e+01
0	 3.571478919343873e+00	 1.428580650948409e+00	-6.589272447537586e+00
0	 3.571478919343873e+00	 2.142877018163878e+00	 1.603041852002871e+00
0	 3.571478919343873e+00	 2.857176635411264e+00	 7.953979584604793e+00
0	 3.571478919343874e+00	 3.571478919343874e+00	 1.261130858837236e+01
0	 3.571478919343873e+00	 4.285783286615009e+00	 1.572279065099530e+01
0	 3.571478919343873e+00	 5.000089153877975e+00	 1.743618151006446e+01
0	 3.571478919343873e+00	 5.714395937786081e+00	 1.789923085331310e+01
0	 3.571478919343873e+00	 6.428703054992628e+00	 1.725968231878423e+01
0	 3.571478919343873e+00	 7.143009922150927e+00	 1.566527349492381e+01
0	 4.285783286615008e+00	 0.000000000000000e+00	-4.010282561718196e+01
0	 4.285783286615009e+00	 7.142881171115514e-01	-2.340276015748647e+01
0	 4.285783286615007e+00	 1.428580650948409e+00	-9.665289899683781e+00
0	 4.285783286615009e+00	 2.142877018163879e+00	 1.311582651636908e+00
0	 4.285783286615009e+00	 2.857176635411266e+00	 9.729846545498054e+00
0	 4.285783286615008e+00	 3.571478919343873e+00	 1.579148238516942e+01
0	 4.285783286615008e+00	 4.285783286615008e+00	 1.969846232870037e+01
0	 4.285783286615009e+00	 5.000089153877976e+00	 2.165275008934863e+01
0	 4.285783286615008e+00	 5.714395937786080e+00	 2.185630093590551e+01
0	 4.285783286615008e+00	 6.428703054992630e+00	 2.051106169291788e+01
0	 4.285783286615009e+00	 7.143009922150927e+00	 1.781897074080656e+01
0	 5.000089153877976e+00	 0.000000000000000e+00	-5.037884248148713e+01
0	 5.000089153877975e+00	 7.142881171115513e-01	-2.988707261234232e+01
0	 5.000089153877975e+00	 1.428580650948409e+00	-1.299391993636693e+01
0	 5.000089153877975e+00	 2.142877018163879e+00	 5.292134143564109e-01
0	 5.000089153877976e+00	 2.857176635411265e+00	 1.091091454146146e+01
0	 5.000089153877976e+00	 3.571478919343873e+00	 1.837975978109898e+01
0	 5.000089153877976e+00	 4.285783286615009e+00	 2.316431470460552e+01
0	 5.000089153877975e+00	 5.000089153877974e+00	 2.549313411904028e+01
0	 5.000089153877975e+00	 5.714395937786080e+00	 2.559476206759008e+01
0	 5.000089153877976e+00	 6.428703054992630e+00	 2.369773182984261e+01
0	 5.000089153877976e+00	 7.143009922150928e+00	 2.003056592192755e+01
0	 5.714395937786080e+00	 0.000000000000000e+00	-5.887703897019183e+01
0	 5.714395937786081e+00	 7.142881171115514e-01	-3.554066345612328e+01
0	 5.714395937786080e+00	 1.428580650948410e+00	-1.619831579938550e+01
0	 5.714395937786081e+00	 2.142877018163879e+00	-6.224163701606713e-01
0	 5.714395937786080e+00	 2.857176635411265e+00	 1.141460170019482e+01
0	 5.714395937786081e+00	 3.571478919343873e+00	 2.014029252009143e+01
0	 5.714395937786080e+00	 4.285783286615009e+00	 2.578219743849131e+01
0	 5.714395937786081e+00	 5.000089153877976e+00	 2.856784504553672e+01
0	 5.714395937786080e+00	 5.714395937786080e+00	 2.872475117302223e+01
0	 5.714395937786080e+00	 6.428703054992627e+00	 2.648041889471055e+01
0	 5.714395937786082e+00	 7.143009922150927e+00	 2.206233852649206e+01
0	 6.428703054992629e+00	 0.000000000000000e+00	-6.455727221429406e+01
0	 6.428703054992630e+00	 7.142881171115513e-01	-3.968052462729430e+01
0	 6.428703054992631e+00	 1.428580650948410e+00	-1.890163486811881e+01
0	 6.428703054992629e+00	 2.142877018163878e+00	-2.021661718853300e+00
0	 6.428703054992629e+00	 2.857176635411265e+00	 1.115832185713584e+01
0	 6.428703054992629e+00	 3.571478919343873e+00	 2.083722871624098e+01
0	 6.428703054992629e+00	 4.285783286615008e+00	 2.721395753547928e+01
0	 6.428703054992628e+00	 5.000089153877976e+00	 3.048739281318476e+01
0	 6.428703054992628e+00	 5.714395937786080e+00	 3.085640486952679e+01
0	 6.428703054992631e+00	 6.428703054992630e+00	 2.851984984685487e+01
0	 6.428703054992631e+00	 7.143009922150928e+00	 2.367656970986978e+01
0	 7.143009922150927e+00	 0.000000000000000e+00	-6.637940045283992e+01
0	 7.143009922150926e+00	 7.142881171115513e-01	-4.162365111412976e+01
0	 7.143009922150926e+00	 1.428580650948409e+00	-2.072703865949360e+01
0	 7.143009922150927e+00	 2.142877018163878e+00	-3.546882155241107e+00
0	 7.143009922150926e+00	 2.857176635411264e+00	 1.005948455549427e+01
0	 7.143009922150926e+00	 3.571478919343873e+00	 2.023471285383389e+01
0	 7.143009922150926e+00	 4.285783286615008e+00	 2.712143934605158e+01
0	 7.143009922150927e+00	 5.000089153877976e+00	 3.086228586429024e+01
0	 7.143009922150926e+00	 5.714395937786080e+00	 3.159985946709742e+01
0	 7.143009922150927e+00	 6.428703054992628e+00	 2.947675243978001e+01
0	 7.143009922150927e+00	 7.143009922150927e+00	 2.463554229457784e+01
0	 0.000000000000000e+00	 7.143009922150927e+00	 1.408559091483674e+01
0	 0.000000000000000e+00	 7.857266066626719e+00	 1.493520942149038e+01
0	 0.000000000000000e+00	 8.571521461152161e+00	 1.487420108030831e+01
0	 0.000000000000000e+00	 9.285776189055182e+00	 1.411428022902725e+01
0	 0.000000000000000e+00	 1.000003033366371e+01	 1.286716098257955e+01
0	 0.000000000000000e+00	 1.071428397830567e+01	 1.134455723309104e+01
0	 0.000000000000000e+00	 1.142853720630899e+01	 9.758182649879306e+00
0	 0.000000000000000e+00	 1.214279010100160e+01	 8.319750679452378e+00
0	 0.000000000000000e+00	 1.285704274571142e+01	 7.240974545507767e+00
0	 0.000000000000000e+00	 1.357129522376639e+01	 6.733567248931896e+00
0	 0.000000000000000e+00	 1.428554761849444e+01	 7.009241567799969e+00
0	 7.142881171115515e-01	 7.143009922150928e+00	 1.238393245309097e+01
0	 7.142881171115513e-01	 7.857266066626721e+00	 1.350931343013414e+01
0	 7.142881171115513e-01	 8.571521461152166e+00	 1.394289197777117e+01
0	 7.142881171115514e-01	 9.285776189055184e+00	 1.382066116398319e+01
0	 7.142881171115514e-01	 1.000003033366371e+01	 1.327861399324092e+01
0	 7.142881171115513e-01	 1.071428397830567e+01	 1.245274340650430e+01
0	 7.142881171115512e-01	 1.142853720630899e+01	 1.147904228122198e+01
0	 7.142881171115512e-01	 1.214279010100160e+01	 1.049350343133110e+01
0	 7.142881171115512e-01	 1.285704274571143e+01	 9.632119607257181e+00
0	 7.142881171115514e-01	 1.357129522376639e+01	 9.030883495914011e+00
0	 7.142881171115514e-01	 1.428554761849444e+01	 8.825787720703712e+00
0	 1.428580650948409e+00	 7.143009922150926e+00	 1.192879949504712e+01
0	 1.428580650948410e+00	 7.857266066626718e+00	 1.281200839143781e+01
0	 1.428580650948409e+00	 8.571521461152161e+00	 1.326824737220010e+01
0	 1.428580650948409e+00	 9.285776189055182e+00	 1.336848204596595e+01
0	 1.428580650948409e+00	 1.000003033366371e+01	 1.318367804045658e+01
0	 1.428580650948409e+00	 1.071428397830567e+01	 1.278480100248273e+01
0	 1.428580650948409e+00	 1.142853720630899e+01	 1.224281659794492e+01
0	 1.428580650948409e+00	 1.214279010100159e+01	 1.162869051183376e+01
0	 1.428580650948410e+00	 1.285704274571143e+01	 1.101338844823005e+01
0	 1.428580650948410e+00	 1.357129522376639e+01	 1.046787613030500e+01
0	 1.428580650948410e+00	 1.428554761849444e+01	 1.006311930032035e+01
0	 2.142877018163878e+00	 7.143009922150926e+00	 1.248246319211895e+01
0	 2.142877018163879e+00	 7.857266066626722e+00	 1.272303976927747e+01
0	 2.142877018163878e+00	 8.571521461152162e+00	 1.282838922158450e+01
0	 2.142877018163879e+00	 9.285776189055184e+00	 1.281514307289926e+01
0	 2.142877018163878e+00	 1.000003033366371e+01	 1.269993288544478e+01
0	 2.142877018163878e+00	 1.071428397830566e+01	 1.249939025980825e+01
0	 2.142877018163878e+00	 1.142853720630899e+01	 1.223014683494141e+01
0	 2.142877018163878e+00	 1.214279010100160e+01	 1.190883428816072e+01
0	 2.142877018163878e+00	 1.285704274571142e+01	 1.155208433514767e+01
0	 2.142877018163879e+00	 1.357129522376639e+01	 1.117652872994883e+01
0	 2.142877018163878e+00	 1.428554761849444e+01	 1.079879926497591e+01
0	 2.857176635411264e+00	 7.143009922150927e+00	 1.380719636327588e+01
0	 2.857176635411264e+00	 7.857266066626720e+00	 1.312215523560150e+01
0	 2.857176635411264e+00	 8.571521461152162e+00	 1.260144192102551e+01
0	 2.857176635411264e+00	 9.285776189055182e+00	 1.221804684978379e+01
0	 2.857176635411265e+00	 1.000003033366371e+01	 1.194496045979485e+01
0	 2.857176635411265e+00	 1.071428397830567e+01	 1.175517319665980e+01
0	 2.857176635411265e+00	 1.142853720630899e+01	 1.162167551366221e+01
0	 2.857176635411264e+00	 1.214279010100160e+01	 1.151745787176817e+01
0	 2.857176635411264e+00	 1.285704274571142e+01	 1.141551073962609e+01
0	 2.857176635411265e+00	 1.357129522376640e+01	 1.128882459356669e+01
0	 2.857176635411264e+00	 1.428554761849444e+01	 1.111038991760282e+01
0	 3.571478919343873e+00	 7.143009922150927e+00	 1.566527349492381e+01
0	 3.571478919343873e+00	 7.857266066626722e+00	 1.388910467027405e+01
0	 3.571478919343874e+00	 8.571521461152168e+00	 1.256553230256401e+01
0	 3.571478919343873e+00	 9.285776189055186e+00	 1.163459838852789e+01
0	 3.571478919343872e+00	 1.000003033366371e+01	 1.103634486531498e+01
0	 3.571478919343873e+00	 1.071428397830567e+01	 1.071081361048872e+01
0	 3.571478919343873e+00	 1.142853720630899e+01	 1.059804644202612e+01
0	 3.571478919343873e+00	 1.214279010100160e+01	 1.063808511831685e+01
0	 3.571478919343873e+00	 1.285704274571143e+01	 1.077097133816291e+01
0	 3.571478919343873e+00	 1.357129522376639e+01	 1.093674674077800e+01
0	 3.571478919343873e+00	 1.428554761849444e+01	 1.107545290578727e+01
0	 4.285783286615009e+00	 7.143009922150927e+00	 1.781897074080656e+01
0	 4.285783286615009e+00	 7.857266066626719e+00	 1.490364016094563e+01
0	 4.285783286615007e+00	 8.571521461152161e+00	 1.269878963503850e+01
0	 4.285783286615008e+00	 9.285776189055181e+00	 1.112220510780770e+01
0	 4.285783286615009e+00	 1.000003033366371e+01	 1.009167237390639e+01
0	 4.285783286615008e+00	 1.071428397830567e+01	 9.524977077916310e+00
0	 4.285783286615008e+00	 1.142853720630899e+01	 9.339904714346146e+00
0	 4.285783286615009e+00	 1.214279010100160e+01	 9.454240627630083e+00
0	 4.285783286615009e+00	 1.285704274571143e+01	 9.785770012126687e+00
0	 4.285783286615009e+00	 1.357129522376640e+01	 1.025227791211797e+01
0	 4.285783286615008e+00	 1.428554761849444e+01	 1.077154922180877e+01
0	 5.000089153877976e+00	 7.143009922150928e+00	 2.003056592192756e+01
0	 5.000089153877974e+00	 7.857266066626717e+00	 1.604551600295087e+01
0	 5.000089153877973e+00	 8.571521461152159e+00	 1.297934562397277e+01
0	 5.000089153877975e+00	 9.285776189055181e+00	 1.073827683295669e+01
0	 5.000089153877977e+00	 1.000003033366371e+01	 9.228531427464343e+00
0	 5.000089153877975e+00	 1.071428397830567e+01	 8.356330954652794e+00
0	 5.000089153877976e+00	 1.142853720630899e+01	 8.027896711271637e+00
0	 5.000089153877975e+00	 1.214279010100160e+01	 8.149449743660849e+00
0	 5.000089153877976e+00	 1.285704274571142e+01	 8.627210847748980e+00
0	 5.000089153877975e+00	 1.357129522376639e+01	 9.367400569051826e+00
0	 5.000089153877975e+00	 1.428554761849444e+01	 1.027623920267142e+01
0	 5.714395937786082e+00	 7.143009922150927e+00	 2.206233852649207e+01
0	 5.714395937786080e+00	 7.857266066626718e+00	 1.719448869923303e+01
0	 5.714395937786080e+00	 8.571521461152162e+00	 1.338533441149360e+01
0	 5.714395937786080e+00	 9.285776189055182e+00	 1.054022579588480e+01
0	 5.714395937786081e+00	 1.000003033366371e+01	 8.564512637805548e+00
0	 5.714395937786082e+00	 1.071428397830567e+01	 7.363544375438385e+00
0	 5.714395937786081e+00	 1.142853720630899e+01	 6.842670099745956e+00
0	 5.714395937786080e+00	 1.214279010100160e+01	 6.907238554467948e+00
0	 5.714395937786081e+00	 1.285704274571142e+01	 7.462598136118721e+00
0	 5.714395937786081e+00	 1.357129522376640e+01	 8.414096893985549e+00
0	 5.714395937786081e+00	 1.428554761849444e+01	 9.667082530127415e+00
0	 6.428703054992631e+00	 7.143009922150928e+00	 2.367656970986978e+01
0	 6.428703054992631e+00	 7.857266066626720e+00	 1.823031696029591e+01
0	 6.428703054992631e+00	 8.571521461152162e+00	 1.389489257627806e+01
0	 6.428703054992630e+00	 9.285776189055186e+00	 1.058546663502705e+01
0	 6.428703054992630e+00	 1.000003033366371e+01	 8.217208786622177e+00
0	 6.428703054992631e+00	 1.071428397830567e+01	 6.705288254006015e+00
0	 6.428703054992628e+00	 1.142853720630899e+01	 5.964873832980113e+00
0	 6.428703054992629e+00	 1.214279010100160e+01	 5.911133892201368e+00
0	 6.428703054992629e+00	 1.285704274571142e+01	 6.459236373179156e+00
0	 6.428703054992628e+00	 1.357129522376639e+01	 7.524348790273223e+00
0	 6.428703054992630e+00	 1.428554761849444e+01	 9.021638230692295e+00
0	 7.143009922150927e+00	 7.143009922150927e+00	 2.463554229457785e+01
0	 7.143009922150926e+00	 7.857266066626718e+00	 1.903276170418250e+01
0	 7.143009922150929e+00	 8.571521461152162e+00	 1.448615913353083e+01
0	 7.143009922150926e+00	 9.285776189055184e+00	 1.093141639532151e+01
0	 7.143009922150927e+00	 1.000003033366371e+01	 8.304214825462584e+00
0	 7.143009922150926e+00	 1.071428397830567e+01	 6.540235283065847e+00
0	 7.143009922150925e+00	 1.142853720630899e+01	 5.575158150441996e+00
0	 7.143009922150927e+00	 1.214279010100160e+01	 5.344663333096687e+00
0	 7.143009922150928e+00	 1.285704274571143e+01	 5.784430259727355e+00
0	 7.143009922150926e+00	 1.357129522376639e+01	 6.830137882220920e+00
0	 7.143009922150930e+00	 1.428554761849445e+01	 8.417464675652356e+00
0	 0.000000000000000e+00	 1.428554761849444e+01	 7.009241567799968e+00
0	 0.000000000000000e+00	 1.499984997172426e+01	 7.891196480597603e+00
0	 0.000000000000000e+00	 1.571415215828766e+01	 8.994932217018032e+00
0	 0.000000000000000e+00	 1.642845401151722e+01	 1.022076783477771e+01
0	 0.000000000000000e+00	 1.714275536474550e+01	 1.146902189443555e+01
0	 0.000000000000000e+00	 1.785705605130510e+01	 1.264001245939181e+01
0	 0.000000000000000e+00	 1.857135590452858e+01	 1.363405709588518e+01
0	 0.000000000000000e+00	 1.928565475774854e+01	 1.435147287298828e+01
0	 0.000000000000000e+00	 1.999995244429753e+01	 1.469257636260124e+01
0	 0.000000000000000e+00	 2.071424879750816e+01	 1.455768363944368e+01
0	 0.000000000000000e+00	 2.142854365071296e+01	 1.384711028104481e+01
0	 7.142881171115514e-01	 1.428554761849444e+01	 8.825787720703715e+00
0	 7.142881171115516e-01	 1.499984997172426e+01	 8.992773876390252e+00
0	 7.142881171115514e-01	 1.571415215828766e+01	 9.373650026920537e+00
0	 7.142881171115512e-01	 1.642845401151722e+01	 9.903216325854746e+00
0	 7.142881171115512e-01	 1.714275536474550e+01	 1.051627269943592e+01
0	 7.142881171115515e-01	 1.785705605130510e+01	 1.114761884658943e+01
0	 7.142881171115514e-01	 1.857135590452859e+01	 1.173205423892150e+01
0	 7.142881171115513e-01	 1.928565475774854e+01	 1.220437812071705e+01
0	 7.142881171115514e-01	 1.999995244429753e+01	 1.249938950893657e+01
0	 7.142881171115513e-01	 2.071424879750816e+01	 1.255188719321252e+01
0	 7.142881171115512e-01	 2.142854365071296e+01	 1.229666973584453e+01
0	 1.428580650948410e+00	 1.428554761849444e+01	 1.006311930032035e+01
0	 1.428580650948409e+00	 1.499984997172426e+01	 9.848028918686580e+00
0	 1.428580650948409e+00	 1.571415215828766e+01	 9.800590886166669e+00
0	 1.428580650948410e+00	 1.642845401151722e+01	 9.885318076919390e+00
0	 1.428580650948410e+00	 1.714275536474550e+01	 1.006672331486098e+01
0	 1.428580650948409e+00	 1.785705605130510e+01	 1.030931937366489e+01
0	 1.428580650948409e+00	 1.857135590452859e+01	 1.057761897676137e+01
0	 1.428580650948409e+00	 1.928565475774854e+01	 1.083613479733681e+01
0	 1.428580650948409e+00	 1.999995244429754e+01	 1.104937945833304e+01
0	 1.428580650948409e+00	 2.071424879750816e+01	 1.118186553244633e+01
0	 1.428580650948409e+00	 2.142854365071297e+01	 1.119810554212622e+01
0	 2.142877018163878e+00	 1.428554761849444e+01	 1.079879926497591e+01
0	 2.142877018163878e+00	 1.499984997172426e+01	 1.047556541419265e+01
0	 2.142877018163879e+00	 1.571415215828766e+01	 1.024543257494640e+01
0	 2.142877018163878e+00	 1.642845401151720e+01	 1.009785809844836e+01
0	 2.142877018163878e+00	 1.714275536474549e+01	 1.002229938402322e+01
0	 2.142877018163879e+00	 1.785705605130510e+01	 1.000821387910914e+01
0	 2.142877018163878e+00	 1.857135590452858e+01	 1.004505907925792e+01
0	 2.142877018163879e+00	 1.928565475774854e+01	 1.012229252813530e+01
0	 2.142877018163878e+00	 1.999995244429753e+01	 1.022937181752151e+01
0	 2.142877018163879e+00	 2.071424879750816e+01	 1.035575458731189e+01
0	 2.142877018163878e+00	 2.142854365071296e+01	 1.049089852551773e+01
0	 2.857176635411264e+00	 1.428554761849444e+01	 1.111038991760282e+01
0	 2.857176635411266e+00	 1.499984997172427e+01	 1.089398628546097e+01
0	 2.857176635411264e+00	 1.571415215828766e+01	 1.067785189733974e+01
0	 2.857176635411265e+00	 1.642845401151721e+01	 1.047162044628718e+01
0	 2.857176635411265e+00	 1.714275536474550e+01	 1.028492570714961e+01
0	 2.857176635411265e+00	 1.785705605130510e+01	 1.012740153657178e+01
0	 2.857176635411264e+00	 1.857135590452858e+01	 1.000868187299723e+01
0	 2.857176635411264e+00	 1.928565475774854e+01	 9.938400736669076e+00
0	 2.857176635411265e+00	 1.999995244429753e+01	 9.926192229630956e+00
0	 2.857176635411264e+00	 2.071424879750815e+01	 9.981690535728344e+00
0	 2.857176635411265e+00	 2.142854365071296e+01	 1.011452992061008e+01
0	 3.571478919343873e+00	 1.428554761849444e+01	 1.107545290578727e+01
0	 3.571478919343873e+00	 1.499984997172426e+01	 1.112189357095382e+01
0	 3.571478919343873e+00	 1.571415215828766e+01	 1.106752468138644e+01
0	 3.571478919343873e+00	 1.642845401151722e+01	 1.093738822171829e+01
0	 3.571478919343872e+00	 1.714275536474550e+01	 1.075652624144170e+01
0	 3.571478919343873e+00	 1.785705605130510e+01	 1.054998085490835e+01
0	 3.571478919343873e+00	 1.857135590452858e+01	 1.034279424132975e+01
0	 3.571478919343873e+00	 1.928565475774854e+01	 1.016000864477780e+01
0	 3.571478919343873e+00	 1.999995244429753e+01	 1.002666637418579e+01
0	 3.571478919343873e+00	 2.071424879750816e+01	 9.967809803349429e+00
0	 3.571478919343872e+00	 2.142854365071296e+01	 1.000848137092820e+01
0	 4.285783286615008e+00	 1.428554761849444e+01	 1.077154922180877e+01
0	 4.285783286615009e+00	 1.499984997172426e+01	 1.117788842509598e+01
0	 4.285783286615008e+00	 1.571415215828766e+01	 1.138412577914387e+01
0	 4.285783286615008e+00	 1.642845401151721e+01	 1.142594357151747e+01
0	 4.285783286615008e+00	 1.714275536474550e+01	 1.133902410112528e+01
0	 4.285783286615008e+00	 1.785705605130509e+01	 1.115904967821951e+01
0	 4.285783286615007e+00	 1.857135590452858e+01	 1.092170262439631e+01
0	 4.285783286615009e+00	 1.928565475774854e+01	 1.066266527259604e+01
0	 4.285783286615009e+00	 1.999995244429753e+01	 1.041761996710361e+01
0	 4.285783286615007e+00	 2.071424879750815e+01	 1.022224906354884e+01
0	 4.285783286615009e+00	 2.142854365071296e+01	 1.011223492890683e+01
0	 5.000089153877975e+00	 1.428554761849444e+01	 1.027623920267142e+01
0	 5.000089153877975e+00	 1.499984997172426e+01	 1.108057111831650e+01
0	 5.000089153877976e+00	 1.571415215828766e+01	 1.159732906673292e+01
0	 5.000089153877974e+00	 1.642845401151721e+01	 1.186806768799855e+01
0	 5.000089153877976e+00	 1.714275536474550e+01	 1.193434155748981e+01
0	 5.000089153877977e+00	 1.785705605130510e+01	 1.183770518588191e+01
0	 5.000089153877976e+00	 1.857135590452858e+01	 1.161971301914871e+01
0	 5.000089153877976e+00	 1.928565475774854e+01	 1.132191943856249e+01
0	 5.000089153877975e+00	 1.999995244429753e+01	 1.098587876069335e+01
0	 5.000089153877975e+00	 2.071424879750816e+01	 1.065314523740853e+01
0	 5.000089153877975e+00	 2.142854365071297e+01	 1.036527305587138e+01
0	 5.714395937786081e+00	 1.428554761849444e+01	 9.667082530127416e+00
0	 5.714395937786080e+00	 1.499984997172426e+01	 1.084854103707969e+01
0	 5.714395937786081e+00	 1.571415215828766e+01	 1.167680744437187e+01
0	 5.714395937786082e+00	 1.642845401151722e+01	 1.219454080904638e+01
0	 5.714395937786082e+00	 1.714275536474550e+01	 1.244440003891742e+01
0	 5.714395937786080e+00	 1.785705605130509e+01	 1.246904389257109e+01
0	 5.714395937786079e+00	 1.857135590452858e+01	 1.231113097936490e+01
0	 5.714395937786080e+00	 1.928565475774854e+01	 1.201331975942685e+01
0	 5.714395937786080e+00	 1.999995244429753e+01	 1.161826854365394e+01
0	 5.714395937786080e+00	 2.071424879750816e+01	 1.116863549371012e+01
0	 5.714395937786080e+00	 2.142854365071296e+01	 1.070707862202381e+01
0	 6.428703054992630e+00	 1.428554761849444e+01	 9.021638230692295e+00
0	 6.428703054992627e+00	 1.499984997172426e+01	 1.050039668390527e+01
0	 6.428703054992629e+00	 1.571415215828766e+01	 1.159223283639841e+01
0	 6.428703054992629e+00	 1.642845401151721e+01	 1.233614221813823e+01
0	 6.428703054992630e+00	 1.714275536474550e+01	 1.277112013090169e+01
0	 6.428703054992629e+00	 1.785705605130510e+01	 1.293616164827617e+01
0	 6.428703054992628e+00	 1.857135590452858e+01	 1.287026161565868e+01
0	 6.428703054992631e+00	 1.928565475774854e+01	 1.261241465025419e+01
0	 6.428703054992629e+00	 1.999995244429753e+01	 1.220161514107339e+01
0	 6.428703054992628e+00	 2.071424879750815e+01	 1.167685724892931e+01
0	 6.428703054992630e+00	 2.142854365071296e+01	 1.107713490643344e+01
0	 7.143009922150930e+00	 1.428554761849445e+01	 8.417464675652356e+00
0	 7.143009922150927e+00	 1.499984997172427e+01	 1.005473567737770e+01
0	 7.143009922150928e+00	 1.571415215828766e+01	 1.131327619127960e+01
0	 7.143009922150927e+00	 1.642845401151721e+01	 1.222365024435334e+01
0	 7.143009922150927e+00	 1.714275536474550e+01	 1.281642157605600e+01
0	 7.143009922150927e+00	 1.785705605130510e+01	 1.312215363830642e+01
0	 7.143009922150926e+00	 1.857135590452859e+01	 1.317140959548403e+01
0	 7.143009922150926e+00	 1.928565475774854e+01	 1.299475232442684e+01
0	 7.143009922150926e+00	 1.999995244429754e+01	 1.262274441442833e+01
0	 7.143009922150927e+00	 2.071424879750816e+01	 1.208594816723333e+01
0	 7.143009922150927e+00	 2.142854365071296e+01	 1.141492559703293e+01
0	 0.000000000000000e+00	 2.142854365071296e+01	 1.384711028104481e+01
0	 0.000000000000000e+00	 2.214283692057824e+01	 1.279280327519759e+01
0	 0.000000000000000e+00	 2.285712885710494e+01	 1.172493967727682e+01
0	 0.000000000000000e+00	 2.357141979362770e+01	 1.069117924936166e+01
0	 0.000000000000000e+00	 2.428571006348117e+01	 9.739181028285168e+00
0	 0.000000000000000e+00	 2.500000000000001e+01	 8.916603325619802e+00
0	 0.000000000000000e+00	 2.571428993651884e+01	 8.271103727667958e+00
0	 0.000000000000000e+00	 2.642858020637231e+01	 7.850339095457635e+00
0	 0.000000000000000e+00	 2.714287114289507e+01	 7.701965564743128e+00
0	 0.000000000000000e+00	 2.785716307942177e+01	 7.873638546010856e+00
0	 0.000000000000000e+00	 2.857145634928704e+01	 8.413012724490173e+00
0	 7.142881171115512e-01	 2.142854365071296e+01	 1.229666973584453e+01
0	 7.142881171115515e-01	 2.214283692057824e+01	 1.183162355159519e+01
0	 7.142881171115514e-01	 2.285712885710494e+01	 1.131903043400638e+01
0	 7.142881171115515e-01	 2.357141979362770e+01	 1.079028156669023e+01
0	 7.142881171115510e-01	 2.428571006348117e+01	 1.027676776477953e+01
0	 7.142881171115515e-01	 2.500000000000001e+01	 9.809879474920439e+00
0	 7.142881171115512e-01	 2.571428993651883e+01	 9.421006775267806e+00
0	 7.142881171115515e-01	 2.642858020637232e+01	 9.141539375483074e+00
0	 7.142881171115513e-01	 2.714287114289507e+01	 9.002866616734725e+00
0	 7.142881171115514e-01	 2.785716307942178e+01	 9.036377471701305e+00
0	 7.142881171115512e-01	 2.857145634928703e+01	 9.273460544577134e+00
0	 1.428580650948409e+00	 2.142854365071297e+01	 1.119810554212622e+01
0	 1.428580650948409e+00	 2.214283692057823e+01	 1.111080223113729e+01
0	 1.428580650948410e+00	 2.285712885710495e+01	 1.096787617416445e+01
0	 1.428580650948409e+00	 2.357141979362771e+01	 1.078666651230224e+01
0	 1.428580650948410e+00	 2.428571006348118e+01	 1.058451226657642e+01
0	 1.428580650948409e+00	 2.500000000000001e+01	 1.037875233794169e+01
0	 1.428580650948410e+00	 2.571428993651884e+01	 1.018672550728021e+01
0	 1.428580650948409e+00	 2.642858020637231e+01	 1.002577043540102e+01
0	 1.428580650948409e+00	 2.714287114289507e+01	 9.913225663040233e+00
0	 1.428580650948409e+00	 2.785716307942177e+01	 9.866429610862120e+00
0	 1.428580650948409e+00	 2.857145634928703e+01	 9.902720579461000e+00
0	 2.142877018163878e+00	 2.142854365071296e+01	 1.049089852551773e+01
0	 2.142877018163878e+00	 2.214283692057824e+01	 1.060343693683572e+01
0	 2.142877018163879e+00	 2.285712885710494e+01	 1.067270028916525e+01
0	 2.142877018163878e+00	 2.357141979362770e+01	 1.070419207792987e+01
0	 2.142877018163879e+00	 2.428571006348117e+01	 1.070341583391458e+01
0	 2.142877018163878e+00	 2.500000000000001e+01	 1.067587512326653e+01
0	 2.142877018163878e+00	 2.571428993651883e+01	 1.062707354749561e+01
0	 2.142877018163878e+00	 2.642858020637231e+01	 1.056251474347459e+01
0	 2.142877018163878e+00	 2.714287114289507e+01	 1.048770238343921e+01
0	 2.142877018163879e+00	 2.785716307942177e+01	 1.040814017498787e+01
0	 2.142877018163879e+00	 2.857145634928704e+01	 1.032933186108119e+01
0	 2.857176635411265e+00	 2.142854365071296e+01	 1.011452992061008e+01
0	 2.857176635411264e+00	 2.214283692057824e+01	 1.028262579406909e+01
0	 2.857176635411264e+00	 2.285712885710494e+01	 1.043472670354166e+01
0	 2.857176635411264e+00	 2.357141979362770e+01	 1.056671676738405e+01
0	 2.857176635411264e+00	 2.428571006348117e+01	 1.067448021713970e+01
0	 2.857176635411265e+00	 2.500000000000001e+01	 1.075390139754134e+01
0	 2.857176635411265e+00	 2.571428993651883e+01	 1.080086476651243e+01
0	 2.857176635411264e+00	 2.642858020637231e+01	 1.081125489516772e+01
0	 2.857176635411265e+00	 2.714287114289507e+01	 1.078095646781304e+01
0	 2.857176635411265e+00	 2.785716307942177e+01	 1.070585428194429e+01
0	 2.857176635411264e+00	 2.857145634928704e+01	 1.058183324824567e+01
0	 3.571478919343872e+00	 2.142854365071296e+01	 1.000848137092820e+01
0	 3.571478919343871e+00	 2.214283692057823e+01	 1.012146743054705e+01
0	 3.571478919343873e+00	 2.285712885710494e+01	 1.025517987490732e+01
0	 3.571478919343873e+00	 2.357141979362770e+01	 1.039809959651806e+01
0	 3.571478919343874e+00	 2.428571006348118e+01	 1.053870761667256e+01
0	 3.571478919343873e+00	 2.500000000000001e+01	 1.066548508545059e+01
0	 3.571478919343873e+00	 2.571428993651884e+01	 1.076691328171986e+01
0	 3.571478919343873e+00	 2.642858020637231e+01	 1.083147361313647e+01
0	 3.571478919343872e+00	 2.714287114289507e+01	 1.084764761614460e+01
0	 3.571478919343872e+00	 2.785716307942177e+01	 1.080391695597516e+01
0	 3.571478919343873e+00	 2.857145634928703e+01	 1.068876342664361e+01
0	 4.285783286615009e+00	 2.142854365071296e+01	 1.011223492890683e+01
0	 4.285783286615009e+00	 2.214283692057824e+01	 1.009306097628069e+01
0	 4.285783286615008e+00	 2.285712885710494e+01	 1.013528479392525e+01
0	 4.285783286615009e+00	 2.357141979362770e+01	 1.022220009319745e+01
0	 4.285783286615009e+00	 2.428571006348118e+01	 1.033710068298262e+01
0	 4.285783286615009e+00	 2.500000000000001e+01	 1.046328046969597e+01
0	 4.285783286615008e+00	 2.571428993651883e+01	 1.058403345728341e+01
0	 4.285783286615009e+00	 2.642858020637231e+01	 1.068265374722173e+01
0	 4.285783286615009e+00	 2.714287114289508e+01	 1.074243553851797e+01
0	 4.285783286615009e+00	 2.785716307942177e+01	 1.074667312770826e+01
0	 4.285783286615008e+00	 2.857145634928704e+01	 1.067866090885590e+01
0	 5.000089153877975e+00	 2.142854365071297e+01	 1.036527305587138e+01
0	 5.000089153877976e+00	 2.214283692057823e+01	 1.017050606355904e+01
0	 5.000089153877976e+00	 2.285712885710494e+01	 1.007626698428305e+01
0	 5.000089153877974e+00	 2.357141979362770e+01	 1.006287829727627e+01
0	 5.000089153877975e+00	 2.428571006348118e+01	 1.011066251656716e+01
0	 5.000089153877975e+00	 2.500000000000000e+01	 1.019994219097982e+01
0	 5.000089153877975e+00	 2.571428993651884e+01	 1.031103990413376e+01
0	 5.000089153877975e+00	 2.642858020637231e+01	 1.042427827444358e+01
0	 5.000089153877977e+00	 2.714287114289508e+01	 1.051997995511818e+01
0	 5.000089153877975e+00	 2.785716307942177e+01	 1.057846763415996e+01
0	 5.000089153877975e+00	 2.857145634928704e+01	 1.058006403436358e+01
0	 5.714395937786080e+00	 2.142854365071296e+01	 1.070707862202381e+01
0	 5.714395937786080e+00	 2.214283692057824e+01	 1.032690282693180e+01
0	 5.714395937786079e+00	 2.285712885710493e+01	 1.007935250267449e+01
0	 5.714395937786081e+00	 2.357141979362770e+01	 9.943994760579470e+00
0	 5.714395937786080e+00	 2.428571006348118e+01	 9.900396667935944e+00
0	 5.714395937786080e+00	 2.500000000000000e+01	 9.928125247993027e+00
0	 5.714395937786082e+00	 2.571428993651883e+01	 1.000674747995840e+01
0	 5.714395937786080e+00	 2.642858020637231e+01	 1.011583029899719e+01
0	 5.714395937786083e+00	 2.714287114289508e+01	 1.023494059623129e+01
0	 5.714395937786081e+00	 2.785716307942177e+01	 1.034364521873881e+01
0	 5.714395937786080e+00	 2.857145634928703e+01	 1.042151096955409e+01
0	 6.428703054992630e+00	 2.142854365071296e+01	 1.107713490643344e+01
0	 6.428703054992628e+00	 2.214283692057824e+01	 1.053535190319821e+01
0	 6.428703054992630e+00	 2.285712885710494e+01	 1.014576793878785e+01
0	 6.428703054992629e+00	 2.357141979362769e+01	 9.889410546891686e+00
0	 6.428703054992629e+00	 2.428571006348118e+01	 9.747307137601339e+00
0	 6.428703054992629e+00	 2.500000000000000e+01	 9.700484997407303e+00
0	 6.428703054992629e+00	 2.571428993651883e+01	 9.729971289196445e+00
0	 6.428703054992629e+00	 2.642858020637231e+01	 9.816793052250301e+00
0	 6.428703054992628e+00	 2.714287114289507e+01	 9.941977202244347e+00
0	 6.428703054992628e+00	 2.785716307942177e+01	 1.008655053124797e+01
0	 6.428703054992631e+00	 2.857145634928704e+01	 1.023153970772548e+01
0	 7.143009922150927e+00	 2.142854365071296e+01	 1.141492559703293e+01
0	 7.143009922150927e+00	 2.214283692057824e+01	 1.076895443140199e+01
0	 7.143009922150925e+00	 2.285712885710493e+01	 1.027674041530057e+01
0	 7.143009922150926e+00	 2.357141979362770e+01	 9.922987231952243e+00
0	 7.143009922150927e+00	 2.428571006348117e+01	 9.692398376074044e+00
0	 7.143009922150926e+00	 2.500000000000000e+01	 9.569677153871750e+00
0	 7.143009922150926e+00	 2.571428993651883e+01	 9.539526683036389e+00
0	 7.143009922150926e+00	 2.642858020637231e+01	 9.586649892742182e+00
0	 7.143009922150928e+00	 2.714287114289507e+01	 9.695749523645688e+00
0	 7.143009922150926e+00	 2.785716307942177e+01	 9.851528127886366e+00
0	 7.143009922150926e+00	 2.857145634928704e+01	 1.003868806908840e+01
0	 0.000000000000000e+00	 2.857145634928704e+01	 8.413012724490173e+00
0	 0.000000000000000e+00	 2.928575120249186e+01	 9.140889592074325e+00
0	 0.000000000000000e+00	 3.000004755570248e+01	 9.830816960833575e+00
0	 0.000000000000000e+00	 3.071434524225148e+01	 1.045956827271204e+01
0	 0.000000000000000e+00	 3.142864409547142e+01	 1.100391673016907e+01
0	 0.000000000000000e+00	 3.214294394869492e+01	 1.144063529618433e+01
0	 0.000000000000000e+00	 3.285724463525451e+01	 1.174649669426221e+01
0	 0.000000000000000e+00	 3.357154598848280e+01	 1.189827340843516e+01
0	 0.000000000000000e+00	 3.428584784171235e+01	 1.187273768326648e+01
0	 0.000000000000000e+00	 3.500015002827575e+01	 1.164666152385201e+01
0	 0.000000000000000e+00	 3.571445238150555e+01	 1.119681669582115e+01
0	 7.142881171115512e-01	 2.857145634928703e+01	 9.273460544577134e+00
0	 7.142881171115513e-01	 2.928575120249186e+01	 9.625799770051751e+00
0	 7.142881171115515e-01	 3.000004755570248e+01	 9.973891502720544e+00
0	 7.142881171115512e-01	 3.071434524225148e+01	 1.030234260345061e+01
0	 7.142881171115513e-01	 3.142864409547143e+01	 1.059575980400836e+01
0	 7.142881171115515e-01	 3.214294394869491e+01	 1.083874970706232e+01
0	 7.142881171115510e-01	 3.285724463525450e+01	 1.101591878618531e+01
0	 7.142881171115512e-01	 3.357154598848280e+01	 1.111187338585648e+01
0	 7.142881171115514e-01	 3.428584784171235e+01	 1.111121972146254e+01
0	 7.142881171115515e-01	 3.500015002827575e+01	 1.099856387929880e+01
0	 7.142881171115512e-01	 3.571445238150555e+01	 1.075851181656960e+01
0	 1.428580650948409e+00	 2.857145634928703e+01	 9.902720579461000e+00
0	 1.428580650948410e+00	 2.928575120249186e+01	 9.996142749741416e+00
0	 1.428580650948409e+00	 3.000004755570248e+01	 1.010343850702112e+01
0	 1.428580650948410e+00	 3.071434524225147e+01	 1.021599333165439e+01
0	 1.428580650948410e+00	 3.142864409547143e+01	 1.032519265491777e+01
0	 1.428580650948409e+00	 3.214294394869490e+01	 1.042242185901119e+01
0	 1.428580650948409e+00	 3.285724463525450e+01	 1.049906627705871e+01
0	 1.428580650948409e+00	 3.357154598848279e+01	 1.054651119310927e+01
0	 1.428580650948410e+00	 3.428584784171235e+01	 1.055614184213712e+01
0	 1.428580650948409e+00	 3.500015002827575e+01	 1.051934341004223e+01
0	 1.428580650948409e+00	 3.571445238150557e+01	 1.042750103365038e+01
0	 2.142877018163879e+00	 2.857145634928704e+01	 1.032933186108119e+01
0	 2.142877018163878e+00	 2.928575120249186e+01	 1.026334815065479e+01
0	 2.142877018163878e+00	 3.000004755570249e+01	 1.021666344278935e+01
0	 2.142877018163878e+00	 3.071434524225147e+01	 1.018638704565219e+01
0	 2.142877018163878e+00	 3.142864409547142e+01	 1.016962827203460e+01
0	 2.142877018163878e+00	 3.214294394869492e+01	 1.016349643935155e+01
0	 2.142877018163879e+00	 3.285724463525450e+01	 1.016510086964168e+01
0	 2.142877018163878e+00	 3.357154598848279e+01	 1.017155088956718e+01
0	 2.142877018163878e+00	 3.428584784171234e+01	 1.017995583041365e+01
0	 2.142877018163878e+00	 3.500015002827574e+01	 1.018742502809009e+01
0	 2.142877018163879e+00	 3.571445238150555e+01	 1.019106782312876e+01
0	 2.857176635411264e+00	 2.857145634928704e+01	 1.058183324824567e+01
0	 2.857176635411264e+00	 2.928575120249186e+01	 1.043884537208585e+01
0	 2.857176635411264e+00	 3.000004755570248e+01	 1.031077154169385e+01
0	 2.857176635411266e+00	 3.071434524225148e+01	 1.019939010396760e+01
0	 2.857176635411264e+00	 3.142864409547143e+01	 1.010647944184888e+01
0	 2.857176635411265e+00	 3.214294394869493e+01	 1.003381797432250e+01
0	 2.857176635411265e+00	 3.285724463525452e+01	 9.983184156415630e+00
0	 2.857176635411264e+00	 3.357154598848280e+01	 9.956356479197282e+00
0	 2.857176635411264e+00	 3.428584784171235e+01	 9.955113469777800e+00
0	 2.857176635411265e+00	 3.500015002827575e+01	 9.981233691308617e+00
0	 2.857176635411265e+00	 3.571445238150556e+01	 1.003649574298208e+01
0	 3.571478919343873e+00	 2.857145634928703e+01	 1.068876342664361e+01
0	 3.571478919343873e+00	 2.928575120249186e+01	 1.053406359312706e+01
0	 3.571478919343873e+00	 3.000004755570248e+01	 1.038296779803504e+01
0	 3.571478919343873e+00	 3.071434524225148e+01	 1.024086863533542e+01
0	 3.571478919343873e+00	 3.142864409547143e+01	 1.011315874821800e+01
0	 3.571478919343873e+00	 3.214294394869492e+01	 1.000523082909338e+01
0	 3.571478919343873e+00	 3.285724463525451e+01	 9.922477619592145e+00
0	 3.571478919343873e+00	 3.357154598848280e+01	 9.870291910564074e+00
0	 3.571478919343873e+00	 3.428584784171236e+01	 9.854066542077575e+00
0	 3.571478919343872e+00	 3.500015002827574e+01	 9.879194403419294e+00
0	 3.571478919343873e+00	 3.571445238150555e+01	 9.951068433093944e+00
0	 4.285783286615008e+00	 2.857145634928704e+01	 1.067866090885590e+01
0	 4.285783286615009e+00	 2.928575120249186e+01	 1.056043177268270e+01
0	 4.285783286615008e+00	 3.000004755570248e+01	 1.043045696875938e+01
0	 4.285783286615008e+00	 3.071434524225148e+01	 1.029668853871559e+01
0	 4.285783286615008e+00	 3.142864409547142e+01	 1.016707857237882e+01
0	 4.285783286615008e+00	 3.214294394869491e+01	 1.004957920777339e+01
0	 4.285783286615007e+00	 3.285724463525450e+01	 9.952142631119560e+00
0	 4.285783286615009e+00	 3.357154598848280e+01	 9.882721076832858e+00
0	 4.285783286615010e+00	 3.428584784171235e+01	 9.849266827523511e+00
0	 4.285783286615008e+00	 3.500015002827575e+01	 9.859732213996107e+00
0	 4.285783286615009e+00	 3.571445238150556e+01	 9.922069615249383e+00
0	 5.000089153877975e+00	 2.857145634928704e+01	 1.058006403436358e+01
0	 5.000089153877975e+00	 2.928575120249186e+01	 1.052937864947942e+01
0	 5.000089153877976e+00	 3.000004755570248e+01	 1.045044357347077e+01
0	 5.000089153877975e+00	 3.071434524225147e+01	 1.035271548330413e+01
0	 5.000089153877978e+00	 3.142864409547143e+01	 1.024565109295744e+01
0	 5.000089153877977e+00	 3.214294394869492e+01	 1.013870715341930e+01
0	 5.000089153877975e+00	 3.285724463525450e+01	 1.004134045268826e+01
0	 5.000089153877975e+00	 3.357154598848280e+01	 9.963007815772380e+00
0	 5.000089153877974e+00	 3.428584784171235e+01	 9.913166104688793e+00
0	 5.000089153877974e+00	 3.500015002827575e+01	 9.901272218463461e+00
0	 5.000089153877975e+00	 3.571445238150555e+01	 9.936783093131016e+00
0	 5.714395937786080e+00	 2.857145634928703e+01	 1.042151096955409e+01
0	 5.714395937786079e+00	 2.928575120249185e+01	 1.045233274207417e+01
0	 5.714395937786082e+00	 3.000004755570248e+01	 1.044013189443898e+01
0	 5.714395937786080e+00	 3.071434524225147e+01	 1.039481490854132e+01
0	 5.714395937786081e+00	 3.142864409547143e+01	 1.032628828597634e+01
0	 5.714395937786081e+00	 3.214294394869491e+01	 1.024445854804118e+01
0	 5.714395937786081e+00	 3.285724463525451e+01	 1.015923223573463e+01
0	 5.714395937786082e+00	 3.357154598848280e+01	 1.008051590975687e+01
0	 5.714395937786080e+00	 3.428584784171235e+01	 1.001821615050934e+01
0	 5.714395937786081e+00	 3.500015002827575e+01	 9.982239558094603e+00
0	 5.714395937786081e+00	 3.571445238150557e+01	 9.982492752316272e+00
0	 6.428703054992631e+00	 2.857145634928704e+01	 1.023153970772548e+01
0	 6.428703054992629e+00	 2.928575120249186e+01	 1.034072234885938e+01
0	 6.428703054992630e+00	 3.000004755570247e+01	 1.039672597660527e+01
0	 6.428703054992631e+00	 3.071434524225149e+01	 1.040885202411706e+01
0	 6.428703054992629e+00	 3.142864409547143e+01	 1.038640192485907e+01
0	 6.428703054992630e+00	 3.214294394869491e+01	 1.033867711260613e+01
0	 6.428703054992629e+00	 3.285724463525450e+01	 1.027497902144357e+01
0	 6.428703054992628e+00	 3.357154598848280e+01	 1.020460908576731e+01
0	 6.428703054992627e+00	 3.428584784171233e+01	 1.013686874028392e+01
0	 6.428703054992628e+00	 3.500015002827574e+01	 1.008105942001065e+01
0	 6.428703054992629e+00	 3.571445238150555e+01	 1.004648256027546e+01
0	 7.143009922150926e+00	 2.857145634928704e+01	 1.003868806908840e+01
0	 7.143009922150928e+00	 2.928575120249186e+01	 1.020597554806545e+01
0	 7.143009922150926e+00	 3.000004755570247e+01	 1.031742962758498e+01
0	 7.143009922150928e+00	 3.071434524225147e+01	 1.038069180997341e+01
0	 7.143009922150927e+00	 3.142864409547143e+01	 1.040340358043256e+01
0	 7.143009922150926e+00	 3.214294394869490e+01	 1.039320640704006e+01
0	 7.143009922150926e+00	 3.285724463525450e+01	 1.035774174074980e+01
0	 7.143009922150926e+00	 3.357154598848279e+01	 1.030465101539212e+01
0	 7.143009922150926e+00	 3.428584784171235e+01	 1.024157564767418e+01
0	 7.143009922150927e+00	 3.500015002827575e+01	 1.017615703718011e+01
0	 7.143009922150928e+00	 3.571445238150556e+01	 1.011603656637111e+01
0	 0.000000000000000e+00	 3.571445238150555e+01	 1.119681669582115e+01
0	 0.000000000000000e+00	 3.642870477623359e+01	 1.065223810548075e+01
0	 0.000000000000000e+00	 3.714295725428858e+01	 1.016513586612192e+01
0	 0.000000000000000e+00	 3.785720989899839e+01	 9.747163897050159e+00
0	 0.000000000000000e+00	 3.857146279369101e+01	 9.409976032341758e+00
0	 0.000000000000000e+00	 3.928571602169433e+01	 9.165226020843935e+00
0	 0.000000000000000e+00	 3.999996966633629e+01	 9.024567526175099e+00
0	 0.000000000000000e+00	 4.071422381094481e+01	 8.999654126725131e+00
0	 0.000000000000000e+00	 4.142847853884783e+01	 9.102139315656050e+00
0	 0.000000000000000e+00	 4.214273393337328e+01	 9.343676500902586e+00
0	 0.000000000000000e+00	 4.285699007784908e+01	 9.735919005173136e+00
0	 7.142881171115512e-01	 3.571445238150555e+01	 1.075851181656959e+01
0	 7.142881171115512e-01	 3.642870477623359e+01	 1.045985183201930e+01
0	 7.142881171115512e-01	 3.714295725428858e+01	 1.018675764200301e+01
0	 7.142881171115513e-01	 3.785720989899840e+01	 9.946978061247496e+00
0	 7.142881171115513e-01	 3.857146279369100e+01	 9.748261856606893e+00
0	 7.142881171115513e-01	 3.928571602169433e+01	 9.598357747062767e+00
0	 7.142881171115515e-01	 3.999996966633629e+01	 9.505014403724322e+00
0	 7.142881171115513e-01	 4.071422381094482e+01	 9.475980449828528e+00
0	 7.142881171115513e-01	 4.142847853884783e+01	 9.519004460740467e+00
0	 7.142881171115513e-01	 4.214273393337328e+01	 9.641834963953702e+00
0	 7.142881171115514e-01	 4.285699007784908e+01	 9.852220439090779e+00
0	 1.428580650948409e+00	 3.571445238150557e+01	 1.042750103365038e+01
0	 1.428580650948409e+00	 3.642870477623361e+01	 1.030611485598897e+01
0	 1.428580650948410e+00	 3.714295725428857e+01	 1.018932031787868e+01
0	 1.428580650948409e+00	 3.785720989899838e+01	 1.008148111993746e+01
0	 1.428580650948409e+00	 3.857146279369102e+01	 9.986960942603263e+00
0	 1.428580650948410e+00	 3.928571602169433e+01	 9.910123446134049e+00
0	 1.428580650948410e+00	 3.999996966633629e+01	 9.855332270607855e+00
0	 1.428580650948409e+00	 4.071422381094482e+01	 9.826951035922907e+00
0	 1.428580650948409e+00	 4.142847853884785e+01	 9.829343341797685e+00
0	 1.428580650948409e+00	 4.214273393337326e+01	 9.866872767771145e+00
0	 1.428580650948409e+00	 4.285699007784908e+01	 9.943902873202887e+00
0	 2.142877018163879e+00	 3.571445238150555e+01	 1.019106782312876e+01
0	 2.142877018163878e+00	 3.642870477623360e+01	 1.018773137986584e+01
0	 2.142877018163878e+00	 3.714295725428858e+01	 1.017718911295419e+01
0	 2.142877018163878e+00	 3.785720989899839e+01	 1.016093958031344e+01
0	 2.142877018163877e+00	 3.857146279369101e+01	 1.014048133894366e+01
0	 2.142877018163878e+00	 3.928571602169432e+01	 1.011731294492540e+01
0	 2.142877018163878e+00	 3.999996966633628e+01	 1.009293295341964e+01
0	 2.142877018163878e+00	 4.071422381094482e+01	 1.006883991866786e+01
0	 2.142877018163879e+00	 4.142847853884784e+01	 1.004653239399198e+01
0	 2.142877018163878e+00	 4.214273393337328e+01	 1.002750893179438e+01
0	 2.142877018163878e+00	 4.285699007784906e+01	 1.001326808355798e+01
0	 2.857176635411265e+00	 3.571445238150556e+01	 1.003649574298208e+01
0	 2.857176635411265e+00	 3.642870477623360e+01	 1.010140570876450e+01
0	 2.857176635411264e+00	 3.714295725428858e+01	 1.015472935573758e+01
0	 2.857176635411264e+00	 3.785720989899839e+01	 1.019562005402176e+01
0	 2.857176635411264e+00	 3.857146279369100e+01	 1.022323118487811e+01
0	 2.857176635411265e+00	 3.928571602169433e+01	 1.023671614070829e+01
0	 2.857176635411265e+00	 3.999996966633628e+01	 1.023522832505455e+01
0	 2.857176635411264e+00	 4.071422381094482e+01	 1.021792115259970e+01
0	 2.857176635411264e+00	 4.142847853884783e+01	 1.018394804916695e+01
0	 2.857176635411265e+00	 4.214273393337328e+01	 1.013246245171990e+01
0	 2.857176635411264e+00	 4.285699007784908e+01	 1.006261780836241e+01
0	 3.571478919343873e+00	 3.571445238150555e+01	 9.951068433093944e+00
0	 3.571478919343872e+00	 3.642870477623359e+01	 1.004384225043077e+01
0	 3.571478919343873e+00	 3.714295725428858e+01	 1.012630648403186e+01
0	 3.571478919343872e+00	 3.785720989899839e+01	 1.019578925715426e+01
0	 3.571478919343873e+00	 3.857146279369100e+01	 1.024961871028740e+01
0	 3.571478919343872e+00	 3.928571602169433e+01	 1.028512300115303e+01
0	 3.571478919343872e+00	 3.999996966633629e+01	 1.029963030470516e+01
0	 3.571478919343872e+00	 4.071422381094479e+01	 1.029046881313000e+01
0	 3.571478919343873e+00	 4.142847853884784e+01	 1.025496673584582e+01
0	 3.571478919343873e+00	 4.214273393337328e+01	 1.019045229950286e+01
0	 3.571478919343873e+00	 4.285699007784908e+01	 1.009425374798308e+01
0	 4.285783286615009e+00	 3.571445238150556e+01	 9.922069615249383e+00
0	 4.285783286615008e+00	 3.642870477623359e+01	 1.001174551523560e+01
0	 4.285783286615007e+00	 3.714295725428858e+01	 1.009628604492848e+01
0	 4.285783286615009e+00	 3.785720989899840e+01	 1.017171401024204e+01
0	 4.285783286615009e+00	 3.857146279369101e+01	 1.023405223567780e+01
0	 4.285783286615009e+00	 3.928571602169433e+01	 1.027932356432471e+01
0	 4.285783286615008e+00	 3.999996966633629e+01	 1.030355085785908e+01
0	 4.285783286615009e+00	 4.071422381094481e+01	 1.030275699654452e+01
0	 4.285783286615009e+00	 4.142847853884784e+01	 1.027296487923181e+01
0	 4.285783286615009e+00	 4.214273393337329e+01	 1.021019742335871e+01
0	 4.285783286615008e+00	 4.285699007784908e+01	 1.011047756494983e+01
0	 5.000089153877975e+00	 3.571445238150555e+01	 9.936783093131016e+00
0	 5.000089153877975e+00	 3.642870477623359e+01	 1.000182011617032e+01
0	 5.000089153877975e+00	 3.714295725428857e+01	 1.006903369480233e+01
0	 5.000089153877975e+00	 3.785720989899840e+01	 1.013366123825069e+01
0	 5.000089153877976e+00	 3.857146279369100e+01	 1.019094017217678e+01
0	 5.000089153877976e+00	 3.928571602169433e+01	 1.023610793867985e+01
0	 5.000089153877977e+00	 3.999996966633629e+01	 1.026440199629681e+01
0	 5.000089153877975e+00	 4.071422381094481e+01	 1.027105982000223e+01
0	 5.000089153877976e+00	 4.142847853884784e+01	 1.025131890120825e+01
0	 5.000089153877975e+00	 4.214273393337327e+01	 1.020041674776435e+01
0	 5.000089153877976e+00	 4.285699007784908e+01	 1.011359088395731e+01
0	 5.714395937786081e+00	 3.571445238150557e+01	 9.982492752316272e+00
0	 5.714395937786083e+00	 3.642870477623359e+01	 1.001077076884301e+01
0	 5.714395937786080e+00	 3.714295725428857e+01	 1.004891519930792e+01
0	 5.714395937786082e+00	 3.785720989899841e+01	 1.009189797057663e+01
0	 5.714395937786081e+00	 3.857146279369100e+01	 1.013469102153000e+01
0	 5.714395937786080e+00	 3.928571602169432e+01	 1.017226630306414e+01
0	 5.714395937786080e+00	 3.999996966633628e+01	 1.019959577809026e+01
0	 5.714395937786082e+00	 4.071422381094482e+01	 1.021165142153473e+01
0	 5.714395937786080e+00	 4.142847853884783e+01	 1.020340522033892e+01
0	 5.714395937786081e+00	 4.214273393337327e+01	 1.016982917345910e+01
0	 5.714395937786082e+00	 4.285699007784908e+01	 1.010589529186638e+01
0	 6.428703054992629e+00	 3.571445238150555e+01	 1.004648256027546e+01
0	 6.428703054992629e+00	 3.642870477623360e+01	 1.003530229147629e+01
0	 6.428703054992628e+00	 3.714295725428856e+01	 1.004029643337689e+01
0	 6.428703054992631e+00	 3.785720989899841e+01	 1.005669134104481e+01
0	 6.428703054992630e+00	 3.857146279369101e+01	 1.007971337609921e+01
0	 6.428703054992627e+00	 3.928571602169432e+01	 1.010458890671077e+01
0	 6.428703054992628e+00	 3.999996966633628e+01	 1.012654430760171e+01
0	 6.428703054992629e+00	 4.071422381094480e+01	 1.014080596004578e+01
0	 6.428703054992630e+00	 4.142847853884783e+01	 1.014260025186811e+01
0	 6.428703054992630e+00	 4.214273393337327e+01	 1.012715357744526e+01
0	 6.428703054992629e+00	 4.285699007784908e+01	 1.008969233770508e+01
0	 7.143009922150928e+00	 3.571445238150556e+01	 1.011603656637111e+01
0	 7.143009922150929e+00	 3.642870477623360e+01	 1.007211960490624e+01
0	 7.143009922150926e+00	 3.714295725428856e+01	 1.004754338121697e+01
0	 7.143009922150927e+00	 3.785720989899839e+01	 1.003830858790766e+01
0	 7.143009922150927e+00	 3.857146279369102e+01	 1.004041591886138e+01
0	 7.143009922150926e+00	 3.928571602169433e+01	 1.004986606923986e+01
0	 7.143009922150926e+00	 3.999996966633628e+01	 1.006265973548347e+01
0	 7.143009922150926e+00	 4.071422381094481e+01	 1.007479761531125e+01
0	 7.143009922150927e+00	 4.142847853884783e+01	 1.008228040772083e+01
0	 7.143009922150926e+00	 4.214273393337328e+01	 1.008110881298850e+01
0	 7.143009922150927e+00	 4.285699007784908e+01	 1.006728353266911e+01
0	 0.000000000000000e+00	 4.285699007784908e+01	 9.735919005173136e+00
0	 0.000000000000000e+00	 4.357129694500737e+01	 1.015965281318462e+01
0	 0.000000000000000e+00	 4.428560406221392e+01	 1.048236852176536e+01
0	 0.000000000000000e+00	 4.499991084612202e+01	 1.069587483316692e+01
0	 0.000000000000000e+00	 4.571421671338500e+01	 1.079197979582107e+01
0	 0.000000000000000e+00	 4.642852108065614e+01	 1.076249080433770e+01
0	 0.000000000000000e+00	 4.714282336458874e+01	 1.059921459949492e+01
0	 0.000000000000000e+00	 4.785712298183613e+01	 1.029395726822132e+01
0	 0.000000000000000e+00	 4.857141934905160e+01	 9.838524243569687e+00
0	 0.000000000000000e+00	 4.928571188288846e+01	 9.224720304683393e+00
0	 0.000000000000000e+00	 5.000000000000000e+01	 8.444349576754211e+00
0	 7.142881171115514e-01	 4.285699007784908e+01	 9.852220439090775e+00
0	 7.142881171115515e-01	 4.357129694500738e+01	 1.008461785376814e+01
0	 7.142881171115514e-01	 4.428560406221393e+01	 1.026458885144390e+01
0	 7.142881171115513e-01	 4.499991084612201e+01	 1.038659253768534e+01
0	 7.142881171115512e-01	 4.571421671338499e+01	 1.044508765643056e+01
0	 7.142881171115517e-01	 4.642852108065615e+01	 1.043453258998738e+01
0	 7.142881171115510e-01	 4.714282336458873e+01	 1.034938535902796e+01
0	 7.142881171115514e-01	 4.785712298183613e+01	 1.018410362257910e+01
0	 7.142881171115514e-01	 4.857141934905159e+01	 9.933144678007718e+00
0	 7.142881171115514e-01	 4.928571188288846e+01	 9.590965461002430e+00
0	 7.142881171115513e-01	 5.000000000000001e+01	 9.152022545550167e+00
0	 1.428580650948409e+00	 4.285699007784908e+01	 9.943902873202886e+00
0	 1.428580650948410e+00	 4.357129694500738e+01	 1.003448913836355e+01
0	 1.428580650948409e+00	 4.428560406221393e+01	 1.010760914866607e+01
0	 1.428580650948409e+00	 4.499991084612203e+01	 1.016003012885190e+01
0	 1.428580650948410e+00	 4.571421671338501e+01	 1.018851916023631e+01
0	 1.428580650948409e+00	 4.642852108065613e+01	 1.018984318070817e+01
0	 1.428580650948409e+00	 4.714282336458876e+01	 1.016076898472784e+01
0	 1.428580650948409e+00	 4.785712298183613e+01	 1.009806322332350e+01
0	 1.428580650948410e+00	 4.857141934905160e+01	 9.998492404085479e+00
0	 1.428580650948409e+00	 4.928571188288845e+01	 9.858822891159029e+00
0	 1.428580650948409e+00	 4.999999999999999e+01	 9.675820905235334e+00
0	 2.142877018163878e+00	 4.285699007784906e+01	 1.001326808355798e+01
0	 2.142877018163878e+00	 4.357129694500737e+01	 1.000521451076392e+01
0	 2.142877018163880e+00	 4.428560406221393e+01	 1.000291079892722e+01
0	 2.142877018163878e+00	 4.499991084612202e+01	 1.000509000879620e+01
0	 2.142877018163878e+00	 4.571421671338499e+01	 1.001048521115726e+01
0	 2.142877018163878e+00	 4.642852108065613e+01	 1.001782948683516e+01
0	 2.142877018163879e+00	 4.714282336458875e+01	 1.002585592669342e+01
0	 2.142877018163878e+00	 4.785712298183613e+01	 1.003329763163469e+01
0	 2.142877018163878e+00	 4.857141934905159e+01	 1.003888771260137e+01
0	 2.142877018163879e+00	 4.928571188288848e+01	 1.004135929057645e+01
0	 2.142877018163878e+00	 4.999999999999999e+01	 1.003944549658416e+01
0	 2.857176635411264e+00	 4.285699007784908e+01	 1.006261780836241e+01
0	 2.857176635411265e+00	 4.357129694500736e+01	 9.992741770987939e+00
0	 2.857176635411265e+00	 4.428560406221392e+01	 9.941975145210915e+00
0	 2.857176635411264e+00	 4.499991084612205e+01	 9.910674543915698e+00
0	 2.857176635411265e+00	 4.571421671338501e+01	 9.899196687998995e+00
0	 2.857176635411264e+00	 4.642852108065615e+01	 9.907898406370411e+00
0	 2.857176635411265e+00	 4.714282336458874e+01	 9.937136635954396e+00
0	 2.857176635411265e+00	 4.785712298183613e+01	 9.987268421693317e+00
0	 2.857176635411265e+00	 4.857141934905161e+01	 1.005865091655212e+01
0	 2.857176635411264e+00	 4.928571188288846e+01	 1.015164138152397e+01
0	 2.857176635411265e+00	 5.000000000000000e+01	 1.026659718563769e+01
0	 3.571478919343873e+00	 4.285699007784908e+01	 1.009425374798308e+01
0	 3.571478919343873e+00	 4.357129694500737e+01	 9.993018675283050e+00
0	 3.571478919343872e+00	 4.428560406221392e+01	 9.916283487991990e+00
0	 3.571478919343873e+00	 4.499991084612203e+01	 9.865686064878261e+00
0	 3.571478919343873e+00	 4.571421671338500e+01	 9.842864444455623e+00
0	 3.571478919343873e+00	 4.642852108065613e+01	 9.849456824983786e+00
0	 3.571478919343873e+00	 4.714282336458874e+01	 9.887101564471195e+00
0	 3.571478919343873e+00	 4.785712298183614e+01	 9.957437180679669e+00
0	 3.571478919343873e+00	 4.857141934905161e+01	 1.006210235113091e+01
0	 3.571478919343874e+00	 4.928571188288846e+01	 1.020273591311512e+01
0	 3.571478919343873e+00	 5.000000000000000e+01	 1.038097686370147e+01
0	 4.285783286615008e+00	 4.285699007784908e+01	 1.011047756494983e+01
0	 4.285783286615007e+00	 4.357129694500736e+01	 1.000199293612824e+01
0	 4.285783286615008e+00	 4.428560406221392e+01	 9.917317085239203e+00
0	 4.285783286615008e+00	 4.499991084612202e+01	 9.859026866624419e+00
0	 4.285783286615009e+00	 4.571421671338499e+01	 9.829699309111334e+00
0	 4.285783286615009e+00	 4.642852108065614e+01	 9.831911616013777e+00
0	 4.285783286615009e+00	 4.714282336458876e+01	 9.868241165135055e+00
0	 4.285783286615008e+00	 4.785712298183612e+01	 9.941265508772817e+00
0	 4.285783286615009e+00	 4.857141934905160e+01	 1.005356237372642e+01
0	 4.285783286615008e+00	 4.928571188288846e+01	 1.020770966130604e+01
0	 4.285783286615008e+00	 5.000000000000000e+01	 1.040628544734438e+01
0	 5.000089153877976e+00	 4.285699007784908e+01	 1.011359088395730e+01
0	 5.000089153877976e+00	 4.357129694500737e+01	 1.001561222223606e+01
0	 5.000089153877976e+00	 4.428560406221393e+01	 9.936557152417311e+00
0	 5.000089153877974e+00	 4.499991084612203e+01	 9.879599208369074e+00
0	 5.000089153877974e+00	 4.571421671338500e+01	 9.847912085441610e+00
0	 5.000089153877977e+00	 4.642852108065615e+01	 9.844669640468219e+00
0	 5.000089153877976e+00	 4.714282336458875e+01	 9.873045891767960e+00
0	 5.000089153877974e+00	 4.785712298183613e+01	 9.936215019150303e+00
0	 5.000089153877975e+00	 4.857141934905160e+01	 1.003735136392179e+01
0	 5.000089153877977e+00	 4.928571188288846e+01	 1.017962942889474e+01
0	 5.000089153877976e+00	 5.000000000000000e+01	 1.036622387839783e+01
0	 5.714395937786082e+00	 4.285699007784908e+01	 1.010589529186637e+01
0	 5.714395937786081e+00	 4.357129694500737e+01	 1.002982415855438e+01
0	 5.714395937786082e+00	 4.428560406221392e+01	 9.965484862488657e+00
0	 5.714395937786083e+00	 4.499991084612203e+01	 9.916305313602789e+00
0	 5.714395937786080e+00	 4.571421671338499e+01	 9.885713551814165e+00
0	 5.714395937786080e+00	 4.642852108065614e+01	 9.877137747024605e+00
0	 5.714395937786080e+00	 4.714282336458874e+01	 9.894006199122668e+00
0	 5.714395937786080e+00	 4.785712298183615e+01	 9.939747337987420e+00
0	 5.714395937786082e+00	 4.857141934905160e+01	 1.001778972349380e+01
0	 5.714395937786081e+00	 4.928571188288847e+01	 1.013156204551972e+01
0	 5.714395937786080e+00	 4.999999999999999e+01	 1.028449312395466e+01
0	 6.428703054992629e+00	 4.285699007784908e+01	 1.008969233770508e+01
0	 6.428703054992631e+00	 4.357129694500737e+01	 1.004057632626736e+01
0	 6.428703054992630e+00	 4.428560406221391e+01	 9.995581345914129e+00
0	 6.428703054992629e+00	 4.499991084612203e+01	 9.958047370092757e+00
0	 6.428703054992631e+00	 4.571421671338499e+01	 9.931314461489583e+00
0	 6.428703054992629e+00	 4.642852108065614e+01	 9.918722772030559e+00
0	 6.428703054992628e+00	 4.714282336458874e+01	 9.923612542882799e+00
0	 6.428703054992630e+00	 4.785712298183614e+01	 9.949324104457244e+00
0	 6.428703054992630e+00	 4.857141934905160e+01	 9.999197876412580e+00
0	 6.428703054992631e+00	 4.928571188288846e+01	 1.007657436765989e+01
0	 6.428703054992629e+00	 5.000000000000000e+01	 1.018479417636885e+01
0	 7.143009922150927e+00	 4.285699007784908e+01	 1.006728353266911e+01
0	 7.143009922150927e+00	 4.357129694500738e+01	 1.004381626279603e+01
0	 7.143009922150926e+00	 4.428560406221391e+01	 1.001832769065377e+01
0	 7.143009922150925e+00	 4.499991084612201e+01	 9.993727529883120e+00
0	 7.143009922150927e+00	 4.571421671338501e+01	 9.972925542621631e+00
0	 7.143009922150927e+00	 4.642852108065613e+01	 9.958831539503926e+00
0	 7.143009922150925e+00	 4.714282336458874e+01	 9.954355379662761e+00
0	 7.143009922150926e+00	 4.785712298183612e+01	 9.962406970730495e+00
0	 7.143009922150928e+00	 4.857141934905161e+01	 9.985896268841369e+00
0	 7.143009922150927e+00	 4.928571188288848e+01	 1.002773327863412e+01
0	 7.143009922150927e+00	 5.000000000000001e+01	 1.009082805325544e+01
0	 7.143009922150927e+00	 0.000000000000000e+00	-6.637940045283990e+01
0	 7.143009922150926e+00	 7.142881171115513e-01	-4.162365111412976e+01
0	 7.143009922150926e+00	 1.428580650948409e+00	-2.072703865949360e+01
0	 7.143009922150927e+00	 2.142877018163878e+00	-3.546882155241109e+00
0	 7.143009922150926e+00	 2.857176635411264e+00	 1.005948455549427e+01
0	 7.143009922150926e+00	 3.571478919343873e+00	 2.023471285383389e+01
0	 7.143009922150926e+00	 4.285783286615008e+00	 2.712143934605158e+01
0	 7.143009922150927e+00	 5.000089153877976e+00	 3.086228586429023e+01
0	 7.143009922150926e+00	 5.714395937786080e+00	 3.159985946709742e+01
0	 7.143009922150927e+00	 6.428703054992628e+00	 2.947675243978001e+01
0	 7.143009922150927e+00	 7.143009922150927e+00	 2.463554229457785e+01
0	 7.857266066626719e+00	 0.000000000000000e+00	-6.353842726145353e+01
0	 7.857266066626720e+00	 7.142881171115513e-01	-4.052783429948236e+01
0	 7.857266066626718e+00	 1.428580650948409e+00	-2.087970689835534e+01
0	 7.857266066626721e+00	 2.142877018163879e+00	-4.516405602520044e+00
0	 7.857266066626720e+00	 2.857176635411265e+00	 8.639694672184065e+00
0	 7.857266066626721e+00	 3.571478919343873e+00	 1.866620463957143e+01
0	 7.857266066626718e+00	 4.285783286615009e+00	 2.564072064398038e+01
0	 7.857266066626718e+00	 5.000089153877975e+00	 2.964082466096688e+01
0	 7.857266066626718e+00	 5.714395937786079e+00	 3.074408429782231e+01
0	 7.857266066626719e+00	 6.428703054992632e+00	 2.902805279391541e+01
0	 7.857266066626718e+00	 7.143009922150926e+00	 2.457026902085779e+01
0	 8.571521461152161e+00	 0.000000000000000e+00	-5.654113838287798e+01
0	 8.571521461152166e+00	 7.142881171115514e-01	-3.643155026435775e+01
0	 8.571521461152162e+00	 1.428580650948409e+00	-1.907417761654936e+01
0	 8.571521461152162e+00	 2.142877018163878e+00	-4.446370693356077e+00
0	 8.571521461152162e+00	 2.857176635411264e+00	 7.474507169531787e+00
0	 8.571521461152164e+00	 3.571478919343873e+00	 1.671107955558684e+01
0	 8.571521461152164e+00	 4.285783286615009e+00	 2.328595696823430e+01
0	 8.571521461152159e+00	 5.000089153877974e+00	 2.722173683148139e+01
0	 8.571521461152161e+00	 5.714395937786080e+00	 2.854100349038656e+01
0	 8.571521461152164e+00	 6.428703054992630e+00	 2.726632821136849e+01
0	 8.571521461152162e+00	 7.143009922150928e+00	 2.342026918235482e+01
0	 9.285776189055182e+00	 0.000000000000000e+00	-4.631516137907732e+01
0	 9.285776189055186e+00	 7.142881171115514e-01	-2.997269381674393e+01
0	 9.285776189055182e+00	 1.428580650948410e+00	-1.569738825403213e+01
0	 9.285776189055181e+00	 2.142877018163878e+00	-3.511531549832327e+00
0	 9.285776189055186e+00	 2.857176635411265e+00	 6.562578338936682e+00
0	 9.285776189055184e+00	 3.571478919343873e+00	 1.450263235813201e+01
0	 9.285776189055184e+00	 4.285783286615009e+00	 2.028631035705514e+01
0	 9.285776189055182e+00	 5.000089153877974e+00	 2.389128108898428e+01
0	 9.285776189055182e+00	 5.714395937786081e+00	 2.529520221157093e+01
0	 9.285776189055186e+00	 6.428703054992631e+00	 2.447572028710039e+01
0	 9.285776189055184e+00	 7.143009922150926e+00	 2.141047078261653e+01
0	 1.000003033366371e+01	 0.000000000000000e+00	-3.378812378421138e+01
0	 1.000003033366371e+01	 7.142881171115514e-01	-2.178915986031197e+01
0	 1.000003033366371e+01	 1.428580650948409e+00	-1.113627642314147e+01
0	 1.000003033366371e+01	 2.142877018163878e+00	-1.886642503362419e+00
0	 1.000003033366371e+01	 2.857176635411265e+00	 5.902564258227163e+00
0	 1.000003033366371e+01	 3.571478919343873e+00	 1.217415761131653e+01
0	 1.000003033366371e+01	 4.285783286615008e+00	 1.687094269659956e+01
0	 1.000003033366371e+01	 5.000089153877975e+00	 1.993571604618662e+01
0	 1.000003033366371e+01	 5.714395937786081e+00	 2.131126558391092e+01
0	 1.000003033366371e+01	 6.428703054992629e+00	 2.094037062552954e+01
0	 1.000003033366371e+01	 7.143009922150926e+00	 1.876580187881875e+01
0	 1.071428397830567e+01	 0.000000000000000e+00	-1.988765310463559e+01
0	 1.071428397830567e+01	 7.142881171115514e-01	-1.251884339441728e+01
0	 1.071428397830567e+01	 1.428580650948409e+00	-5.777779908598605e+00
0	 1.071428397830567e+01	 2.142877018163879e+00	 2.535419053069878e-01
0	 1.071428397830567e+01	 2.857176635411265e+00	 5.493120791658312e+00
0	 1.071428397830567e+01	 3.571478919343873e+00	 9.858949687105357e+00
0	 1.071428397830567e+01	 4.285783286615008e+00	 1.326901572093725e+01
0	 1.071428397830567e+01	 5.000089153877975e+00	 1.564130021535885e+01
0	 1.071428397830567e+01	 5.714395937786082e+00	 1.689377868569636e+01
0	 1.071428397830567e+01	 6.428703054992630e+00	 1.694442084053174e+01
0	 1.071428397830567e+01	 7.143009922150928e+00	 1.571119058176598e+01
0	 1.142853720630899e+01	 0.000000000000000e+00	-5.541376818901161e+00
0	 1.142853720630899e+01	 7.142881171115514e-01	-2.799639514100890e+00
0	 1.142853720630899e+01	 1.428580650948409e+00	-8.836667510045082e-03
0	 1.142853720630899e+01	 2.142877018163878e+00	 2.734266926094094e+00
0	 1.142853720630899e+01	 2.857176635411265e+00	 5.332903589909708e+00
0	 1.142853720630899e+01	 3.571478919343873e+00	 7.690302765317009e+00
0	 1.142853720630899e+01	 4.285783286615008e+00	 9.709691012049484e+00
0	 1.142853720630899e+01	 5.000089153877976e+00	 1.129429200832989e+01
0	 1.142853720630899e+01	 5.714395937786080e+00	 1.234732655097094e+01
0	 1.142853720630899e+01	 6.428703054992629e+00	 1.277201255544056e+01
0	 1.142853720630899e+01	 7.143009922150926e+00	 1.247156505589219e+01
0	 1.214279010100160e+01	 0.000000000000000e+00	 8.323077622244716e+00
0	 1.214279010100160e+01	 7.142881171115514e-01	 6.730556589909585e+00
0	 1.214279010100159e+01	 1.428580650948409e+00	 5.783615170630799e+00
0	 1.214279010100159e+01	 2.142877018163878e+00	 5.380777599580036e+00
0	 1.214279010100160e+01	 2.857176635411265e+00	 5.420568090083678e+00
0	 1.214279010100160e+01	 3.571478919343873e+00	 5.801510833621941e+00
0	 1.214279010100160e+01	 4.285783286615009e+00	 6.422129999827975e+00
0	 1.214279010100160e+01	 5.000089153877975e+00	 7.180949736486444e+00
0	 1.214279010100160e+01	 5.714395937786080e+00	 7.976494169531955e+00
0	 1.214279010100160e+01	 6.428703054992629e+00	 8.707287403047287e+00
0	 1.214279010100160e+01	 7.143009922150926e+00	 9.271853519261178e+00
0	 1.285704274571142e+01	 0.000000000000000e+00	 2.077808279585875e+01
0	 1.285704274571142e+01	 7.142881171115512e-01	 1.543384963119895e+01
0	 1.285704274571142e+01	 1.428580650948410e+00	 1.121263730394236e+01
0	 1.285704274571142e+01	 2.142877018163878e+00	 8.018318757007609e+00
0	 1.285704274571142e+01	 2.857176635411265e+00	 5.754769515703845e+00
0	 1.285704274571143e+01	 3.571478919343873e+00	 4.325867687541376e+00
0	 1.285704274571142e+01	 4.285783286615008e+00	 3.635493962073879e+00
0	 1.285704274571142e+01	 5.000089153877977e+00	 3.587531610772269e+00
0	 1.285704274571142e+01	 5.714395937786080e+00	 4.085866486930180e+00
0	 1.285704274571142e+01	 6.428703054992629e+00	 5.034387025601102e+00
0	 1.285704274571143e+01	 7.143009922150927e+00	 6.336984243567101e+00
0	 1.357129522376639e+01	 0.000000000000000e+00	 3.089601130680134e+01
0	 1.357129522376640e+01	 7.142881171115514e-01	 2.267234422766388e+01
0	 1.357129522376639e+01	 1.428580650948409e+00	 1.589129125815401e+01
0	 1.357129522376640e+01	 2.142877018163878e+00	 1.047213502028009e+01
0	 1.357129522376639e+01	 2.857176635411264e+00	 6.334162876714184e+00
0	 1.357129522376639e+01	 3.571478919343872e+00	 3.396666930446358e+00
0	 1.357129522376640e+01	 4.285783286615009e+00	 1.578944024497110e+00
0	 1.357129522376640e+01	 5.000089153877975e+00	 8.002957416878762e-01
0	 1.357129522376639e+01	 5.714395937786080e+00	 9.800284044695680e-01
0	 1.357129522376639e+01	 6.428703054992629e+00	 2.037453074809221e+00
0	 1.357129522376639e+01	 7.143009922150926e+00	 3.891885554134686e+00
0	 1.428554761849444e+01	 0.000000000000000e+00	 3.774923578773613e+01
0	 1.428554761849444e+01	 7.142881171115513e-01	 2.780814490151235e+01
0	 1.428554761849444e+01	 1.428580650948410e+00	 1.943263838660531e+01
0	 1.428554761849444e+01	 2.142877018163878e+00	 1.256747080196059e+01
0	 1.428554761849445e+01	 2.857176635411265e+00	 7.157402969478291e+00
0	 1.428554761849444e+01	 3.571478919343873e+00	 3.147201973557269e+00
0	 1.428554761849444e+01	 4.285783286615009e+00	 4.816411607160189e-01
0	 1.428554761849444e+01	 5.000089153877974e+00	-8.944998607097494e-01
0	 1.428554761849444e+01	 5.714395937786081e+00	-1.036435220792731e+00
0	 1.428554761849444e+01	 6.428703054992629e+00	 6.272118369541335e-04
0	 1.428554761849444e+01	 7.143009922150925e+00	 2.161485829919506e+00
0	 7.143009922150927e+00	 7.143009922150927e+00	 2.463554229457785e+01
0	 7.143009922150926e+00	 7.857266066626718e+00	 1.903276170418250e+01
0	 7.143009922150929e+00	 8.571521461152162e+00	 1.448615913353083e+01
0	 7.143009922150926e+00	 9.285776189055184e+00	 1.093141639532151e+01
0	 7.143009922150927e+00	 1.000003033366371e+01	 8.304214825462584e+00
0	 7.143009922150926e+00	 1.071428397830567e+01	 6.540235283065847e+00
0	 7.143009922150925e+00	 1.142853720630899e+01	 5.575158150441996e+00
0	 7.143009922150927e+00	 1.214279010100160e+01	 5.344663333096683e+00
0	 7.143009922150928e+00	 1.285704274571143e+01	 5.784430259727355e+00
0	 7.143009922150926e+00	 1.357129522376639e+01	 6.830137882220924e+00
0	 7.143009922150930e+00	 1.428554761849445e+01	 8.417464675652354e+00
0	 7.857266066626718e+00	 7.143009922150926e+00	 2.457026902085779e+01
0	 7.857266066626719e+00	 7.857266066626718e+00	 1.924249849647794e+01
0	 7.857266066626720e+00	 8.571521461152162e+00	 1.483727391572156e+01
0	 7.857266066626720e+00	 9.285776189055186e+00	 1.131449234261919e+01
0	 7.857266066626719e+00	 1.000003033366371e+01	 8.634050354938386e+00
0	 7.857266066626719e+00	 1.071428397830567e+01	 6.755844044177975e+00
0	 7.857266066626720e+00	 1.142853720630899e+01	 5.639769015563216e+00
0	 7.857266066626721e+00	 1.214279010100160e+01	 5.245720388041759e+00
0	 7.857266066626718e+00	 1.285704274571142e+01	 5.533592794280507e+00
0	 7.857266066626720e+00	 1.357129522376639e+01	 6.463280380663271e+00
0	 7.857266066626718e+00	 1.428554761849444e+01	 7.994676807289317e+00
0	 8.571521461152162e+00	 7.143009922150928e+00	 2.342026918235482e+01
0	 8.571521461152162e+00	 7.857266066626720e+00	 1.868147656599668e+01
0	 8.571521461152162e+00	 8.571521461152162e+00	 1.470007193593857e+01
0	 8.571521461152161e+00	 9.285776189055182e+00	 1.145688651097818e+01
0	 8.571521461152162e+00	 1.000003033366371e+01	 8.932751050518068e+00
0	 8.571521461152164e+00	 1.071428397830567e+01	 7.108495854560335e+00
0	 8.571521461152164e+00	 1.142853720630899e+01	 5.964950763702021e+00
0	 8.571521461152159e+00	 1.214279010100159e+01	 5.482945159131379e+00
0	 8.571521461152162e+00	 1.285704274571142e+01	 5.643307962624871e+00
0	 8.571521461152161e+00	 1.357129522376639e+01	 6.426867636545018e+00
0	 8.571521461152162e+00	 1.428554761849444e+01	 7.814452183839105e+00
0	 9.285776189055184e+00	 7.143009922150926e+00	 2.141047078261653e+01
0	 9.285776189055184e+00	 7.857266066626718e+00	 1.750123345457134e+01
0	 9.285776189055181e+00	 8.571521461152162e+00	 1.416310566836470e+01
0	 9.285776189055184e+00	 9.285776189055182e+00	 1.139457173690889e+01
0	 9.285776189055184e+00	 1.000003033366371e+01	 9.194115569645842e+00
0	 9.285776189055184e+00	 1.071428397830567e+01	 7.560220672542428e+00
0	 9.285776189055184e+00	 1.142853720630899e+01	 6.491370148086475e+00
0	 9.285776189055184e+00	 1.214279010100160e+01	 5.986046695283508e+00
0	 9.285776189055182e+00	 1.285704274571142e+01	 6.042732609654142e+00
0	 9.285776189055182e+00	 1.357129522376639e+01	 6.659909783232267e+00
0	 9.285776189055182e+00	 1.428554761849444e+01	 7.836059704563845e+00
0	 1.000003033366371e+01	 7.143009922150926e+00	 1.876580187881875e+01
0	 1.000003033366371e+01	 7.857266066626718e+00	 1.585330678681624e+01
0	 1.000003033366371e+01	 8.571521461152162e+00	 1.331492768484499e+01
0	 1.000003033366371e+01	 9.285776189055182e+00	 1.116352095748799e+01
0	 1.000003033366371e+01	 1.000003033366371e+01	 9.411942663556111e+00
0	 1.000003033366371e+01	 1.071428397830567e+01	 8.073048536084281e+00
0	 1.000003033366371e+01	 1.142853720630899e+01	 7.159693982328338e+00
0	 1.000003033366371e+01	 1.214279010100160e+01	 6.684734083762388e+00
0	 1.000003033366371e+01	 1.285704274571143e+01	 6.661023596076779e+00
0	 1.000003033366371e+01	 1.357129522376639e+01	 7.101416949176617e+00
0	 1.000003033366371e+01	 1.428554761849444e+01	 8.018768247180866e+00
0	 1.071428397830567e+01	 7.143009922150928e+00	 1.571119058176598e+01
0	 1.071428397830567e+01	 7.857266066626718e+00	 1.388923427012843e+01
0	 1.071428397830567e+01	 8.571521461152164e+00	 1.224409065488797e+01
0	 1.071428397830567e+01	 9.285776189055184e+00	 1.079970721035964e+01
0	 1.071428397830567e+01	 1.000003033366371e+01	 9.580031177274575e+00
0	 1.071428397830567e+01	 1.071428397830567e+01	 8.609009562777358e+00
0	 1.071428397830567e+01	 1.142853720630899e+01	 7.910589140423780e+00
0	 1.071428397830567e+01	 1.214279010100160e+01	 7.508716450179012e+00
0	 1.071428397830567e+01	 1.285704274571142e+01	 7.427337798416145e+00
0	 1.071428397830567e+01	 1.357129522376639e+01	 7.690399257915179e+00
0	 1.071428397830567e+01	 1.428554761849444e+01	 8.321846667862417e+00
0	 1.142853720630899e+01	 7.143009922150926e+00	 1.247156505589219e+01
0	 1.142853720630899e+01	 7.857266066626721e+00	 1.176055369468857e+01
0	 1.142853720630899e+01	 8.571521461152164e+00	 1.103914734566666e+01
0	 1.142853720630899e+01	 9.285776189055182e+00	 1.033910363373652e+01
0	 1.142853720630899e+01	 1.000003033366371e+01	 9.692180049619196e+00
0	 1.142853720630899e+01	 1.071428397830567e+01	 9.130133949845369e+00
0	 1.142853720630899e+01	 1.142853720630899e+01	 8.684722556754028e+00
0	 1.142853720630899e+01	 1.214279010100160e+01	 8.387702958491509e+00
0	 1.142853720630899e+01	 1.285704274571143e+01	 8.270832109010691e+00
0	 1.142853720630899e+01	 1.357129522376639e+01	 8.365866828070471e+00
0	 1.142853720630899e+01	 1.428554761849444e+01	 8.704563801235459e+00
0	 1.214279010100160e+01	 7.143009922150926e+00	 9.271853519261178e+00
0	 1.214279010100160e+01	 7.857266066626720e+00	 9.618802933461678e+00
0	 1.214279010100160e+01	 8.571521461152164e+00	 9.788650622019421e+00
0	 1.214279010100160e+01	 9.285776189055186e+00	 9.817683466400680e+00
0	 1.214279010100160e+01	 1.000003033366371e+01	 9.742188313201014e+00
0	 1.214279010100160e+01	 1.071428397830567e+01	 9.598451974144968e+00
0	 1.214279010100160e+01	 1.142853720630899e+01	 9.422761226085822e+00
0	 1.214279010100160e+01	 1.214279010100160e+01	 9.251402811005430e+00
0	 1.214279010100160e+01	 1.285704274571143e+01	 9.120663436014073e+00
0	 1.214279010100160e+01	 1.357129522376640e+01	 9.066829773350397e+00
0	 1.214279010100160e+01	 1.428554761849445e+01	 9.126188460381453e+00
0	 1.285704274571143e+01	 7.143009922150927e+00	 6.336984243567103e+00
0	 1.285704274571142e+01	 7.857266066626718e+00	 7.615519942197746e+00
0	 1.285704274571142e+01	 8.571521461152162e+00	 8.581153446450603e+00
0	 1.285704274571142e+01	 9.285776189055184e+00	 9.271420047704270e+00
0	 1.285704274571143e+01	 1.000003033366371e+01	 9.723855094424763e+00
0	 1.285704274571143e+01	 1.071428397830567e+01	 9.975993992166270e+00
0	 1.285704274571142e+01	 1.142853720630899e+01	 1.006537220357186e+01
0	 1.285704274571143e+01	 1.214279010100160e+01	 1.002952524837404e+01
0	 1.285704274571142e+01	 1.285704274571142e+01	 9.905988703395250e+00
0	 1.285704274571142e+01	 1.357129522376639e+01	 9.732298202548218e+00
0	 1.285704274571142e+01	 1.428554761849444e+01	 9.545989436836248e+00
0	 1.357129522376639e+01	 7.143009922150926e+00	 3.891885554134687e+00
0	 1.357129522376639e+01	 7.857266066626719e+00	 5.902242759432128e+00
0	 1.357129522376639e+01	 8.571521461152164e+00	 7.505208879131097e+00
0	 1.357129522376639e+01	 9.285776189055182e+00	 8.736286817570026e+00
0	 1.357129522376639e+01	 1.000003033366370e+01	 9.630979613489355e+00
0	 1.357129522376639e+01	 1.071428397830567e+01	 1.022479044003327e+01
0	 1.357129522376639e+01	 1.142853720630899e+01	 1.055322260475108e+01
0	 1.357129522376639e+01	 1.214279010100160e+01	 1.065177954959849e+01
0	 1.357129522376640e+01	 1.285704274571143e+01	 1.055596485093857e+01
0	 1.357129522376639e+01	 1.357129522376639e+01	 1.030128221954247e+01
0	 1.357129522376639e+01	 1.428554761849444e+01	 9.923235500589954e+00
0	 1.428554761849444e+01	 7.143009922150925e+00	 2.161485829919506e+00
0	 1.428554761849444e+01	 7.857266066626719e+00	 4.630509506485861e+00
0	 1.428554761849444e+01	 8.571521461152162e+00	 6.649370077898633e+00
0	 1.428554761849444e+01	 9.285776189055181e+00	 8.248257316491564e+00
0	 1.428554761849444e+01	 1.000003033366371e+01	 9.457361184388180e+00
0	 1.428554761849444e+01	 1.071428397830567e+01	 1.030687183350405e+01
0	 1.428554761849444e+01	 1.142853720630899e+01	 1.082697960554884e+01
0	 1.428554761849444e+01	 1.214279010100160e+01	 1.104787503202794e+01
0	 1.428554761849444e+01	 1.285704274571142e+01	 1.099974883424381e+01
0	 1.428554761849444e+01	 1.357129522376639e+01	 1.071279192329701e+01
0	 1.428554761849444e+01	 1.428554761849444e+01	 1.021719540008684e+01
0	 7.143009922150930e+00	 1.428554761849445e+01	 8.417464675652356e+00
0	 7.143009922150927e+00	 1.499984997172427e+01	 1.005473567737770e+01
0	 7.143009922150928e+00	 1.571415215828766e+01	 1.131327619127960e+01
0	 7.143009922150927e+00	 1.642845401151721e+01	 1.222365024435334e+01
0	 7.143009922150927e+00	 1.714275536474550e+01	 1.281642157605600e+01
0	 7.143009922150927e+00	 1.785705605130510e+01	 1.312215363830642e+01
0	 7.143009922150926e+00	 1.857135590452859e+01	 1.317140959548403e+01
0	 7.143009922150926e+00	 1.928565475774854e+01	 1.299475232442684e+01
0	 7.143009922150926e+00	 1.999995244429754e+01	 1.262274441442833e+01
0	 7.143009922150927e+00	 2.071424879750816e+01	 1.208594816723333e+01
0	 7.143009922150927e+00	 2.142854365071296e+01	 1.141492559703294e+01
0	 7.857266066626718e+00	 1.428554761849444e+01	 7.994676807289317e+00
0	 7.857266066626718e+00	 1.499984997172426e+01	 9.637508355742126e+00
0	 7.857266066626718e+00	 1.571415215828766e+01	 1.094157814359762e+01
0	 7.857266066626720e+00	 1.642845401151721e+01	 1.192727646721201e+01
0	 7.857266066626718e+00	 1.714275536474550e+01	 1.261499330650814e+01
0	 7.857266066626718e+00	 1.785705605130510e+01	 1.302511832497532e+01
0	 7.857266066626721e+00	 1.857135590452858e+01	 1.317804086966814e+01
0	 7.857266066626719e+00	 1.928565475774854e+01	 1.309414997120408e+01
0	 7.857266066626718e+00	 1.999995244429753e+01	 1.279383434376010e+01
0	 7.857266066626718e+00	 2.071424879750815e+01	 1.229748238506808e+01
0	 7.857266066626719e+00	 2.142854365071296e+01	 1.162548217640916e+01
0	 8.571521461152162e+00	 1.428554761849444e+01	 7.814452183839105e+00
0	 8.571521461152164e+00	 1.499984997172426e+01	 9.350782708283512e+00
0	 8.571521461152162e+00	 1.571415215828766e+01	 1.060079211705222e+01
0	 8.571521461152161e+00	 1.642845401151722e+01	 1.157597902695083e+01
0	 8.571521461152164e+00	 1.714275536474550e+01	 1.228784173791445e+01
0	 8.571521461152168e+00	 1.785705605130510e+01	 1.274787823300752e+01
0	 8.571521461152161e+00	 1.857135590452858e+01	 1.296758617842261e+01
0	 8.571521461152164e+00	 1.928565475774854e+01	 1.295846292347797e+01
0	 8.571521461152161e+00	 1.999995244429754e+01	 1.273200550061413e+01
0	 8.571521461152162e+00	 2.071424879750816e+01	 1.229971062538927e+01
0	 8.571521461152161e+00	 2.142854365071296e+01	 1.167307469647356e+01
0	 9.285776189055182e+00	 1.428554761849444e+01	 7.836059704563845e+00
0	 9.285776189055182e+00	 1.499984997172426e+01	 9.177434667183036e+00
0	 9.285776189055179e+00	 1.571415215828766e+01	 1.029368859616988e+01
0	 9.285776189055184e+00	 1.642845401151721e+01	 1.118871049682195e+01
0	 9.285776189055186e+00	 1.714275536474550e+01	 1.186638908038998e+01
0	 9.285776189055182e+00	 1.785705605130510e+01	 1.233061276407771e+01
0	 9.285776189055184e+00	 1.857135590452859e+01	 1.258526967104075e+01
0	 9.285776189055184e+00	 1.928565475774854e+01	 1.263424763038429e+01
0	 9.285776189055181e+00	 1.999995244429753e+01	 1.248143417715994e+01
0	 9.285776189055186e+00	 2.071424879750816e+01	 1.213071655236145e+01
0	 9.285776189055184e+00	 2.142854365071296e+01	 1.158598170291932e+01
0	 1.000003033366371e+01	 1.428554761849444e+01	 8.018768247180866e+00
0	 1.000003033366371e+01	 1.499984997172427e+01	 9.100340132309197e+00
0	 1.000003033366371e+01	 1.571415215828766e+01	 1.002303802789532e+01
0	 1.000003033366371e+01	 1.642845401151722e+01	 1.078442341182803e+01
0	 1.000003033366371e+01	 1.714275536474550e+01	 1.138205750883645e+01
0	 1.000003033366371e+01	 1.785705605130510e+01	 1.181350129048993e+01
0	 1.000003033366371e+01	 1.857135590452859e+01	 1.207631547519695e+01
0	 1.000003033366371e+01	 1.928565475774854e+01	 1.216806052820326e+01
0	 1.000003033366371e+01	 1.999995244429753e+01	 1.208629666158908e+01
0	 1.000003033366371e+01	 2.071424879750815e+01	 1.182858383426540e+01
0	 1.000003033366371e+01	 2.142854365071297e+01	 1.139248175196940e+01
0	 1.071428397830567e+01	 1.428554761849444e+01	 8.321846667862417e+00
0	 1.071428397830567e+01	 1.499984997172426e+01	 9.102374971217424e+00
0	 1.071428397830567e+01	 1.571415215828767e+01	 9.791610821591021e+00
0	 1.071428397830567e+01	 1.642845401151721e+01	 1.038207026872175e+01
0	 1.071428397830567e+01	 1.714275536474550e+01	 1.086626916294189e+01
0	 1.071428397830567e+01	 1.785705605130510e+01	 1.123672315517727e+01
0	 1.071428397830567e+01	 1.857135590452858e+01	 1.148594769694649e+01
0	 1.071428397830567e+01	 1.928565475774854e+01	 1.160645804035942e+01
0	 1.071428397830567e+01	 1.999995244429754e+01	 1.159076923811496e+01
0	 1.071428397830567e+01	 2.071424879750815e+01	 1.143139614349820e+01
0	 1.071428397830567e+01	 2.142854365071296e+01	 1.112085341037673e+01
0	 1.142853720630899e+01	 1.428554761849444e+01	 8.704563801235459e+00
0	 1.142853720630899e+01	 1.499984997172426e+01	 9.166415019149756e+00
0	 1.142853720630899e+01	 1.571415215828766e+01	 9.602177349036889e+00
0	 1.142853720630899e+01	 1.642845401151721e+01	 1.000060352600551e+01
0	 1.142853720630899e+01	 1.714275536474550e+01	 1.035044614718023e+01
0	 1.142853720630899e+01	 1.785705605130509e+01	 1.064045767170153e+01
0	 1.142853720630899e+01	 1.857135590452859e+01	 1.085939042072525e+01
0	 1.142853720630899e+01	 1.928565475774854e+01	 1.099599657742144e+01
0	 1.142853720630899e+01	 1.999995244429754e+01	 1.103902818697294e+01
0	 1.142853720630899e+01	 2.071424879750815e+01	 1.097723715657330e+01
0	 1.142853720630899e+01	 2.142854365071296e+01	 1.079937525542433e+01
0	 1.214279010100160e+01	 1.428554761849445e+01	 9.126188460381453e+00
0	 1.214279010100159e+01	 1.499984997172426e+01	 9.275336079034544e+00
0	 1.214279010100160e+01	 1.571415215828766e+01	 9.457507944429929e+00
0	 1.214279010100160e+01	 1.642845401151721e+01	 9.658975603931015e+00
0	 1.214279010100160e+01	 1.714275536474550e+01	 9.866010530811044e+00
0	 1.214279010100160e+01	 1.785705605130510e+01	 1.006488412425306e+01
0	 1.214279010100160e+01	 1.857135590452858e+01	 1.024186770934960e+01
0	 1.214279010100160e+01	 1.928565475774854e+01	 1.038323253710213e+01
0	 1.214279010100160e+01	 1.999995244429754e+01	 1.047524978442024e+01
0	 1.214279010100160e+01	 2.071424879750815e+01	 1.050419055412056e+01
0	 1.214279010100160e+01	 2.142854365071297e+01	 1.045632587492542e+01
0	 1.285704274571142e+01	 1.428554761849444e+01	 9.545989436836251e+00
0	 1.285704274571142e+01	 1.499984997172426e+01	 9.412013921486251e+00
0	 1.285704274571143e+01	 1.571415215828767e+01	 9.360372904383965e+00
0	 1.285704274571142e+01	 1.642845401151721e+01	 9.376138884499088e+00
0	 1.285704274571142e+01	 1.714275536474550e+01	 9.444384347879350e+00
0	 1.285704274571142e+01	 1.785705605130510e+01	 9.550181767650502e+00
0	 1.285704274571142e+01	 1.857135590452858e+01	 9.678603604016281e+00
0	 1.285704274571142e+01	 1.928565475774854e+01	 9.814722304258316e+00
0	 1.285704274571142e+01	 1.999995244429753e+01	 9.943610302736007e+00
0	 1.285704274571142e+01	 2.071424879750816e+01	 1.005034002088630e+01
0	 1.285704274571142e+01	 2.142854365071296e+01	 1.011998386722350e+01
0	 1.357129522376639e+01	 1.428554761849444e+01	 9.923235500589952e+00
0	 1.357129522376639e+01	 1.499984997172426e+01	 9.559324284805291e+00
0	 1.357129522376640e+01	 1.571415215828766e+01	 9.313542487929496e+00
0	 1.357129522376639e+01	 1.642845401151722e+01	 9.171045711459470e+00
0	 1.357129522376640e+01	 1.714275536474550e+01	 9.116989597215387e+00
0	 1.357129522376639e+01	 1.785705605130510e+01	 9.136529827340688e+00
0	 1.357129522376639e+01	 1.857135590452858e+01	 9.214822124302259e+00
0	 1.357129522376639e+01	 1.928565475774854e+01	 9.337022250890813e+00
0	 1.357129522376639e+01	 1.999995244429753e+01	 9.488286010221263e+00
0	 1.357129522376640e+01	 2.071424879750815e+01	 9.653769245733367e+00
0	 1.357129522376639e+01	 2.142854365071297e+01	 9.818627841192491e+00
0	 1.428554761849444e+01	 1.428554761849444e+01	 1.021719540008684e+01
0	 1.428554761849444e+01	 1.499984997172426e+01	 9.700142874977915e+00
0	 1.428554761849444e+01	 1.571415215828766e+01	 9.319786916513548e+00
0	 1.428554761849444e+01	 1.642845401151721e+01	 9.062648390310702e+00
0	 1.428554761849444e+01	 1.714275536474550e+01	 8.915248242434565e+00
0	 1.428554761849445e+01	 1.785705605130510e+01	 8.864107499398560e+00
0	 1.428554761849444e+01	 1.857135590452859e+01	 8.895747268164749e+00
0	 1.428554761849444e+01	 1.928565475774854e+01	 8.996688736144383e+00
0	 1.428554761849444e+01	 1.999995244429753e+01	 9.153453171198940e+00
0	 1.428554761849444e+01	 2.071424879750816e+01	 9.352561921641179e+00
0	 1.428554761849444e+01	 2.142854365071296e+01	 9.580536416236695e+00
0	 7.143009922150927e+00	 2.142854365071296e+01	 1.141492559703294e+01
0	 7.143009922150927e+00	 2.214283692057824e+01	 1.076895443140199e+01
0	 7.143009922150925e+00	 2.285712885710493e+01	 1.027674041530058e+01
0	 7.143009922150926e+00	 2.357141979362770e+01	 9.922987231952243e+00
0	 7.143009922150927e+00	 2.428571006348117e+01	 9.692398376074046e+00
0	 7.143009922150926e+00	 2.500000000000000e+01	 9.569677153871750e+00
0	 7.143009922150926e+00	 2.571428993651883e+01	 9.539526683036389e+00
0	 7.143009922150926e+00	 2.642858020637231e+01	 9.586649892742182e+00
0	 7.143009922150928e+00	 2.714287114289507e+01	 9.695749523645688e+00
0	 7.143009922150926e+00	 2.785716307942177e+01	 9.851528127886366e+00
0	 7.143009922150926e+00	 2.857145634928704e+01	 1.003868806908840e+01
0	 7.857266066626719e+00	 2.142854365071296e+01	 1.162548217640916e+01
0	 7.857266066626720e+00	 2.214283692057824e+01	 1.094652529329933e+01
0	 7.857266066626718e+00	 2.285712885710494e+01	 1.040852874411017e+01
0	 7.857266066626717e+00	 2.357141979362770e+01	 1.000071835205188e+01
0	 7.857266066626718e+00	 2.428571006348117e+01	 9.712319713646277e+00
0	 7.857266066626719e+00	 2.500000000000000e+01	 9.532558198721237e+00
0	 7.857266066626718e+00	 2.571428993651883e+01	 9.450658950406797e+00
0	 7.857266066626718e+00	 2.642858020637231e+01	 9.455846885132814e+00
0	 7.857266066626716e+00	 2.714287114289507e+01	 9.537346692628223e+00
0	 7.857266066626720e+00	 2.785716307942178e+01	 9.684382835921852e+00
0	 7.857266066626718e+00	 2.857145634928704e+01	 9.886179551344867e+00
0	 8.571521461152161e+00	 2.142854365071296e+01	 1.167307469647356e+01
0	 8.571521461152161e+00	 2.214283692057824e+01	 1.101645041213047e+01
0	 8.571521461152164e+00	 2.285712885710494e+01	 1.048200977292194e+01
0	 8.571521461152164e+00	 2.357141979362770e+01	 1.006297771384143e+01
0	 8.571521461152161e+00	 2.428571006348118e+01	 9.752578930604106e+00
0	 8.571521461152161e+00	 2.500000000000001e+01	 9.544037879641269e+00
0	 8.571521461152162e+00	 2.571428993651883e+01	 9.430578778096251e+00
0	 8.571521461152164e+00	 2.642858020637231e+01	 9.405425603822104e+00
0	 8.571521461152162e+00	 2.714287114289508e+01	 9.461802095380934e+00
0	 8.571521461152161e+00	 2.785716307942177e+01	 9.592931752044942e+00
0	 8.571521461152162e+00	 2.857145634928703e+01	 9.792037833799094e+00
0	 9.285776189055184e+00	 2.142854365071296e+01	 1.158598170291932e+01
0	 9.285776189055182e+00	 2.214283692057824e+01	 1.099613806302727e+01
0	 9.285776189055184e+00	 2.285712885710494e+01	 1.050530372222572e+01
0	 9.285776189055184e+00	 2.357141979362770e+01	 1.011017971688862e+01
0	 9.285776189055179e+00	 2.428571006348117e+01	 9.807466852683840e+00
0	 9.285776189055184e+00	 2.500000000000001e+01	 9.593865704567744e+00
0	 9.285776189055186e+00	 2.571428993651884e+01	 9.466076616781400e+00
0	 9.285776189055184e+00	 2.642858020637231e+01	 9.420799702848470e+00
0	 9.285776189055184e+00	 2.714287114289507e+01	 9.454734845574645e+00
0	 9.285776189055182e+00	 2.785716307942177e+01	 9.564581697048718e+00
0	 9.285776189055181e+00	 2.857145634928704e+01	 9.747039678645290e+00
0	 1.000003033366371e+01	 2.142854365071297e+01	 1.139248175196940e+01
0	 1.000003033366371e+01	 2.214283692057824e+01	 1.090299653569743e+01
0	 1.000003033366371e+01	 2.285712885710494e+01	 1.048653082892108e+01
0	 1.000003033366371e+01	 2.357141979362770e+01	 1.014273877715889e+01
0	 1.000003033366371e+01	 2.428571006348118e+01	 9.871274320527258e+00
0	 1.000003033366371e+01	 2.500000000000000e+01	 9.671791193735753e+00
0	 1.000003033366371e+01	 2.571428993651883e+01	 9.543942926083856e+00
0	 1.000003033366371e+01	 2.642858020637231e+01	 9.487382841459105e+00
0	 1.000003033366371e+01	 2.714287114289508e+01	 9.501764058336715e+00
0	 1.000003033366371e+01	 2.785716307942178e+01	 9.586739489780628e+00
0	 1.000003033366371e+01	 2.857145634928704e+01	 9.741961843445949e+00
0	 1.071428397830567e+01	 2.142854365071296e+01	 1.112085341037673e+01
0	 1.071428397830567e+01	 2.214283692057824e+01	 1.075443413442468e+01
0	 1.071428397830567e+01	 2.285712885710494e+01	 1.043381134631766e+01
0	 1.071428397830567e+01	 2.357141979362770e+01	 1.016106932701554e+01
0	 1.071428397830566e+01	 2.428571006348118e+01	 9.938292189681793e+00
0	 1.071428397830567e+01	 2.500000000000000e+01	 9.767563879679821e+00
0	 1.071428397830567e+01	 2.571428993651884e+01	 9.650968174570352e+00
0	 1.071428397830567e+01	 2.642858020637232e+01	 9.590588684110001e+00
0	 1.071428397830567e+01	 2.714287114289508e+01	 9.588508850251086e+00
0	 1.071428397830567e+01	 2.785716307942177e+01	 9.646811947142478e+00
0	 1.071428397830567e+01	 2.857145634928704e+01	 9.767581081131798e+00
0	 1.142853720630899e+01	 2.142854365071296e+01	 1.079937525542433e+01
0	 1.142853720630899e+01	 2.214283692057824e+01	 1.056785917806898e+01
0	 1.142853720630899e+01	 2.285712885710494e+01	 1.035526554413526e+01
0	 1.142853720630899e+01	 2.357141979362770e+01	 1.016558581521989e+01
0	 1.142853720630899e+01	 2.428571006348118e+01	 1.000281133060068e+01
0	 1.142853720630898e+01	 2.499999999999999e+01	 9.870933307233964e+00
0	 1.142853720630899e+01	 2.571428993651884e+01	 9.773942839752809e+00
0	 1.142853720630899e+01	 2.642858020637232e+01	 9.715830900466043e+00
0	 1.142853720630899e+01	 2.714287114289508e+01	 9.700588339358232e+00
0	 1.142853720630899e+01	 2.785716307942177e+01	 9.732205884090408e+00
0	 1.142853720630899e+01	 2.857145634928704e+01	 9.814674140001763e+00
0	 1.214279010100160e+01	 2.142854365071297e+01	 1.045632587492542e+01
0	 1.214279010100160e+01	 2.214283692057823e+01	 1.036068000006665e+01
0	 1.214279010100160e+01	 2.285712885710493e+01	 1.025901370850404e+01
0	 1.214279010100160e+01	 2.357141979362770e+01	 1.015670270693150e+01
0	 1.214279010100160e+01	 2.428571006348117e+01	 1.005912262864314e+01
0	 1.214279010100160e+01	 2.500000000000000e+01	 9.971649033531870e+00
0	 1.214279010100160e+01	 2.571428993651884e+01	 9.899657408088443e+00
0	 1.214279010100160e+01	 2.642858020637230e+01	 9.848523165401021e+00
0	 1.214279010100160e+01	 2.714287114289508e+01	 9.823621645155253e+00
0	 1.214279010100160e+01	 2.785716307942177e+01	 9.830328113634890e+00
0	 1.214279010100160e+01	 2.857145634928704e+01	 9.874017763722870e+00
0	 1.285704274571142e+01	 2.142854365071296e+01	 1.011998386722350e+01
0	 1.285704274571142e+01	 2.214283692057824e+01	 1.015030494843050e+01
0	 1.285704274571143e+01	 2.285712885710494e+01	 1.015317614196465e+01
0	 1.285704274571142e+01	 2.357141979362770e+01	 1.013483448370825e+01
0	 1.285704274571143e+01	 2.428571006348118e+01	 1.010151698407445e+01
0	 1.285704274571142e+01	 2.500000000000001e+01	 1.005946062800693e+01
0	 1.285704274571143e+01	 2.571428993651884e+01	 1.001490237497982e+01
0	 1.285704274571142e+01	 2.642858020637232e+01	 9.974079158997688e+00
0	 1.285704274571142e+01	 2.714287114289507e+01	 9.943227888595841e+00
0	 1.285704274571142e+01	 2.785716307942177e+01	 9.928585446840673e+00
0	 1.285704274571142e+01	 2.857145634928703e+01	 9.936388691330288e+00
0	 1.357129522376639e+01	 2.142854365071297e+01	 9.818627841192491e+00
0	 1.357129522376640e+01	 2.214283692057824e+01	 9.954142385749922e+00
0	 1.357129522376640e+01	 2.285712885710494e+01	 1.004587316346832e+01
0	 1.357129522376639e+01	 2.357141979362770e+01	 1.010039564350648e+01
0	 1.357129522376639e+01	 2.428571006348117e+01	 1.012428531206607e+01
0	 1.357129522376640e+01	 2.500000000000001e+01	 1.012411767239238e+01
0	 1.357129522376639e+01	 2.571428993651883e+01	 1.010646824477491e+01
0	 1.357129522376639e+01	 2.642858020637231e+01	 1.007791256654781e+01
0	 1.357129522376639e+01	 2.714287114289508e+01	 1.004502619209029e+01
0	 1.357129522376640e+01	 2.785716307942178e+01	 1.001438469282682e+01
0	 1.357129522376639e+01	 2.857145634928703e+01	 9.992563657227244e+00
0	 1.428554761849444e+01	 2.142854365071296e+01	 9.580536416236695e+00
0	 1.428554761849444e+01	 2.214283692057823e+01	 9.789600689190944e+00
0	 1.428554761849445e+01	 2.285712885710494e+01	 9.945225108376974e+00
0	 1.428554761849444e+01	 2.357141979362770e+01	 1.005380070068102e+01
0	 1.428554761849445e+01	 2.428571006348118e+01	 1.012171854269569e+01
0	 1.428554761849444e+01	 2.500000000000000e+01	 1.015536976072130e+01
0	 1.428554761849444e+01	 2.571428993651883e+01	 1.016114553076713e+01
0	 1.428554761849444e+01	 2.642858020637231e+01	 1.014543707855215e+01
0	 1.428554761849444e+01	 2.714287114289507e+01	 1.011463567950552e+01
0	 1.428554761849444e+01	 2.785716307942177e+01	 1.007513265876667e+01
0	 1.428554761849444e+01	 2.857145634928703e+01	 1.003331939118502e+01
0	 7.143009922150926e+00	 2.857145634928704e+01	 1.003868806908840e+01
0	 7.143009922150928e+00	 2.928575120249186e+01	 1.020597554806545e+01
0	 7.143009922150926e+00	 3.000004755570247e+01	 1.031742962758498e+01
0	 7.143009922150928e+00	 3.071434524225147e+01	 1.038069180997341e+01
0	 7.143009922150927e+00	 3.142864409547143e+01	 1.040340358043256e+01
0	 7.143009922150926e+00	 3.214294394869490e+01	 1.039320640704006e+01
0	 7.143009922150926e+00	 3.285724463525450e+01	 1.035774174074980e+01
0	 7.143009922150926e+00	 3.357154598848279e+01	 1.030465101539212e+01
0	 7.143009922150926e+00	 3.428584784171235e+01	 1.024157564767418e+01
0	 7.143009922150927e+00	 3.500015002827575e+01	 1.017615703718011e+01
0	 7.143009922150928e+00	 3.571445238150556e+01	 1.011603656637111e+01
0	 7.857266066626718e+00	 2.857145634928704e+01	 9.886179551344867e+00
0	 7.857266066626717e+00	 2.928575120249185e+01	 1.008371318943587e+01
0	 7.857266066626720e+00	 3.000004755570248e+01	 1.022885353435826e+01
0	 7.857266066626719e+00	 3.071434524225147e+01	 1.032716478083091e+01
0	 7.857266066626719e+00	 3.142864409547143e+01	 1.038421109420193e+01
0	 7.857266066626718e+00	 3.214294394869491e+01	 1.040555661044943e+01
0	 7.857266066626720e+00	 3.285724463525450e+01	 1.039676543618203e+01
0	 7.857266066626721e+00	 3.357154598848281e+01	 1.036340164863946e+01
0	 7.857266066626721e+00	 3.428584784171235e+01	 1.031102929569288e+01
0	 7.857266066626719e+00	 3.500015002827575e+01	 1.024521239584523e+01
0	 7.857266066626717e+00	 3.571445238150555e+01	 1.017151493823133e+01
0	 8.571521461152162e+00	 2.857145634928703e+01	 9.792037833799094e+00
0	 8.571521461152162e+00	 2.928575120249185e+01	 9.998349803442046e+00
0	 8.571521461152162e+00	 3.000004755570248e+01	 1.015808624545723e+01
0	 8.571521461152166e+00	 3.071434524225148e+01	 1.027495389556955e+01
0	 8.571521461152162e+00	 3.142864409547143e+01	 1.035265945307237e+01
0	 8.571521461152166e+00	 3.214294394869491e+01	 1.039490958082831e+01
0	 8.571521461152161e+00	 3.285724463525451e+01	 1.040541090527001e+01
0	 8.571521461152161e+00	 3.357154598848280e+01	 1.038787001640075e+01
0	 8.571521461152162e+00	 3.428584784171236e+01	 1.034599346779487e+01
0	 8.571521461152162e+00	 3.500015002827575e+01	 1.028348777659816e+01
0	 8.571521461152161e+00	 3.571445238150555e+01	 1.020405942352804e+01
0	 9.285776189055181e+00	 2.857145634928704e+01	 9.747039678645290e+00
0	 9.285776189055184e+00	 2.928575120249186e+01	 9.944533745141840e+00
0	 9.285776189055184e+00	 3.000004755570248e+01	 1.010306879357953e+01
0	 9.285776189055182e+00	 3.071434524225146e+01	 1.022471395635649e+01
0	 9.285776189055184e+00	 3.142864409547143e+01	 1.031153832675325e+01
0	 9.285776189055184e+00	 3.214294394869492e+01	 1.036561095893368e+01
0	 9.285776189055182e+00	 3.285724463525450e+01	 1.038900086794574e+01
0	 9.285776189055182e+00	 3.357154598848279e+01	 1.038377702972214e+01
0	 9.285776189055182e+00	 3.428584784171235e+01	 1.035200838108082e+01
0	 9.285776189055184e+00	 3.500015002827575e+01	 1.029576381972526e+01
0	 9.285776189055182e+00	 3.571445238150556e+01	 1.021711220424481e+01
0	 1.000003033366371e+01	 2.857145634928704e+01	 9.741961843445949e+00
0	 1.000003033366371e+01	 2.928575120249186e+01	 9.916913363270744e+00
0	 1.000003033366371e+01	 3.000004755570247e+01	 1.006174220433798e+01
0	 1.000003033366371e+01	 3.071434524225147e+01	 1.017709975828581e+01
0	 1.000003033366371e+01	 3.142864409547143e+01	 1.026363737851306e+01
0	 1.000003033366371e+01	 3.214294394869491e+01	 1.032200638018018e+01
0	 1.000003033366371e+01	 3.285724463525451e+01	 1.035285804021001e+01
0	 1.000003033366371e+01	 3.357154598848280e+01	 1.035684359728833e+01
0	 1.000003033366371e+01	 3.428584784171236e+01	 1.033461425186436e+01
0	 1.000003033366371e+01	 3.500015002827575e+01	 1.028682116615111e+01
0	 1.000003033366371e+01	 3.571445238150557e+01	 1.021411546412559e+01
0	 1.071428397830567e+01	 2.857145634928704e+01	 9.767581081131798e+00
0	 1.071428397830567e+01	 2.928575120249186e+01	 9.910137000241784e+00
0	 1.071428397830567e+01	 3.000004755570248e+01	 1.003204749626045e+01
0	 1.071428397830566e+01	 3.071434524225146e+01	 1.013276608937845e+01
0	 1.071428397830567e+01	 3.142864409547143e+01	 1.021174626517927e+01
0	 1.071428397830567e+01	 3.214294394869491e+01	 1.026844147464008e+01
0	 1.071428397830567e+01	 3.285724463525451e+01	 1.030230513413236e+01
0	 1.071428397830567e+01	 3.357154598848280e+01	 1.031279062542248e+01
0	 1.071428397830567e+01	 3.428584784171235e+01	 1.029935129567209e+01
0	 1.071428397830567e+01	 3.500015002827575e+01	 1.026144045743846e+01
0	 1.071428397830567e+01	 3.571445238150556e+01	 1.019851138867461e+01
0	 1.142853720630899e+01	 2.857145634928704e+01	 9.814674140001763e+00
0	 1.142853720630899e+01	 2.928575120249186e+01	 9.918852992145508e+00
0	 1.142853720630899e+01	 3.000004755570248e+01	 1.001192568078981e+01
0	 1.142853720630899e+01	 3.071434524225147e+01	 1.009236773058216e+01
0	 1.142853720630899e+01	 3.142864409547143e+01	 1.015865463713835e+01
0	 1.142853720630899e+01	 3.214294394869491e+01	 1.020926186704319e+01
0	 1.142853720630899e+01	 3.285724463525451e+01	 1.024266485785104e+01
0	 1.142853720630899e+01	 3.357154598848280e+01	 1.025733901808627e+01
0	 1.142853720630899e+01	 3.428584784171234e+01	 1.025175972724358e+01
0	 1.142853720630899e+01	 3.500015002827575e+01	 1.022440233578831e+01
0	 1.142853720630899e+01	 3.571445238150555e+01	 1.017374216515650e+01
0	 1.214279010100160e+01	 2.857145634928704e+01	 9.874017763722870e+00
0	 1.214279010100160e+01	 2.928575120249185e+01	 9.937709668749855e+00
0	 1.214279010100160e+01	 3.000004755570248e+01	 9.999317762283864e+00
0	 1.214279010100160e+01	 3.071434524225148e+01	 1.005655945577140e+01
0	 1.214279010100160e+01	 3.142864409547143e+01	 1.010715213833563e+01
0	 1.214279010100160e+01	 3.214294394869492e+01	 1.014881317677686e+01
0	 1.214279010100160e+01	 3.285724463525450e+01	 1.017925991557299e+01
0	 1.214279010100160e+01	 3.357154598848280e+01	 1.019620967687983e+01
0	 1.214279010100160e+01	 3.428584784171235e+01	 1.019737976053134e+01
0	 1.214279010100160e+01	 3.500015002827575e+01	 1.018048744403988e+01
0	 1.214279010100160e+01	 3.571445238150555e+01	 1.014324998259626e+01
0	 1.285704274571142e+01	 2.857145634928703e+01	 9.936388691330288e+00
0	 1.285704274571142e+01	 2.928575120249185e+01	 9.961355353500183e+00
0	 1.285704274571142e+01	 3.000004755570248e+01	 9.992164738015283e+00
0	 1.285704274571142e+01	 3.071434524225148e+01	 1.002599603174729e+01
0	 1.285704274571143e+01	 3.142864409547143e+01	 1.006002840627528e+01
0	 1.285704274571143e+01	 3.214294394869491e+01	 1.009144101788589e+01
0	 1.285704274571142e+01	 3.285724463525451e+01	 1.011741300757378e+01
0	 1.285704274571143e+01	 3.357154598848281e+01	 1.013512350104171e+01
0	 1.285704274571143e+01	 3.428584784171235e+01	 1.014175160870083e+01
0	 1.285704274571142e+01	 3.500015002827575e+01	 1.013447642567066e+01
0	 1.285704274571142e+01	 3.571445238150555e+01	 1.011047703177928e+01
0	 1.357129522376639e+01	 2.857145634928703e+01	 9.992563657227244e+00
0	 1.357129522376640e+01	 2.928575120249185e+01	 9.984438363519178e+00
0	 1.357129522376640e+01	 3.000004755570248e+01	 9.988407598171582e+00
0	 1.357129522376639e+01	 3.071434524225147e+01	 1.000133221823761e+01
0	 1.357129522376640e+01	 3.142864409547143e+01	 1.002007307202026e+01
0	 1.357129522376640e+01	 3.214294394869492e+01	 1.004149099907254e+01
0	 1.357129522376640e+01	 3.285724463525452e+01	 1.006244683019763e+01
0	 1.357129522376640e+01	 3.357154598848280e+01	 1.007980138744900e+01
0	 1.357129522376640e+01	 3.428584784171235e+01	 1.009041548413048e+01
0	 1.357129522376639e+01	 3.500015002827574e+01	 1.009114992479636e+01
0	 1.357129522376639e+01	 3.571445238150555e+01	 1.007886550525139e+01
0	 1.428554761849444e+01	 2.857145634928703e+01	 1.003331939118502e+01
0	 1.428554761849444e+01	 2.928575120249186e+01	 1.000160700960684e+01
0	 1.428554761849444e+01	 3.000004755570247e+01	 9.985987325855076e+00
0	 1.428554761849444e+01	 3.071434524225147e+01	 9.983222767896697e+00
0	 1.428554761849444e+01	 3.142864409547143e+01	 9.990075760192362e+00
0	 1.428554761849444e+01	 3.214294394869491e+01	 1.000330872369650e+01
0	 1.428554761849444e+01	 3.285724463525450e+01	 1.001968407585738e+01
0	 1.428554761849444e+01	 3.357154598848280e+01	 1.003596423061710e+01
0	 1.428554761849444e+01	 3.428584784171235e+01	 1.004891159841167e+01
0	 1.428554761849444e+01	 3.500015002827575e+01	 1.005528858617099e+01
0	 1.428554761849444e+01	 3.571445238150556e+01	 1.005185759731884e+01
0	 7.143009922150928e+00	 3.571445238150556e+01	 1.011603656637111e+01
0	 7.143009922150929e+00	 3.642870477623360e+01	 1.007211960490624e+01
0	 7.143009922150926e+00	 3.714295725428856e+01	 1.004754338121696e+01
0	 7.143009922150927e+00	 3.785720989899839e+01	 1.003830858790766e+01
0	 7.143009922150927e+00	 3.857146279369102e+01	 1.004041591886138e+01
0	 7.143009922150926e+00	 3.928571602169433e+01	 1.004986606923986e+01
0	 7.143009922150926e+00	 3.999996966633628e+01	 1.006265973548347e+01
0	 7.143009922150926e+00	 4.071422381094481e+01	 1.007479761531125e+01
0	 7.143009922150927e+00	 4.142847853884783e+01	 1.008228040772083e+01
0	 7.143009922150926e+00	 4.214273393337328e+01	 1.008110881298850e+01
0	 7.143009922150927e+00	 4.285699007784908e+01	 1.006728353266911e+01
0	 7.857266066626717e+00	 3.571445238150555e+01	 1.017151493823133e+01
0	 7.857266066626719e+00	 3.642870477623360e+01	 1.010656809174914e+01
0	 7.857266066626718e+00	 3.714295725428857e+01	 1.006127507414244e+01
0	 7.857266066626720e+00	 3.785720989899840e+01	 1.003262383781374e+01
0	 7.857266066626719e+00	 3.857146279369100e+01	 1.001760233236026e+01
0	 7.857266066626721e+00	 3.928571602169433e+01	 1.001319850457392e+01
0	 7.857266066626718e+00	 3.999996966633628e+01	 1.001640029844142e+01
0	 7.857266066626718e+00	 4.071422381094482e+01	 1.002419565514417e+01
0	 7.857266066626720e+00	 4.142847853884783e+01	 1.003357251305830e+01
0	 7.857266066626718e+00	 4.214273393337327e+01	 1.004151880775475e+01
0	 7.857266066626720e+00	 4.285699007784908e+01	 1.004502247199919e+01
0	 8.571521461152161e+00	 3.571445238150555e+01	 1.020405942352804e+01
0	 8.571521461152161e+00	 3.642870477623359e+01	 1.012748693535811e+01
0	 8.571521461152162e+00	 3.714295725428857e+01	 1.006965326907831e+01
0	 8.571521461152161e+00	 3.785720989899839e+01	 1.002843971619863e+01
0	 8.571521461152164e+00	 3.857146279369102e+01	 1.000172756259066e+01
0	 8.571521461152162e+00	 3.928571602169433e+01	 9.987398088487776e+00
0	 8.571521461152161e+00	 3.999996966633627e+01	 9.983332568484968e+00
0	 8.571521461152162e+00	 4.071422381094482e+01	 9.987412271538975e+00
0	 8.571521461152162e+00	 4.142847853884781e+01	 9.997518460968250e+00
0	 8.571521461152162e+00	 4.214273393337329e+01	 1.001153239445305e+01
0	 8.571521461152164e+00	 4.285699007784906e+01	 1.002733532403543e+01
0	 9.285776189055182e+00	 3.571445238150556e+01	 1.021711220424481e+01
0	 9.285776189055184e+00	 3.642870477623359e+01	 1.013681304566325e+01
0	 9.285776189055184e+00	 3.714295725428858e+01	 1.007335462937103e+01
0	 9.285776189055184e+00	 3.785720989899840e+01	 1.002541766501535e+01
0	 9.285776189055182e+00	 3.857146279369099e+01	 9.991682854851435e+00
0	 9.285776189055186e+00	 3.928571602169433e+01	 9.970830893742498e+00
0	 9.285776189055181e+00	 3.999996966633628e+01	 9.961542469159799e+00
0	 9.285776189055181e+00	 4.071422381094482e+01	 9.962498261182640e+00
0	 9.285776189055184e+00	 4.142847853884782e+01	 9.972378942498441e+00
0	 9.285776189055184e+00	 4.214273393337329e+01	 9.989865178402773e+00
0	 9.285776189055184e+00	 4.285699007784908e+01	 1.001363762679942e+01
0	 1.000003033366371e+01	 3.571445238150557e+01	 1.021411546412559e+01
0	 1.000003033366371e+01	 3.642870477623359e+01	 1.013648333505656e+01
0	 1.000003033366371e+01	 3.714295725428858e+01	 1.007305582113936e+01
0	 1.000003033366371e+01	 3.785720989899840e+01	 1.002321912897430e+01
0	 1.000003033366371e+01	 3.857146279369099e+01	 9.986359456923886e+00
0	 1.000003033366371e+01	 3.928571602169432e+01	 9.961862995112869e+00
0	 1.000003033366371e+01	 3.999996966633628e+01	 9.949115925428213e+00
0	 1.000003033366371e+01	 4.071422381094481e+01	 9.947504421519159e+00
0	 1.000003033366371e+01	 4.142847853884783e+01	 9.956414648797248e+00
0	 1.000003033366371e+01	 4.214273393337327e+01	 9.975232764436434e+00
0	 1.000003033366371e+01	 4.285699007784907e+01	 1.000334491737311e+01
0	 1.071428397830567e+01	 3.571445238150556e+01	 1.019851138867461e+01
0	 1.071428397830567e+01	 3.642870477623359e+01	 1.012843471839209e+01
0	 1.071428397830567e+01	 3.714295725428858e+01	 1.006943351327457e+01
0	 1.071428397830567e+01	 3.785720989899841e+01	 1.002150555554321e+01
0	 1.071428397830567e+01	 3.857146279369099e+01	 9.984648619071930e+00
0	 1.071428397830567e+01	 3.928571602169433e+01	 9.958860469387432e+00
0	 1.071428397830567e+01	 3.999996966633628e+01	 9.944138863669185e+00
0	 1.071428397830567e+01	 4.071422381094482e+01	 9.940481550749531e+00
0	 1.071428397830567e+01	 4.142847853884785e+01	 9.947886271113660e+00
0	 1.071428397830567e+01	 4.214273393337328e+01	 9.966350756899708e+00
0	 1.071428397830567e+01	 4.285699007784907e+01	 9.995872731898874e+00
0	 1.142853720630899e+01	 3.571445238150555e+01	 1.017374216515650e+01
0	 1.142853720630899e+01	 3.642870477623361e+01	 1.011460411298590e+01
0	 1.142853720630899e+01	 3.714295725428857e+01	 1.006316437744037e+01
0	 1.142853720630899e+01	 3.785720989899840e+01	 1.001993839494725e+01
0	 1.142853720630899e+01	 3.857146279369100e+01	 9.985441594042054e+00
0	 1.142853720630899e+01	 3.928571602169433e+01	 9.960189395368467e+00
0	 1.142853720630899e+01	 3.999996966633628e+01	 9.944697211678347e+00
0	 1.142853720630899e+01	 4.071422381094479e+01	 9.939480447831816e+00
0	 1.142853720630899e+01	 4.142847853884783e+01	 9.945054500797266e+00
0	 1.142853720630899e+01	 4.214273393337327e+01	 9.961934759651440e+00
0	 1.142853720630899e+01	 4.285699007784908e+01	 9.990636605579470e+00
0	 1.214279010100160e+01	 3.571445238150555e+01	 1.014324998259626e+01
0	 1.214279010100160e+01	 3.642870477623360e+01	 1.009692843861612e+01
0	 1.214279010100160e+01	 3.714295725428856e+01	 1.005492508807297e+01
0	 1.214279010100160e+01	 3.785720989899840e+01	 1.001817910016901e+01
0	 1.214279010100160e+01	 3.857146279369100e+01	 9.987629637063360e+00
0	 1.214279010100160e+01	 3.928571602169431e+01	 9.964215853872030e+00
0	 1.214279010100160e+01	 3.999996966633629e+01	 9.948876898667978e+00
0	 1.214279010100160e+01	 4.071422381094482e+01	 9.942551912481095e+00
0	 1.214279010100160e+01	 4.142847853884783e+01	 9.946180029298304e+00
0	 1.214279010100160e+01	 4.214273393337327e+01	 9.960700376063579e+00
0	 1.214279010100160e+01	 4.285699007784908e+01	 9.987052072678011e+00
0	 1.285704274571142e+01	 3.571445238150555e+01	 1.011047703177928e+01
0	 1.285704274571143e+01	 3.642870477623360e+01	 1.007734461752298e+01
0	 1.285704274571142e+01	 3.714295725428856e+01	 1.004539232238111e+01
0	 1.285704274571142e+01	 3.785720989899839e+01	 1.001588912694854e+01
0	 1.285704274571142e+01	 3.857146279369100e+01	 9.990104005847588e+00
0	 1.285704274571142e+01	 3.928571602169433e+01	 9.969305927728023e+00
0	 1.285704274571142e+01	 3.999996966633628e+01	 9.954763855267084e+00
0	 1.285704274571142e+01	 4.071422381094481e+01	 9.947746745169525e+00
0	 1.285704274571142e+01	 4.142847853884783e+01	 9.949523548167615e+00
0	 1.285704274571142e+01	 4.214273393337328e+01	 9.961363209021261e+00
0	 1.285704274571142e+01	 4.285699007784907e+01	 9.984534666517991e+00
0	 1.357129522376639e+01	 3.571445238150555e+01	 1.007886550525139e+01
0	 1.357129522376639e+01	 3.642870477623359e+01	 1.005778957440877e+01
0	 1.357129522376639e+01	 3.714295725428857e+01	 1.003524276034607e+01
0	 1.357129522376640e+01	 3.785720989899841e+01	 1.001272993378338e+01
0	 1.357129522376639e+01	 3.857146279369101e+01	 9.991755960589153e+00
0	 1.357129522376639e+01	 3.928571602169433e+01	 9.973825701780132e+00
0	 1.357129522376639e+01	 3.999996966633628e+01	 9.960444013521359e+00
0	 1.357129522376639e+01	 4.071422381094480e+01	 9.953115747126269e+00
0	 1.357129522376640e+01	 4.142847853884783e+01	 9.953345749056661e+00
0	 1.357129522376640e+01	 4.214273393337328e+01	 9.962638860922745e+00
0	 1.357129522376640e+01	 4.285699007784908e+01	 9.982499919483267e+00
0	 1.428554761849444e+01	 3.571445238150556e+01	 1.005185759731884e+01
0	 1.428554761849444e+01	 3.642870477623360e+01	 1.004020023643798e+01
0	 1.428554761849444e+01	 3.714295725428857e+01	 1.002515308472170e+01
0	 1.428554761849445e+01	 3.785720989899840e+01	 1.000836298192858e+01
0	 1.428554761849444e+01	 3.857146279369100e+01	 9.991476763965142e+00
0	 1.428554761849444e+01	 3.928571602169433e+01	 9.976141262885868e+00
0	 1.428554761849444e+01	 3.999996966633629e+01	 9.964003306893206e+00
0	 1.428554761849444e+01	 4.071422381094481e+01	 9.956709720337603e+00
0	 1.428554761849444e+01	 4.142847853884783e+01	 9.955907323717501e+00
0	 1.428554761849444e+01	 4.214273393337327e+01	 9.963242933679442e+00
0	 1.428554761849445e+01	 4.285699007784908e+01	 9.980363363018046e+00
0	 7.143009922150927e+00	 4.285699007784908e+01	 1.006728353266910e+01
0	 7.143009922150927e+00	 4.357129694500738e+01	 1.004381626279603e+01
0	 7.143009922150926e+00	 4.428560406221391e+01	 1.001832769065377e+01
0	 7.143009922150925e+00	 4.499991084612201e+01	 9.993727529883119e+00
0	 7.143009922150927e+00	 4.571421671338501e+01	 9.972925542621629e+00
0	 7.143009922150927e+00	 4.642852108065613e+01	 9.958831539503926e+00
0	 7.143009922150925e+00	 4.714282336458874e+01	 9.954355379662761e+00
0	 7.143009922150926e+00	 4.785712298183612e+01	 9.962406970730495e+00
0	 7.143009922150928e+00	 4.857141934905161e+01	 9.985896268841365e+00
0	 7.143009922150927e+00	 4.928571188288848e+01	 1.002773327863412e+01
0	 7.143009922150927e+00	 5.000000000000001e+01	 1.009082805325544e+01
0	 7.857266066626720e+00	 4.285699007784908e+01	 1.004502247199919e+01
0	 7.857266066626719e+00	 4.357129694500738e+01	 1.004151753110618e+01
0	 7.857266066626719e+00	 4.428560406221392e+01	 1.003199716640263e+01
0	 7.857266066626719e+00	 4.499991084612203e+01	 1.001878811249260e+01
0	 7.857266066626721e+00	 4.571421671338501e+01	 1.000421711927653e+01
0	 7.857266066626720e+00	 4.642852108065613e+01	 9.990610951951590e+00
0	 7.857266066626719e+00	 4.714282336458874e+01	 9.980296391012111e+00
0	 7.857266066626720e+00	 4.785712298183614e+01	 9.975600232250304e+00
0	 7.857266066626717e+00	 4.857141934905159e+01	 9.978849286756921e+00
0	 7.857266066626719e+00	 4.928571188288846e+01	 9.992370380922489e+00
0	 7.857266066626719e+00	 5.000000000000001e+01	 1.001849035643827e+01
0	 8.571521461152164e+00	 4.285699007784906e+01	 1.002733532403543e+01
0	 8.571521461152164e+00	 4.357129694500738e+01	 1.003844452175801e+01
0	 8.571521461152162e+00	 4.428560406221392e+01	 1.004097457059406e+01
0	 8.571521461152161e+00	 4.499991084612203e+01	 1.003670603581378e+01
0	 8.571521461152164e+00	 4.571421671338500e+01	 1.002741947301526e+01
0	 8.571521461152164e+00	 4.642852108065613e+01	 1.001489542812465e+01
0	 8.571521461152164e+00	 4.714282336458874e+01	 1.000091443739612e+01
0	 8.571521461152164e+00	 4.785712298183612e+01	 9.987257027412067e+00
0	 8.571521461152164e+00	 4.857141934905161e+01	 9.975703715082643e+00
0	 8.571521461152166e+00	 4.928571188288846e+01	 9.968035007645664e+00
0	 8.571521461152161e+00	 5.000000000000001e+01	 9.966031402666093e+00
0	 9.285776189055184e+00	 4.285699007784908e+01	 1.001363762679942e+01
0	 9.285776189055184e+00	 4.357129694500739e+01	 1.003473137190115e+01
0	 9.285776189055184e+00	 4.428560406221393e+01	 1.004590484137126e+01
0	 9.285776189055181e+00	 4.499991084612202e+01	 1.004842924236495e+01
0	 9.285776189055184e+00	 4.571421671338499e+01	 1.004357575461026e+01
0	 9.285776189055186e+00	 4.642852108065615e+01	 1.003261553040813e+01
0	 9.285776189055184e+00	 4.714282336458876e+01	 1.001681969463221e+01
0	 9.285776189055182e+00	 4.785712298183613e+01	 9.997459344728394e+00
0	 9.285776189055182e+00	 4.857141934905159e+01	 9.975805550713748e+00
0	 9.285776189055181e+00	 4.928571188288846e+01	 9.953129355175426e+00
0	 9.285776189055182e+00	 5.000000000000000e+01	 9.930701773269089e+00
0	 1.000003033366371e+01	 4.285699007784907e+01	 1.000334491737311e+01
0	 1.000003033366371e+01	 4.357129694500738e+01	 1.003051221747796e+01
0	 1.000003033366371e+01	 4.428560406221392e+01	 1.004743291557730e+01
0	 1.000003033366371e+01	 4.499991084612203e+01	 1.005490567342023e+01
0	 1.000003033366371e+01	 4.571421671338500e+01	 1.005372911376890e+01
0	 1.000003033366371e+01	 4.642852108065613e+01	 1.004470182039865e+01
0	 1.000003033366371e+01	 4.714282336458874e+01	 1.002862233809754e+01
0	 1.000003033366371e+01	 4.785712298183614e+01	 1.000628917266554e+01
0	 1.000003033366371e+01	 4.857141934905159e+01	 9.978500790913113e+00
0	 1.000003033366371e+01	 4.928571188288844e+01	 9.946055620659461e+00
0	 1.000003033366371e+01	 5.000000000000000e+01	 9.909752050730125e+00
0	 1.071428397830567e+01	 4.285699007784907e+01	 9.995872731898871e+00
0	 1.071428397830567e+01	 4.357129694500738e+01	 1.002592119322362e+01
0	 1.071428397830567e+01	 4.428560406221392e+01	 1.004620372875520e+01
0	 1.071428397830567e+01	 4.499991084612203e+01	 1.005708326900971e+01
0	 1.071428397830567e+01	 4.571421671338499e+01	 1.005892269913374e+01
0	 1.071428397830567e+01	 4.642852108065615e+01	 1.005208485890444e+01
0	 1.071428397830566e+01	 4.714282336458873e+01	 1.003693254272895e+01
0	 1.071428397830567e+01	 4.785712298183613e+01	 1.001382849964346e+01
0	 1.071428397830567e+01	 4.857141934905161e+01	 9.983135433311407e+00
0	 1.071428397830567e+01	 4.928571188288846e+01	 9.945216002021493e+00
0	 1.071428397830567e+01	 4.999999999999999e+01	 9.900432818684887e+00
0	 1.142853720630899e+01	 4.285699007784908e+01	 9.990636605579470e+00
0	 1.142853720630899e+01	 4.357129694500737e+01	 1.002109243266610e+01
0	 1.142853720630899e+01	 4.428560406221392e+01	 1.004286221514779e+01
0	 1.142853720630899e+01	 4.499991084612203e+01	 1.005590996791932e+01
0	 1.142853720630899e+01	 4.571421671338499e+01	 1.006019965828232e+01
0	 1.142853720630899e+01	 4.642852108065613e+01	 1.005569520594529e+01
0	 1.142853720630899e+01	 4.714282336458874e+01	 1.004236048302307e+01
0	 1.142853720630899e+01	 4.785712298183613e+01	 1.002015931403575e+01
0	 1.142853720630899e+01	 4.857141934905161e+01	 9.989055475906859e+00
0	 1.142853720630899e+01	 4.928571188288846e+01	 9.949012697961185e+00
0	 1.142853720630899e+01	 5.000000000000000e+01	 9.899994661921751e+00
0	 1.214279010100160e+01	 4.285699007784908e+01	 9.987052072678010e+00
0	 1.214279010100160e+01	 4.357129694500738e+01	 1.001616006812614e+01
0	 1.214279010100160e+01	 4.428560406221393e+01	 1.003805330769784e+01
0	 1.214279010100160e+01	 4.499991084612202e+01	 1.005233370769096e+01
0	 1.214279010100159e+01	 4.571421671338499e+01	 1.005860313772726e+01
0	 1.214279010100160e+01	 4.642852108065613e+01	 1.005646342075261e+01
0	 1.214279010100160e+01	 4.714282336458875e+01	 1.004551633303621e+01
0	 1.214279010100160e+01	 4.785712298183612e+01	 1.002536360416974e+01
0	 1.214279010100160e+01	 4.857141934905160e+01	 9.995606917065508e+00
0	 1.214279010100160e+01	 4.928571188288846e+01	 9.955847907954212e+00
0	 1.214279010100160e+01	 5.000000000000000e+01	 9.905688166382170e+00
0	 1.285704274571142e+01	 4.285699007784907e+01	 9.984534666517991e+00
0	 1.285704274571142e+01	 4.357129694500737e+01	 1.001125823071727e+01
0	 1.285704274571143e+01	 4.428560406221393e+01	 1.003242193804797e+01
0	 1.285704274571142e+01	 4.499991084612201e+01	 1.004730242462232e+01
0	 1.285704274571142e+01	 4.571421671338500e+01	 1.005517628291625e+01
0	 1.285704274571143e+01	 4.642852108065614e+01	 1.005532006176935e+01
0	 1.285704274571142e+01	 4.714282336458875e+01	 1.004701026638443e+01
0	 1.285704274571142e+01	 4.785712298183612e+01	 1.002952335832649e+01
0	 1.285704274571142e+01	 4.857141934905160e+01	 1.000213575552109e+01
0	 1.285704274571142e+01	 4.928571188288846e+01	 9.964123832252358e+00
0	 1.285704274571142e+01	 4.999999999999999e+01	 9.914763919160169e+00
0	 1.357129522376640e+01	 4.285699007784908e+01	 9.982499919483267e+00
0	 1.357129522376639e+01	 4.357129694500737e+01	 1.000652105034577e+01
0	 1.357129522376639e+01	 4.428560406221392e+01	 1.002661303654062e+01
0	 1.357129522376639e+01	 4.499991084612203e+01	 1.004176405376704e+01
0	 1.357129522376639e+01	 4.571421671338499e+01	 1.005096223823197e+01
0	 1.357129522376640e+01	 4.642852108065613e+01	 1.005319568665010e+01
0	 1.357129522376640e+01	 4.714282336458874e+01	 1.004745245624351e+01
0	 1.357129522376639e+01	 4.785712298183612e+01	 1.003272056474064e+01
0	 1.357129522376639e+01	 4.857141934905160e+01	 1.000798799037501e+01
0	 1.357129522376639e+01	 4.928571188288845e+01	 9.972242671883265e+00
0	 1.357129522376639e+01	 5.000000000000000e+01	 9.924472508502724e+00
0	 1.428554761849445e+01	 4.285699007784908e+01	 9.980363363018046e+00
0	 1.428554761849444e+01	 4.357129694500737e+01	 1.000208265571065e+01
0	 1.428554761849444e+01	 4.428560406221393e+01	 1.002127153221812e+01
0	 1.428554761849444e+01	 4.499991084612204e+01	 1.003666652893459e+01
0	 1.428554761849444e+01	 4.571421671338500e+01	 1.004700414699214e+01
0	 1.428554761849444e+01	 4.642852108065614e+01	 1.005102085226097e+01
0	 1.428554761849445e+01	 4.714282336458874e+01	 1.004745307534890e+01
0	 1.428554761849444e+01	 4.785712298183613e+01	 1.003503721160063e+01
0	 1.428554761849444e+01	 4.857141934905160e+01	 1.001250962109646e+01
0	 1.428554761849445e+01	 4.928571188288846e+01	 9.978606628650731e+00
0	 1.428554761849444e+01	 5.000000000000000e+01	 9.932064523809549e+00
0	 1.428554761849444e+01	 0.000000000000000e+00	 3.774923578773613e+01
0	 1.428554761849444e+01	 7.142881171115513e-01	 2.780814490151235e+01
0	 1.428554761849444e+01	 1.428580650948410e+00	 1.943263838660531e+01
0	 1.428554761849444e+01	 2.142877018163878e+00	 1.256747080196059e+01
0	 1.428554761849445e+01	 2.857176635411265e+00	 7.157402969478291e+00
0	 1.428554761849444e+01	 3.571478919343873e+00	 3.147201973557268e+00
0	 1.428554761849444e+01	 4.285783286615009e+00	 4.816411607160185e-01
0	 1.428554761849444e+01	 5.000089153877974e+00	-8.944998607097479e-01
0	 1.428554761849444e+01	 5.714395937786081e+00	-1.036435220792731e+00
0	 1.428554761849444e+01	 6.428703054992629e+00	 6.272118369541335e-04
0	 1.428554761849444e+01	 7.143009922150925e+00	 2.161485829919506e+00
0	 1.499984997172426e+01	 0.000000000000000e+00	 4.081406618074192e+01
0	 1.499984997172426e+01	 7.142881171115516e-01	 3.037188103349607e+01
0	 1.499984997172426e+01	 1.428580650948409e+00	 2.144493742407453e+01
0	 1.499984997172426e+01	 2.142877018163878e+00	 1.400617865538998e+01
0	 1.499984997172427e+01	 2.857176635411265e+00	 8.028555042439066e+00
0	 1.499984997172426e+01	 3.571478919343873e+00	 3.485023911792348e+00
0	 1.499984997172426e+01	 4.285783286615008e+00	 3.485496011701033e-01
0	 1.499984997172426e+01	 5.000089153877974e+00	-1.407896540895986e+00
0	 1.499984997172426e+01	 5.714395937786080e+00	-1.811336155315245e+00
0	 1.499984997172426e+01	 6.428703054992627e+00	-8.887838726045473e-01
0	 1.499984997172427e+01	 7.143009922150928e+00	 1.332752687031070e+00
0	 1.571415215828766e+01	 0.000000000000000e+00	 4.060698278880471e+01
0	 1.571415215828766e+01	 7.142881171115513e-01	 3.061094714507377e+01
0	 1.571415215828766e+01	 1.428580650948409e+00	 2.197291715730117e+01
0	 1.571415215828766e+01	 2.142877018163879e+00	 1.468939053847791e+01
0	 1.571415215828766e+01	 2.857176635411264e+00	 8.756872063580088e+00
0	 1.571415215828766e+01	 3.571478919343873e+00	 4.171873569055256e+00
0	 1.571415215828766e+01	 4.285783286615008e+00	 9.309139523950738e-01
0	 1.571415215828766e+01	 5.000089153877976e+00	-9.694808282054876e-01
0	 1.571415215828766e+01	 5.714395937786080e+00	-1.532777754102409e+00
0	 1.571415215828766e+01	 6.428703054992629e+00	-7.624367463704251e-01
0	 1.571415215828766e+01	 7.143009922150927e+00	 1.338089334115712e+00
0	 1.642845401151722e+01	 0.000000000000000e+00	 3.776164556767574e+01
0	 1.642845401151721e+01	 7.142881171115510e-01	 2.896340864169828e+01
0	 1.642845401151721e+01	 1.428580650948410e+00	 2.128494111709174e+01
0	 1.642845401151721e+01	 2.142877018163879e+00	 1.474165993029153e+01
0	 1.642845401151722e+01	 2.857176635411265e+00	 9.348988557280155e+00
0	 1.642845401151721e+01	 3.571478919343872e+00	 5.122357013111179e+00
0	 1.642845401151721e+01	 4.285783286615008e+00	 2.077201851513222e+00
0	 1.642845401151721e+01	 5.000089153877974e+00	 2.289661645740588e-01
0	 1.642845401151721e+01	 5.714395937786080e+00	-4.069004174951776e-01
0	 1.642845401151722e+01	 6.428703054992629e+00	 1.850582734843339e-01
0	 1.642845401151721e+01	 7.143009922150928e+00	 2.020304943583501e+00
0	 1.714275536474550e+01	 0.000000000000000e+00	 3.291171481976789e+01
0	 1.714275536474550e+01	 7.142881171115513e-01	 2.586733108976171e+01
0	 1.714275536474550e+01	 1.428580650948410e+00	 1.964937285957490e+01
0	 1.714275536474550e+01	 2.142877018163879e+00	 1.428754024321379e+01
0	 1.714275536474550e+01	 2.857176635411265e+00	 9.811538926343502e+00
0	 1.714275536474549e+01	 3.571478919343872e+00	 6.251080165881846e+00
0	 1.714275536474550e+01	 4.285783286615008e+00	 3.635880789661412e+00
0	 1.714275536474550e+01	 5.000089153877976e+00	 1.995663196159833e+00
0	 1.714275536474550e+01	 5.714395937786080e+00	 1.360155354298368e+00
0	 1.714275536474550e+01	 6.428703054992629e+00	 1.759090803308735e+00
0	 1.714275536474550e+01	 7.143009922150927e+00	 3.222208652668097e+00
0	 1.785705605130510e+01	 0.000000000000000e+00	 2.669085119415707e+01
0	 1.785705605130510e+01	 7.142881171115514e-01	 2.176078021659643e+01
0	 1.785705605130510e+01	 1.428580650948410e+00	 1.733457596620219e+01
0	 1.785705605130510e+01	 2.142877018163878e+00	 1.345158482294373e+01
0	 1.785705605130510e+01	 2.857176635411265e+00	 1.015115745199985e+01
0	 1.785705605130510e+01	 3.571478919343873e+00	 7.472648803445454e+00
0	 1.785705605130509e+01	 4.285783286615009e+00	 5.455418111990848e+00
0	 1.785705605130509e+01	 5.000089153877974e+00	 4.138828896773593e+00
0	 1.785705605130509e+01	 5.714395937786081e+00	 3.562248961202688e+00
0	 1.785705605130510e+01	 6.428703054992631e+00	 3.765050392855378e+00
0	 1.785705605130510e+01	 7.143009922150926e+00	 4.786609563426373e+00
0	 1.857135590452858e+01	 0.000000000000000e+00	 1.973271568658492e+01
0	 1.857135590452859e+01	 7.142881171115513e-01	 1.708182191047661e+01
0	 1.857135590452859e+01	 1.428580650948409e+00	 1.460891404374847e+01
0	 1.857135590452858e+01	 2.142877018163879e+00	 1.235834694849647e+01
0	 1.857135590452859e+01	 2.857176635411265e+00	 1.037447829390405e+01
0	 1.857135590452858e+01	 3.571478919343873e+00	 8.701668556035974e+00
0	 1.857135590452859e+01	 4.285783286615008e+00	 7.384281017666325e+00
0	 1.857135590452858e+01	 5.000089153877976e+00	 6.466681768140875e+00
0	 1.857135590452859e+01	 5.714395937786082e+00	 5.993239703274011e+00
0	 1.857135590452858e+01	 6.428703054992628e+00	 6.008326525279860e+00
0	 1.857135590452858e+01	 7.143009922150925e+00	 6.556316742737909e+00
0	 1.928565475774854e+01	 0.000000000000000e+00	 1.267096963946237e+01
0	 1.928565475774854e+01	 7.142881171115513e-01	 1.226852222062010e+01
0	 1.928565475774854e+01	 1.428580650948409e+00	 1.174075072431295e+01
0	 1.928565475774854e+01	 2.142877018163878e+00	 1.113237983220307e+01
0	 1.928565475774854e+01	 2.857176635411265e+00	 1.048813549013526e+01
0	 1.928565475774854e+01	 3.571478919343872e+00	 9.852744908042132e+00
0	 1.928565475774854e+01	 4.285783286615009e+00	 9.270936559864968e+00
0	 1.928565475774854e+01	 5.000089153877976e+00	 8.787440183489824e+00
0	 1.928565475774854e+01	 5.714395937786080e+00	 8.446986780699360e+00
0	 1.928565475774854e+01	 6.428703054992630e+00	 8.294308617139954e+00
0	 1.928565475774854e+01	 7.143009922150928e+00	 8.374139222304438e+00
0	 1.999995244429753e+01	 0.000000000000000e+00	 6.139274741874924e+00
0	 1.999995244429753e+01	 7.142881171115514e-01	 7.758947357191304e+00
0	 1.999995244429754e+01	 1.428580650948409e+00	 8.998449665319749e+00
0	 1.999995244429753e+01	 2.142877018163878e+00	 9.898236619710138e+00
0	 1.999995244429753e+01	 2.857176635411265e+00	 1.049876295719576e+01
0	 1.999995244429753e+01	 3.571478919343873e+00	 1.084048319800566e+01
0	 1.999995244429753e+01	 4.285783286615008e+00	 1.096385164577449e+01
0	 1.999995244429754e+01	 5.000089153877976e+00	 1.090932238754952e+01
0	 1.999995244429753e+01	 5.714395937786080e+00	 1.071734929379510e+01
0	 1.999995244429753e+01	 6.428703054992630e+00	 1.042838601839452e+01
0	 1.999995244429753e+01	 7.143009922150927e+00	 1.008288599864904e+01
0	 2.071424879750816e+01	 0.000000000000000e+00	 7.712930295886977e-01
0	 2.071424879750816e+01	 7.142881171115513e-01	 3.991163691304187e+00
0	 2.071424879750816e+01	 1.428580650948410e+00	 6.650374549519064e+00
0	 2.071424879750816e+01	 2.142877018163879e+00	 8.780470389979156e+00
0	 2.071424879750816e+01	 2.857176635411265e+00	 1.041299449000929e+01
0	 2.071424879750816e+01	 3.571478919343873e+00	 1.157948861861919e+01
0	 2.071424879750815e+01	 4.285783286615008e+00	 1.231149303659089e+01
0	 2.071424879750815e+01	 5.000089153877976e+00	 1.264054649654780e+01
0	 2.071424879750815e+01	 5.714395937786080e+00	 1.259818624300521e+01
0	 2.071424879750815e+01	 6.428703054992628e+00	 1.221594801240220e+01
0	 2.071424879750816e+01	 7.143009922150927e+00	 1.152536603311534e+01
0	 2.142854365071296e+01	 0.000000000000000e+00	-2.799313114942027e+00
0	 2.142854365071296e+01	 7.142881171115512e-01	 1.403237755026136e+00
0	 2.142854365071297e+01	 1.428580650948409e+00	 4.964889084988037e+00
0	 2.142854365071296e+01	 2.142877018163878e+00	 7.903634155285598e+00
0	 2.142854365071296e+01	 2.857176635411264e+00	 1.023746376191904e+01
0	 2.142854365071296e+01	 3.571478919343873e+00	 1.198436621672358e+01
0	 2.142854365071296e+01	 4.285783286615009e+00	 1.316232734751568e+01
0	 2.142854365071296e+01	 5.000089153877975e+00	 1.378933049820886e+01
0	 2.142854365071296e+01	 5.714395937786081e+00	 1.388335652889914e+01
0	 2.142854365071296e+01	 6.428703054992630e+00	 1.346238381591989e+01
0	 2.142854365071297e+01	 7.143009922150927e+00	 1.254438825186650e+01
0	 1.428554761849444e+01	 7.143009922150925e+00	 2.161485829919506e+00
0	 1.428554761849444e+01	 7.857266066626719e+00	 4.630509506485861e+00
0	 1.428554761849444e+01	 8.571521461152162e+00	 6.649370077898633e+00
0	 1.428554761849444e+01	 9.285776189055181e+00	 8.248257316491564e+00
0	 1.428554761849444e+01	 1.000003033366371e+01	 9.457361184388180e+00
0	 1.428554761849444e+01	 1.071428397830567e+01	 1.030687183350405e+01
0	 1.428554761849444e+01	 1.142853720630899e+01	 1.082697960554884e+01
0	 1.428554761849444e+01	 1.214279010100160e+01	 1.104787503202794e+01
0	 1.428554761849444e+01	 1.285704274571142e+01	 1.099974883424381e+01
0	 1.428554761849444e+01	 1.357129522376639e+01	 1.071279192329701e+01
0	 1.428554761849444e+01	 1.428554761849444e+01	 1.021719540008684e+01
0	 1.499984997172427e+01	 7.143009922150928e+00	 1.332752687031071e+00
0	 1.499984997172426e+01	 7.857266066626720e+00	 3.963497412238277e+00
0	 1.499984997172426e+01	 8.571521461152161e+00	 6.147800893004455e+00
0	 1.499984997172426e+01	 9.285776189055182e+00	 7.909249968469834e+00
0	 1.499984997172427e+01	 1.000003033366371e+01	 9.271431695706191e+00
0	 1.499984997172426e+01	 1.071428397830567e+01	 1.025793334971949e+01
0	 1.499984997172426e+01	 1.142853720630899e+01	 1.089234242345217e+01
0	 1.499984997172426e+01	 1.214279010100160e+01	 1.119824662778501e+01
0	 1.499984997172426e+01	 1.285704274571142e+01	 1.119923389153866e+01
0	 1.499984997172426e+01	 1.357129522376639e+01	 1.091889236147480e+01
0	 1.499984997172427e+01	 1.428554761849445e+01	 1.038081040229679e+01
0	 1.571415215828766e+01	 7.143009922150927e+00	 1.338089334115712e+00
0	 1.571415215828766e+01	 7.857266066626718e+00	 3.890136525112608e+00
0	 1.571415215828766e+01	 8.571521461152162e+00	 6.029516789676255e+00
0	 1.571415215828766e+01	 9.285776189055182e+00	 7.773916089071390e+00
0	 1.571415215828766e+01	 1.000003033366371e+01	 9.141020605919170e+00
0	 1.571415215828766e+01	 1.071428397830567e+01	 1.014851674419983e+01
0	 1.571415215828766e+01	 1.142853720630899e+01	 1.081409112925501e+01
0	 1.571415215828766e+01	 1.214279010100160e+01	 1.115543060778964e+01
0	 1.571415215828766e+01	 1.285704274571142e+01	 1.119022224787347e+01
0	 1.571415215828766e+01	 1.357129522376639e+01	 1.093615333894223e+01
0	 1.571415215828766e+01	 1.428554761849444e+01	 1.041091139179833e+01
0	 1.642845401151721e+01	 7.143009922150928e+00	 2.020304943583501e+00
0	 1.642845401151721e+01	 7.857266066626720e+00	 4.300384144988922e+00
0	 1.642845401151721e+01	 8.571521461152161e+00	 6.225198002202481e+00
0	 1.642845401151722e+01	 9.285776189055184e+00	 7.807233617170561e+00
0	 1.642845401151722e+01	 1.000003033366371e+01	 9.058978296401357e+00
0	 1.642845401151721e+01	 1.071428397830567e+01	 9.992919550967359e+00
0	 1.642845401151722e+01	 1.142853720630899e+01	 1.062154509650744e+01
0	 1.642845401151721e+01	 1.214279010100160e+01	 1.095734285322865e+01
0	 1.642845401151722e+01	 1.285704274571142e+01	 1.101280094590761e+01
0	 1.642845401151722e+01	 1.357129522376639e+01	 1.080040770389154e+01
0	 1.642845401151721e+01	 1.428554761849444e+01	 1.033265166109900e+01
0	 1.714275536474550e+01	 7.143009922150927e+00	 3.222208652668097e+00
0	 1.714275536474550e+01	 7.857266066626718e+00	 5.084197560889184e+00
0	 1.714275536474550e+01	 8.571521461152161e+00	 6.665524770969467e+00
0	 1.714275536474550e+01	 9.285776189055184e+00	 7.974180508315807e+00
0	 1.714275536474550e+01	 1.000003033366371e+01	 9.018155170380258e+00
0	 1.714275536474550e+01	 1.071428397830567e+01	 9.805439326662171e+00
0	 1.714275536474550e+01	 1.142853720630899e+01	 1.034402371870994e+01
0	 1.714275536474550e+01	 1.214279010100160e+01	 1.064189926012253e+01
0	 1.714275536474550e+01	 1.285704274571143e+01	 1.070705703655061e+01
0	 1.714275536474550e+01	 1.357129522376640e+01	 1.054748830569747e+01
0	 1.714275536474550e+01	 1.428554761849444e+01	 1.017118449731956e+01
0	 1.785705605130510e+01	 7.143009922150926e+00	 4.786609563426373e+00
0	 1.785705605130510e+01	 7.857266066626718e+00	 6.131534050976918e+00
0	 1.785705605130510e+01	 8.571521461152162e+00	 7.281177342461127e+00
0	 1.785705605130510e+01	 9.285776189055186e+00	 8.239734734729456e+00
0	 1.785705605130510e+01	 1.000003033366371e+01	 9.011401652936383e+00
0	 1.785705605130509e+01	 1.071428397830567e+01	 9.600373650542014e+00
0	 1.785705605130510e+01	 1.142853720630899e+01	 1.001084640931334e+01
0	 1.785705605130509e+01	 1.214279010100160e+01	 1.024701573932541e+01
0	 1.785705605130510e+01	 1.285704274571142e+01	 1.031307757896220e+01
0	 1.785705605130510e+01	 1.357129522376639e+01	 1.021322799491725e+01
0	 1.785705605130510e+01	 1.428554761849444e+01	 9.951663182194105e+00
0	 1.857135590452858e+01	 7.143009922150925e+00	 6.556316742737911e+00
0	 1.857135590452858e+01	 7.857266066626718e+00	 7.332350882556801e+00
0	 1.857135590452858e+01	 8.571521461152162e+00	 8.002835969258648e+00
0	 1.857135590452858e+01	 9.285776189055182e+00	 8.568874285307498e+00
0	 1.857135590452859e+01	 1.000003033366371e+01	 9.031568191003162e+00
0	 1.857135590452859e+01	 1.071428397830567e+01	 9.392020124482192e+00
0	 1.857135590452859e+01	 1.142853720630899e+01	 9.651332601718705e+00
0	 1.857135590452859e+01	 1.214279010100160e+01	 9.810608216525015e+00
0	 1.857135590452858e+01	 1.285704274571142e+01	 9.870949640552249e+00
0	 1.857135590452858e+01	 1.357129522376639e+01	 9.833459623290658e+00
0	 1.857135590452859e+01	 1.428554761849444e+01	 9.699240992069990e+00
0	 1.928565475774854e+01	 7.143009922150928e+00	 8.374139222304438e+00
0	 1.928565475774854e+01	 7.857266066626719e+00	 8.576605312074275e+00
0	 1.928565475774854e+01	 8.571521461152164e+00	 8.761180910040245e+00
0	 1.928565475774854e+01	 9.285776189055184e+00	 8.926577165619429e+00
0	 1.928565475774854e+01	 1.000003033366371e+01	 9.071505253366810e+00
0	 1.928565475774854e+01	 1.071428397830567e+01	 9.194676372975573e+00
0	 1.928565475774854e+01	 1.142853720630899e+01	 9.294801749277418e+00
0	 1.928565475774854e+01	 1.214279010100160e+01	 9.370592632242719e+00
0	 1.928565475774854e+01	 1.285704274571142e+01	 9.420760296980804e+00
0	 1.928565475774854e+01	 1.357129522376639e+01	 9.444016043740016e+00
0	 1.928565475774854e+01	 1.428554761849444e+01	 9.439071197907859e+00
0	 1.999995244429753e+01	 7.143009922150927e+00	 1.008288599864904e+01
0	 1.999995244429753e+01	 7.857266066626718e+00	 9.754254585115078e+00
0	 1.999995244429754e+01	 8.571521461152161e+00	 9.486892429580886e+00
0	 1.999995244429753e+01	 9.285776189055181e+00	 9.277821397908157e+00
0	 1.999995244429754e+01	 1.000003033366371e+01	 9.124063330666390e+00
0	 1.999995244429753e+01	 1.071428397830567e+01	 9.022640043132636e+00
0	 1.999995244429754e+01	 1.142853720630899e+01	 8.970573325291223e+00
0	 1.999995244429753e+01	 1.214279010100159e+01	 8.964884941833612e+00
0	 1.999995244429753e+01	 1.285704274571142e+01	 9.002596632158202e+00
0	 1.999995244429753e+01	 1.357129522376639e+01	 9.080730110370224e+00
0	 1.999995244429753e+01	 1.428554761849444e+01	 9.196307065281683e+00
0	 2.071424879750816e+01	 7.143009922150927e+00	 1.152536603311534e+01
0	 2.071424879750815e+01	 7.857266066626718e+00	 1.075525593640474e+01
0	 2.071424879750816e+01	 8.571521461152162e+00	 1.011065079875210e+01
0	 2.071424879750816e+01	 9.285776189055184e+00	 9.587585021089975e+00
0	 2.071424879750815e+01	 1.000003033366371e+01	 9.182092935393880e+00
0	 2.071424879750816e+01	 1.071428397830566e+01	 8.890208804681590e+00
0	 2.071424879750815e+01	 1.142853720630899e+01	 8.707966823012425e+00
0	 2.071424879750815e+01	 1.214279010100160e+01	 8.631401115486666e+00
0	 2.071424879750816e+01	 1.285704274571142e+01	 8.656545738245113e+00
0	 2.071424879750816e+01	 1.357129522376640e+01	 8.779434678468784e+00
0	 2.071424879750816e+01	 1.428554761849445e+01	 8.996101854378651e+00
0	 2.142854365071297e+01	 7.143009922150927e+00	 1.254438825186651e+01
0	 2.142854365071296e+01	 7.857266066626718e+00	 1.146956658980804e+01
0	 2.142854365071296e+01	 8.571521461152164e+00	 1.056313629452176e+01
0	 2.142854365071296e+01	 9.285776189055184e+00	 9.820846090754561e+00
0	 2.142854365071297e+01	 1.000003033366371e+01	 9.238444601894320e+00
0	 2.142854365071296e+01	 1.071428397830567e+01	 8.811680349968690e+00
0	 2.142854365071296e+01	 1.142853720630899e+01	 8.536301755644104e+00
0	 2.142854365071297e+01	 1.214279010100160e+01	 8.408057138224908e+00
0	 2.142854365071296e+01	 1.285704274571142e+01	 8.422694715652694e+00
0	 2.142854365071296e+01	 1.357129522376639e+01	 8.575962604505840e+00
0	 2.142854365071296e+01	 1.428554761849444e+01	 8.863608819999154e+00
0	 1.428554761849444e+01	 1.428554761849444e+01	 1.021719540008684e+01
0	 1.428554761849444e+01	 1.499984997172426e+01	 9.700142874977919e+00
0	 1.428554761849444e+01	 1.571415215828766e+01	 9.319786916513548e+00
0	 1.428554761849444e+01	 1.642845401151721e+01	 9.062648390310702e+00
0	 1.428554761849444e+01	 1.714275536474550e+01	 8.915248242434565e+00
0	 1.428554761849445e+01	 1.785705605130510e+01	 8.864107499398560e+00
0	 1.428554761849444e+01	 1.857135590452859e+01	 8.895747268164747e+00
0	 1.428554761849444e+01	 1.928565475774854e+01	 8.996688736144383e+00
0	 1.428554761849444e+01	 1.999995244429753e+01	 9.153453171198938e+00
0	 1.428554761849444e+01	 2.071424879750816e+01	 9.352561921641179e+00
0	 1.428554761849444e+01	 2.142854365071296e+01	 9.580536416236695e+00
0	 1.499984997172427e+01	 1.428554761849445e+01	 1.038081040229680e+01
0	 1.499984997172426e+01	 1.499984997172426e+01	 9.795355147143590e+00
0	 1.499984997172426e+01	 1.571415215828766e+01	 9.349579828439747e+00
0	 1.499984997172426e+01	 1.642845401151721e+01	 9.031963785281055e+00
0	 1.499984997172426e+01	 1.714275536474550e+01	 8.830986460346690e+00
0	 1.499984997172426e+01	 1.785705605130509e+01	 8.735127399899298e+00
0	 1.499984997172426e+01	 1.857135590452858e+01	 8.732866253785442e+00
0	 1.499984997172426e+01	 1.928565475774854e+01	 8.812682775436437e+00
0	 1.499984997172426e+01	 1.999995244429753e+01	 8.963056821869470e+00
0	 1.499984997172426e+01	 2.071424879750815e+01	 9.172468353689196e+00
0	 1.499984997172426e+01	 2.142854365071296e+01	 9.429397435089575e+00
0	 1.571415215828766e+01	 1.428554761849444e+01	 1.041091139179833e+01
0	 1.571415215828766e+01	 1.499984997172426e+01	 9.825409104020164e+00
0	 1.571415215828766e+01	 1.571415215828766e+01	 9.372420214384956e+00
0	 1.571415215828766e+01	 1.642845401151721e+01	 9.042286502172892e+00
0	 1.571415215828766e+01	 1.714275536474550e+01	 8.825349857826446e+00
0	 1.571415215828766e+01	 1.785705605130510e+01	 8.711952282950442e+00
0	 1.571415215828766e+01	 1.857135590452858e+01	 8.692435890312593e+00
0	 1.571415215828766e+01	 1.928565475774854e+01	 8.757142903844333e+00
0	 1.571415215828766e+01	 1.999995244429754e+01	 8.896415658642097e+00
0	 1.571415215828766e+01	 2.071424879750815e+01	 9.100596600968984e+00
0	 1.571415215828766e+01	 2.142854365071296e+01	 9.360028288256750e+00
0	 1.642845401151721e+01	 1.428554761849444e+01	 1.033265166109900e+01
0	 1.642845401151721e+01	 1.499984997172426e+01	 9.802551933679711e+00
0	 1.642845401151721e+01	 1.571415215828766e+01	 9.389623363682373e+00
0	 1.642845401151721e+01	 1.642845401151721e+01	 9.085974132900660e+00
0	 1.642845401151722e+01	 1.714275536474550e+01	 8.883712529076913e+00
0	 1.642845401151722e+01	 1.785705605130510e+01	 8.774946945902339e+00
0	 1.642845401151720e+01	 1.857135590452858e+01	 8.751785883017401e+00
0	 1.642845401151721e+01	 1.928565475774854e+01	 8.806337946012684e+00
0	 1.642845401151722e+01	 1.999995244429753e+01	 8.930711846430132e+00
0	 1.642845401151721e+01	 2.071424879750816e+01	 9.117016401764573e+00
0	 1.642845401151721e+01	 2.142854365071296e+01	 9.357360535465737e+00
0	 1.714275536474550e+01	 1.428554761849444e+01	 1.017118449731956e+01
0	 1.714275536474550e+01	 1.499984997172426e+01	 9.739030813532828e+00
0	 1.714275536474550e+01	 1.571415215828766e+01	 9.402504551075735e+00
0	 1.714275536474550e+01	 1.642845401151722e+01	 9.155384252073519e+00
0	 1.714275536474550e+01	 1.714275536474549e+01	 8.991448549357941e+00
0	 1.714275536474550e+01	 1.785705605130510e+01	 8.904476166467390e+00
0	 1.714275536474549e+01	 1.857135590452858e+01	 8.888245917647270e+00
0	 1.714275536474550e+01	 1.928565475774855e+01	 8.936536707850744e+00
0	 1.714275536474549e+01	 1.999995244429753e+01	 9.043127532739794e+00
0	 1.714275536474550e+01	 2.071424879750815e+01	 9.201797478686577e+00
0	 1.714275536474550e+01	 2.142854365071296e+01	 9.406325722775103e+00
0	 1.785705605130510e+01	 1.428554761849444e+01	 9.951663182194105e+00
0	 1.785705605130509e+01	 1.499984997172426e+01	 9.647092910328654e+00
0	 1.785705605130509e+01	 1.571415215828766e+01	 9.412379036719292e+00
0	 1.785705605130509e+01	 1.642845401151721e+01	 9.242874416995475e+00
0	 1.785705605130509e+01	 1.714275536474550e+01	 9.133931974986217e+00
0	 1.785705605130510e+01	 1.785705605130510e+01	 9.080904702720144e+00
0	 1.785705605130510e+01	 1.857135590452859e+01	 9.079145660425823e+00
0	 1.785705605130510e+01	 1.928565475774854e+01	 9.124007976532365e+00
0	 1.785705605130510e+01	 1.999995244429754e+01	 9.210844847670170e+00
0	 1.785705605130510e+01	 2.071424879750816e+01	 9.335009538672036e+00
0	 1.785705605130510e+01	 2.142854365071297e+01	 9.491855382574375e+00
0	 1.857135590452859e+01	 1.428554761849444e+01	 9.699240992069988e+00
0	 1.857135590452859e+01	 1.499984997172426e+01	 9.538985380154907e+00
0	 1.857135590452858e+01	 1.571415215828766e+01	 9.420562066177883e+00
0	 1.857135590452858e+01	 1.642845401151721e+01	 9.340802167665307e+00
0	 1.857135590452858e+01	 1.714275536474549e+01	 9.296536843335183e+00
0	 1.857135590452858e+01	 1.785705605130510e+01	 9.284597293097168e+00
0	 1.857135590452859e+01	 1.857135590452859e+01	 9.301814758052817e+00
0	 1.857135590452858e+01	 1.928565475774854e+01	 9.345020520495950e+00
0	 1.857135590452858e+01	 1.999995244429753e+01	 9.411045903913129e+00
0	 1.857135590452858e+01	 2.071424879750815e+01	 9.496722272984377e+00
0	 1.857135590452858e+01	 2.142854365071296e+01	 9.598881033583893e+00
0	 1.928565475774854e+01	 1.428554761849444e+01	 9.439071197907859e+00
0	 1.928565475774854e+01	 1.499984997172426e+01	 9.426955368437836e+00
0	 1.928565475774854e+01	 1.571415215828766e+01	 9.428368870426848e+00
0	 1.928565475774854e+01	 1.642845401151721e+01	 9.441525026776517e+00
0	 1.928565475774854e+01	 1.714275536474550e+01	 9.464637172834983e+00
0	 1.928565475774854e+01	 1.785705605130509e+01	 9.495918656397002e+00
0	 1.928565475774854e+01	 1.857135590452859e+01	 9.533582837703992e+00
0	 1.928565475774854e+01	 1.928565475774854e+01	 9.575843089444263e+00
0	 1.928565475774854e+01	 1.999995244429753e+01	 9.620912796753137e+00
0	 1.928565475774854e+01	 2.071424879750815e+01	 9.667005357213220e+00
0	 1.928565475774854e+01	 2.142854365071297e+01	 9.712334180854700e+00
0	 1.999995244429753e+01	 1.428554761849444e+01	 9.196307065281683e+00
0	 1.999995244429753e+01	 1.499984997172426e+01	 9.323250009942203e+00
0	 1.999995244429753e+01	 1.571415215828766e+01	 9.437114665851954e+00
0	 1.999995244429754e+01	 1.642845401151721e+01	 9.537400499717187e+00
0	 1.999995244429753e+01	 1.714275536474550e+01	 9.623606962972296e+00
0	 1.999995244429753e+01	 1.785705605130510e+01	 9.695233491779916e+00
0	 1.999995244429753e+01	 1.857135590452857e+01	 9.751779507030903e+00
0	 1.999995244429754e+01	 1.928565475774854e+01	 9.792744414344259e+00
0	 1.999995244429754e+01	 1.999995244429754e+01	 9.817627604067027e+00
0	 1.999995244429753e+01	 2.071424879750816e+01	 9.825928451274168e+00
0	 1.999995244429754e+01	 2.142854365071297e+01	 9.817146315768296e+00
0	 2.071424879750816e+01	 1.428554761849445e+01	 8.996101854378647e+00
0	 2.071424879750814e+01	 1.499984997172426e+01	 9.240116428771143e+00
0	 2.071424879750816e+01	 1.571415215828766e+01	 9.448114654249233e+00
0	 2.071424879750815e+01	 1.642845401151721e+01	 9.620786074569807e+00
0	 2.071424879750816e+01	 1.714275536474550e+01	 9.758820194290088e+00
0	 2.071424879750816e+01	 1.785705605130510e+01	 9.862906478767711e+00
0	 2.071424879750816e+01	 1.857135590452858e+01	 9.933734354160601e+00
0	 2.071424879750815e+01	 1.928565475774854e+01	 9.971993207426721e+00
0	 2.071424879750816e+01	 1.999995244429753e+01	 9.978372386323738e+00
0	 2.071424879750816e+01	 2.071424879750816e+01	 9.953561199408499e+00
0	 2.071424879750816e+01	 2.142854365071296e+01	 9.898248916036382e+00
0	 2.142854365071296e+01	 1.428554761849444e+01	 8.863608819999152e+00
0	 2.142854365071297e+01	 1.499984997172426e+01	 9.189801738366068e+00
0	 2.142854365071296e+01	 1.571415215828766e+01	 9.462684022824790e+00
0	 2.142854365071296e+01	 1.642845401151721e+01	 9.684039222111021e+00
0	 2.142854365071296e+01	 1.714275536474550e+01	 9.855650828387363e+00
0	 2.142854365071296e+01	 1.785705605130510e+01	 9.979302277243349e+00
0	 2.142854365071296e+01	 1.857135590452858e+01	 1.005677694769530e+01
0	 2.142854365071297e+01	 1.928565475774854e+01	 1.008985816218598e+01
0	 2.142854365071297e+01	 1.999995244429754e+01	 1.008032918658395e+01
0	 2.142854365071296e+01	 2.071424879750816e+01	 1.002997323018288e+01
0	 2.142854365071296e+01	 2.142854365071296e+01	 9.940573445700551e+00
0	 1.428554761849444e+01	 2.142854365071296e+01	 9.580536416236695e+00
0	 1.428554761849444e+01	 2.214283692057823e+01	 9.789600689190944e+00
0	 1.428554761849445e+01	 2.285712885710494e+01	 9.945225108376974e+00
0	 1.428554761849444e+01	 2.357141979362770e+01	 1.005380070068102e+01
0	 1.428554761849445e+01	 2.428571006348118e+01	 1.012171854269569e+01
0	 1.428554761849444e+01	 2.500000000000000e+01	 1.015536976072130e+01
0	 1.428554761849444e+01	 2.571428993651883e+01	 1.016114553076713e+01
0	 1.428554761849444e+01	 2.642858020637231e+01	 1.014543707855215e+01
0	 1.428554761849444e+01	 2.714287114289507e+01	 1.011463567950552e+01
0	 1.428554761849444e+01	 2.785716307942177e+01	 1.007513265876667e+01
0	 1.428554761849444e+01	 2.857145634928703e+01	 1.003331939118502e+01
0	 1.499984997172426e+01	 2.142854365071296e+01	 9.429397435089575e+00
0	 1.499984997172426e+01	 2.214283692057824e+01	 9.675880349872770e+00
0	 1.499984997172426e+01	 2.285712885710494e+01	 9.865581701694893e+00
0	 1.499984997172426e+01	 2.357141979362770e+01	 1.000442416411398e+01
0	 1.499984997172426e+01	 2.428571006348118e+01	 1.009833047987635e+01
0	 1.499984997172426e+01	 2.500000000000001e+01	 1.015322346091853e+01
0	 1.499984997172426e+01	 2.571428993651884e+01	 1.017502598836876e+01
0	 1.499984997172426e+01	 2.642858020637230e+01	 1.016966101254791e+01
0	 1.499984997172426e+01	 2.714287114289509e+01	 1.014305155297009e+01
0	 1.499984997172426e+01	 2.785716307942178e+01	 1.010112069834258e+01
0	 1.499984997172426e+01	 2.857145634928704e+01	 1.004979160656538e+01
0	 1.571415215828766e+01	 2.142854365071296e+01	 9.360028288256750e+00
0	 1.571415215828766e+01	 2.214283692057824e+01	 9.614194144854045e+00
0	 1.571415215828766e+01	 2.285712885710493e+01	 9.812622073103796e+00
0	 1.571415215828766e+01	 2.357141979362770e+01	 9.960721488209359e+00
0	 1.571415215828766e+01	 2.428571006348118e+01	 1.006390188191243e+01
0	 1.571415215828766e+01	 2.500000000000001e+01	 1.012757282249516e+01
0	 1.571415215828766e+01	 2.571428993651883e+01	 1.015714395478172e+01
0	 1.571415215828766e+01	 2.642858020637231e+01	 1.015802500013942e+01
0	 1.571415215828766e+01	 2.714287114289508e+01	 1.013562575647919e+01
0	 1.571415215828766e+01	 2.785716307942177e+01	 1.009535609825556e+01
0	 1.571415215828766e+01	 2.857145634928703e+01	 1.004262597646613e+01
0	 1.642845401151721e+01	 2.142854365071296e+01	 9.357360535465737e+00
0	 1.642845401151721e+01	 2.214283692057823e+01	 9.594938866026405e+00
0	 1.642845401151721e+01	 2.285712885710494e+01	 9.781440800428495e+00
0	 1.642845401151721e+01	 2.357141979362769e+01	 9.921717579750407e+00
0	 1.642845401151721e+01	 2.428571006348117e+01	 1.002062051897581e+01
0	 1.642845401151721e+01	 2.500000000000001e+01	 1.008300100699575e+01
0	 1.642845401151721e+01	 2.571428993651883e+01	 1.011371050661017e+01
0	 1.642845401151721e+01	 2.642858020637231e+01	 1.011760055452893e+01
0	 1.642845401151722e+01	 2.714287114289507e+01	 1.009952276137236e+01
0	 1.642845401151722e+01	 2.785716307942178e+01	 1.006432881167122e+01
0	 1.642845401151722e+01	 2.857145634928704e+01	 1.001687046386618e+01
0	 1.714275536474550e+01	 2.142854365071296e+01	 9.406325722775103e+00
0	 1.714275536474550e+01	 2.214283692057824e+01	 9.608511293765325e+00
0	 1.714275536474550e+01	 2.285712885710494e+01	 9.767132452203873e+00
0	 1.714275536474550e+01	 2.357141979362770e+01	 9.886437338467111e+00
0	 1.714275536474550e+01	 2.428571006348117e+01	 9.970674156369361e+00
0	 1.714275536474550e+01	 2.500000000000000e+01	 1.002409117316475e+01
0	 1.714275536474550e+01	 2.571428993651883e+01	 1.005093671954855e+01
0	 1.714275536474550e+01	 2.642858020637232e+01	 1.005545918965817e+01
0	 1.714275536474550e+01	 2.714287114289508e+01	 1.004190704107353e+01
0	 1.714275536474550e+01	 2.785716307942177e+01	 1.001452879481721e+01
0	 1.714275536474550e+01	 2.857145634928703e+01	 9.977573035353961e+00
0	 1.785705605130510e+01	 2.142854365071297e+01	 9.491855382574375e+00
0	 1.785705605130509e+01	 2.214283692057824e+01	 9.645308196930010e+00
0	 1.785705605130509e+01	 2.285712885710494e+01	 9.764791587674795e+00
0	 1.785705605130509e+01	 2.357141979362770e+01	 9.853905657036202e+00
0	 1.785705605130510e+01	 2.428571006348117e+01	 9.916250554526943e+00
0	 1.785705605130511e+01	 2.500000000000001e+01	 9.955426476946402e+00
0	 1.785705605130509e+01	 2.571428993651883e+01	 9.975033668381659e+00
0	 1.785705605130510e+01	 2.642858020637231e+01	 9.978672420208360e+00
0	 1.785705605130510e+01	 2.714287114289508e+01	 9.969943071091038e+00
0	 1.785705605130510e+01	 2.785716307942177e+01	 9.952446006983299e+00
0	 1.785705605130510e+01	 2.857145634928704e+01	 9.929781661127542e+00
0	 1.857135590452858e+01	 2.142854365071296e+01	 9.598881033583893e+00
0	 1.857135590452859e+01	 2.214283692057824e+01	 9.695726332863334e+00
0	 1.857135590452859e+01	 2.285712885710494e+01	 9.769512756796001e+00
0	 1.857135590452858e+01	 2.357141979362770e+01	 9.823147421081005e+00
0	 1.857135590452859e+01	 2.428571006348117e+01	 9.859537469013341e+00
0	 1.857135590452858e+01	 2.500000000000001e+01	 9.881590071484755e+00
0	 1.857135590452858e+01	 2.571428993651883e+01	 9.892212426984567e+00
0	 1.857135590452859e+01	 2.642858020637231e+01	 9.894311761600207e+00
0	 1.857135590452858e+01	 2.714287114289507e+01	 9.890795329017593e+00
0	 1.857135590452859e+01	 2.785716307942177e+01	 9.884570410521327e+00
0	 1.857135590452859e+01	 2.857145634928704e+01	 9.878544314994624e+00
0	 1.928565475774854e+01	 2.142854365071297e+01	 9.712334180854700e+00
0	 1.928565475774854e+01	 2.214283692057824e+01	 9.750162447391634e+00
0	 1.928565475774853e+01	 2.285712885710494e+01	 9.776390500231996e+00
0	 1.928565475774854e+01	 2.357141979362769e+01	 9.793187509171405e+00
0	 1.928565475774854e+01	 2.428571006348117e+01	 9.802722650524135e+00
0	 1.928565475774854e+01	 2.500000000000000e+01	 9.807165107123570e+00
0	 1.928565475774854e+01	 2.571428993651884e+01	 9.808684068322590e+00
0	 1.928565475774854e+01	 2.642858020637232e+01	 9.809448729993901e+00
0	 1.928565475774854e+01	 2.714287114289507e+01	 9.811628294530392e+00
0	 1.928565475774854e+01	 2.785716307942177e+01	 9.817391970845337e+00
0	 1.928565475774854e+01	 2.857145634928704e+01	 9.828908974372625e+00
0	 1.999995244429754e+01	 2.142854365071297e+01	 9.817146315768296e+00
0	 1.999995244429753e+01	 2.214283692057824e+01	 9.799013274824553e+00
0	 1.999995244429753e+01	 2.285712885710494e+01	 9.780519349356874e+00
0	 1.999995244429754e+01	 2.357141979362770e+01	 9.763050792823623e+00
0	 1.999995244429754e+01	 2.428571006348117e+01	 9.747993844885661e+00
0	 1.999995244429753e+01	 2.500000000000000e+01	 9.736734731406294e+00
0	 1.999995244429753e+01	 2.571428993651883e+01	 9.730659664451320e+00
0	 1.999995244429754e+01	 2.642858020637231e+01	 9.731154842289161e+00
0	 1.999995244429753e+01	 2.714287114289507e+01	 9.739606449391097e+00
0	 1.999995244429754e+01	 2.785716307942177e+01	 9.757400656431598e+00
0	 1.999995244429754e+01	 2.857145634928704e+01	 9.785923620288781e+00
0	 2.071424879750816e+01	 2.142854365071296e+01	 9.898248916036382e+00
0	 2.071424879750815e+01	 2.214283692057824e+01	 9.832675537954779e+00
0	 2.071424879750816e+01	 2.285712885710494e+01	 9.776993826254099e+00
0	 2.071424879750816e+01	 2.357141979362770e+01	 9.731762136500128e+00
0	 2.071424879750816e+01	 2.428571006348117e+01	 9.697538793054857e+00
0	 2.071424879750815e+01	 2.500000000000000e+01	 9.674882089075965e+00
0	 2.071424879750815e+01	 2.571428993651884e+01	 9.664350286516569e+00
0	 2.071424879750816e+01	 2.642858020637231e+01	 9.666501616125178e+00
0	 2.071424879750816e+01	 2.714287114289508e+01	 9.681894277445885e+00
0	 2.071424879750815e+01	 2.785716307942177e+01	 9.711086438818683e+00
0	 2.071424879750816e+01	 2.857145634928704e+01	 9.754636237380172e+00
0	 2.142854365071296e+01	 2.142854365071296e+01	 9.940573445700551e+00
0	 2.142854365071296e+01	 2.214283692057824e+01	 9.841545948057826e+00
0	 2.142854365071296e+01	 2.285712885710494e+01	 9.760908443716316e+00
0	 2.142854365071296e+01	 2.357141979362770e+01	 9.698346397609440e+00
0	 2.142854365071296e+01	 2.428571006348117e+01	 9.653545231119157e+00
0	 2.142854365071296e+01	 2.500000000000001e+01	 9.626190322075127e+00
0	 2.142854365071296e+01	 2.571428993651884e+01	 9.615967004754321e+00
0	 2.142854365071296e+01	 2.642858020637231e+01	 9.622560569880726e+00
0	 2.142854365071296e+01	 2.714287114289507e+01	 9.645656264625538e+00
0	 2.142854365071296e+01	 2.785716307942177e+01	 9.684939292607552e+00
0	 2.142854365071296e+01	 2.857145634928703e+01	 9.740094813893894e+00
0	 1.428554761849444e+01	 2.857145634928703e+01	 1.003331939118502e+01
0	 1.428554761849444e+01	 2.928575120249186e+01	 1.000160700960683e+01
0	 1.428554761849444e+01	 3.000004755570247e+01	 9.985987325855072e+00
0	 1.428554761849444e+01	 3.071434524225147e+01	 9.983222767896697e+00
0	 1.428554761849444e+01	 3.142864409547143e+01	 9.990075760192362e+00
0	 1.428554761849444e+01	 3.214294394869491e+01	 1.000330872369650e+01
0	 1.428554761849444e+01	 3.285724463525450e+01	 1.001968407585738e+01
0	 1.428554761849444e+01	 3.357154598848280e+01	 1.003596423061710e+01
0	 1.428554761849444e+01	 3.428584784171235e+01	 1.004891159841167e+01
0	 1.428554761849444e+01	 3.500015002827575e+01	 1.005528858617099e+01
0	 1.428554761849444e+01	 3.571445238150556e+01	 1.005185759731884e+01
0	 1.499984997172426e+01	 2.857145634928704e+01	 1.004979160656538e+01
0	 1.499984997172426e+01	 2.928575120249186e+01	 1.000575882544342e+01
0	 1.499984997172426e+01	 3.000004755570248e+01	 9.979638277453112e+00
0	 1.499984997172426e+01	 3.071434524225147e+01	 9.968235234259552e+00
0	 1.499984997172426e+01	 3.142864409547142e+01	 9.968354967346285e+00
0	 1.499984997172426e+01	 3.214294394869491e+01	 9.976802748015302e+00
0	 1.499984997172426e+01	 3.285724463525451e+01	 9.990383847387008e+00
0	 1.499984997172426e+01	 3.357154598848280e+01	 1.000590353640022e+01
0	 1.499984997172426e+01	 3.428584784171235e+01	 1.002016708581214e+01
0	 1.499984997172426e+01	 3.500015002827575e+01	 1.002997976619838e+01
0	 1.499984997172427e+01	 3.571445238150557e+01	 1.003214684795286e+01
0	 1.571415215828766e+01	 2.857145634928703e+01	 1.004262597646613e+01
0	 1.571415215828766e+01	 2.928575120249185e+01	 9.995583782214204e+00
0	 1.571415215828766e+01	 3.000004755570248e+01	 9.966711735725507e+00
0	 1.571415215828766e+01	 3.071434524225147e+01	 9.952920590109859e+00
0	 1.571415215828766e+01	 3.142864409547143e+01	 9.951121099839364e+00
0	 1.571415215828766e+01	 3.214294394869493e+01	 9.958224020748380e+00
0	 1.571415215828766e+01	 3.285724463525451e+01	 9.971140110033513e+00
0	 1.571415215828766e+01	 3.357154598848280e+01	 9.986780126253548e+00
0	 1.571415215828766e+01	 3.428584784171235e+01	 1.000205482932942e+01
0	 1.571415215828766e+01	 3.500015002827575e+01	 1.001387498054420e+01
0	 1.571415215828766e+01	 3.571445238150557e+01	 1.001915134254306e+01
0	 1.642845401151722e+01	 2.857145634928704e+01	 1.001687046386618e+01
0	 1.642845401151721e+01	 2.928575120249185e+01	 9.974421454920785e+00
0	 1.642845401151721e+01	 3.000004755570248e+01	 9.949073558498455e+00
0	 1.642845401151721e+01	 3.071434524225147e+01	 9.937905644611952e+00
0	 1.642845401151721e+01	 3.142864409547142e+01	 9.937996584727889e+00
0	 1.642845401151721e+01	 3.214294394869491e+01	 9.946425251766680e+00
0	 1.642845401151721e+01	 3.285724463525450e+01	 9.960270520102496e+00
0	 1.642845401151721e+01	 3.357154598848280e+01	 9.976611265563276e+00
0	 1.642845401151721e+01	 3.428584784171235e+01	 9.992526365430574e+00
0	 1.642845401151722e+01	 3.500015002827575e+01	 1.000509469843969e+01
0	 1.642845401151721e+01	 3.571445238150555e+01	 1.001139514477957e+01
0	 1.714275536474550e+01	 2.857145634928703e+01	 9.977573035353961e+00
0	 1.714275536474550e+01	 2.928575120249186e+01	 9.945611422253894e+00
0	 1.714275536474550e+01	 3.000004755570248e+01	 9.928589606961284e+00
0	 1.714275536474549e+01	 3.071434524225146e+01	 9.923817209649572e+00
0	 1.714275536474549e+01	 3.142864409547142e+01	 9.928603850913778e+00
0	 1.714275536474550e+01	 3.214294394869490e+01	 9.940259151770526e+00
0	 1.714275536474550e+01	 3.285724463525451e+01	 9.956092733657997e+00
0	 1.714275536474550e+01	 3.357154598848279e+01	 9.973414218435940e+00
0	 1.714275536474549e+01	 3.428584784171235e+01	 9.989533228385625e+00
0	 1.714275536474550e+01	 3.500015002827575e+01	 1.000175938620989e+01
0	 1.714275536474550e+01	 3.571445238150555e+01	 1.000740231503309e+01
0	 1.785705605130510e+01	 2.857145634928704e+01	 9.929781661127542e+00
0	 1.785705605130509e+01	 2.928575120249185e+01	 9.912493266593302e+00
0	 1.785705605130510e+01	 3.000004755570248e+01	 9.907125745666487e+00
0	 1.785705605130510e+01	 3.071434524225147e+01	 9.911282099825922e+00
0	 1.785705605130510e+01	 3.142864409547143e+01	 9.922565329144614e+00
0	 1.785705605130510e+01	 3.214294394869492e+01	 9.938578432289688e+00
0	 1.785705605130510e+01	 3.285724463525451e+01	 9.956924406522479e+00
0	 1.785705605130510e+01	 3.357154598848280e+01	 9.975206247698511e+00
0	 1.785705605130510e+01	 3.428584784171234e+01	 9.991026950267541e+00
0	 1.785705605130509e+01	 3.500015002827575e+01	 1.000198950727357e+01
0	 1.785705605130510e+01	 3.571445238150556e+01	 1.000569691035485e+01
0	 1.857135590452859e+01	 2.857145634928704e+01	 9.878544314994624e+00
0	 1.857135590452859e+01	 2.928575120249186e+01	 9.878406574007991e+00
0	 1.857135590452858e+01	 3.000004755570248e+01	 9.886547842529767e+00
0	 1.857135590452858e+01	 3.071434524225147e+01	 9.900927132463728e+00
0	 1.857135590452858e+01	 3.142864409547142e+01	 9.919503452013657e+00
0	 1.857135590452858e+01	 3.214294394869491e+01	 9.940235805683383e+00
0	 1.857135590452858e+01	 3.285724463525451e+01	 9.961083194276878e+00
0	 1.857135590452858e+01	 3.357154598848279e+01	 9.980004614898338e+00
0	 1.857135590452858e+01	 3.428584784171235e+01	 9.994959060952231e+00
0	 1.857135590452858e+01	 3.500015002827575e+01	 1.000390552214330e+01
0	 1.857135590452859e+01	 3.571445238150556e+01	 1.000480298447662e+01
0	 1.928565475774854e+01	 2.857145634928704e+01	 9.828908974372625e+00
0	 1.928565475774854e+01	 2.928575120249186e+01	 9.846690934256156e+00
0	 1.928565475774854e+01	 3.000004755570248e+01	 9.868721768830149e+00
0	 1.928565475774853e+01	 3.071434524225146e+01	 9.893379127605280e+00
0	 1.928565475774854e+01	 3.142864409547142e+01	 9.919040653959922e+00
0	 1.928565475774854e+01	 3.214294394869491e+01	 9.944083985140299e+00
0	 1.928565475774854e+01	 3.285724463525451e+01	 9.966886752260626e+00
0	 1.928565475774854e+01	 3.357154598848280e+01	 9.985826580303208e+00
0	 1.928565475774854e+01	 3.428584784171235e+01	 9.999281088118529e+00
0	 1.928565475774854e+01	 3.500015002827575e+01	 1.000562788842533e+01
0	 1.928565475774854e+01	 3.571445238150557e+01	 1.000324458781066e+01
0	 1.999995244429754e+01	 2.857145634928704e+01	 9.785923620288781e+00
0	 1.999995244429754e+01	 2.928575120249187e+01	 9.820685940785310e+00
0	 1.999995244429753e+01	 3.000004755570248e+01	 9.855513399210013e+00
0	 1.999995244429753e+01	 3.071434524225148e+01	 9.889264908012507e+00
0	 1.999995244429753e+01	 3.142864409547143e+01	 9.920799371268227e+00
0	 1.999995244429754e+01	 3.214294394869491e+01	 9.948975684678700e+00
0	 1.999995244429753e+01	 3.285724463525451e+01	 9.972652735571668e+00
0	 1.999995244429753e+01	 3.357154598848280e+01	 9.990689402901284e+00
0	 1.999995244429754e+01	 3.428584784171235e+01	 1.000194455724820e+01
0	 1.999995244429753e+01	 3.500015002827574e+01	 1.000527706081968e+01
0	 1.999995244429753e+01	 3.571445238150556e+01	 9.999545767449639e+00
0	 2.071424879750816e+01	 2.857145634928704e+01	 9.754636237380172e+00
0	 2.071424879750815e+01	 2.928575120249186e+01	 9.803731190732375e+00
0	 2.071424879750816e+01	 3.000004755570249e+01	 9.848788611675211e+00
0	 2.071424879750816e+01	 3.071434524225147e+01	 9.889211299167052e+00
0	 2.071424879750815e+01	 3.142864409547143e+01	 9.924402042069241e+00
0	 2.071424879750816e+01	 3.214294394869491e+01	 9.953763619146358e+00
0	 2.071424879750816e+01	 3.285724463525452e+01	 9.976698799066444e+00
0	 2.071424879750816e+01	 3.357154598848280e+01	 9.992610340401125e+00
0	 2.071424879750814e+01	 3.428584784171235e+01	 1.000090099162585e+01
0	 2.071424879750815e+01	 3.500015002827574e+01	 1.000097349111993e+01
0	 2.071424879750816e+01	 3.571445238150557e+01	 9.992230567166676e+00
0	 2.142854365071296e+01	 2.857145634928703e+01	 9.740094813893894e+00
0	 2.142854365071296e+01	 2.928575120249186e+01	 9.799166284923807e+00
0	 2.142854365071296e+01	 3.000004755570248e+01	 9.850413287595137e+00
0	 2.142854365071297e+01	 3.071434524225148e+01	 9.893845129270364e+00
0	 2.142854365071296e+01	 3.142864409547142e+01	 9.929471106339557e+00
0	 2.142854365071296e+01	 3.214294394869491e+01	 9.957300504220711e+00
0	 2.142854365071296e+01	 3.285724463525451e+01	 9.977342597359934e+00
0	 2.142854365071296e+01	 3.357154598848279e+01	 9.989606649231696e+00
0	 2.142854365071296e+01	 3.428584784171235e+01	 9.994101912338962e+00
0	 2.142854365071296e+01	 3.500015002827575e+01	 9.990837628213347e+00
0	 2.142854365071297e+01	 3.571445238150556e+01	 9.979823027415154e+00
0	 1.428554761849444e+01	 3.571445238150556e+01	 1.005185759731884e+01
0	 1.428554761849444e+01	 3.642870477623360e+01	 1.004020023643798e+01
0	 1.428554761849444e+01	 3.714295725428857e+01	 1.002515308472170e+01
0	 1.428554761849445e+01	 3.785720989899840e+01	 1.000836298192858e+01
0	 1.428554761849444e+01	 3.857146279369100e+01	 9.991476763965142e+00
0	 1.428554761849444e+01	 3.928571602169433e+01	 9.976141262885868e+00
0	 1.428554761849444e+01	 3.999996966633629e+01	 9.964003306893206e+00
0	 1.428554761849444e+01	 4.071422381094481e+01	 9.956709720337603e+00
0	 1.428554761849444e+01	 4.142847853884783e+01	 9.955907323717501e+00
0	 1.428554761849444e+01	 4.214273393337327e+01	 9.963242933679442e+00
0	 1.428554761849445e+01	 4.285699007784908e+01	 9.980363363018045e+00
0	 1.499984997172427e+01	 3.571445238150557e+01	 1.003214684795286e+01
0	 1.499984997172426e+01	 3.642870477623358e+01	 1.002657842312728e+01
0	 1.499984997172426e+01	 3.714295725428857e+01	 1.001645818055807e+01
0	 1.499984997172427e+01	 3.785720989899841e+01	 1.000350235466889e+01
0	 1.499984997172426e+01	 3.857146279369100e+01	 9.989427176774829e+00
0	 1.499984997172426e+01	 3.928571602169432e+01	 9.975948875082240e+00
0	 1.499984997172427e+01	 3.999996966633630e+01	 9.964783674688938e+00
0	 1.499984997172426e+01	 4.071422381094480e+01	 9.957647797584091e+00
0	 1.499984997172426e+01	 4.142847853884783e+01	 9.956257462648329e+00
0	 1.499984997172426e+01	 4.214273393337327e+01	 9.962328885653706e+00
0	 1.499984997172427e+01	 4.285699007784908e+01	 9.977578279263760e+00
0	 1.571415215828766e+01	 3.571445238150557e+01	 1.001915134254306e+01
0	 1.571415215828765e+01	 3.642870477623359e+01	 1.001697775674569e+01
0	 1.571415215828766e+01	 3.714295725428857e+01	 1.000966395182964e+01
0	 1.571415215828766e+01	 3.785720989899840e+01	 9.998944315702783e+00
0	 1.571415215828766e+01	 3.857146279369102e+01	 9.986553233662164e+00
0	 1.571415215828766e+01	 3.928571602169433e+01	 9.974225088393965e+00
0	 1.571415215828766e+01	 3.999996966633628e+01	 9.963694259973554e+00
0	 1.571415215828766e+01	 4.071422381094482e+01	 9.956695125865487e+00
0	 1.571415215828766e+01	 4.142847853884783e+01	 9.954962060923515e+00
0	 1.571415215828766e+01	 4.214273393337327e+01	 9.960229437390643e+00
0	 1.571415215828766e+01	 4.285699007784908e+01	 9.974231624899161e+00
0	 1.642845401151721e+01	 3.571445238150555e+01	 1.001139514477957e+01
0	 1.642845401151722e+01	 3.642870477623360e+01	 1.001040951595640e+01
0	 1.642845401151721e+01	 3.714295725428857e+01	 1.000420154413709e+01
0	 1.642845401151721e+01	 3.785720989899838e+01	 9.994472529380152e+00
0	 1.642845401151721e+01	 3.857146279369101e+01	 9.982923769432528e+00
0	 1.642845401151721e+01	 3.928571602169433e+01	 9.971256559729650e+00
0	 1.642845401151722e+01	 3.999996966633629e+01	 9.961172193395445e+00
0	 1.642845401151721e+01	 4.071422381094481e+01	 9.954371961242328e+00
0	 1.642845401151722e+01	 4.142847853884783e+01	 9.952557151771263e+00
0	 1.642845401151721e+01	 4.214273393337327e+01	 9.957429051171749e+00
0	 1.642845401151721e+01	 4.285699007784907e+01	 9.970688943321855e+00
0	 1.714275536474550e+01	 3.571445238150555e+01	 1.000740231503309e+01
0	 1.714275536474550e+01	 3.642870477623359e+01	 1.000588497604697e+01
0	 1.714275536474550e+01	 3.714295725428856e+01	 9.999502099961159e+00
0	 1.714275536474550e+01	 3.785720989899840e+01	 9.989870657426700e+00
0	 1.714275536474550e+01	 3.857146279369100e+01	 9.978607616931146e+00
0	 1.714275536474550e+01	 3.928571602169432e+01	 9.967329944798468e+00
0	 1.714275536474550e+01	 3.999996966633629e+01	 9.957654605189118e+00
0	 1.714275536474551e+01	 4.071422381094482e+01	 9.951198560100076e+00
0	 1.714275536474550e+01	 4.142847853884782e+01	 9.949578769364793e+00
0	 1.714275536474550e+01	 4.214273393337329e+01	 9.954412190653244e+00
0	 1.714275536474550e+01	 4.285699007784908e+01	 9.967315779472028e+00
0	 1.785705605130510e+01	 3.571445238150556e+01	 1.000569691035485e+01
0	 1.785705605130510e+01	 3.642870477623360e+01	 1.000241540892935e+01
0	 1.785705605130510e+01	 3.714295725428857e+01	 9.994996758662534e+00
0	 1.785705605130510e+01	 3.785720989899841e+01	 9.984922358943862e+00
0	 1.785705605130509e+01	 3.857146279369100e+01	 9.973673607043059e+00
0	 1.785705605130510e+01	 3.928571602169432e+01	 9.962731898110116e+00
0	 1.785705605130509e+01	 3.999996966633628e+01	 9.953578625175258e+00
0	 1.785705605130510e+01	 4.071422381094481e+01	 9.947695179149047e+00
0	 1.785705605130510e+01	 4.142847853884783e+01	 9.946562948822315e+00
0	 1.785705605130510e+01	 4.214273393337327e+01	 9.951663320866254e+00
0	 1.785705605130510e+01	 4.285699007784908e+01	 9.964477679832385e+00
0	 1.857135590452859e+01	 3.571445238150556e+01	 1.000480298447662e+01
0	 1.857135590452858e+01	 3.642870477623359e+01	 9.999012083139805e+00
0	 1.857135590452858e+01	 3.714295725428858e+01	 9.990116656481961e+00
0	 1.857135590452859e+01	 3.785720989899841e+01	 9.979411290408823e+00
0	 1.857135590452858e+01	 3.857146279369100e+01	 9.968190568693199e+00
0	 1.857135590452858e+01	 3.928571602169432e+01	 9.957749072974876e+00
0	 1.857135590452858e+01	 3.999996966633628e+01	 9.949381382760670e+00
0	 1.857135590452859e+01	 4.071422381094482e+01	 9.944382075424452e+00
0	 1.857135590452858e+01	 4.142847853884783e+01	 9.944045726207120e+00
0	 1.857135590452859e+01	 4.214273393337328e+01	 9.949666908216676e+00
0	 1.857135590452858e+01	 4.285699007784907e+01	 9.962540192428230e+00
0	 1.928565475774854e+01	 3.571445238150557e+01	 1.000324458781065e+01
0	 1.928565475774853e+01	 3.642870477623359e+01	 9.994686263838924e+00
0	 1.928565475774854e+01	 3.714295725428857e+01	 9.984292926540064e+00
0	 1.928565475774854e+01	 3.785720989899841e+01	 9.973121105674441e+00
0	 1.928565475774854e+01	 3.857146279369100e+01	 9.962227328846254e+00
0	 1.928565475774854e+01	 3.928571602169433e+01	 9.952668121503566e+00
0	 1.928565475774854e+01	 3.999996966633628e+01	 9.945500006938337e+00
0	 1.928565475774854e+01	 4.071422381094481e+01	 9.941779506286405e+00
0	 1.928565475774854e+01	 4.142847853884783e+01	 9.942563138527504e+00
0	 1.928565475774854e+01	 4.214273393337326e+01	 9.948907420485318e+00
0	 1.928565475774854e+01	 4.285699007784908e+01	 9.961868866827475e+00
0	 1.999995244429753e+01	 3.571445238150556e+01	 9.999545767449639e+00
0	 1.999995244429753e+01	 3.642870477623359e+01	 9.988449212811499e+00
0	 1.999995244429754e+01	 3.714295725428858e+01	 9.976956698837427e+00
0	 1.999995244429754e+01	 3.785720989899840e+01	 9.965835455969241e+00
0	 1.999995244429754e+01	 3.857146279369100e+01	 9.955852712506694e+00
0	 1.999995244429753e+01	 3.928571602169433e+01	 9.947775694607513e+00
0	 1.999995244429753e+01	 3.999996966633629e+01	 9.942371626287370e+00
0	 1.999995244429754e+01	 4.071422381094481e+01	 9.940407729419944e+00
0	 1.999995244429753e+01	 4.142847853884784e+01	 9.942651223736886e+00
0	 1.999995244429753e+01	 4.214273393337328e+01	 9.949869326827880e+00
0	 1.999995244429753e+01	 4.285699007784908e+01	 9.962829254140651e+00
0	 2.071424879750816e+01	 3.571445238150557e+01	 9.992230567166672e+00
0	 2.071424879750816e+01	 3.642870477623360e+01	 9.979312188466576e+00
0	 2.071424879750816e+01	 3.714295725428858e+01	 9.967539100254474e+00
0	 2.071424879750815e+01	 3.785720989899840e+01	 9.957337989897377e+00
0	 2.071424879750815e+01	 3.857146279369100e+01	 9.949135542718775e+00
0	 2.071424879750816e+01	 3.928571602169432e+01	 9.943358441998546e+00
0	 2.071424879750816e+01	 3.999996966633629e+01	 9.940433368973022e+00
0	 2.071424879750816e+01	 4.071422381094482e+01	 9.940787002834995e+00
0	 2.071424879750816e+01	 4.142847853884783e+01	 9.944846020733731e+00
0	 2.071424879750816e+01	 4.214273393337326e+01	 9.953037097774974e+00
0	 2.071424879750816e+01	 4.285699007784908e+01	 9.965786907020975e+00
0	 2.142854365071297e+01	 3.571445238150556e+01	 9.979823027415154e+00
0	 2.142854365071297e+01	 3.642870477623361e+01	 9.966286445837287e+00
0	 2.142854365071296e+01	 3.714295725428858e+01	 9.955471254551371e+00
0	 2.142854365071296e+01	 3.785720989899840e+01	 9.947412353438553e+00
0	 2.142854365071296e+01	 3.857146279369100e+01	 9.942144640566426e+00
0	 2.142854365071296e+01	 3.928571602169432e+01	 9.939703012188991e+00
0	 2.142854365071296e+01	 3.999996966633628e+01	 9.940122362746703e+00
0	 2.142854365071296e+01	 4.071422381094482e+01	 9.943437584866471e+00
0	 2.142854365071296e+01	 4.142847853884783e+01	 9.949683569361678e+00
0	 2.142854365071296e+01	 4.214273393337329e+01	 9.958895205232189e+00
0	 2.142854365071296e+01	 4.285699007784907e+01	 9.971107379664396e+00
0	 1.428554761849445e+01	 4.285699007784908e+01	 9.980363363018046e+00
0	 1.428554761849444e+01	 4.357129694500737e+01	 1.000208265571065e+01
0	 1.428554761849444e+01	 4.428560406221393e+01	 1.002127153221812e+01
0	 1.428554761849444e+01	 4.499991084612204e+01	 1.003666652893458e+01
0	 1.428554761849444e+01	 4.571421671338500e+01	 1.004700414699214e+01
0	 1.428554761849444e+01	 4.642852108065614e+01	 1.005102085226097e+01
0	 1.428554761849445e+01	 4.714282336458874e+01	 1.004745307534890e+01
0	 1.428554761849444e+01	 4.785712298183613e+01	 1.003503721160063e+01
0	 1.428554761849444e+01	 4.857141934905160e+01	 1.001250962109646e+01
0	 1.428554761849445e+01	 4.928571188288846e+01	 9.978606628650731e+00
0	 1.428554761849444e+01	 5.000000000000000e+01	 9.932064523809549e+00
0	 1.499984997172427e+01	 4.285699007784908e+01	 9.977578279263765e+00
0	 1.499984997172426e+01	 4.357129694500736e+01	 9.997732168633075e+00
0	 1.499984997172426e+01	 4.428560406221391e+01	 1.001639575410678e+01
0	 1.499984997172426e+01	 4.499991084612203e+01	 1.003210752138699e+01
0	 1.499984997172426e+01	 4.571421671338501e+01	 1.004340592440997e+01
0	 1.499984997172426e+01	 4.642852108065613e+01	 1.004882938534629e+01
0	 1.499984997172426e+01	 4.714282336458875e+01	 1.004691629460035e+01
0	 1.499984997172426e+01	 4.785712298183612e+01	 1.003620501080977e+01
0	 1.499984997172426e+01	 4.857141934905160e+01	 1.001523386084435e+01
0	 1.499984997172426e+01	 4.928571188288846e+01	 9.982541139804367e+00
0	 1.499984997172426e+01	 5.000000000000000e+01	 9.936665111018941e+00
0	 1.571415215828766e+01	 4.285699007784908e+01	 9.974231624899160e+00
0	 1.571415215828766e+01	 4.357129694500737e+01	 9.993323277312552e+00
0	 1.571415215828766e+01	 4.428560406221393e+01	 1.001164071353816e+01
0	 1.571415215828766e+01	 4.499991084612203e+01	 1.002759475625973e+01
0	 1.571415215828766e+01	 4.571421671338501e+01	 1.003959619912725e+01
0	 1.571415215828766e+01	 4.642852108065615e+01	 1.004605580675704e+01
0	 1.571415215828766e+01	 4.714282336458876e+01	 1.004538431473148e+01
0	 1.571415215828766e+01	 4.785712298183612e+01	 1.003599242959832e+01
0	 1.571415215828766e+01	 4.857141934905160e+01	 1.001629082886973e+01
0	 1.571415215828766e+01	 4.928571188288846e+01	 9.984690161021097e+00
0	 1.571415215828766e+01	 5.000000000000001e+01	 9.939601045488891e+00
0	 1.642845401151721e+01	 4.285699007784907e+01	 9.970688943321857e+00
0	 1.642845401151722e+01	 4.357129694500738e+01	 9.989086068817716e+00
0	 1.642845401151721e+01	 4.428560406221392e+01	 1.000713533526550e+01
0	 1.642845401151722e+01	 4.499991084612203e+01	 1.002319028974683e+01
0	 1.642845401151721e+01	 4.571421671338500e+01	 1.003560445244570e+01
0	 1.642845401151721e+01	 4.642852108065613e+01	 1.004273131664841e+01
0	 1.642845401151722e+01	 4.714282336458874e+01	 1.004292434874340e+01
0	 1.642845401151721e+01	 4.785712298183612e+01	 1.003453698822068e+01
0	 1.642845401151722e+01	 4.857141934905160e+01	 1.001592264767080e+01
0	 1.642845401151721e+01	 4.928571188288846e+01	 9.985434712783830e+00
0	 1.642845401151722e+01	 5.000000000000000e+01	 9.941426542347635e+00
0	 1.714275536474550e+01	 4.285699007784908e+01	 9.967315779472028e+00
0	 1.714275536474550e+01	 4.357129694500738e+01	 9.985250631622080e+00
0	 1.714275536474550e+01	 4.428560406221391e+01	 1.000300854507377e+01
0	 1.714275536474550e+01	 4.499991084612203e+01	 1.001895617856425e+01
0	 1.714275536474550e+01	 4.571421671338501e+01	 1.003146016564095e+01
0	 1.714275536474550e+01	 4.642852108065615e+01	 1.003888711466170e+01
0	 1.714275536474550e+01	 4.714282336458875e+01	 1.003960360879453e+01
0	 1.714275536474550e+01	 4.785712298183613e+01	 1.003197620601704e+01
0	 1.714275536474550e+01	 4.857141934905160e+01	 1.001437143911570e+01
0	 1.714275536474550e+01	 4.928571188288845e+01	 9.985155815684637e+00
0	 1.714275536474550e+01	 4.999999999999999e+01	 9.942695818124125e+00
0	 1.785705605130510e+01	 4.285699007784908e+01	 9.964477679832385e+00
0	 1.785705605130510e+01	 4.357129694500737e+01	 9.982047055603935e+00
0	 1.785705605130510e+01	 4.428560406221392e+01	 9.999389269779806e+00
0	 1.785705605130510e+01	 4.499991084612202e+01	 1.001495447994992e+01
0	 1.785705605130510e+01	 4.571421671338501e+01	 1.002719281996256e+01
0	 1.785705605130510e+01	 4.642852108065613e+01	 1.003455439992445e+01
0	 1.785705605130510e+01	 4.714282336458876e+01	 1.003548930620050e+01
0	 1.785705605130509e+01	 4.785712298183613e+01	 1.002844760141340e+01
0	 1.785705605130510e+01	 4.857141934905161e+01	 1.001187932444285e+01
0	 1.785705605130510e+01	 4.928571188288846e+01	 9.984234490424436e+00
0	 1.785705605130510e+01	 5.000000000000000e+01	 9.943963090748287e+00
0	 1.857135590452858e+01	 4.285699007784907e+01	 9.962540192428229e+00
0	 1.857135590452858e+01	 4.357129694500737e+01	 9.979705432046462e+00
0	 1.857135590452859e+01	 4.428560406221392e+01	 9.996406437232203e+00
0	 1.857135590452858e+01	 4.499991084612203e+01	 1.001124725166382e+01
0	 1.857135590452859e+01	 4.571421671338500e+01	 1.002283189663407e+01
0	 1.857135590452858e+01	 4.642852108065613e+01	 1.002976437105031e+01
0	 1.857135590452858e+01	 4.714282336458874e+01	 1.003064865143423e+01
0	 1.857135590452858e+01	 4.785712298183611e+01	 1.002408869192141e+01
0	 1.857135590452858e+01	 4.857141934905161e+01	 1.000868842426076e+01
0	 1.857135590452858e+01	 4.928571188288845e+01	 9.983051757813254e+00
0	 1.857135590452858e+01	 5.000000000000000e+01	 9.945782579550867e+00
0	 1.928565475774854e+01	 4.285699007784908e+01	 9.961868866827473e+00
0	 1.928565475774854e+01	 4.357129694500738e+01	 9.978455853637723e+00
0	 1.928565475774854e+01	 4.428560406221393e+01	 9.994188976311433e+00
0	 1.928565475774854e+01	 4.499991084612203e+01	 1.000789655198786e+01
0	 1.928565475774853e+01	 4.571421671338499e+01	 1.001840687685289e+01
0	 1.928565475774853e+01	 4.642852108065613e+01	 1.002454822613916e+01
0	 1.928565475774854e+01	 4.714282336458874e+01	 1.002514885412590e+01
0	 1.928565475774854e+01	 4.785712298183613e+01	 1.001903699413856e+01
0	 1.928565475774854e+01	 4.857141934905160e+01	 1.000504085854812e+01
0	 1.928565475774854e+01	 4.928571188288846e+01	 9.981988638770117e+00
0	 1.928565475774854e+01	 5.000000000000000e+01	 9.948708505263584e+00
0	 1.999995244429753e+01	 4.285699007784908e+01	 9.962829254140649e+00
0	 1.999995244429754e+01	 4.357129694500737e+01	 9.978528414470674e+00
0	 1.999995244429753e+01	 4.428560406221391e+01	 9.992865816929797e+00
0	 1.999995244429754e+01	 4.499991084612203e+01	 1.000496443972605e+01
0	 1.999995244429754e+01	 4.571421671338501e+01	 1.001394724179046e+01
0	 1.999995244429754e+01	 4.642852108065614e+01	 1.001893716277710e+01
0	 1.999995244429753e+01	 4.714282336458875e+01	 1.001905712306306e+01
0	 1.999995244429754e+01	 4.785712298183613e+01	 1.001343002374804e+01
0	 1.999995244429754e+01	 4.857141934905161e+01	 1.000117874665373e+01
0	 1.999995244429753e+01	 4.928571188288845e+01	 9.981426154323065e+00
0	 1.999995244429753e+01	 5.000000000000000e+01	 9.953295090019083e+00
0	 2.071424879750816e+01	 4.285699007784908e+01	 9.965786907020973e+00
0	 2.071424879750815e+01	 4.357129694500737e+01	 9.980153210043243e+00
0	 2.071424879750816e+01	 4.428560406221393e+01	 9.992565890031521e+00
0	 2.071424879750816e+01	 4.499991084612203e+01	 1.000251297420444e+01
0	 2.071424879750816e+01	 4.571421671338500e+01	 1.000948247259214e+01
0	 2.071424879750815e+01	 4.642852108065613e+01	 1.001296237803638e+01
0	 2.071424879750816e+01	 4.714282336458874e+01	 1.001244066619039e+01
0	 2.071424879750816e+01	 4.785712298183612e+01	 1.000740529551875e+01
0	 2.071424879750815e+01	 4.857141934905159e+01	 9.997344207296631e+00
0	 2.071424879750815e+01	 4.928571188288845e+01	 9.981745325609275e+00
0	 2.071424879750816e+01	 5.000000000000000e+01	 9.960096557350903e+00
0	 2.142854365071296e+01	 4.285699007784907e+01	 9.971107379664392e+00
0	 2.142854365071296e+01	 4.357129694500738e+01	 9.983560337258332e+00
0	 2.142854365071296e+01	 4.428560406221393e+01	 9.993418127592713e+00
0	 2.142854365071296e+01	 4.499991084612203e+01	 1.000060421527112e+01
0	 2.142854365071296e+01	 4.571421671338500e+01	 1.000504205037730e+01
0	 2.142854365071296e+01	 4.642852108065613e+01	 1.000665506847543e+01
0	 2.142854365071296e+01	 4.714282336458874e+01	 1.000536669060994e+01
0	 2.142854365071296e+01	 4.785712298183613e+01	 1.000110032330537e+01
0	 2.142854365071296e+01	 4.857141934905160e+01	 9.993779358565938e+00
0	 2.142854365071296e+01	 4.928571188288846e+01	 9.983327173874903e+00
0	 2.142854365071296e+01	 5.000000000000001e+01	 9.969667132193907e+00
0	 2.142854365071296e+01	 0.000000000000000e+00	-2.799313114942027e+00
0	 2.142854365071296e+01	 7.142881171115512e-01	 1.403237755026136e+00
0	 2.142854365071297e+01	 1.428580650948409e+00	 4.964889084988037e+00
0	 2.142854365071296e+01	 2.142877018163878e+00	 7.903634155285598e+00
0	 2.142854365071296e+01	 2.857176635411264e+00	 1.023746376191904e+01
0	 2.142854365071296e+01	 3.571478919343873e+00	 1.198436621672358e+01
0	 2.142854365071296e+01	 4.285783286615009e+00	 1.316232734751568e+01
0	 2.142854365071296e+01	 5.000089153877975e+00	 1.378933049820886e+01
0	 2.142854365071296e+01	 5.714395937786081e+00	 1.388335652889914e+01
0	 2.142854365071296e+01	 6.428703054992630e+00	 1.346238381591989e+01
0	 2.142854365071297e+01	 7.143009922150927e+00	 1.254438825186650e+01
0	 2.214283692057824e+01	 0.000000000000000e+00	-4.347259888533054e+00
0	 2.214283692057823e+01	 7.142881171115514e-01	 1.909474215177607e-01
0	 2.214283692057824e+01	 1.428580650948409e+00	 4.098436887853637e+00
0	 2.214283692057824e+01	 2.142877018163879e+00	 7.378613639542671e+00
0	 2.214283692057824e+01	 2.857176635411265e+00	 1.003487975614164e+01
0	 2.214283692057824e+01	 3.571478919343871e+00	 1.207063426791374e+01
0	 2.214283692057824e+01	 4.285783286615008e+00	 1.348927315600912e+01
0	 2.214283692057824e+01	 5.000089153877977e+00	 1.429418935260784e+01
0	 2.214283692057824e+01	 5.714395937786080e+00	 1.448877274102571e+01
0	 2.214283692057824e+01	 6.428703054992628e+00	 1.407641015578264e+01
0	 2.214283692057824e+01	 7.143009922150926e+00	 1.306048538263364e+01
0	 2.285712885710494e+01	 0.000000000000000e+00	-4.282973878756946e+00
0	 2.285712885710494e+01	 7.142881171115515e-01	 1.114168571752832e-01
0	 2.285712885710494e+01	 1.428580650948409e+00	 3.939726903827096e+00
0	 2.285712885710493e+01	 2.142877018163878e+00	 7.193342205560331e+00
0	 2.285712885710494e+01	 2.857176635411264e+00	 9.863645469586938e+00
0	 2.285712885710494e+01	 3.571478919343873e+00	 1.194201616620067e+01
0	 2.285712885710494e+01	 4.285783286615009e+00	 1.341983052896909e+01
0	 2.285712885710493e+01	 5.000089153877974e+00	 1.428846155488590e+01
0	 2.285712885710493e+01	 5.714395937786078e+00	 1.453927900448367e+01
0	 2.285712885710494e+01	 6.428703054992631e+00	 1.416364940190684e+01
0	 2.285712885710494e+01	 7.143009922150927e+00	 1.315293603494518e+01
0	 2.357141979362770e+01	 0.000000000000000e+00	-2.926357501613838e+00
0	 2.357141979362770e+01	 7.142881171115514e-01	 9.447324702312594e-01
0	 2.357141979362770e+01	 1.428580650948409e+00	 4.355521005309384e+00
0	 2.357141979362770e+01	 2.142877018163878e+00	 7.287944302275113e+00
0	 2.357141979362770e+01	 2.857176635411264e+00	 9.723935447284155e+00
0	 2.357141979362770e+01	 3.571478919343873e+00	 1.164542441421628e+01
0	 2.357141979362771e+01	 4.285783286615009e+00	 1.303433806486018e+01
0	 2.357141979362770e+01	 5.000089153877974e+00	 1.387260014906022e+01
0	 2.357141979362770e+01	 5.714395937786081e+00	 1.414213130482494e+01
0	 2.357141979362770e+01	 6.428703054992629e+00	 1.382484905839767e+01
0	 2.357141979362770e+01	 7.143009922150926e+00	 1.290266782428877e+01
0	 2.428571006348117e+01	 0.000000000000000e+00	-5.973124695431480e-01
0	 2.428571006348117e+01	 7.142881171115510e-01	 2.470981089719348e+00
0	 2.428571006348117e+01	 1.428580650948409e+00	 5.212581265974160e+00
0	 2.428571006348118e+01	 2.142877018163878e+00	 7.602544416399061e+00
0	 2.428571006348117e+01	 2.857176635411265e+00	 9.615924157371719e+00
0	 2.428571006348118e+01	 3.571478919343873e+00	 1.122777136466615e+01
0	 2.428571006348117e+01	 4.285783286615008e+00	 1.241313417361560e+01
0	 2.428571006348118e+01	 5.000089153877976e+00	 1.314705797924183e+01
0	 2.428571006348117e+01	 5.714395937786081e+00	 1.340458543635085e+01
0	 2.428571006348117e+01	 6.428703054992627e+00	 1.316075645959506e+01
0	 2.428571006348117e+01	 7.143009922150927e+00	 1.239060822350188e+01
0	 2.500000000000001e+01	 0.000000000000000e+00	 2.384260208590063e+00
0	 2.500000000000001e+01	 7.142881171115514e-01	 4.470249965482308e+00
0	 2.500000000000001e+01	 1.428580650948409e+00	 6.377669960771612e+00
0	 2.500000000000000e+01	 2.142877018163878e+00	 8.077267072420316e+00
0	 2.500000000000001e+01	 2.857176635411265e+00	 9.539785991095661e+00
0	 2.500000000000001e+01	 3.571478919343873e+00	 1.073596922032652e+01
0	 2.500000000000001e+01	 4.285783286615009e+00	 1.163655707663346e+01
0	 2.500000000000001e+01	 5.000089153877975e+00	 1.221228768963186e+01
0	 2.500000000000001e+01	 5.714395937786082e+00	 1.243389700210835e+01
0	 2.500000000000000e+01	 6.428703054992628e+00	 1.227211877007037e+01
0	 2.500000000000000e+01	 7.143009922150926e+00	 1.169768456276908e+01
0	 2.571428993651884e+01	 0.000000000000000e+00	 5.698460227503819e+00
0	 2.571428993651883e+01	 7.142881171115512e-01	 6.722626768177187e+00
0	 2.571428993651884e+01	 1.428580650948409e+00	 7.717549565930778e+00
0	 2.571428993651884e+01	 2.142877018163879e+00	 8.652236832603450e+00
0	 2.571428993651883e+01	 2.857176635411264e+00	 9.495695262808507e+00
0	 2.571428993651884e+01	 3.571478919343873e+00	 1.021693003404231e+01
0	 2.571428993651883e+01	 4.285783286615008e+00	 1.078494480677439e+01
0	 2.571428993651885e+01	 5.000089153877976e+00	 1.116874172451893e+01
0	 2.571428993651883e+01	 5.714395937786081e+00	 1.133732141388772e+01
0	 2.571428993651884e+01	 6.428703054992630e+00	 1.125968298462439e+01
0	 2.571428993651883e+01	 7.143009922150926e+00	 1.090482402962031e+01
0	 2.642858020637231e+01	 0.000000000000000e+00	 9.025387985503013e+00
0	 2.642858020637231e+01	 7.142881171115515e-01	 9.008199589277476e+00
0	 2.642858020637231e+01	 1.428580650948409e+00	 9.098982758960485e+00
0	 2.642858020637231e+01	 2.142877018163878e+00	 9.267578296989495e+00
0	 2.642858020637231e+01	 2.857176635411265e+00	 9.483826209968754e+00
0	 2.642858020637231e+01	 3.571478919343873e+00	 9.717565708726172e+00
0	 2.642858020637232e+01	 4.285783286615009e+00	 9.938635208360378e+00
0	 2.642858020637231e+01	 5.000089153877977e+00	 1.011687232827804e+01
0	 2.642858020637231e+01	 5.714395937786080e+00	 1.022211389222148e+01
0	 2.642858020637232e+01	 6.428703054992629e+00	 1.022419592828643e+01
0	 2.642858020637231e+01	 7.143009922150926e+00	 1.009295366893022e+01
0	 2.714287114289507e+01	 0.000000000000000e+00	 1.204514458447832e+01
0	 2.714287114289507e+01	 7.142881171115513e-01	 1.110705694107239e+01
0	 2.714287114289507e+01	 1.428580650948409e+00	 1.038873241864900e+01
0	 2.714287114289507e+01	 2.142877018163879e+00	 9.863416103395785e+00
0	 2.714287114289508e+01	 2.857176635411265e+00	 9.504352993140829e+00
0	 2.714287114289507e+01	 3.571478919343872e+00	 9.284787997358656e+00
0	 2.714287114289507e+01	 4.285783286615009e+00	 9.177965937175067e+00
0	 2.714287114289507e+01	 5.000089153877976e+00	 9.157131545370884e+00
0	 2.714287114289508e+01	 5.714395937786081e+00	 9.195529466384748e+00
0	 2.714287114289507e+01	 6.428703054992627e+00	 9.266404256314626e+00
0	 2.714287114289508e+01	 7.143009922150927e+00	 9.343000382918429e+00
0	 2.785716307942177e+01	 0.000000000000000e+00	 1.443783182990008e+01
0	 2.785716307942177e+01	 7.142881171115513e-01	 1.279928775666312e+01
0	 2.785716307942177e+01	 1.428580650948409e+00	 1.145356162506204e+01
0	 2.785716307942177e+01	 2.142877018163878e+00	 1.037987492741543e+01
0	 2.785716307942178e+01	 2.857176635411265e+00	 9.557449695995626e+00
0	 2.785716307942177e+01	 3.571478919343873e+00	 8.965508502989380e+00
0	 2.785716307942177e+01	 4.285783286615009e+00	 8.583274460465244e+00
0	 2.785716307942177e+01	 5.000089153877974e+00	 8.389971220347523e+00
0	 2.785716307942177e+01	 5.714395937786081e+00	 8.364822974396889e+00
0	 2.785716307942178e+01	 6.428703054992629e+00	 8.487054454197494e+00
0	 2.785716307942178e+01	 7.143009922150927e+00	 8.735890931150870e+00
0	 2.857145634928704e+01	 0.000000000000000e+00	 1.588355223080738e+01
0	 2.857145634928703e+01	 7.142881171115513e-01	 1.386498138995621e+01
0	 2.857145634928704e+01	 1.428580650948409e+00	 1.216023365953956e+01
0	 2.857145634928704e+01	 2.142877018163878e+00	 1.075707948241664e+01
0	 2.857145634928703e+01	 2.857176635411264e+00	 9.643290325311559e+00
0	 2.857145634928704e+01	 3.571478919343873e+00	 8.806638678739223e+00
0	 2.857145634928704e+01	 4.285783286615009e+00	 8.234898056943756e+00
0	 2.857145634928704e+01	 5.000089153877975e+00	 7.915842997849493e+00
0	 2.857145634928703e+01	 5.714395937786080e+00	 7.837249063024490e+00
0	 2.857145634928704e+01	 6.428703054992629e+00	 7.986892837656585e+00
0	 2.857145634928703e+01	 7.143009922150926e+00	 8.352551930542020e+00
0	 2.142854365071297e+01	 7.143009922150927e+00	 1.254438825186651e+01
0	 2.142854365071296e+01	 7.857266066626718e+00	 1.146956658980804e+01
0	 2.142854365071296e+01	 8.571521461152164e+00	 1.056313629452176e+01
0	 2.142854365071296e+01	 9.285776189055184e+00	 9.820846090754561e+00
0	 2.142854365071297e+01	 1.000003033366371e+01	 9.238444601894320e+00
0	 2.142854365071296e+01	 1.071428397830567e+01	 8.811680349968690e+00
0	 2.142854365071296e+01	 1.142853720630899e+01	 8.536301755644104e+00
0	 2.142854365071297e+01	 1.214279010100160e+01	 8.408057138224908e+00
0	 2.142854365071296e+01	 1.285704274571142e+01	 8.422694715652694e+00
0	 2.142854365071296e+01	 1.357129522376639e+01	 8.575962604505840e+00
0	 2.142854365071296e+01	 1.428554761849444e+01	 8.863608819999154e+00
0	 2.214283692057824e+01	 7.143009922150926e+00	 1.306048538263365e+01
0	 2.214283692057824e+01	 7.857266066626720e+00	 1.183942387256773e+01
0	 2.214283692057824e+01	 8.571521461152162e+00	 1.080644506517886e+01
0	 2.214283692057824e+01	 9.285776189055181e+00	 9.957397829195646e+00
0	 2.214283692057823e+01	 1.000003033366371e+01	 9.288130914201641e+00
0	 2.214283692057824e+01	 1.071428397830567e+01	 8.794492950634009e+00
0	 2.214283692057823e+01	 1.142853720630899e+01	 8.472332449782249e+00
0	 2.214283692057823e+01	 1.214279010100160e+01	 8.317497803787235e+00
0	 2.214283692057824e+01	 1.285704274571142e+01	 8.325837285640413e+00
0	 2.214283692057824e+01	 1.357129522376640e+01	 8.493199049183215e+00
0	 2.214283692057824e+01	 1.428554761849444e+01	 8.815431129106711e+00
0	 2.285712885710494e+01	 7.143009922150927e+00	 1.315293603494518e+01
0	 2.285712885710494e+01	 7.857266066626718e+00	 1.191785699173922e+01
0	 2.285712885710493e+01	 8.571521461152161e+00	 1.087204942374831e+01
0	 2.285712885710493e+01	 9.285776189055182e+00	 1.001153222657339e+01
0	 2.285712885710494e+01	 1.000003033366371e+01	 9.332324172277112e+00
0	 2.285712885710495e+01	 1.071428397830567e+01	 8.830443909382439e+00
0	 2.285712885710494e+01	 1.142853720630899e+01	 8.501909962871382e+00
0	 2.285712885710493e+01	 1.214279010100160e+01	 8.342740734183931e+00
0	 2.285712885710494e+01	 1.285704274571142e+01	 8.348954501217237e+00
0	 2.285712885710494e+01	 1.357129522376640e+01	 8.516569418325034e+00
0	 2.285712885710494e+01	 1.428554761849444e+01	 8.841603516317210e+00
0	 2.357141979362770e+01	 7.143009922150926e+00	 1.290266782428877e+01
0	 2.357141979362770e+01	 7.857266066626717e+00	 1.176101089580720e+01
0	 2.357141979362770e+01	 8.571521461152166e+00	 1.079469383062831e+01
0	 2.357141979362770e+01	 9.285776189055182e+00	 9.999975451772626e+00
0	 2.357141979362770e+01	 1.000003033366371e+01	 9.373114465354513e+00
0	 2.357141979362770e+01	 1.071428397830567e+01	 8.910369460580885e+00
0	 2.357141979362770e+01	 1.142853720630899e+01	 8.607998909749927e+00
0	 2.357141979362770e+01	 1.214279010100160e+01	 8.462261168250162e+00
0	 2.357141979362770e+01	 1.285704274571142e+01	 8.469414474559649e+00
0	 2.357141979362770e+01	 1.357129522376639e+01	 8.625716950245408e+00
0	 2.357141979362770e+01	 1.428554761849444e+01	 8.927426599963029e+00
0	 2.428571006348117e+01	 7.143009922150927e+00	 1.239060822350188e+01
0	 2.428571006348117e+01	 7.857266066626718e+00	 1.142503041731630e+01
0	 2.428571006348117e+01	 8.571521461152159e+00	 1.060912265522097e+01
0	 2.428571006348117e+01	 9.285776189055184e+00	 9.939453605663919e+00
0	 2.428571006348118e+01	 1.000003033366371e+01	 9.412591835477128e+00
0	 2.428571006348118e+01	 1.071428397830567e+01	 9.025105809875367e+00
0	 2.428571006348118e+01	 1.142853720630899e+01	 8.773563892455082e+00
0	 2.428571006348117e+01	 1.214279010100160e+01	 8.654534345193600e+00
0	 2.428571006348117e+01	 1.285704274571142e+01	 8.664585328448410e+00
0	 2.428571006348117e+01	 1.357129522376639e+01	 8.800284900956678e+00
0	 2.428571006348118e+01	 1.428554761849444e+01	 9.058201019834895e+00
0	 2.500000000000000e+01	 7.143009922150926e+00	 1.169768456276908e+01
0	 2.500000000000000e+01	 7.857266066626717e+00	 1.096606027286896e+01
0	 2.500000000000000e+01	 8.571521461152161e+00	 1.035008017593064e+01
0	 2.500000000000001e+01	 9.285776189055186e+00	 9.846692721102324e+00
0	 2.500000000000000e+01	 1.000003033366371e+01	 9.452846277496800e+00
0	 2.500000000000001e+01	 1.071428397830567e+01	 9.165489134190471e+00
0	 2.500000000000000e+01	 1.142853720630899e+01	 8.981569500222530e+00
0	 2.500000000000001e+01	 1.214279010100160e+01	 8.898035504594299e+00
0	 2.500000000000001e+01	 1.285704274571142e+01	 8.911835196268640e+00
0	 2.500000000000000e+01	 1.357129522376639e+01	 9.019916544169607e+00
0	 2.500000000000000e+01	 1.428554761849444e+01	 9.219227437182127e+00
0	 2.571428993651883e+01	 7.143009922150926e+00	 1.090482402962031e+01
0	 2.571428993651883e+01	 7.857266066626718e+00	 1.044024506312404e+01
0	 2.571428993651883e+01	 8.571521461152162e+00	 1.005231058016285e+01
0	 2.571428993651884e+01	 9.285776189055184e+00	 9.738418762926567e+00
0	 2.571428993651883e+01	 1.000003033366371e+01	 9.495967739073341e+00
0	 2.571428993651884e+01	 1.071428397830567e+01	 9.322355581728946e+00
0	 2.571428993651884e+01	 1.142853720630899e+01	 9.214980309486229e+00
0	 2.571428993651884e+01	 1.214279010100160e+01	 9.171239886404624e+00
0	 2.571428993651883e+01	 1.285704274571143e+01	 9.188532222009806e+00
0	 2.571428993651883e+01	 1.357129522376639e+01	 9.264255171293380e+00
0	 2.571428993651884e+01	 1.428554761849445e+01	 9.395806534712694e+00
0	 2.642858020637231e+01	 7.143009922150926e+00	 1.009295366893022e+01
0	 2.642858020637231e+01	 7.857266066626718e+00	 9.903729272796268e+00
0	 2.642858020637231e+01	 8.571521461152164e+00	 9.750557964323859e+00
0	 2.642858020637231e+01	 9.285776189055182e+00	 9.631357627958732e+00
0	 2.642858020637231e+01	 1.000003033366371e+01	 9.544046120674341e+00
0	 2.642858020637232e+01	 1.071428397830567e+01	 9.486541271971541e+00
0	 2.642858020637231e+01	 1.142853720630899e+01	 9.456760883878221e+00
0	 2.642858020637231e+01	 1.214279010100160e+01	 9.452622730949138e+00
0	 2.642858020637231e+01	 1.285704274571142e+01	 9.472044560265635e+00
0	 2.642858020637231e+01	 1.357129522376640e+01	 9.512944091435564e+00
0	 2.642858020637231e+01	 1.428554761849444e+01	 9.573239016593149e+00
0	 2.714287114289508e+01	 7.143009922150927e+00	 9.343000382918431e+00
0	 2.714287114289507e+01	 7.857266066626718e+00	 9.412657270656528e+00
0	 2.714287114289508e+01	 8.571521461152164e+00	 9.479566333820907e+00
0	 2.714287114289507e+01	 9.285776189055186e+00	 9.542235145004394e+00
0	 2.714287114289507e+01	 1.000003033366371e+01	 9.599171275575225e+00
0	 2.714287114289507e+01	 1.071428397830567e+01	 9.648882295677002e+00
0	 2.714287114289507e+01	 1.142853720630899e+01	 9.689875774228662e+00
0	 2.714287114289509e+01	 1.214279010100160e+01	 9.720659278924469e+00
0	 2.714287114289507e+01	 1.285704274571142e+01	 9.739740376233947e+00
0	 2.714287114289508e+01	 1.357129522376640e+01	 9.745626631401903e+00
0	 2.714287114289507e+01	 1.428554761849444e+01	 9.736825608448388e+00
0	 2.785716307942178e+01	 7.143009922150927e+00	 8.735890931150870e+00
0	 2.785716307942177e+01	 7.857266066626719e+00	 9.023173309532874e+00
0	 2.785716307942177e+01	 8.571521461152162e+00	 9.274079603063004e+00
0	 2.785716307942177e+01	 9.285776189055184e+00	 9.487777074853284e+00
0	 2.785716307942177e+01	 1.000003033366371e+01	 9.663433009859666e+00
0	 2.785716307942177e+01	 1.071428397830567e+01	 9.800214714882323e+00
0	 2.785716307942177e+01	 1.142853720630899e+01	 9.897289518565810e+00
0	 2.785716307942177e+01	 1.214279010100160e+01	 9.953824771399248e+00
0	 2.785716307942178e+01	 1.285704274571143e+01	 9.968987845716436e+00
0	 2.785716307942177e+01	 1.357129522376639e+01	 9.941946135695972e+00
0	 2.785716307942178e+01	 1.428554761849445e+01	 9.871867057361262e+00
0	 2.857145634928703e+01	 7.143009922150926e+00	 8.352551930542020e+00
0	 2.857145634928704e+01	 7.857266066626718e+00	 8.791421526312480e+00
0	 2.857145634928704e+01	 8.571521461152164e+00	 9.168841595462489e+00
0	 2.857145634928704e+01	 9.285776189055182e+00	 9.484709110280363e+00
0	 2.857145634928704e+01	 1.000003033366371e+01	 9.738921082420360e+00
0	 2.857145634928704e+01	 1.071428397830567e+01	 9.931374562903153e+00
0	 2.857145634928704e+01	 1.142853720630899e+01	 1.006196664211618e+01
0	 2.857145634928704e+01	 1.214279010100160e+01	 1.013059444981395e+01
0	 2.857145634928703e+01	 1.285704274571142e+01	 1.013715515511834e+01
0	 2.857145634928704e+01	 1.357129522376639e+01	 1.008154596651873e+01
0	 2.857145634928703e+01	 1.428554761849444e+01	 9.963664131872084e+00
0	 2.142854365071296e+01	 1.428554761849444e+01	 8.863608819999152e+00
0	 2.142854365071297e+01	 1.499984997172426e+01	 9.189801738366068e+00
0	 2.142854365071296e+01	 1.571415215828766e+01	 9.462684022824790e+00
0	 2.142854365071296e+01	 1.642845401151721e+01	 9.684039222111021e+00
0	 2.142854365071296e+01	 1.714275536474550e+01	 9.855650828387363e+00
0	 2.142854365071296e+01	 1.785705605130510e+01	 9.979302277243349e+00
0	 2.142854365071296e+01	 1.857135590452858e+01	 1.005677694769530e+01
0	 2.142854365071297e+01	 1.928565475774854e+01	 1.008985816218598e+01
0	 2.142854365071297e+01	 1.999995244429754e+01	 1.008032918658395e+01
0	 2.142854365071296e+01	 2.071424879750816e+01	 1.002997323018288e+01
0	 2.142854365071296e+01	 2.142854365071296e+01	 9.940573445700551e+00
0	 2.214283692057824e+01	 1.428554761849444e+01	 8.815431129106711e+00
0	 2.214283692057823e+01	 1.499984997172426e+01	 9.181110202871933e+00
0	 2.214283692057824e+01	 1.571415215828766e+01	 9.483335851484714e+00
0	 2.214283692057824e+01	 1.642845401151721e+01	 9.724823970249938e+00
0	 2.214283692057825e+01	 1.714275536474550e+01	 9.908290389141001e+00
0	 2.214283692057824e+01	 1.785705605130510e+01	 1.003645087279978e+01
0	 2.214283692057824e+01	 1.857135590452858e+01	 1.011202112053645e+01
0	 2.214283692057824e+01	 1.928565475774854e+01	 1.013771676632907e+01
0	 2.214283692057824e+01	 1.999995244429753e+01	 1.011625337882288e+01
0	 2.214283692057824e+01	 2.071424879750816e+01	 1.005034646132944e+01
0	 2.214283692057824e+01	 2.142854365071296e+01	 9.942711451825488e+00
0	 2.285712885710494e+01	 1.428554761849444e+01	 8.841603516317210e+00
0	 2.285712885710494e+01	 1.499984997172426e+01	 9.209434560116033e+00
0	 2.285712885710493e+01	 1.571415215828766e+01	 9.510319381882177e+00
0	 2.285712885710494e+01	 1.642845401151721e+01	 9.747678982610465e+00
0	 2.285712885710494e+01	 1.714275536474550e+01	 9.924934297068535e+00
0	 2.285712885710494e+01	 1.785705605130510e+01	 1.004550619379687e+01
0	 2.285712885710494e+01	 1.857135590452858e+01	 1.011281547510858e+01
0	 2.285712885710494e+01	 1.928565475774854e+01	 1.013028287708895e+01
0	 2.285712885710494e+01	 1.999995244429754e+01	 1.010132906959479e+01
0	 2.285712885710493e+01	 2.071424879750816e+01	 1.002937465625350e+01
0	 2.285712885710494e+01	 2.142854365071296e+01	 9.917840174461970e+00
0	 2.357141979362770e+01	 1.428554761849444e+01	 8.927426599963033e+00
0	 2.357141979362770e+01	 1.499984997172426e+01	 9.266904642437105e+00
0	 2.357141979362770e+01	 1.571415215828766e+01	 9.541554047377858e+00
0	 2.357141979362770e+01	 1.642845401151721e+01	 9.755273681451273e+00
0	 2.357141979362770e+01	 1.714275536474550e+01	 9.911962350607816e+00
0	 2.357141979362770e+01	 1.785705605130509e+01	 1.001551880008246e+01
0	 2.357141979362770e+01	 1.857135590452859e+01	 1.006984171439454e+01
0	 2.357141979362769e+01	 1.928565475774853e+01	 1.007882971734724e+01
0	 2.357141979362770e+01	 1.999995244429754e+01	 1.004638137202711e+01
0	 2.357141979362770e+01	 2.071424879750816e+01	 9.976395180803168e+00
0	 2.357141979362770e+01	 2.142854365071297e+01	 9.872769585325834e+00
0	 2.428571006348118e+01	 1.428554761849444e+01	 9.058201019834895e+00
0	 2.428571006348118e+01	 1.499984997172427e+01	 9.345650304001211e+00
0	 2.428571006348118e+01	 1.571415215828766e+01	 9.574959300634692e+00
0	 2.428571006348118e+01	 1.642845401151721e+01	 9.750277503550432e+00
0	 2.428571006348117e+01	 1.714275536474550e+01	 9.875754356311617e+00
0	 2.428571006348117e+01	 1.785705605130509e+01	 9.955539252229494e+00
0	 2.428571006348117e+01	 1.857135590452859e+01	 9.993781534363272e+00
0	 2.428571006348117e+01	 1.928565475774854e+01	 9.994630495519770e+00
0	 2.428571006348117e+01	 1.999995244429754e+01	 9.962235378252906e+00
0	 2.428571006348117e+01	 2.071424879750816e+01	 9.900745374863046e+00
0	 2.428571006348117e+01	 2.142854365071296e+01	 9.814309627396121e+00
0	 2.500000000000000e+01	 1.428554761849444e+01	 9.219227437182127e+00
0	 2.500000000000001e+01	 1.499984997172427e+01	 9.437801420801975e+00
0	 2.500000000000000e+01	 1.571415215828766e+01	 9.608454613618024e+00
0	 2.500000000000001e+01	 1.642845401151721e+01	 9.735359900205479e+00
0	 2.500000000000000e+01	 1.714275536474550e+01	 9.822690128847606e+00
0	 2.500000000000001e+01	 1.785705605130510e+01	 9.874618111535831e+00
0	 2.500000000000001e+01	 1.857135590452858e+01	 9.895316623969599e+00
0	 2.500000000000000e+01	 1.928565475774854e+01	 9.888958405556188e+00
0	 2.500000000000000e+01	 1.999995244429753e+01	 9.859716159410326e+00
0	 2.500000000000001e+01	 2.071424879750815e+01	 9.811762552353732e+00
0	 2.500000000000001e+01	 2.142854365071296e+01	 9.749270214914484e+00
0	 2.571428993651884e+01	 1.428554761849445e+01	 9.395806534712696e+00
0	 2.571428993651883e+01	 1.499984997172426e+01	 9.535487890660598e+00
0	 2.571428993651883e+01	 1.571415215828766e+01	 9.639959477595696e+00
0	 2.571428993651883e+01	 1.642845401151721e+01	 9.713190337233392e+00
0	 2.571428993651884e+01	 1.714275536474551e+01	 9.759149490998263e+00
0	 2.571428993651883e+01	 1.785705605130509e+01	 9.781805940024110e+00
0	 2.571428993651883e+01	 1.857135590452858e+01	 9.785128665153907e+00
0	 2.571428993651884e+01	 1.928565475774854e+01	 9.773086626939666e+00
0	 2.571428993651884e+01	 1.999995244429754e+01	 9.749648765642316e+00
0	 2.571428993651883e+01	 2.071424879750815e+01	 9.718784001231398e+00
0	 2.571428993651884e+01	 2.142854365071296e+01	 9.684461233384759e+00
0	 2.642858020637231e+01	 1.428554761849444e+01	 9.573239016593151e+00
0	 2.642858020637231e+01	 1.499984997172426e+01	 9.630839633225849e+00
0	 2.642858020637231e+01	 1.571415215828766e+01	 9.667393403137870e+00
0	 2.642858020637231e+01	 1.642845401151721e+01	 9.686438294970468e+00
0	 2.642858020637231e+01	 1.714275536474550e+01	 9.691512273660734e+00
0	 2.642858020637232e+01	 1.785705605130510e+01	 9.686153300441639e+00
0	 2.642858020637231e+01	 1.857135590452858e+01	 9.673899332842039e+00
0	 2.642858020637232e+01	 1.928565475774854e+01	 9.658288324686730e+00
0	 2.642858020637231e+01	 1.999995244429754e+01	 9.642858226096385e+00
0	 2.642858020637231e+01	 2.071424879750815e+01	 9.631146983487596e+00
0	 2.642858020637232e+01	 2.142854365071296e+01	 9.626692539572790e+00
0	 2.714287114289507e+01	 1.428554761849444e+01	 9.736825608448388e+00
0	 2.714287114289507e+01	 1.499984997172426e+01	 9.715986589973742e+00
0	 2.714287114289508e+01	 1.571415215828766e+01	 9.688675920116857e+00
0	 2.714287114289507e+01	 1.642845401151721e+01	 9.657773268272145e+00
0	 2.714287114289508e+01	 1.714275536474550e+01	 9.626158315846659e+00
0	 2.714287114289507e+01	 1.785705605130510e+01	 9.596710756260155e+00
0	 2.714287114289507e+01	 1.857135590452858e+01	 9.572310294945165e+00
0	 2.714287114289507e+01	 1.928565475774854e+01	 9.555836649347132e+00
0	 2.714287114289507e+01	 1.999995244429753e+01	 9.550169548924561e+00
0	 2.714287114289508e+01	 2.071424879750816e+01	 9.558188735149233e+00
0	 2.714287114289507e+01	 2.142854365071296e+01	 9.582773961506458e+00
0	 2.785716307942178e+01	 1.428554761849445e+01	 9.871867057361262e+00
0	 2.785716307942177e+01	 1.499984997172426e+01	 9.783058724207189e+00
0	 2.785716307942177e+01	 1.571415215828766e+01	 9.701726577706703e+00
0	 2.785716307942178e+01	 1.642845401151722e+01	 9.629864766512609e+00
0	 2.785716307942177e+01	 1.714275536474550e+01	 9.569467464681880e+00
0	 2.785716307942177e+01	 1.785705605130510e+01	 9.522528871675700e+00
0	 2.785716307942177e+01	 1.857135590452858e+01	 9.491043212359672e+00
0	 2.785716307942178e+01	 1.928565475774854e+01	 9.477004737003922e+00
0	 2.785716307942177e+01	 1.999995244429754e+01	 9.482407721283508e+00
0	 2.785716307942177e+01	 2.071424879750815e+01	 9.509246466278764e+00
0	 2.785716307942178e+01	 2.142854365071296e+01	 9.559515298475796e+00
0	 2.857145634928703e+01	 1.428554761849444e+01	 9.963664131872086e+00
0	 2.857145634928704e+01	 1.499984997172426e+01	 9.824186021055439e+00
0	 2.857145634928703e+01	 1.571415215828766e+01	 9.704464944382725e+00
0	 2.857145634928704e+01	 1.642845401151721e+01	 9.605382313584455e+00
0	 2.857145634928704e+01	 1.714275536474550e+01	 9.527819575406181e+00
0	 2.857145634928704e+01	 1.785705605130510e+01	 9.472658211608476e+00
0	 2.857145634928704e+01	 1.857135590452858e+01	 9.440779738967153e+00
0	 2.857145634928703e+01	 1.928565475774853e+01	 9.433065709273508e+00
0	 2.857145634928703e+01	 1.999995244429753e+01	 9.450397709334739e+00
0	 2.857145634928704e+01	 2.071424879750816e+01	 9.493657360974499e+00
0	 2.857145634928704e+01	 2.142854365071296e+01	 9.563726321033517e+00
0	 2.142854365071296e+01	 2.142854365071296e+01	 9.940573445700551e+00
0	 2.142854365071296e+01	 2.214283692057824e+01	 9.841545948057826e+00
0	 2.142854365071296e+01	 2.285712885710494e+01	 9.760908443716316e+00
0	 2.142854365071296e+01	 2.357141979362770e+01	 9.698346397609440e+00
0	 2.142854365071296e+01	 2.428571006348117e+01	 9.653545231119157e+00
0	 2.142854365071296e+01	 2.500000000000001e+01	 9.626190322075127e+00
0	 2.142854365071296e+01	 2.571428993651884e+01	 9.615967004754321e+00
0	 2.142854365071296e+01	 2.642858020637231e+01	 9.622560569880726e+00
0	 2.142854365071296e+01	 2.714287114289507e+01	 9.645656264625538e+00
0	 2.142854365071296e+01	 2.785716307942177e+01	 9.684939292607552e+00
0	 2.142854365071296e+01	 2.857145634928703e+01	 9.740094813893894e+00
0	 2.214283692057824e+01	 2.142854365071296e+01	 9.942711451825488e+00
0	 2.214283692057824e+01	 2.214283692057824e+01	 9.827551610777618e+00
0	 2.214283692057824e+01	 2.285712885710494e+01	 9.736511600069782e+00
0	 2.214283692057824e+01	 2.357141979362770e+01	 9.668468873869717e+00
0	 2.214283692057824e+01	 2.428571006348118e+01	 9.622300837099903e+00
0	 2.214283692057824e+01	 2.500000000000000e+01	 9.596884845436616e+00
0	 2.214283692057824e+01	 2.571428993651884e+01	 9.591098205309299e+00
0	 2.214283692057824e+01	 2.642858020637232e+01	 9.603818173900342e+00
0	 2.214283692057824e+01	 2.714287114289507e+01	 9.633921959145086e+00
0	 2.214283692057824e+01	 2.785716307942177e+01	 9.680286719732335e+00
0	 2.214283692057824e+01	 2.857145634928704e+01	 9.741789565105080e+00
0	 2.285712885710494e+01	 2.142854365071296e+01	 9.917840174461970e+00
0	 2.285712885710494e+01	 2.214283692057824e+01	 9.801669986649721e+00
0	 2.285712885710493e+01	 2.285712885710493e+01	 9.712357626813255e+00
0	 2.285712885710494e+01	 2.357141979362770e+01	 9.648147303348530e+00
0	 2.285712885710494e+01	 2.428571006348118e+01	 9.607283175746971e+00
0	 2.285712885710494e+01	 2.500000000000000e+01	 9.588009354594412e+00
0	 2.285712885710494e+01	 2.571428993651883e+01	 9.588569901570539e+00
0	 2.285712885710494e+01	 2.642858020637232e+01	 9.607208829448595e+00
0	 2.285712885710494e+01	 2.714287114289507e+01	 9.642170102095408e+00
0	 2.285712885710494e+01	 2.785716307942177e+01	 9.691697634471813e+00
0	 2.285712885710494e+01	 2.857145634928704e+01	 9.754035292633397e+00
0	 2.357141979362770e+01	 2.142854365071297e+01	 9.872769585325834e+00
0	 2.357141979362770e+01	 2.214283692057824e+01	 9.767873289000025e+00
0	 2.357141979362770e+01	 2.285712885710493e+01	 9.689999909541053e+00
0	 2.357141979362770e+01	 2.357141979362770e+01	 9.636935181749172e+00
0	 2.357141979362770e+01	 2.428571006348117e+01	 9.606464796722248e+00
0	 2.357141979362770e+01	 2.500000000000001e+01	 9.596374401854813e+00
0	 2.357141979362770e+01	 2.571428993651884e+01	 9.604449600837592e+00
0	 2.357141979362770e+01	 2.642858020637231e+01	 9.628475953657144e+00
0	 2.357141979362770e+01	 2.714287114289508e+01	 9.666238976596013e+00
0	 2.357141979362770e+01	 2.785716307942177e+01	 9.715524142232955e+00
0	 2.357141979362770e+01	 2.857145634928704e+01	 9.774116879443715e+00
0	 2.428571006348117e+01	 2.142854365071296e+01	 9.814309627396121e+00
0	 2.428571006348117e+01	 2.214283692057824e+01	 9.730133702288668e+00
0	 2.428571006348118e+01	 2.285712885710494e+01	 9.670991807195319e+00
0	 2.428571006348118e+01	 2.357141979362770e+01	 9.634385982189428e+00
0	 2.428571006348118e+01	 2.428571006348118e+01	 9.617818232532573e+00
0	 2.428571006348117e+01	 2.500000000000000e+01	 9.618790528673816e+00
0	 2.428571006348117e+01	 2.571428993651883e+01	 9.634804806249287e+00
0	 2.428571006348117e+01	 2.642858020637231e+01	 9.663362966082001e+00
0	 2.428571006348118e+01	 2.714287114289508e+01	 9.701966874181856e+00
0	 2.428571006348117e+01	 2.785716307942176e+01	 9.748118361745945e+00
0	 2.428571006348117e+01	 2.857145634928703e+01	 9.799319225159106e+00
0	 2.500000000000001e+01	 2.142854365071296e+01	 9.749270214914484e+00
0	 2.500000000000001e+01	 2.214283692057824e+01	 9.692423382109419e+00
0	 2.500000000000000e+01	 2.285712885710494e+01	 9.656886652065445e+00
0	 2.500000000000000e+01	 2.357141979362770e+01	 9.640053155201148e+00
0	 2.500000000000000e+01	 2.428571006348117e+01	 9.639315998529366e+00
0	 2.500000000000001e+01	 2.500000000000000e+01	 9.652068265656791e+00
0	 2.500000000000000e+01	 2.571428993651883e+01	 9.675703016783618e+00
0	 2.500000000000001e+01	 2.642858020637231e+01	 9.707613288703488e+00
0	 2.500000000000000e+01	 2.714287114289507e+01	 9.745192094803500e+00
0	 2.500000000000001e+01	 2.785716307942178e+01	 9.785832425064433e+00
0	 2.500000000000001e+01	 2.857145634928704e+01	 9.826927246061128e+00
0	 2.571428993651884e+01	 2.142854365071296e+01	 9.684461233384759e+00
0	 2.571428993651884e+01	 2.214283692057824e+01	 9.658714455189296e+00
0	 2.571428993651883e+01	 2.285712885710494e+01	 9.649237749787730e+00
0	 2.571428993651883e+01	 2.357141979362770e+01	 9.653490128729896e+00
0	 2.571428993651883e+01	 2.428571006348117e+01	 9.668930592908396e+00
0	 2.571428993651883e+01	 2.500000000000000e+01	 9.693018132558407e+00
0	 2.571428993651883e+01	 2.571428993651883e+01	 9.723211727257665e+00
0	 2.571428993651883e+01	 2.642858020637231e+01	 9.756970345926353e+00
0	 2.571428993651884e+01	 2.714287114289507e+01	 9.791752946827199e+00
0	 2.571428993651883e+01	 2.785716307942177e+01	 9.825018477565649e+00
0	 2.571428993651884e+01	 2.857145634928704e+01	 9.854225875090009e+00
0	 2.642858020637232e+01	 2.142854365071296e+01	 9.626692539572790e+00
0	 2.642858020637232e+01	 2.214283692057824e+01	 9.632979019388378e+00
0	 2.642858020637231e+01	 2.285712885710493e+01	 9.649598379345237e+00
0	 2.642858020637231e+01	 2.357141979362770e+01	 9.674250308134919e+00
0	 2.642858020637232e+01	 2.428571006348118e+01	 9.704634496709676e+00
0	 2.642858020637231e+01	 2.500000000000000e+01	 9.738450638282572e+00
0	 2.642858020637232e+01	 2.571428993651884e+01	 9.773398428327569e+00
0	 2.642858020637231e+01	 2.642858020637230e+01	 9.807177564579650e+00
0	 2.642858020637231e+01	 2.714287114289508e+01	 9.837487747034888e+00
0	 2.642858020637231e+01	 2.785716307942177e+01	 9.862028677950445e+00
0	 2.642858020637231e+01	 2.857145634928704e+01	 9.878500061844703e+00
0	 2.714287114289507e+01	 2.142854365071296e+01	 9.582773961506458e+00
0	 2.714287114289508e+01	 2.214283692057824e+01	 9.619189143699849e+00
0	 2.714287114289506e+01	 2.285712885710494e+01	 9.659521793067805e+00
0	 2.714287114289507e+01	 2.357141979362770e+01	 9.701887076189085e+00
0	 2.714287114289507e+01	 2.428571006348117e+01	 9.744400173817521e+00
0	 2.714287114289507e+01	 2.500000000000001e+01	 9.785176280882348e+00
0	 2.714287114289508e+01	 2.571428993651884e+01	 9.822330606488503e+00
0	 2.714287114289508e+01	 2.642858020637231e+01	 9.853978373916831e+00
0	 2.714287114289508e+01	 2.714287114289508e+01	 9.878234820624158e+00
0	 2.714287114289508e+01	 2.785716307942177e+01	 9.893215198243279e+00
0	 2.714287114289507e+01	 2.857145634928703e+01	 9.897034772582842e+00
0	 2.785716307942178e+01	 2.142854365071296e+01	 9.559515298475796e+00
0	 2.785716307942178e+01	 2.214283692057824e+01	 9.621316868250176e+00
0	 2.785716307942177e+01	 2.285712885710494e+01	 9.680561216632235e+00
0	 2.785716307942177e+01	 2.357141979362770e+01	 9.735953793079080e+00
0	 2.785716307942177e+01	 2.428571006348117e+01	 9.786200070960618e+00
0	 2.785716307942178e+01	 2.500000000000000e+01	 9.830005547560129e+00
0	 2.785716307942177e+01	 2.571428993651883e+01	 9.866075744074720e+00
0	 2.785716307942177e+01	 2.642858020637231e+01	 9.893116205615613e+00
0	 2.785716307942177e+01	 2.714287114289508e+01	 9.909832501208200e+00
0	 2.785716307942177e+01	 2.785716307942177e+01	 9.914930223792041e+00
0	 2.785716307942177e+01	 2.857145634928704e+01	 9.907114990220572e+00
0	 2.857145634928704e+01	 2.142854365071296e+01	 9.563726321033517e+00
0	 2.857145634928704e+01	 2.214283692057824e+01	 9.643334204299556e+00
0	 2.857145634928704e+01	 2.285712885710494e+01	 9.714269849062724e+00
0	 2.857145634928704e+01	 2.357141979362770e+01	 9.776003796405751e+00
0	 2.857145634928703e+01	 2.428571006348117e+01	 9.828006617712305e+00
0	 2.857145634928704e+01	 2.500000000000001e+01	 9.869748914667733e+00
0	 2.857145634928704e+01	 2.571428993651884e+01	 9.900701319259575e+00
0	 2.857145634928704e+01	 2.642858020637232e+01	 9.920334493777942e+00
0	 2.857145634928704e+01	 2.714287114289508e+01	 9.928119130815587e+00
0	 2.857145634928704e+01	 2.785716307942177e+01	 9.923525953267827e+00
0	 2.857145634928703e+01	 2.857145634928703e+01	 9.906025714332229e+00
0	 2.142854365071296e+01	 2.857145634928703e+01	 9.740094813893894e+00
0	 2.142854365071296e+01	 2.928575120249186e+01	 9.799166284923807e+00
0	 2.142854365071296e+01	 3.000004755570248e+01	 9.850413287595137e+00
0	 2.142854365071297e+01	 3.071434524225148e+01	 9.893845129270364e+00
0	 2.142854365071296e+01	 3.142864409547142e+01	 9.929471106339557e+00
0	 2.142854365071296e+01	 3.214294394869491e+01	 9.957300504220711e+00
0	 2.142854365071296e+01	 3.285724463525451e+01	 9.977342597359934e+00
0	 2.142854365071296e+01	 3.357154598848279e+01	 9.989606649231696e+00
0	 2.142854365071296e+01	 3.428584784171235e+01	 9.994101912338962e+00
0	 2.142854365071296e+01	 3.500015002827575e+01	 9.990837628213347e+00
0	 2.142854365071297e+01	 3.571445238150556e+01	 9.979823027415154e+00
0	 2.214283692057824e+01	 2.857145634928704e+01	 9.741789565105080e+00
0	 2.214283692057824e+01	 2.928575120249186e+01	 9.804954901104878e+00
0	 2.214283692057824e+01	 3.000004755570248e+01	 9.857447392963969e+00
0	 2.214283692057824e+01	 3.071434524225147e+01	 9.899854494205156e+00
0	 2.214283692057825e+01	 3.142864409547143e+01	 9.932763647588253e+00
0	 2.214283692057824e+01	 3.214294394869491e+01	 9.956762285110385e+00
0	 2.214283692057824e+01	 3.285724463525450e+01	 9.972437828006148e+00
0	 2.214283692057823e+01	 3.357154598848279e+01	 9.980377686747918e+00
0	 2.214283692057823e+01	 3.428584784171235e+01	 9.981169261045929e+00
0	 2.214283692057824e+01	 3.500015002827574e+01	 9.975399939848444e+00
0	 2.214283692057824e+01	 3.571445238150555e+01	 9.963657101341848e+00
0	 2.285712885710494e+01	 2.857145634928704e+01	 9.754035292633397e+00
0	 2.285712885710493e+01	 2.928575120249186e+01	 9.815733480391906e+00
0	 2.285712885710494e+01	 3.000004755570248e+01	 9.865210889728141e+00
0	 2.285712885710494e+01	 3.071434524225146e+01	 9.903513775074966e+00
0	 2.285712885710494e+01	 3.142864409547142e+01	 9.931688381268257e+00
0	 2.285712885710493e+01	 3.214294394869492e+01	 9.950780943547166e+00
0	 2.285712885710494e+01	 3.285724463525452e+01	 9.961837687554279e+00
0	 2.285712885710495e+01	 3.357154598848280e+01	 9.965904829335862e+00
0	 2.285712885710494e+01	 3.428584784171235e+01	 9.964028575342015e+00
0	 2.285712885710493e+01	 3.500015002827574e+01	 9.957255122426755e+00
0	 2.285712885710494e+01	 3.571445238150555e+01	 9.946630657848127e+00
0	 2.357141979362770e+01	 2.857145634928704e+01	 9.774116879443715e+00
0	 2.357141979362770e+01	 2.928575120249186e+01	 9.829850784985975e+00
0	 2.357141979362770e+01	 3.000004755570247e+01	 9.872959669020632e+00
0	 2.357141979362770e+01	 3.071434524225147e+01	 9.904829241980908e+00
0	 2.357141979362770e+01	 3.142864409547143e+01	 9.926845206606195e+00
0	 2.357141979362770e+01	 3.214294394869493e+01	 9.940393257942212e+00
0	 2.357141979362770e+01	 3.285724463525450e+01	 9.946859083341218e+00
0	 2.357141979362770e+01	 3.357154598848280e+01	 9.947628362462186e+00
0	 2.357141979362770e+01	 3.428584784171235e+01	 9.944086767270903e+00
0	 2.357141979362770e+01	 3.500015002827573e+01	 9.937619962040102e+00
0	 2.357141979362770e+01	 3.571445238150556e+01	 9.929613603349514e+00
0	 2.428571006348117e+01	 2.857145634928703e+01	 9.799319225159106e+00
0	 2.428571006348117e+01	 2.928575120249185e+01	 9.845655595156430e+00
0	 2.428571006348117e+01	 3.000004755570247e+01	 9.879949639724646e+00
0	 2.428571006348117e+01	 3.071434524225147e+01	 9.903807181062401e+00
0	 2.428571006348117e+01	 3.142864409547142e+01	 9.918834036095246e+00
0	 2.428571006348117e+01	 3.214294394869491e+01	 9.926636016475904e+00
0	 2.428571006348118e+01	 3.285724463525452e+01	 9.928818928584308e+00
0	 2.428571006348118e+01	 3.357154598848279e+01	 9.926988573527812e+00
0	 2.428571006348118e+01	 3.428584784171235e+01	 9.922750747141201e+00
0	 2.428571006348118e+01	 3.500015002827575e+01	 9.917711239986838e+00
0	 2.428571006348117e+01	 3.571445238150555e+01	 9.913475837354767e+00
0	 2.500000000000001e+01	 2.857145634928704e+01	 9.826927246061128e+00
0	 2.500000000000000e+01	 2.928575120249186e+01	 9.861496709241152e+00
0	 2.500000000000001e+01	 3.000004755570248e+01	 9.885436728473941e+00
0	 2.500000000000001e+01	 3.071434524225147e+01	 9.900453894497410e+00
0	 2.500000000000000e+01	 3.142864409547142e+01	 9.908254795495477e+00
0	 2.500000000000001e+01	 3.214294394869491e+01	 9.910546017098124e+00
0	 2.500000000000000e+01	 3.285724463525450e+01	 9.909034142381509e+00
0	 2.500000000000001e+01	 3.357154598848280e+01	 9.905425751868052e+00
0	 2.500000000000000e+01	 3.428584784171235e+01	 9.901427423526467e+00
0	 2.500000000000000e+01	 3.500015002827574e+01	 9.898745732771859e+00
0	 2.500000000000000e+01	 3.571445238150555e+01	 9.899087252465755e+00
0	 2.571428993651884e+01	 2.857145634928704e+01	 9.854225875090009e+00
0	 2.571428993651884e+01	 2.928575120249186e+01	 9.875722943646789e+00
0	 2.571428993651884e+01	 3.000004755570248e+01	 9.888676879652969e+00
0	 2.571428993651884e+01	 3.071434524225148e+01	 9.894775700502704e+00
0	 2.571428993651883e+01	 3.142864409547142e+01	 9.895707423833912e+00
0	 2.571428993651884e+01	 3.214294394869492e+01	 9.893160067528289e+00
0	 2.571428993651883e+01	 3.285724463525451e+01	 9.888821649711387e+00
0	 2.571428993651883e+01	 3.357154598848280e+01	 9.884380188752584e+00
0	 2.571428993651883e+01	 3.428584784171235e+01	 9.881523703265174e+00
0	 2.571428993651884e+01	 3.500015002827574e+01	 9.881940212106390e+00
0	 2.571428993651884e+01	 3.571445238150556e+01	 9.887317734377397e+00
0	 2.642858020637231e+01	 2.857145634928704e+01	 9.878500061844703e+00
0	 2.642858020637231e+01	 2.928575120249186e+01	 9.886683132848814e+00
0	 2.642858020637231e+01	 3.000004755570248e+01	 9.888926055397032e+00
0	 2.642858020637231e+01	 3.071434524225146e+01	 9.886778933333861e+00
0	 2.642858020637231e+01	 3.142864409547142e+01	 9.881791873404627e+00
0	 2.642858020637231e+01	 3.214294394869491e+01	 9.875514985255428e+00
0	 2.642858020637232e+01	 3.285724463525452e+01	 9.869498381433166e+00
0	 2.642858020637231e+01	 3.357154598848280e+01	 9.865292177385459e+00
0	 2.642858020637231e+01	 3.428584784171235e+01	 9.864446491460731e+00
0	 2.642858020637231e+01	 3.500015002827576e+01	 9.868511444908117e+00
0	 2.642858020637231e+01	 3.571445238150556e+01	 9.879037161877630e+00
0	 2.714287114289507e+01	 2.857145634928703e+01	 9.897034772582842e+00
0	 2.714287114289508e+01	 2.928575120249186e+01	 9.892726129391470e+00
0	 2.714287114289507e+01	 3.000004755570247e+01	 9.885440235592155e+00
0	 2.714287114289507e+01	 3.071434524225147e+01	 9.876469943285235e+00
0	 2.714287114289509e+01	 3.142864409547143e+01	 9.867108109768685e+00
0	 2.714287114289507e+01	 3.214294394869491e+01	 9.858647597538148e+00
0	 2.714287114289507e+01	 3.285724463525450e+01	 9.852381274286753e+00
0	 2.714287114289508e+01	 3.357154598848279e+01	 9.849602012905141e+00
0	 2.714287114289508e+01	 3.428584784171235e+01	 9.851602691481435e+00
0	 2.714287114289507e+01	 3.500015002827575e+01	 9.859676193301183e+00
0	 2.714287114289507e+01	 3.571445238150555e+01	 9.875115406847421e+00
0	 2.785716307942177e+01	 2.857145634928704e+01	 9.907114990220572e+00
0	 2.785716307942177e+01	 2.928575120249185e+01	 9.892200803887583e+00
0	 2.785716307942177e+01	 3.000004755570247e+01	 9.877475417874962e+00
0	 2.785716307942177e+01	 3.071434524225147e+01	 9.863855096689791e+00
0	 2.785716307942177e+01	 3.142864409547143e+01	 9.852256111754052e+00
0	 2.785716307942177e+01	 3.214294394869491e+01	 9.843594741404512e+00
0	 2.785716307942177e+01	 3.285724463525450e+01	 9.838787270892613e+00
0	 2.785716307942178e+01	 3.357154598848280e+01	 9.838749992384422e+00
0	 2.785716307942177e+01	 3.428584784171235e+01	 9.844399204960556e+00
0	 2.785716307942178e+01	 3.500015002827575e+01	 9.856651214616145e+00
0	 2.785716307942177e+01	 3.571445238150555e+01	 9.876422334260864e+00
0	 2.857145634928703e+01	 2.857145634928703e+01	 9.906025714332229e+00
0	 2.857145634928704e+01	 2.928575120249186e+01	 9.883456045018232e+00
0	 2.857145634928703e+01	 3.000004755570248e+01	 9.864287617632302e+00
0	 2.857145634928704e+01	 3.071434524225148e+01	 9.848940775918845e+00
0	 2.857145634928703e+01	 3.142864409547142e+01	 9.837835871455292e+00
0	 2.857145634928704e+01	 3.214294394869491e+01	 9.831393263651918e+00
0	 2.857145634928704e+01	 3.285724463525451e+01	 9.830033319751745e+00
0	 2.857145634928703e+01	 3.357154598848279e+01	 9.834176414830454e+00
0	 2.857145634928704e+01	 3.428584784171235e+01	 9.844242931796325e+00
0	 2.857145634928704e+01	 3.500015002827575e+01	 9.860653261390153e+00
0	 2.857145634928704e+01	 3.571445238150556e+01	 9.883827802185293e+00
0	 2.142854365071297e+01	 3.571445238150556e+01	 9.979823027415154e+00
0	 2.142854365071297e+01	 3.642870477623361e+01	 9.966286445837287e+00
0	 2.142854365071296e+01	 3.714295725428858e+01	 9.955471254551371e+00
0	 2.142854365071296e+01	 3.785720989899840e+01	 9.947412353438553e+00
0	 2.142854365071296e+01	 3.857146279369100e+01	 9.942144640566426e+00
0	 2.142854365071296e+01	 3.928571602169432e+01	 9.939703012188991e+00
0	 2.142854365071296e+01	 3.999996966633628e+01	 9.940122362746703e+00
0	 2.142854365071296e+01	 4.071422381094482e+01	 9.943437584866471e+00
0	 2.142854365071296e+01	 4.142847853884783e+01	 9.949683569361678e+00
0	 2.142854365071296e+01	 4.214273393337329e+01	 9.958895205232189e+00
0	 2.142854365071296e+01	 4.285699007784907e+01	 9.971107379664396e+00
0	 2.214283692057824e+01	 3.571445238150555e+01	 9.963657101341848e+00
0	 2.214283692057823e+01	 3.642870477623359e+01	 9.951231831744586e+00
0	 2.214283692057824e+01	 3.714295725428858e+01	 9.942792730918610e+00
0	 2.214283692057823e+01	 3.785720989899838e+01	 9.937996490417586e+00
0	 2.214283692057824e+01	 3.857146279369099e+01	 9.936499800375005e+00
0	 2.214283692057824e+01	 3.928571602169433e+01	 9.937959349504284e+00
0	 2.214283692057824e+01	 3.999996966633629e+01	 9.942031825098701e+00
0	 2.214283692057824e+01	 4.071422381094481e+01	 9.948373913031455e+00
0	 2.214283692057823e+01	 4.142847853884784e+01	 9.956642297755614e+00
0	 2.214283692057824e+01	 4.214273393337328e+01	 9.966493662304238e+00
0	 2.214283692057824e+01	 4.285699007784908e+01	 9.977584688290268e+00
0	 2.285712885710494e+01	 3.571445238150555e+01	 9.946630657848127e+00
0	 2.285712885710494e+01	 3.642870477623360e+01	 9.936984866758142e+00
0	 2.285712885710494e+01	 3.714295725428858e+01	 9.932019531325668e+00
0	 2.285712885710494e+01	 3.785720989899840e+01	 9.931091538677851e+00
0	 2.285712885710494e+01	 3.857146279369100e+01	 9.933557775049628e+00
0	 2.285712885710494e+01	 3.928571602169432e+01	 9.938775125783714e+00
0	 2.285712885710494e+01	 3.999996966633628e+01	 9.946100475330640e+00
0	 2.285712885710494e+01	 4.071422381094481e+01	 9.954890707248719e+00
0	 2.285712885710494e+01	 4.142847853884783e+01	 9.964502704204081e+00
0	 2.285712885710493e+01	 4.214273393337326e+01	 9.974293347970663e+00
0	 2.285712885710493e+01	 4.285699007784907e+01	 9.983619519430281e+00
0	 2.357141979362770e+01	 3.571445238150556e+01	 9.929613603349514e+00
0	 2.357141979362770e+01	 3.642870477623360e+01	 9.924021808127488e+00
0	 2.357141979362770e+01	 3.714295725428858e+01	 9.923297420586126e+00
0	 2.357141979362770e+01	 3.785720989899838e+01	 9.926575928213534e+00
0	 2.357141979362770e+01	 3.857146279369101e+01	 9.932992818223747e+00
0	 2.357141979362770e+01	 3.928571602169432e+01	 9.941683577556747e+00
0	 2.357141979362770e+01	 3.999996966633628e+01	 9.951783692878447e+00
0	 2.357141979362770e+01	 4.071422381094482e+01	 9.962428650580728e+00
0	 2.357141979362770e+01	 4.142847853884783e+01	 9.972753936781436e+00
0	 2.357141979362771e+01	 4.214273393337327e+01	 9.981895037324325e+00
0	 2.357141979362770e+01	 4.285699007784907e+01	 9.988987437779194e+00
0	 2.428571006348117e+01	 3.571445238150555e+01	 9.913475837354767e+00
0	 2.428571006348117e+01	 3.642870477623359e+01	 9.912818905269015e+00
0	 2.428571006348118e+01	 3.714295725428857e+01	 9.916772155813653e+00
0	 2.428571006348117e+01	 3.785720989899839e+01	 9.924328082292048e+00
0	 2.428571006348117e+01	 3.857146279369100e+01	 9.934479178397696e+00
0	 2.428571006348117e+01	 3.928571602169433e+01	 9.946217938214229e+00
0	 2.428571006348118e+01	 3.999996966633628e+01	 9.958536856215391e+00
0	 2.428571006348117e+01	 4.071422381094479e+01	 9.970428427265093e+00
0	 2.428571006348118e+01	 4.142847853884783e+01	 9.980885146617368e+00
0	 2.428571006348118e+01	 4.214273393337328e+01	 9.988899509916369e+00
0	 2.428571006348117e+01	 4.285699007784908e+01	 9.993464013196411e+00
0	 2.500000000000000e+01	 3.571445238150555e+01	 9.899087252465755e+00
0	 2.500000000000000e+01	 3.642870477623359e+01	 9.903852399765871e+00
0	 2.500000000000001e+01	 3.714295725428857e+01	 9.912589486421798e+00
0	 2.500000000000001e+01	 3.785720989899841e+01	 9.924226417453855e+00
0	 2.500000000000000e+01	 3.857146279369099e+01	 9.937691098938492e+00
0	 2.499999999999999e+01	 3.928571602169431e+01	 9.951911438008311e+00
0	 2.500000000000000e+01	 3.999996966633628e+01	 9.965815342852061e+00
0	 2.500000000000001e+01	 4.071422381094482e+01	 9.978330722714617e+00
0	 2.500000000000001e+01	 4.142847853884783e+01	 9.988385487897002e+00
0	 2.500000000000000e+01	 4.214273393337328e+01	 9.994907549756391e+00
0	 2.500000000000001e+01	 4.285699007784908e+01	 9.996824820706060e+00
0	 2.571428993651884e+01	 3.571445238150556e+01	 9.887317734377397e+00
0	 2.571428993651884e+01	 3.642870477623360e+01	 9.897598525367862e+00
0	 2.571428993651884e+01	 3.714295725428857e+01	 9.910895154123967e+00
0	 2.571428993651884e+01	 3.785720989899838e+01	 9.926149343512463e+00
0	 2.571428993651883e+01	 3.857146279369100e+01	 9.942302818079874e+00
0	 2.571428993651883e+01	 3.928571602169433e+01	 9.958297304052493e+00
0	 2.571428993651884e+01	 3.999996966633630e+01	 9.973074529336360e+00
0	 2.571428993651884e+01	 4.071422381094480e+01	 9.985576223517304e+00
0	 2.571428993651884e+01	 4.142847853884785e+01	 9.994744117860888e+00
0	 2.571428993651883e+01	 4.214273393337327e+01	 9.999519945312439e+00
0	 2.571428993651883e+01	 4.285699007784908e+01	 9.998845440497021e+00
0	 2.642858020637231e+01	 3.571445238150556e+01	 9.879037161877626e+00
0	 2.642858020637232e+01	 3.642870477623360e+01	 9.894533507991431e+00
0	 2.642858020637231e+01	 3.714295725428858e+01	 9.911834892933364e+00
0	 2.642858020637231e+01	 3.785720989899839e+01	 9.929975263554377e+00
0	 2.642858020637231e+01	 3.857146279369100e+01	 9.947988568922257e+00
0	 2.642858020637232e+01	 3.928571602169432e+01	 9.964908760321535e+00
0	 2.642858020637230e+01	 3.999996966633628e+01	 9.979769791253556e+00
0	 2.642858020637231e+01	 4.071422381094481e+01	 9.991605617436438e+00
0	 2.642858020637231e+01	 4.142847853884783e+01	 9.999450196805087e+00
0	 2.642858020637231e+01	 4.214273393337328e+01	 1.000233748951116e+01
0	 2.642858020637231e+01	 4.285699007784907e+01	 9.999301457923057e+00
0	 2.714287114289507e+01	 3.571445238150555e+01	 9.875115406847417e+00
0	 2.714287114289507e+01	 3.642870477623360e+01	 9.895133565719679e+00
0	 2.714287114289507e+01	 3.714295725428858e+01	 9.915554429163024e+00
0	 2.714287114289508e+01	 3.785720989899840e+01	 9.935582573939142e+00
0	 2.714287114289507e+01	 3.857146279369100e+01	 9.954422579432745e+00
0	 2.714287114289508e+01	 3.928571602169433e+01	 9.971279027651542e+00
0	 2.714287114289508e+01	 3.999996966633629e+01	 9.985356503226232e+00
0	 2.714287114289508e+01	 4.071422381094482e+01	 9.995859593410541e+00
0	 2.714287114289507e+01	 4.142847853884783e+01	 1.000199288808114e+01
0	 2.714287114289507e+01	 4.214273393337327e+01	 1.000296097973768e+01
0	 2.714287114289507e+01	 4.285699007784906e+01	 9.997968463502783e+00
0	 2.785716307942177e+01	 3.571445238150555e+01	 9.876422334260864e+00
0	 2.785716307942177e+01	 3.642870477623359e+01	 9.899874908802474e+00
0	 2.785716307942177e+01	 3.714295725428857e+01	 9.922199481425931e+00
0	 2.785716307942178e+01	 3.785720989899840e+01	 9.942849664299390e+00
0	 2.785716307942177e+01	 3.857146279369100e+01	 9.961279072445226e+00
0	 2.785716307942177e+01	 3.928571602169432e+01	 9.976941323739972e+00
0	 2.785716307942178e+01	 3.999996966633628e+01	 9.989290038914381e+00
0	 2.785716307942177e+01	 4.071422381094481e+01	 9.997778841553380e+00
0	 2.785716307942177e+01	 4.142847853884783e+01	 1.000186135809606e+01
0	 2.785716307942179e+01	 4.214273393337329e+01	 1.000099121783567e+01
0	 2.785716307942177e+01	 4.285699007784907e+01	 9.994622052919590e+00
0	 2.857145634928704e+01	 3.571445238150556e+01	 9.883827802185293e+00
0	 2.857145634928704e+01	 3.642870477623359e+01	 9.909233739656550e+00
0	 2.857145634928703e+01	 3.714295725428856e+01	 9.931915760635109e+00
0	 2.857145634928704e+01	 3.785720989899840e+01	 9.951654917541003e+00
0	 2.857145634928704e+01	 3.857146279369101e+01	 9.968232265660440e+00
0	 2.857145634928704e+01	 3.928571602169432e+01	 9.981428863145737e+00
0	 2.857145634928703e+01	 3.999996966633628e+01	 9.991025771015382e+00
0	 2.857145634928704e+01	 4.071422381094482e+01	 9.996804053154008e+00
0	 2.857145634928704e+01	 4.142847853884783e+01	 9.998544776312336e+00
0	 2.857145634928703e+01	 4.214273393337326e+01	 9.996029010107238e+00
0	 2.857145634928704e+01	 4.285699007784908e+01	 9.989037827021646e+00
0	 2.142854365071296e+01	 4.285699007784907e+01	 9.971107379664392e+00
0	 2.142854365071296e+01	 4.357129694500738e+01	 9.983560337258332e+00
0	 2.142854365071296e+01	 4.428560406221393e+01	 9.993418127592713e+00
0	 2.142854365071296e+01	 4.499991084612203e+01	 1.000060421527112e+01
0	 2.142854365071296e+01	 4.571421671338500e+01	 1.000504205037730e+01
0	 2.142854365071296e+01	 4.642852108065613e+01	 1.000665506847543e+01
0	 2.142854365071296e+01	 4.714282336458874e+01	 1.000536669060994e+01
0	 2.142854365071296e+01	 4.785712298183613e+01	 1.000110032330537e+01
0	 2.142854365071296e+01	 4.857141934905160e+01	 9.993779358565938e+00
0	 2.142854365071296e+01	 4.928571188288846e+01	 9.983327173874903e+00
0	 2.142854365071296e+01	 5.000000000000001e+01	 9.969667132193907e+00
0	 2.214283692057824e+01	 4.285699007784908e+01	 9.977584688290271e+00
0	 2.214283692057824e+01	 4.357129694500737e+01	 9.987534122035228e+00
0	 2.214283692057824e+01	 4.428560406221392e+01	 9.994421581312924e+00
0	 2.214283692057824e+01	 4.499991084612204e+01	 9.998597480840779e+00
0	 2.214283692057824e+01	 4.571421671338499e+01	 1.000041222416552e+01
0	 2.214283692057823e+01	 4.642852108065612e+01	 1.000021620366313e+01
0	 2.214283692057824e+01	 4.714282336458876e+01	 9.998359800538973e+00
0	 2.214283692057824e+01	 4.785712298183613e+01	 9.995193384827560e+00
0	 2.214283692057824e+01	 4.857141934905160e+01	 9.991067315392392e+00
0	 2.214283692057823e+01	 4.928571188288845e+01	 9.986331939925417e+00
0	 2.214283692057824e+01	 5.000000000000000e+01	 9.981337594946620e+00
0	 2.285712885710493e+01	 4.285699007784907e+01	 9.983619519430281e+00
0	 2.285712885710494e+01	 4.357129694500738e+01	 9.990677127222105e+00
0	 2.285712885710494e+01	 4.428560406221392e+01	 9.994549587675721e+00
0	 2.285712885710494e+01	 4.499991084612204e+01	 9.995926901855308e+00
0	 2.285712885710494e+01	 4.571421671338500e+01	 9.995499063511396e+00
0	 2.285712885710494e+01	 4.642852108065613e+01	 9.993956059081089e+00
0	 2.285712885710494e+01	 4.714282336458876e+01	 9.991987867688064e+00
0	 2.285712885710493e+01	 4.785712298183613e+01	 9.990284461142522e+00
0	 2.285712885710494e+01	 4.857141934905161e+01	 9.989535803941131e+00
0	 2.285712885710494e+01	 4.928571188288846e+01	 9.990431853266713e+00
0	 2.285712885710494e+01	 5.000000000000000e+01	 9.993662558988017e+00
0	 2.357141979362770e+01	 4.285699007784907e+01	 9.988987437779194e+00
0	 2.357141979362770e+01	 4.357129694500738e+01	 9.992946809942833e+00
0	 2.357141979362770e+01	 4.428560406221391e+01	 9.993892509778075e+00
0	 2.357141979362771e+01	 4.499991084612203e+01	 9.992766760342075e+00
0	 2.357141979362770e+01	 4.571421671338499e+01	 9.990511781503784e+00
0	 2.357141979362770e+01	 4.642852108065613e+01	 9.988069789944035e+00
0	 2.357141979362770e+01	 4.714282336458876e+01	 9.986382999155692e+00
0	 2.357141979362770e+01	 4.785712298183613e+01	 9.986393619443602e+00
0	 2.357141979362769e+01	 4.857141934905160e+01	 9.989043857924869e+00
0	 2.357141979362770e+01	 4.928571188288846e+01	 9.995275918528577e+00
0	 2.357141979362770e+01	 5.000000000000000e+01	 1.000603200199587e+01
0	 2.428571006348117e+01	 4.285699007784908e+01	 9.993464013196416e+00
0	 2.428571006348118e+01	 4.357129694500737e+01	 9.994300632353259e+00
0	 2.428571006348118e+01	 4.428560406221393e+01	 9.992540714944379e+00
0	 2.428571006348117e+01	 4.499991084612201e+01	 9.989291341324456e+00
0	 2.428571006348118e+01	 4.571421671338501e+01	 9.985659592813407e+00
0	 2.428571006348117e+01	 4.642852108065613e+01	 9.982752551696587e+00
0	 2.428571006348118e+01	 4.714282336458876e+01	 9.981677301224858e+00
0	 2.428571006348118e+01	 4.785712298183613e+01	 9.983540925614799e+00
0	 2.428571006348118e+01	 4.857141934905160e+01	 9.989450510048984e+00
0	 2.428571006348117e+01	 4.928571188288846e+01	 1.000051314067598e+01
0	 2.428571006348117e+01	 5.000000000000000e+01	 1.001783590461081e+01
0	 2.500000000000001e+01	 4.285699007784908e+01	 9.996824820706058e+00
0	 2.500000000000000e+01	 4.357129694500736e+01	 9.994696061641294e+00
0	 2.500000000000000e+01	 4.428560406221392e+01	 9.990584574726762e+00
0	 2.500000000000000e+01	 4.499991084612201e+01	 9.985674932821921e+00
0	 2.500000000000000e+01	 4.571421671338501e+01	 9.981151713693063e+00
0	 2.500000000000001e+01	 4.642852108065613e+01	 9.978199500013382e+00
0	 2.500000000000001e+01	 4.714282336458875e+01	 9.978002879363341e+00
0	 2.500000000000001e+01	 4.785712298183613e+01	 9.981746444230769e+00
0	 2.500000000000001e+01	 4.857141934905160e+01	 9.990614792011387e+00
0	 2.500000000000001e+01	 4.928571188288846e+01	 1.000579252500899e+01
0	 2.500000000000001e+01	 5.000000000000001e+01	 1.002846425043606e+01
0	 2.571428993651883e+01	 4.285699007784908e+01	 9.998845440497021e+00
0	 2.571428993651884e+01	 4.357129694500737e+01	 9.994090570026977e+00
0	 2.571428993651883e+01	 4.428560406221392e+01	 9.988114464905051e+00
0	 2.571428993651884e+01	 4.499991084612203e+01	 9.982091825850096e+00
0	 2.571428993651883e+01	 4.571421671338499e+01	 9.977197361977463e+00
0	 2.571428993651884e+01	 4.642852108065614e+01	 9.974605790799032e+00
0	 2.571428993651883e+01	 4.714282336458874e+01	 9.975491838223505e+00
0	 2.571428993651883e+01	 4.785712298183613e+01	 9.981030238556828e+00
0	 2.571428993651884e+01	 4.857141934905160e+01	 9.992395734502631e+00
0	 2.571428993651884e+01	 4.928571188288846e+01	 1.001076307716274e+01
0	 2.571428993651884e+01	 5.000000000000001e+01	 1.003730702603788e+01
0	 2.642858020637231e+01	 4.285699007784907e+01	 9.999301457923057e+00
0	 2.642858020637232e+01	 4.357129694500738e+01	 9.992441634762551e+00
0	 2.642858020637231e+01	 4.428560406221391e+01	 9.985220765486797e+00
0	 2.642858020637231e+01	 4.499991084612202e+01	 9.978716314420764e+00
0	 2.642858020637231e+01	 4.571421671338499e+01	 9.974005757083479e+00
0	 2.642858020637230e+01	 4.642852108065612e+01	 9.972166580188150e+00
0	 2.642858020637231e+01	 4.714282336458874e+01	 9.974276281642464e+00
0	 2.642858020637231e+01	 4.785712298183613e+01	 9.981412370549066e+00
0	 2.642858020637231e+01	 4.857141934905160e+01	 9.994652367206022e+00
0	 2.642858020637231e+01	 4.928571188288846e+01	 1.001507380310765e+01
0	 2.642858020637231e+01	 4.999999999999999e+01	 1.004375422094536e+01
0	 2.714287114289507e+01	 4.285699007784906e+01	 9.997968463502781e+00
0	 2.714287114289508e+01	 4.357129694500738e+01	 9.989706738132487e+00
0	 2.714287114289508e+01	 4.428560406221392e+01	 9.981993860707398e+00
0	 2.714287114289507e+01	 4.499991084612203e+01	 9.975722695541929e+00
0	 2.714287114289507e+01	 4.571421671338499e+01	 9.971786120010021e+00
0	 2.714287114289507e+01	 4.642852108065613e+01	 9.971077024545462e+00
0	 2.714287114289508e+01	 4.714282336458874e+01	 9.974488312642073e+00
0	 2.714287114289508e+01	 4.785712298183613e+01	 9.982912900854215e+00
0	 2.714287114289507e+01	 4.857141934905161e+01	 9.997243718797471e+00
0	 2.714287114289508e+01	 4.928571188288846e+01	 1.001837370914937e+01
0	 2.714287114289507e+01	 5.000000000000000e+01	 1.004719582765042e+01
0	 2.785716307942177e+01	 4.285699007784907e+01	 9.994622052919594e+00
0	 2.785716307942178e+01	 4.357129694500738e+01	 9.985843367453384e+00
0	 2.785716307942178e+01	 4.428560406221393e+01	 9.978524139030004e+00
0	 2.785716307942177e+01	 4.499991084612203e+01	 9.973285269217765e+00
0	 2.785716307942177e+01	 4.571421671338499e+01	 9.970747673338128e+00
0	 2.785716307942177e+01	 4.642852108065613e+01	 9.971532280465746e+00
0	 2.785716307942177e+01	 4.714282336458874e+01	 9.976260033428918e+00
0	 2.785716307942177e+01	 4.785712298183613e+01	 9.985551888809884e+00
0	 2.785716307942177e+01	 4.857141934905159e+01	 1.000002881694565e+01
0	 2.785716307942177e+01	 4.928571188288845e+01	 1.002031180192870e+01
0	 2.785716307942177e+01	 4.999999999999999e+01	 1.004702184160816e+01
0	 2.857145634928704e+01	 4.285699007784908e+01	 9.989037827021646e+00
0	 2.857145634928704e+01	 4.357129694500738e+01	 9.980809015073985e+00
0	 2.857145634928704e+01	 4.428560406221392e+01	 9.974901993145421e+00
0	 2.857145634928704e+01	 4.499991084612204e+01	 9.971578338448650e+00
0	 2.857145634928704e+01	 4.571421671338500e+01	 9.971099641230877e+00
0	 2.857145634928704e+01	 4.642852108065615e+01	 9.973727504773910e+00
0	 2.857145634928703e+01	 4.714282336458874e+01	 9.979723545394442e+00
0	 2.857145634928704e+01	 4.785712298183613e+01	 9.989349392444456e+00
0	 2.857145634928704e+01	 4.857141934905160e+01	 1.000286668831204e+01
0	 2.857145634928704e+01	 4.928571188288845e+01	 1.002053708842189e+01
0	 2.857145634928704e+01	 5.000000000000000e+01	 1.004262226123651e+01
0	 2.857145634928704e+01	 0.000000000000000e+00	 1.588355223080738e+01
0	 2.857145634928703e+01	 7.142881171115513e-01	 1.386498138995621e+01
0	 2.857145634928704e+01	 1.428580650948409e+00	 1.216023365953956e+01
0	 2.857145634928704e+01	 2.142877018163878e+00	 1.075707948241664e+01
0	 2.857145634928703e+01	 2.857176635411264e+00	 9.643290325311559e+00
0	 2.857145634928704e+01	 3.571478919343873e+00	 8.806638678739223e+00
0	 2.857145634928704e+01	 4.285783286615009e+00	 8.234898056943756e+00
0	 2.857145634928704e+01	 5.000089153877975e+00	 7.915842997849493e+00
0	 2.857145634928703e+01	 5.714395937786080e+00	 7.837249063024490e+00
0	 2.857145634928704e+01	 6.428703054992629e+00	 7.986892837656585e+00
0	 2.857145634928703e+01	 7.143009922150926e+00	 8.352551930542020e+00
0	 2.928575120249186e+01	 0.000000000000000e+00	 1.635496707961252e+01
0	 2.928575120249186e+01	 7.142881171115513e-01	 1.426778177760279e+01
0	 2.928575120249186e+01	 1.428580650948409e+00	 1.247194913668471e+01
0	 2.928575120249186e+01	 2.142877018163879e+00	 1.096426931449604e+01
0	 2.928575120249185e+01	 2.857176635411264e+00	 9.741543782791222e+00
0	 2.928575120249186e+01	 3.571478919343873e+00	 8.800575327346250e+00
0	 2.928575120249186e+01	 4.285783286615009e+00	 8.138168047879869e+00
0	 2.928575120249186e+01	 5.000089153877974e+00	 7.751127357990665e+00
0	 2.928575120249186e+01	 5.714395937786080e+00	 7.636259985110375e+00
0	 2.928575120249186e+01	 6.428703054992629e+00	 7.790373970473253e+00
0	 2.928575120249185e+01	 7.143009922150927e+00	 8.210278669101498e+00
0	 3.000004755570248e+01	 0.000000000000000e+00	 1.613656679707323e+01
0	 3.000004755570248e+01	 7.142881171115514e-01	 1.418542818790485e+01
0	 3.000004755570248e+01	 1.428580650948409e+00	 1.248131685452005e+01
0	 3.000004755570248e+01	 2.142877018163878e+00	 1.102845124844810e+01
0	 3.000004755570248e+01	 2.857176635411266e+00	 9.831051246606963e+00
0	 3.000004755570248e+01	 3.571478919343873e+00	 8.893338151200235e+00
0	 3.000004755570247e+01	 4.285783286615006e+00	 8.219534689631514e+00
0	 3.000004755570248e+01	 5.000089153877976e+00	 7.813865014436322e+00
0	 3.000004755570248e+01	 5.714395937786081e+00	 7.680554703231330e+00
0	 3.000004755570248e+01	 6.428703054992631e+00	 7.823830758681201e+00
0	 3.000004755570246e+01	 7.143009922150926e+00	 8.247921608482766e+00
0	 3.071434524225148e+01	 0.000000000000000e+00	 1.537619829924442e+01
0	 3.071434524225148e+01	 7.142881171115513e-01	 1.371915340310978e+01
0	 3.071434524225147e+01	 1.428580650948409e+00	 1.224921257957077e+01
0	 3.071434524225147e+01	 2.142877018163877e+00	 1.097640096066658e+01
0	 3.071434524225148e+01	 2.857176635411265e+00	 9.910745066781487e+00
0	 3.071434524225148e+01	 3.571478919343873e+00	 9.062272806544396e+00
0	 3.071434524225148e+01	 4.285783286615009e+00	 8.441013476745411e+00
0	 3.071434524225147e+01	 5.000089153877974e+00	 8.056997762269400e+00
0	 3.071434524225147e+01	 5.714395937786081e+00	 7.920257736046551e+00
0	 3.071434524225148e+01	 6.428703054992629e+00	 8.040826859019971e+00
0	 3.071434524225147e+01	 7.143009922150926e+00	 8.428739980130265e+00
0	 3.142864409547142e+01	 0.000000000000000e+00	 1.422170875128296e+01
0	 3.142864409547143e+01	 7.142881171115514e-01	 1.297019035914970e+01
0	 3.142864409547143e+01	 1.428580650948410e+00	 1.183651215716438e+01
0	 3.142864409547142e+01	 2.142877018163878e+00	 1.083489414974234e+01
0	 3.142864409547142e+01	 2.857176635411265e+00	 9.979557574948664e+00
0	 3.142864409547143e+01	 3.571478919343873e+00	 9.284724904408911e+00
0	 3.142864409547142e+01	 4.285783286615009e+00	 8.764619843234801e+00
0	 3.142864409547142e+01	 5.000089153877974e+00	 8.433467329965115e+00
0	 3.142864409547143e+01	 5.714395937786081e+00	 8.305493536521659e+00
0	 3.142864409547143e+01	 6.428703054992628e+00	 8.394925868180335e+00
0	 3.142864409547142e+01	 7.143009922150926e+00	 8.715992963557367e+00
0	 3.214294394869492e+01	 0.000000000000000e+00	 1.282094556744238e+01
0	 3.214294394869492e+01	 7.142881171115515e-01	 1.203977214563813e+01
0	 3.214294394869490e+01	 1.428580650948409e+00	 1.130409151142907e+01
0	 3.214294394869491e+01	 2.142877018163878e+00	 1.063070653646286e+01
0	 3.214294394869492e+01	 2.857176635411265e+00	 1.003642108435400e+01
0	 3.214294394869491e+01	 3.571478919343872e+00	 9.538040010611855e+00
0	 3.214294394869491e+01	 4.285783286615008e+00	 9.152369162580777e+00
0	 3.214294394869492e+01	 5.000089153877976e+00	 8.896215379392409e+00
0	 3.214294394869491e+01	 5.714395937786081e+00	 8.786386491930100e+00
0	 3.214294394869491e+01	 6.428703054992630e+00	 8.839691322805535e+00
0	 3.214294394869491e+01	 7.143009922150928e+00	 9.072939686347452e+00
0	 3.285724463525451e+01	 0.000000000000000e+00	 1.132175641106825e+01
0	 3.285724463525450e+01	 7.142881171115512e-01	 1.102913200586734e+01
0	 3.285724463525450e+01	 1.428580650948409e+00	 1.071282664529237e+01
0	 3.285724463525450e+01	 2.142877018163878e+00	 1.039061386381194e+01
0	 3.285724463525451e+01	 2.857176635411265e+00	 1.008026788985497e+01
0	 3.285724463525452e+01	 3.571478919343873e+00	 9.799563645760045e+00
0	 3.285724463525450e+01	 4.285783286615007e+00	 9.566276747733372e+00
0	 3.285724463525451e+01	 5.000089153877974e+00	 9.398183505815124e+00
0	 3.285724463525451e+01	 5.714395937786081e+00	 9.313060923854351e+00
0	 3.285724463525452e+01	 6.428703054992631e+00	 9.328686699492422e+00
0	 3.285724463525451e+01	 7.143009922150926e+00	 9.462839224154882e+00
0	 3.357154598848280e+01	 0.000000000000000e+00	 9.871989194594740e+00
0	 3.357154598848280e+01	 7.142881171115514e-01	 1.003950333680605e+01
0	 3.357154598848279e+01	 1.428580650948409e+00	 1.012359364047992e+01
0	 3.357154598848279e+01	 2.142877018163878e+00	 1.014139189696930e+01
0	 3.357154598848280e+01	 2.857176635411265e+00	 1.011003026792129e+01
0	 3.357154598848280e+01	 3.571478919343873e+00	 1.004664128524976e+01
0	 3.357154598848279e+01	 4.285783286615009e+00	 9.968357851112497e+00
0	 3.357154598848280e+01	 5.000089153877975e+00	 9.892313237893042e+00
0	 3.357154598848279e+01	 5.714395937786080e+00	 9.835641088186886e+00
0	 3.357154598848281e+01	 6.428703054992630e+00	 9.815475414792308e+00
0	 3.357154598848280e+01	 7.143009922150926e+00	 9.848950600705745e+00
0	 3.428584784171235e+01	 0.000000000000000e+00	 8.619492079541750e+00
0	 3.428584784171235e+01	 7.142881171115514e-01	 9.172119689097791e+00
0	 3.428584784171235e+01	 1.428580650948410e+00	 9.597268657514704e+00
0	 3.428584784171235e+01	 2.142877018163879e+00	 9.909816423310431e+00
0	 3.428584784171235e+01	 2.857176635411264e+00	 1.012464047663522e+01
0	 3.428584784171235e+01	 3.571478919343873e+00	 1.025661835926720e+01
0	 3.428584784171237e+01	 4.285783286615009e+00	 1.032062766460861e+01
0	 3.428584784171236e+01	 5.000089153877976e+00	 1.033154603768263e+01
0	 3.428584784171235e+01	 5.714395937786081e+00	 1.030425117513091e+01
0	 3.428584784171235e+01	 6.428703054992630e+00	 1.025362082521166e+01
0	 3.428584784171235e+01	 7.143009922150926e+00	 1.019453278779842e+01
0	 3.500015002827575e+01	 0.000000000000000e+00	 7.712113476513139e+00
0	 3.500015002827576e+01	 7.142881171115514e-01	 8.528214767059733e+00
0	 3.500015002827575e+01	 1.428580650948410e+00	 9.194727935716461e+00
0	 3.500015002827575e+01	 2.142877018163878e+00	 9.722663252406441e+00
0	 3.500015002827575e+01	 2.857176635411264e+00	 1.012303075569164e+01
0	 3.500015002827575e+01	 3.571478919343872e+00	 1.040684025278894e+01
0	 3.500015002827575e+01	 4.285783286615009e+00	 1.058510131958317e+01
0	 3.500015002827576e+01	 5.000089153877975e+00	 1.066882330063753e+01
0	 3.500015002827575e+01	 5.714395937786082e+00	 1.066901530920089e+01
0	 3.500015002827575e+01	 6.428703054992629e+00	 1.059668622721256e+01
0	 3.500015002827575e+01	 7.143009922150927e+00	 1.046284470530400e+01
0	 3.571445238150555e+01	 0.000000000000000e+00	 7.297702045195670e+00
0	 3.571445238150555e+01	 7.142881171115513e-01	 8.209022428682150e+00
0	 3.571445238150556e+01	 1.428580650948409e+00	 8.976847793201426e+00
0	 3.571445238150555e+01	 2.142877018163878e+00	 9.606708216023966e+00
0	 3.571445238150556e+01	 2.857176635411264e+00	 1.010413332639818e+01
0	 3.571445238150555e+01	 3.571478919343873e+00	 1.047465230558200e+01
0	 3.571445238150556e+01	 4.285783286615009e+00	 1.072379388686896e+01
0	 3.571445238150555e+01	 5.000089153877976e+00	 1.085708635560884e+01
0	 3.571445238150555e+01	 5.714395937786081e+00	 1.088005754922277e+01
0	 3.571445238150555e+01	 6.428703054992629e+00	 1.079823485721289e+01
0	 3.571445238150555e+01	 7.143009922150927e+00	 1.061714522116650e+01
0	 2.857145634928703e+01	 7.143009922150926e+00	 8.352551930542020e+00
0	 2.857145634928704e+01	 7.857266066626718e+00	 8.791421526312480e+00
0	 2.857145634928704e+01	 8.571521461152164e+00	 9.168841595462489e+00
0	 2.857145634928704e+01	 9.285776189055182e+00	 9.484709110280363e+00
0	 2.857145634928704e+01	 1.000003033366371e+01	 9.738921082420360e+00
0	 2.857145634928704e+01	 1.071428397830567e+01	 9.931374562903153e+00
0	 2.857145634928704e+01	 1.142853720630899e+01	 1.006196664211618e+01
0	 2.857145634928704e+01	 1.214279010100160e+01	 1.013059444981395e+01
0	 2.857145634928703e+01	 1.285704274571142e+01	 1.013715515511834e+01
0	 2.857145634928704e+01	 1.357129522376639e+01	 1.008154596651873e+01
0	 2.857145634928703e+01	 1.428554761849444e+01	 9.963664131872084e+00
0	 2.928575120249185e+01	 7.143009922150927e+00	 8.210278669101500e+00
0	 2.928575120249185e+01	 7.857266066626719e+00	 8.723910311798296e+00
0	 2.928575120249185e+01	 8.571521461152164e+00	 9.161804514347514e+00
0	 2.928575120249187e+01	 9.285776189055184e+00	 9.524554869338072e+00
0	 2.928575120249185e+01	 1.000003033366371e+01	 9.812755018924156e+00
0	 2.928575120249185e+01	 1.071428397830567e+01	 1.002699865482578e+01
0	 2.928575120249186e+01	 1.142853720630899e+01	 1.016787951832929e+01
0	 2.928575120249185e+01	 1.214279010100160e+01	 1.023599140028776e+01
0	 2.928575120249185e+01	 1.285704274571142e+01	 1.023192814112126e+01
0	 2.928575120249186e+01	 1.357129522376640e+01	 1.015628363081718e+01
0	 2.928575120249185e+01	 1.428554761849444e+01	 1.000965180893023e+01
0	 3.000004755570246e+01	 7.143009922150926e+00	 8.247921608482763e+00
0	 3.000004755570248e+01	 7.857266066626720e+00	 8.773211371730660e+00
0	 3.000004755570248e+01	 8.571521461152161e+00	 9.218113036153046e+00
0	 3.000004755570247e+01	 9.285776189055184e+00	 9.583780602623431e+00
0	 3.000004755570248e+01	 1.000003033366371e+01	 9.871368125046278e+00
0	 3.000004755570247e+01	 1.071428397830567e+01	 1.008202971035766e+01
0	 3.000004755570247e+01	 1.142853720630899e+01	 1.021691951852575e+01
0	 3.000004755570247e+01	 1.214279010100160e+01	 1.027719176255126e+01
0	 3.000004755570247e+01	 1.285704274571142e+01	 1.026400070846779e+01
0	 3.000004755570247e+01	 1.357129522376639e+01	 1.017850067534207e+01
0	 3.000004755570248e+01	 1.428554761849444e+01	 1.002184603527411e+01
0	 3.071434524225147e+01	 7.143009922150926e+00	 8.428739980130267e+00
0	 3.071434524225148e+01	 7.857266066626721e+00	 8.914563696007272e+00
0	 3.071434524225148e+01	 8.571521461152164e+00	 9.323299599789873e+00
0	 3.071434524225147e+01	 9.285776189055184e+00	 9.656525881203848e+00
0	 3.071434524225146e+01	 1.000003033366371e+01	 9.915820780918439e+00
0	 3.071434524225146e+01	 1.071428397830566e+01	 1.010276259054691e+01
0	 3.071434524225146e+01	 1.142853720630899e+01	 1.021892965264708e+01
0	 3.071434524225147e+01	 1.214279010100160e+01	 1.026590036072172e+01
0	 3.071434524225148e+01	 1.285704274571142e+01	 1.024525315921890e+01
0	 3.071434524225147e+01	 1.357129522376639e+01	 1.015856654353216e+01
0	 3.071434524225146e+01	 1.428554761849444e+01	 1.000741906000079e+01
0	 3.142864409547142e+01	 7.143009922150926e+00	 8.715992963557365e+00
0	 3.142864409547143e+01	 7.857266066626719e+00	 9.123206231271515e+00
0	 3.142864409547143e+01	 8.571521461152162e+00	 9.462896609615548e+00
0	 3.142864409547142e+01	 9.285776189055182e+00	 9.736930250128227e+00
0	 3.142864409547142e+01	 1.000003033366371e+01	 9.947173348831351e+00
0	 3.142864409547143e+01	 1.071428397830567e+01	 1.009549214623028e+01
0	 3.142864409547143e+01	 1.142853720630899e+01	 1.018375292731438e+01
0	 3.142864409547143e+01	 1.214279010100160e+01	 1.021382202155736e+01
0	 3.142864409547144e+01	 1.285704274571143e+01	 1.018756580291762e+01
0	 3.142864409547143e+01	 1.357129522376640e+01	 1.010685068983840e+01
0	 3.142864409547142e+01	 1.428554761849444e+01	 9.973543145247916e+00
0	 3.214294394869491e+01	 7.143009922150928e+00	 9.072939686347453e+00
0	 3.214294394869491e+01	 7.857266066626718e+00	 9.374377880913334e+00
0	 3.214294394869492e+01	 8.571521461152166e+00	 9.622436435435164e+00
0	 3.214294394869491e+01	 9.285776189055181e+00	 9.819133228427539e+00
0	 3.214294394869491e+01	 1.000003033366371e+01	 9.966486173235198e+00
0	 3.214294394869491e+01	 1.071428397830567e+01	 1.006651321803340e+01
0	 3.214294394869492e+01	 1.142853720630899e+01	 1.012123234582831e+01
0	 3.214294394869492e+01	 1.214279010100160e+01	 1.013266157445726e+01
0	 3.214294394869491e+01	 1.285704274571142e+01	 1.010281895658895e+01
0	 3.214294394869492e+01	 1.357129522376639e+01	 1.003372257972368e+01
0	 3.214294394869491e+01	 1.428554761849444e+01	 9.927390566193397e+00
0	 3.285724463525451e+01	 7.143009922150926e+00	 9.462839224154882e+00
0	 3.285724463525451e+01	 7.857266066626719e+00	 9.643317505070064e+00
0	 3.285724463525451e+01	 8.571521461152162e+00	 9.787451412501939e+00
0	 3.285724463525451e+01	 9.285776189055182e+00	 9.897274309115270e+00
0	 3.285724463525452e+01	 1.000003033366371e+01	 9.974819580739869e+00
0	 3.285724463525450e+01	 1.071428397830567e+01	 1.002212063637095e+01
0	 3.285724463525451e+01	 1.142853720630899e+01	 1.004121090816924e+01
0	 3.285724463525451e+01	 1.214279010100160e+01	 1.003412385146132e+01
0	 3.285724463525450e+01	 1.285704274571142e+01	 1.000289294473965e+01
0	 3.285724463525451e+01	 1.357129522376639e+01	 9.949551689662721e+00
0	 3.285724463525450e+01	 1.428554761849444e+01	 9.876133611055145e+00
0	 3.357154598848280e+01	 7.143009922150926e+00	 9.848950600705745e+00
0	 3.357154598848280e+01	 7.857266066626720e+00	 9.905263920627032e+00
0	 3.357154598848280e+01	 8.571521461152161e+00	 9.943473841517752e+00
0	 3.357154598848280e+01	 9.285776189055182e+00	 9.965492959187785e+00
0	 3.357154598848280e+01	 1.000003033366371e+01	 9.973233880115274e+00
0	 3.357154598848279e+01	 1.071428397830567e+01	 9.968609221446741e+00
0	 3.357154598848280e+01	 1.142853720630899e+01	 9.953531610997217e+00
0	 3.357154598848280e+01	 1.214279010100160e+01	 9.929913687250263e+00
0	 3.357154598848280e+01	 1.285704274571142e+01	 9.899668099358149e+00
0	 3.357154598848280e+01	 1.357129522376640e+01	 9.864707507141802e+00
0	 3.357154598848280e+01	 1.428554761849444e+01	 9.826944581090901e+00
0	 3.428584784171235e+01	 7.143009922150926e+00	 1.019453278779842e+01
0	 3.428584784171235e+01	 7.857266066626718e+00	 1.013545590121806e+01
0	 3.428584784171237e+01	 8.571521461152164e+00	 1.007603598863350e+01
0	 3.428584784171235e+01	 9.285776189055184e+00	 1.001792861962466e+01
0	 3.428584784171235e+01	 1.000003033366371e+01	 9.962789362291499e+00
0	 3.428584784171235e+01	 1.071428397830567e+01	 9.912273783253957e+00
0	 3.428584784171234e+01	 1.142853720630899e+01	 9.868037447651989e+00
0	 3.428584784171235e+01	 1.214279010100160e+01	 9.831735919145519e+00
0	 3.428584784171235e+01	 1.285704274571143e+01	 9.805024759914460e+00
0	 3.428584784171235e+01	 1.357129522376639e+01	 9.789559530658680e+00
0	 3.428584784171235e+01	 1.428554761849444e+01	 9.786995790598041e+00
0	 3.500015002827575e+01	 7.143009922150927e+00	 1.046284470530400e+01
0	 3.500015002827575e+01	 7.857266066626719e+00	 1.030913217722575e+01
0	 3.500015002827575e+01	 8.571521461152161e+00	 1.017067008544935e+01
0	 3.500015002827573e+01	 9.285776189055184e+00	 1.004872070538883e+01
0	 3.500015002827575e+01	 1.000003033366371e+01	 9.944546300358951e+00
0	 3.500015002827575e+01	 1.071428397830566e+01	 9.859409121575080e+00
0	 3.500015002827574e+01	 1.142853720630899e+01	 9.794571408153086e+00
0	 3.500015002827575e+01	 1.214279010100160e+01	 9.751295387109234e+00
0	 3.500015002827575e+01	 1.285704274571142e+01	 9.730843273360088e+00
0	 3.500015002827573e+01	 1.357129522376639e+01	 9.734477269722500e+00
0	 3.500015002827575e+01	 1.428554761849444e+01	 9.763459566913520e+00
0	 3.571445238150555e+01	 7.143009922150927e+00	 1.061714522116650e+01
0	 3.571445238150555e+01	 7.857266066626719e+00	 1.040153143578171e+01
0	 3.571445238150555e+01	 8.571521461152161e+00	 1.021290832901492e+01
0	 3.571445238150557e+01	 9.285776189055184e+00	 1.005200860542671e+01
0	 3.571445238150557e+01	 1.000003033366371e+01	 9.919564949568420e+00
0	 3.571445238150555e+01	 1.071428397830567e+01	 9.816310025982007e+00
0	 3.571445238150555e+01	 1.142853720630899e+01	 9.742976479199774e+00
0	 3.571445238150555e+01	 1.214279010100160e+01	 9.700296933744250e+00
0	 3.571445238150557e+01	 1.285704274571143e+01	 9.689003994128026e+00
0	 3.571445238150556e+01	 1.357129522376639e+01	 9.709830244853700e+00
0	 3.571445238150556e+01	 1.428554761849444e+01	 9.763508250413773e+00
0	 2.857145634928703e+01	 1.428554761849444e+01	 9.963664131872086e+00
0	 2.857145634928704e+01	 1.499984997172426e+01	 9.824186021055439e+00
0	 2.857145634928703e+01	 1.571415215828766e+01	 9.704464944382725e+00
0	 2.857145634928704e+01	 1.642845401151721e+01	 9.605382313584455e+00
0	 2.857145634928704e+01	 1.714275536474550e+01	 9.527819575406181e+00
0	 2.857145634928704e+01	 1.785705605130510e+01	 9.472658211608476e+00
0	 2.857145634928704e+01	 1.857135590452858e+01	 9.440779738967153e+00
0	 2.857145634928703e+01	 1.928565475774853e+01	 9.433065709273508e+00
0	 2.857145634928703e+01	 1.999995244429753e+01	 9.450397709334739e+00
0	 2.857145634928704e+01	 2.071424879750816e+01	 9.493657360974499e+00
0	 2.857145634928704e+01	 2.142854365071296e+01	 9.563726321033517e+00
0	 2.928575120249185e+01	 1.428554761849444e+01	 1.000965180893024e+01
0	 2.928575120249185e+01	 1.499984997172426e+01	 9.842084869138752e+00
0	 2.928575120249185e+01	 1.571415215828766e+01	 9.703104176690402e+00
0	 2.928575120249185e+01	 1.642845401151721e+01	 9.592469288815089e+00
0	 2.928575120249186e+01	 1.714275536474550e+01	 9.509939802512912e+00
0	 2.928575120249185e+01	 1.785705605130509e+01	 9.455275354554335e+00
0	 2.928575120249186e+01	 1.857135590452858e+01	 9.428235621480264e+00
0	 2.928575120249185e+01	 1.928565475774854e+01	 9.428580319602396e+00
0	 2.928575120249186e+01	 1.999995244429754e+01	 9.456069205003649e+00
0	 2.928575120249186e+01	 2.071424879750816e+01	 9.510462073538813e+00
0	 2.928575120249186e+01	 2.142854365071297e+01	 9.591518760835243e+00
0	 3.000004755570248e+01	 1.428554761849444e+01	 1.002184603527411e+01
0	 3.000004755570248e+01	 1.499984997172426e+01	 9.847003223455422e+00
0	 3.000004755570248e+01	 1.571415215828766e+01	 9.705427025333689e+00
0	 3.000004755570248e+01	 1.642845401151721e+01	 9.595964118342472e+00
0	 3.000004755570249e+01	 1.714275536474550e+01	 9.517461220032711e+00
0	 3.000004755570247e+01	 1.785705605130510e+01	 9.468765088072873e+00
0	 3.000004755570247e+01	 1.857135590452858e+01	 9.448722520249039e+00
0	 3.000004755570248e+01	 1.928565475774855e+01	 9.456180354465218e+00
0	 3.000004755570247e+01	 1.999995244429754e+01	 9.489985468743875e+00
0	 3.000004755570248e+01	 2.071424879750816e+01	 9.548984781226412e+00
0	 3.000004755570248e+01	 2.142854365071296e+01	 9.632025250174003e+00
0	 3.071434524225146e+01	 1.428554761849444e+01	 1.000741906000079e+01
0	 3.071434524225147e+01	 1.499984997172426e+01	 9.842368445163940e+00
0	 3.071434524225147e+01	 1.571415215828766e+01	 9.711707473855894e+00
0	 3.071434524225147e+01	 1.642845401151721e+01	 9.613578914949557e+00
0	 3.071434524225147e+01	 1.714275536474550e+01	 9.546125574202446e+00
0	 3.071434524225148e+01	 1.785705605130510e+01	 9.507490294256725e+00
0	 3.071434524225148e+01	 1.857135590452858e+01	 9.495815954639376e+00
0	 3.071434524225146e+01	 1.928565475774853e+01	 9.509245471762441e+00
0	 3.071434524225148e+01	 1.999995244429754e+01	 9.545921798923471e+00
0	 3.071434524225147e+01	 2.071424879750816e+01	 9.603987926306047e+00
0	 3.071434524225148e+01	 2.142854365071297e+01	 9.681586880980420e+00
0	 3.142864409547142e+01	 1.428554761849444e+01	 9.973543145247916e+00
0	 3.142864409547143e+01	 1.499984997172426e+01	 9.831607908879651e+00
0	 3.142864409547143e+01	 1.571415215828766e+01	 9.722219518273214e+00
0	 3.142864409547143e+01	 1.642845401151722e+01	 9.643025801800526e+00
0	 3.142864409547142e+01	 1.714275536474550e+01	 9.591674618733423e+00
0	 3.142864409547143e+01	 1.785705605130510e+01	 9.565813859243638e+00
0	 3.142864409547142e+01	 1.857135590452858e+01	 9.563091444402980e+00
0	 3.142864409547142e+01	 1.928565475774854e+01	 9.581155326183477e+00
0	 3.142864409547143e+01	 1.999995244429754e+01	 9.617653487457828e+00
0	 3.142864409547143e+01	 2.071424879750816e+01	 9.670233941999745e+00
0	 3.142864409547142e+01	 2.142854365071296e+01	 9.736544734484578e+00
0	 3.214294394869491e+01	 1.428554761849444e+01	 9.927390566193397e+00
0	 3.214294394869492e+01	 1.499984997172426e+01	 9.818149002674410e+00
0	 3.214294394869492e+01	 1.571415215828766e+01	 9.737237167074429e+00
0	 3.214294394869491e+01	 1.642845401151722e+01	 9.682016912440549e+00
0	 3.214294394869491e+01	 1.714275536474550e+01	 9.649850114811260e+00
0	 3.214294394869492e+01	 1.785705605130510e+01	 9.638098673216394e+00
0	 3.214294394869491e+01	 1.857135590452858e+01	 9.644124509677260e+00
0	 3.214294394869491e+01	 1.928565475774854e+01	 9.665289569206770e+00
0	 3.214294394869491e+01	 1.999995244429753e+01	 9.698955819809692e+00
0	 3.214294394869491e+01	 2.071424879750816e+01	 9.742485252482997e+00
0	 3.214294394869491e+01	 2.142854365071296e+01	 9.793239881216252e+00
0	 3.285724463525450e+01	 1.428554761849444e+01	 9.876133611055145e+00
0	 3.285724463525450e+01	 1.499984997172426e+01	 9.805419128076382e+00
0	 3.285724463525451e+01	 1.571415215828766e+01	 9.757034441220677e+00
0	 3.285724463525451e+01	 1.642845401151721e+01	 9.728264390795568e+00
0	 3.285724463525451e+01	 1.714275536474550e+01	 9.716393831095672e+00
0	 3.285724463525450e+01	 1.785705605130510e+01	 9.718707630402678e+00
0	 3.285724463525451e+01	 1.857135590452859e+01	 9.732490670985388e+00
0	 3.285724463525450e+01	 1.928565475774854e+01	 9.755027849099822e+00
0	 3.285724463525452e+01	 1.999995244429754e+01	 9.783604074989352e+00
0	 3.285724463525450e+01	 2.071424879750815e+01	 9.815504272884890e+00
0	 3.285724463525451e+01	 2.142854365071296e+01	 9.848013381005121e+00
0	 3.357154598848280e+01	 1.428554761849444e+01	 9.826944581090903e+00
0	 3.357154598848279e+01	 1.499984997172426e+01	 9.796845700069776e+00
0	 3.357154598848280e+01	 1.571415215828766e+01	 9.781885374145274e+00
0	 3.357154598848280e+01	 1.642845401151721e+01	 9.779480391172182e+00
0	 3.357154598848280e+01	 1.714275536474550e+01	 9.787047543720416e+00
0	 3.357154598848279e+01	 1.785705605130509e+01	 9.802003629075029e+00
0	 3.357154598848280e+01	 1.857135590452859e+01	 9.821765449236203e+00
0	 3.357154598848280e+01	 1.928565475774854e+01	 9.843749810919260e+00
0	 3.357154598848280e+01	 1.999995244429753e+01	 9.865373525554689e+00
0	 3.357154598848280e+01	 2.071424879750816e+01	 9.884053409288217e+00
0	 3.357154598848279e+01	 2.142854365071296e+01	 9.897206282980871e+00
0	 3.428584784171235e+01	 1.428554761849444e+01	 9.786995790598045e+00
0	 3.428584784171235e+01	 1.499984997172426e+01	 9.795856147094732e+00
0	 3.428584784171235e+01	 1.571415215828766e+01	 9.812064011753534e+00
0	 3.428584784171235e+01	 1.642845401151721e+01	 9.833377078257453e+00
0	 3.428584784171235e+01	 1.714275536474550e+01	 9.857553036293126e+00
0	 3.428584784171235e+01	 1.785705605130510e+01	 9.882349571550790e+00
0	 3.428584784171235e+01	 1.857135590452859e+01	 9.905524365724251e+00
0	 3.428584784171235e+01	 1.928565475774854e+01	 9.924835096510801e+00
0	 3.428584784171235e+01	 1.999995244429753e+01	 9.938039437611199e+00
0	 3.428584784171234e+01	 2.071424879750815e+01	 9.942895058729579e+00
0	 3.428584784171235e+01	 2.142854365071296e+01	 9.937159625573315e+00
0	 3.500015002827575e+01	 1.428554761849444e+01	 9.763459566913520e+00
0	 3.500015002827575e+01	 1.499984997172426e+01	 9.805877911047194e+00
0	 3.500015002827573e+01	 1.571415215828766e+01	 9.847844412422683e+00
0	 3.500015002827575e+01	 1.642845401151721e+01	 9.887666627118882e+00
0	 3.500015002827574e+01	 1.714275536474550e+01	 9.923652099895303e+00
0	 3.500015002827575e+01	 1.785705605130510e+01	 9.954108364192045e+00
0	 3.500015002827575e+01	 1.857135590452858e+01	 9.977342942129702e+00
0	 3.500015002827575e+01	 1.928565475774854e+01	 9.991663344509302e+00
0	 3.500015002827575e+01	 1.999995244429754e+01	 9.995377070812093e+00
0	 3.500015002827575e+01	 2.071424879750816e+01	 9.986791609199418e+00
0	 3.500015002827575e+01	 2.142854365071296e+01	 9.964214436512467e+00
0	 3.571445238150556e+01	 1.428554761849444e+01	 9.763508250413777e+00
0	 3.571445238150555e+01	 1.499984997172426e+01	 9.830338447278830e+00
0	 3.571445238150556e+01	 1.571415215828766e+01	 9.889500647001782e+00
0	 3.571445238150557e+01	 1.642845401151722e+01	 9.940061223204300e+00
0	 3.571445238150556e+01	 1.714275536474550e+01	 9.981086533082236e+00
0	 3.571445238150555e+01	 1.785705605130510e+01	 1.001164291740560e+01
0	 3.571445238150555e+01	 1.857135590452859e+01	 1.003079670051844e+01
0	 3.571445238150556e+01	 1.928565475774854e+01	 1.003761419033875e+01
0	 3.571445238150557e+01	 1.999995244429754e+01	 1.003116167835825e+01
0	 3.571445238150557e+01	 2.071424879750816e+01	 1.001050543964208e+01
0	 3.571445238150556e+01	 2.142854365071296e+01	 9.974711732828542e+00
0	 2.857145634928704e+01	 2.142854365071296e+01	 9.563726321033517e+00
0	 2.857145634928704e+01	 2.214283692057824e+01	 9.643334204299556e+00
0	 2.857145634928704e+01	 2.285712885710494e+01	 9.714269849062724e+00
0	 2.857145634928704e+01	 2.357141979362770e+01	 9.776003796405751e+00
0	 2.857145634928703e+01	 2.428571006348117e+01	 9.828006617712305e+00
0	 2.857145634928704e+01	 2.500000000000001e+01	 9.869748914667733e+00
0	 2.857145634928704e+01	 2.571428993651884e+01	 9.900701319259575e+00
0	 2.857145634928704e+01	 2.642858020637232e+01	 9.920334493777942e+00
0	 2.857145634928704e+01	 2.714287114289508e+01	 9.928119130815587e+00
0	 2.857145634928704e+01	 2.785716307942177e+01	 9.923525953267827e+00
0	 2.857145634928703e+01	 2.857145634928703e+01	 9.906025714332229e+00
0	 2.928575120249186e+01	 2.142854365071297e+01	 9.591518760835243e+00
0	 2.928575120249186e+01	 2.214283692057824e+01	 9.679074487203000e+00
0	 2.928575120249184e+01	 2.285712885710493e+01	 9.753290944808512e+00
0	 2.928575120249186e+01	 2.357141979362770e+01	 9.814417731260887e+00
0	 2.928575120249185e+01	 2.428571006348117e+01	 9.862704476659832e+00
0	 2.928575120249187e+01	 2.500000000000001e+01	 9.898400843596471e+00
0	 2.928575120249185e+01	 2.571428993651883e+01	 9.921756527153875e+00
0	 2.928575120249186e+01	 2.642858020637231e+01	 9.933021254907469e+00
0	 2.928575120249186e+01	 2.714287114289508e+01	 9.932444786925140e+00
0	 2.928575120249186e+01	 2.785716307942178e+01	 9.920276915767090e+00
0	 2.928575120249185e+01	 2.857145634928703e+01	 9.896767466485556e+00
0	 3.000004755570248e+01	 2.142854365071296e+01	 9.632025250174003e+00
0	 3.000004755570248e+01	 2.214283692057824e+01	 9.718441504687991e+00
0	 3.000004755570248e+01	 2.285712885710494e+01	 9.788924680602246e+00
0	 3.000004755570248e+01	 2.357141979362770e+01	 9.844356549563585e+00
0	 3.000004755570247e+01	 2.428571006348117e+01	 9.885618914148338e+00
0	 3.000004755570248e+01	 2.500000000000001e+01	 9.913593607863120e+00
0	 3.000004755570248e+01	 2.571428993651884e+01	 9.929162495145386e+00
0	 3.000004755570248e+01	 2.642858020637231e+01	 9.933207471363755e+00
0	 3.000004755570247e+01	 2.714287114289507e+01	 9.926610462818173e+00
0	 3.000004755570247e+01	 2.785716307942177e+01	 9.910253426739793e+00
0	 3.000004755570248e+01	 2.857145634928704e+01	 9.885018351290668e+00
0	 3.071434524225148e+01	 2.142854365071297e+01	 9.681586880980420e+00
0	 3.071434524225148e+01	 2.214283692057824e+01	 9.759512916520492e+00
0	 3.071434524225148e+01	 2.285712885710494e+01	 9.820709610892811e+00
0	 3.071434524225146e+01	 2.357141979362770e+01	 9.866544025213765e+00
0	 3.071434524225147e+01	 2.428571006348117e+01	 9.898383246989255e+00
0	 3.071434524225148e+01	 2.500000000000001e+01	 9.917594390115408e+00
0	 3.071434524225147e+01	 2.571428993651883e+01	 9.925544594878982e+00
0	 3.071434524225147e+01	 2.642858020637231e+01	 9.923601027957753e+00
0	 3.071434524225147e+01	 2.714287114289507e+01	 9.913130882420630e+00
0	 3.071434524225147e+01	 2.785716307942177e+01	 9.895501377727527e+00
0	 3.071434524225148e+01	 2.857145634928704e+01	 9.872079759729200e+00
0	 3.142864409547142e+01	 2.142854365071296e+01	 9.736544734484578e+00
0	 3.142864409547143e+01	 2.214283692057824e+01	 9.800366371261944e+00
0	 3.142864409547142e+01	 2.285712885710494e+01	 9.848184279447654e+00
0	 3.142864409547143e+01	 2.357141979362770e+01	 9.881703922774440e+00
0	 3.142864409547143e+01	 2.428571006348117e+01	 9.902630784617482e+00
0	 3.142864409547143e+01	 2.500000000000001e+01	 9.912670367994945e+00
0	 3.142864409547142e+01	 2.571428993651883e+01	 9.913528195568420e+00
0	 3.142864409547143e+01	 2.642858020637232e+01	 9.906909809643102e+00
0	 3.142864409547143e+01	 2.714287114289508e+01	 9.894520772167994e+00
0	 3.142864409547143e+01	 2.785716307942177e+01	 9.878066664735808e+00
0	 3.142864409547142e+01	 2.857145634928703e+01	 9.859253088582854e+00
0	 3.214294394869491e+01	 2.142854365071296e+01	 9.793239881216252e+00
0	 3.214294394869491e+01	 2.214283692057824e+01	 9.839079506269421e+00
0	 3.214294394869491e+01	 2.285712885710493e+01	 9.870887219352984e+00
0	 3.214294394869491e+01	 2.357141979362770e+01	 9.890559997471939e+00
0	 3.214294394869491e+01	 2.428571006348117e+01	 9.899994829091479e+00
0	 3.214294394869491e+01	 2.500000000000000e+01	 9.901088714137419e+00
0	 3.214294394869491e+01	 2.571428993651883e+01	 9.895738663996383e+00
0	 3.214294394869491e+01	 2.642858020637231e+01	 9.885841701516053e+00
0	 3.214294394869492e+01	 2.714287114289507e+01	 9.873294861005244e+00
0	 3.214294394869491e+01	 2.785716307942177e+01	 9.859995188233963e+00
0	 3.214294394869491e+01	 2.857145634928704e+01	 9.847839740433344e+00
0	 3.285724463525451e+01	 2.142854365071296e+01	 9.848013381005121e+00
0	 3.285724463525451e+01	 2.214283692057825e+01	 9.873729947695926e+00
0	 3.285724463525452e+01	 2.285712885710494e+01	 9.888356953013957e+00
0	 3.285724463525451e+01	 2.357141979362770e+01	 9.893835995196008e+00
0	 3.285724463525451e+01	 2.428571006348117e+01	 9.892108675093493e+00
0	 3.285724463525451e+01	 2.500000000000000e+01	 9.885116596172617e+00
0	 3.285724463525451e+01	 2.571428993651883e+01	 9.874801364514543e+00
0	 3.285724463525452e+01	 2.642858020637231e+01	 9.863104588815474e+00
0	 3.285724463525451e+01	 2.714287114289507e+01	 9.851967880386788e+00
0	 3.285724463525451e+01	 2.785716307942177e+01	 9.843332853155070e+00
0	 3.285724463525450e+01	 2.857145634928703e+01	 9.839141123662221e+00
0	 3.357154598848279e+01	 2.142854365071296e+01	 9.897206282980871e+00
0	 3.357154598848280e+01	 2.214283692057824e+01	 9.902395310490434e+00
0	 3.357154598848279e+01	 2.285712885710494e+01	 9.900131992154812e+00
0	 3.357154598848278e+01	 2.357141979362770e+01	 9.892255652499996e+00
0	 3.357154598848280e+01	 2.428571006348118e+01	 9.880605609929528e+00
0	 3.357154598848280e+01	 2.500000000000001e+01	 9.867021176724492e+00
0	 3.357154598848281e+01	 2.571428993651884e+01	 9.853341659043547e+00
0	 3.357154598848280e+01	 2.642858020637231e+01	 9.841406356922896e+00
0	 3.357154598848280e+01	 2.714287114289508e+01	 9.833054564276429e+00
0	 3.357154598848279e+01	 2.785716307942177e+01	 9.830125568895848e+00
0	 3.357154598848279e+01	 2.857145634928703e+01	 9.834458652450831e+00
0	 3.428584784171235e+01	 2.142854365071296e+01	 9.937159625573315e+00
0	 3.428584784171235e+01	 2.214283692057824e+01	 9.923153198398079e+00
0	 3.428584784171235e+01	 2.285712885710494e+01	 9.905750837818980e+00
0	 3.428584784171236e+01	 2.357141979362770e+01	 9.886542696600879e+00
0	 3.428584784171235e+01	 2.428571006348118e+01	 9.867118913529501e+00
0	 3.428584784171235e+01	 2.500000000000001e+01	 9.849069613411253e+00
0	 3.428584784171235e+01	 2.571428993651883e+01	 9.833984907073059e+00
0	 3.428584784171235e+01	 2.642858020637231e+01	 9.823454891362388e+00
0	 3.428584784171236e+01	 2.714287114289508e+01	 9.819069649147306e+00
0	 3.428584784171235e+01	 2.785716307942178e+01	 9.822419249316617e+00
0	 3.428584784171235e+01	 2.857145634928704e+01	 9.835093746780194e+00
0	 3.500015002827575e+01	 2.142854365071296e+01	 9.964214436512467e+00
0	 3.500015002827575e+01	 2.214283692057824e+01	 9.934081203960169e+00
0	 3.500015002827574e+01	 2.285712885710494e+01	 9.904751980369136e+00
0	 3.500015002827575e+01	 2.357141979362770e+01	 9.877420845379369e+00
0	 3.500015002827575e+01	 2.428571006348118e+01	 9.853281858447264e+00
0	 3.500015002827575e+01	 2.500000000000000e+01	 9.833529058845301e+00
0	 3.500015002827574e+01	 2.571428993651883e+01	 9.819356465661755e+00
0	 3.500015002827574e+01	 2.642858020637231e+01	 9.811958077800666e+00
0	 3.500015002827574e+01	 2.714287114289507e+01	 9.812527873981885e+00
0	 3.500015002827575e+01	 2.785716307942177e+01	 9.822259812741263e+00
0	 3.500015002827575e+01	 2.857145634928704e+01	 9.842347832431024e+00
0	 3.571445238150556e+01	 2.142854365071296e+01	 9.974711732828542e+00
0	 3.571445238150555e+01	 2.214283692057824e+01	 9.933256908514263e+00
0	 3.571445238150556e+01	 2.285712885710494e+01	 9.896673899487254e+00
0	 3.571445238150555e+01	 2.357141979362770e+01	 9.865613807379905e+00
0	 3.571445238150556e+01	 2.428571006348118e+01	 9.840727709860607e+00
0	 3.571445238150555e+01	 2.500000000000000e+01	 9.822666660633331e+00
0	 3.571445238150556e+01	 2.571428993651884e+01	 9.812081689437330e+00
0	 3.571445238150556e+01	 2.642858020637231e+01	 9.809623802046998e+00
0	 3.571445238150555e+01	 2.714287114289507e+01	 9.815943980271944e+00
0	 3.571445238150556e+01	 2.785716307942177e+01	 9.831693181957212e+00
0	 3.571445238150555e+01	 2.857145634928703e+01	 9.857522340983619e+00
0	 2.857145634928703e+01	 2.857145634928703e+01	 9.906025714332229e+00
0	 2.857145634928704e+01	 2.928575120249186e+01	 9.883456045018232e+00
0	 2.857145634928703e+01	 3.000004755570248e+01	 9.864287617632302e+00
0	 2.857145634928704e+01	 3.071434524225148e+01	 9.848940775918845e+00
0	 2.857145634928703e+01	 3.142864409547142e+01	 9.837835871455292e+00
0	 2.857145634928704e+01	 3.214294394869491e+01	 9.831393263651918e+00
0	 2.857145634928704e+01	 3.285724463525451e+01	 9.830033319751745e+00
0	 2.857145634928703e+01	 3.357154598848279e+01	 9.834176414830454e+00
0	 2.857145634928704e+01	 3.428584784171235e+01	 9.844242931796325e+00
0	 2.857145634928704e+01	 3.500015002827575e+01	 9.860653261390153e+00
0	 2.857145634928704e+01	 3.571445238150556e+01	 9.883827802185293e+00
0	 2.928575120249185e+01	 2.857145634928703e+01	 9.896767466485556e+00
0	 2.928575120249186e+01	 2.928575120249186e+01	 9.870698240389345e+00
0	 2.928575120249186e+01	 3.000004755570248e+01	 9.850626253339682e+00
0	 2.928575120249185e+01	 3.071434524225147e+01	 9.836464182436835e+00
0	 2.928575120249186e+01	 3.142864409547142e+01	 9.828124712581946e+00
0	 2.928575120249186e+01	 3.214294394869491e+01	 9.825520536476917e+00
0	 2.928575120249185e+01	 3.285724463525450e+01	 9.828564354624234e+00
0	 2.928575120249186e+01	 3.357154598848280e+01	 9.837168875326938e+00
0	 2.928575120249186e+01	 3.428584784171236e+01	 9.851246814688514e+00
0	 2.928575120249187e+01	 3.500015002827575e+01	 9.870710896612817e+00
0	 2.928575120249186e+01	 3.571445238150555e+01	 9.895473852804152e+00
0	 3.000004755570248e+01	 2.857145634928704e+01	 9.885018351290668e+00
0	 3.000004755570248e+01	 2.928575120249186e+01	 9.859559270634419e+00
0	 3.000004755570247e+01	 3.000004755570247e+01	 9.841609440166303e+00
0	 3.000004755570247e+01	 3.071434524225147e+01	 9.830669708299499e+00
0	 3.000004755570248e+01	 3.142864409547142e+01	 9.826240930387947e+00
0	 3.000004755570247e+01	 3.214294394869491e+01	 9.827823968726326e+00
0	 3.000004755570247e+01	 3.285724463525450e+01	 9.834919692549878e+00
0	 3.000004755570248e+01	 3.357154598848280e+01	 9.847028978034349e+00
0	 3.000004755570248e+01	 3.428584784171235e+01	 9.863652708295918e+00
0	 3.000004755570248e+01	 3.500015002827575e+01	 9.884291773391171e+00
0	 3.000004755570247e+01	 3.571445238150556e+01	 9.908447070317083e+00
0	 3.071434524225148e+01	 2.857145634928704e+01	 9.872079759729200e+00
0	 3.071434524225146e+01	 2.928575120249185e+01	 9.850526282303800e+00
0	 3.071434524225148e+01	 3.000004755570248e+01	 9.837046256538473e+00
0	 3.071434524225146e+01	 3.071434524225147e+01	 9.830824537972905e+00
0	 3.071434524225148e+01	 3.142864409547143e+01	 9.831045987590297e+00
0	 3.071434524225146e+01	 3.214294394869491e+01	 9.836895471817217e+00
0	 3.071434524225147e+01	 3.285724463525450e+01	 9.847557862523502e+00
0	 3.071434524225148e+01	 3.357154598848279e+01	 9.862218037022247e+00
0	 3.071434524225146e+01	 3.428584784171235e+01	 9.880060878069683e+00
0	 3.071434524225148e+01	 3.500015002827574e+01	 9.900271273865222e+00
0	 3.071434524225148e+01	 3.571445238150555e+01	 9.922034118051421e+00
0	 3.142864409547142e+01	 2.857145634928703e+01	 9.859253088582854e+00
0	 3.142864409547143e+01	 2.928575120249186e+01	 9.844086428316976e+00
0	 3.142864409547142e+01	 3.000004755570248e+01	 9.836745787130830e+00
0	 3.142864409547143e+01	 3.071434524225149e+01	 9.836195861495259e+00
0	 3.142864409547143e+01	 3.142864409547143e+01	 9.841401351380567e+00
0	 3.142864409547143e+01	 3.214294394869491e+01	 9.851326960256467e+00
0	 3.142864409547143e+01	 3.285724463525452e+01	 9.864937395092022e+00
0	 3.142864409547142e+01	 3.357154598848279e+01	 9.881197366355675e+00
0	 3.142864409547143e+01	 3.428584784171236e+01	 9.899071588015122e+00
0	 3.142864409547142e+01	 3.500015002827574e+01	 9.917524777537389e+00
0	 3.142864409547142e+01	 3.571445238150555e+01	 9.935521655888781e+00
0	 3.214294394869491e+01	 2.857145634928704e+01	 9.847839740433344e+00
0	 3.214294394869491e+01	 2.928575120249186e+01	 9.840726867962282e+00
0	 3.214294394869491e+01	 3.000004755570247e+01	 9.840517122866286e+00
0	 3.214294394869491e+01	 3.071434524225147e+01	 9.846050874476802e+00
0	 3.214294394869491e+01	 3.142864409547142e+01	 9.856168493424811e+00
0	 3.214294394869491e+01	 3.214294394869491e+01	 9.869710351640702e+00
0	 3.214294394869492e+01	 3.285724463525452e+01	 9.885516822354367e+00
0	 3.214294394869491e+01	 3.357154598848279e+01	 9.902428280095139e+00
0	 3.214294394869491e+01	 3.428584784171235e+01	 9.919285100691788e+00
0	 3.214294394869491e+01	 3.500015002827575e+01	 9.934927661272560e+00
0	 3.214294394869491e+01	 3.571445238150556e+01	 9.948196340265149e+00
0	 3.285724463525450e+01	 2.857145634928703e+01	 9.839141123662221e+00
0	 3.285724463525451e+01	 2.928575120249185e+01	 9.840934766896947e+00
0	 3.285724463525451e+01	 3.000004755570248e+01	 9.848169360915820e+00
0	 3.285724463525451e+01	 3.071434524225148e+01	 9.859656778099671e+00
0	 3.285724463525452e+01	 3.142864409547143e+01	 9.874208889863446e+00
0	 3.285724463525451e+01	 3.214294394869491e+01	 9.890637566656277e+00
0	 3.285724463525450e+01	 3.285724463525450e+01	 9.907754677961474e+00
0	 3.285724463525451e+01	 3.357154598848280e+01	 9.924372092296590e+00
0	 3.285724463525451e+01	 3.428584784171235e+01	 9.939301677213450e+00
0	 3.285724463525450e+01	 3.500015002827573e+01	 9.951355299298104e+00
0	 3.285724463525451e+01	 3.571445238150555e+01	 9.959344824170909e+00
0	 3.357154598848279e+01	 2.857145634928703e+01	 9.834458652450831e+00
0	 3.357154598848280e+01	 2.928575120249186e+01	 9.845197297146891e+00
0	 3.357154598848280e+01	 3.000004755570248e+01	 9.859511604698486e+00
0	 3.357154598848280e+01	 3.071434524225148e+01	 9.876280779117831e+00
0	 3.357154598848278e+01	 3.142864409547141e+01	 9.894384021311231e+00
0	 3.357154598848280e+01	 3.214294394869491e+01	 9.912700529079125e+00
0	 3.357154598848280e+01	 3.285724463525452e+01	 9.930109497116202e+00
0	 3.357154598848280e+01	 3.357154598848280e+01	 9.945490117011436e+00
0	 3.357154598848280e+01	 3.428584784171235e+01	 9.957721577248119e+00
0	 3.357154598848280e+01	 3.500015002827575e+01	 9.965683063203931e+00
0	 3.357154598848280e+01	 3.571445238150556e+01	 9.968253757150947e+00
0	 3.428584784171235e+01	 2.857145634928704e+01	 9.835093746780194e+00
0	 3.428584784171235e+01	 2.928575120249185e+01	 9.854001637106665e+00
0	 3.428584784171235e+01	 3.000004755570248e+01	 9.874352963881231e+00
0	 3.428584784171235e+01	 3.071434524225147e+01	 9.895190089857024e+00
0	 3.428584784171235e+01	 3.142864409547142e+01	 9.915555372857167e+00
0	 3.428584784171235e+01	 3.214294394869491e+01	 9.934491165774842e+00
0	 3.428584784171235e+01	 3.285724463525450e+01	 9.951039816573408e+00
0	 3.428584784171235e+01	 3.357154598848280e+01	 9.964243668286498e+00
0	 3.428584784171235e+01	 3.428584784171235e+01	 9.973145059018087e+00
0	 3.428584784171235e+01	 3.500015002827573e+01	 9.976786321942530e+00
0	 3.428584784171235e+01	 3.571445238150555e+01	 9.974209785304600e+00
0	 3.500015002827575e+01	 2.857145634928704e+01	 9.842347832431024e+00
0	 3.500015002827575e+01	 2.928575120249186e+01	 9.867834971539427e+00
0	 3.500015002827575e+01	 3.000004755570248e+01	 9.892502554378890e+00
0	 3.500015002827575e+01	 3.071434524225147e+01	 9.915651928214691e+00
0	 3.500015002827575e+01	 3.142864409547143e+01	 9.936584434064489e+00
0	 3.500015002827575e+01	 3.214294394869491e+01	 9.954601406698549e+00
0	 3.500015002827574e+01	 3.285724463525450e+01	 9.969004174639814e+00
0	 3.500015002827575e+01	 3.357154598848280e+01	 9.979094060164055e+00
0	 3.500015002827576e+01	 3.428584784171235e+01	 9.984172379299890e+00
0	 3.500015002827575e+01	 3.500015002827575e+01	 9.983540441828943e+00
0	 3.500015002827575e+01	 3.571445238150555e+01	 9.976499551285761e+00
0	 3.571445238150555e+01	 2.857145634928703e+01	 9.857522340983619e+00
0	 3.571445238150555e+01	 2.928575120249185e+01	 9.887184491576857e+00
0	 3.571445238150555e+01	 3.000004755570247e+01	 9.913769498354190e+00
0	 3.571445238150556e+01	 3.071434524225148e+01	 9.936933517659961e+00
0	 3.571445238150556e+01	 3.142864409547142e+01	 9.956332698970623e+00
0	 3.571445238150556e+01	 3.214294394869491e+01	 9.971623184894959e+00
0	 3.571445238150555e+01	 3.285724463525451e+01	 9.982461111174111e+00
0	 3.571445238150555e+01	 3.357154598848280e+01	 9.988502606681811e+00
0	 3.571445238150555e+01	 3.428584784171235e+01	 9.989403793424362e+00
0	 3.571445238150556e+01	 3.500015002827574e+01	 9.984820786540794e+00
0	 3.571445238150555e+01	 3.571445238150556e+01	 9.974409694302835e+00
0	 2.857145634928704e+01	 3.571445238150556e+01	 9.883827802185293e+00
0	 2.857145634928704e+01	 3.642870477623359e+01	 9.909233739656550e+00
0	 2.857145634928703e+01	 3.714295725428856e+01	 9.931915760635109e+00
0	 2.857145634928704e+01	 3.785720989899840e+01	 9.951654917541003e+00
0	 2.857145634928704e+01	 3.857146279369101e+01	 9.968232265660440e+00
0	 2.857145634928704e+01	 3.928571602169432e+01	 9.981428863145737e+00
0	 2.857145634928703e+01	 3.999996966633628e+01	 9.991025771015382e+00
0	 2.857145634928704e+01	 4.071422381094482e+01	 9.996804053154008e+00
0	 2.857145634928704e+01	 4.142847853884783e+01	 9.998544776312336e+00
0	 2.857145634928703e+01	 4.214273393337326e+01	 9.996029010107238e+00
0	 2.857145634928704e+01	 4.285699007784908e+01	 9.989037827021646e+00
0	 2.928575120249186e+01	 3.571445238150555e+01	 9.895473852804152e+00
0	 2.928575120249186e+01	 3.642870477623359e+01	 9.920814935052247e+00
0	 2.928575120249186e+01	 3.714295725428858e+01	 9.942152405773824e+00
0	 2.928575120249186e+01	 3.785720989899841e+01	 9.959601770058150e+00
0	 2.928575120249186e+01	 3.857146279369100e+01	 9.973278535625738e+00
0	 2.928575120249185e+01	 3.928571602169433e+01	 9.983298212828283e+00
0	 2.928575120249185e+01	 3.999996966633629e+01	 9.989776314648731e+00
0	 2.928575120249186e+01	 4.071422381094482e+01	 9.992828356701200e+00
0	 2.928575120249185e+01	 4.142847853884783e+01	 9.992569857231040e+00
0	 2.928575120249185e+01	 4.214273393337328e+01	 9.989116337114766e+00
0	 2.928575120249185e+01	 4.285699007784907e+01	 9.982583319860053e+00
0	 3.000004755570247e+01	 3.571445238150556e+01	 9.908447070317083e+00
0	 3.000004755570247e+01	 3.642870477623359e+01	 9.931723640210210e+00
0	 3.000004755570248e+01	 3.714295725428858e+01	 9.950319911933342e+00
0	 3.000004755570248e+01	 3.785720989899839e+01	 9.964621464147394e+00
0	 3.000004755570247e+01	 3.857146279369102e+01	 9.975013877701285e+00
0	 3.000004755570247e+01	 3.928571602169432e+01	 9.981882735631904e+00
0	 3.000004755570247e+01	 3.999996966633628e+01	 9.985613623164161e+00
0	 3.000004755570248e+01	 4.071422381094482e+01	 9.986592127710932e+00
0	 3.000004755570248e+01	 4.142847853884784e+01	 9.985203838873083e+00
0	 3.000004755570248e+01	 4.214273393337328e+01	 9.981834348439440e+00
0	 3.000004755570247e+01	 4.285699007784908e+01	 9.976869250386775e+00
0	 3.071434524225148e+01	 3.571445238150555e+01	 9.922034118051421e+00
0	 3.071434524225147e+01	 3.642870477623359e+01	 9.941686451517841e+00
0	 3.071434524225148e+01	 3.714295725428858e+01	 9.956506015658771e+00
0	 3.071434524225147e+01	 3.785720989899839e+01	 9.967084084096244e+00
0	 3.071434524225147e+01	 3.857146279369101e+01	 9.974011932043901e+00
0	 3.071434524225148e+01	 3.928571602169432e+01	 9.977880836307055e+00
0	 3.071434524225147e+01	 3.999996966633629e+01	 9.979282075282576e+00
0	 3.071434524225147e+01	 4.071422381094480e+01	 9.978806928959031e+00
0	 3.071434524225148e+01	 4.142847853884784e+01	 9.977046678916549e+00
0	 3.071434524225147e+01	 4.214273393337327e+01	 9.974592608326887e+00
0	 3.071434524225147e+01	 4.285699007784906e+01	 9.972036001953418e+00
0	 3.142864409547142e+01	 3.571445238150555e+01	 9.935521655888783e+00
0	 3.142864409547143e+01	 3.642870477623360e+01	 9.950429961589162e+00
0	 3.142864409547143e+01	 3.714295725428858e+01	 9.960798449821793e+00
0	 3.142864409547143e+01	 3.785720989899840e+01	 9.967359710956238e+00
0	 3.142864409547142e+01	 3.857146279369100e+01	 9.970846336259306e+00
0	 3.142864409547143e+01	 3.928571602169433e+01	 9.971990917895068e+00
0	 3.142864409547143e+01	 3.999996966633628e+01	 9.971526048924908e+00
0	 3.142864409547143e+01	 4.071422381094481e+01	 9.970184323307430e+00
0	 3.142864409547142e+01	 4.142847853884781e+01	 9.968698335898550e+00
0	 3.142864409547143e+01	 4.214273393337328e+01	 9.967800682451408e+00
0	 3.142864409547142e+01	 4.285699007784908e+01	 9.968223959616438e+00
0	 3.214294394869491e+01	 3.571445238150556e+01	 9.948196340265147e+00
0	 3.214294394869492e+01	 3.642870477623360e+01	 9.957680759264903e+00
0	 3.214294394869491e+01	 3.714295725428858e+01	 9.963284943620776e+00
0	 3.214294394869491e+01	 3.785720989899838e+01	 9.965818422543045e+00
0	 3.214294394869492e+01	 3.857146279369100e+01	 9.966090725402069e+00
0	 3.214294394869491e+01	 3.928571602169432e+01	 9.964911381728246e+00
0	 3.214294394869491e+01	 3.999996966633629e+01	 9.963089921212102e+00
0	 3.214294394869491e+01	 4.071422381094480e+01	 9.961435873704209e+00
0	 3.214294394869491e+01	 4.142847853884783e+01	 9.960758769215222e+00
0	 3.214294394869491e+01	 4.214273393337326e+01	 9.961868137915900e+00
0	 3.214294394869491e+01	 4.285699007784907e+01	 9.965573510137073e+00
0	 3.285724463525451e+01	 3.571445238150555e+01	 9.959344824170909e+00
0	 3.285724463525450e+01	 3.642870477623359e+01	 9.963165429612552e+00
0	 3.285724463525452e+01	 3.714295725428858e+01	 9.964053222580777e+00
0	 3.285724463525450e+01	 3.785720989899840e+01	 9.962830293436470e+00
0	 3.285724463525450e+01	 3.857146279369100e+01	 9.960318731975725e+00
0	 3.285724463525451e+01	 3.928571602169433e+01	 9.957340627429813e+00
0	 3.285724463525451e+01	 3.999996966633628e+01	 9.954718068465178e+00
0	 3.285724463525451e+01	 4.071422381094482e+01	 9.953273143183521e+00
0	 3.285724463525451e+01	 4.142847853884782e+01	 9.953827939121712e+00
0	 3.285724463525451e+01	 4.214273393337327e+01	 9.957204543251850e+00
0	 3.285724463525451e+01	 4.285699007784908e+01	 9.964225041981267e+00
0	 3.357154598848280e+01	 3.571445238150556e+01	 9.968253757150947e+00
0	 3.357154598848280e+01	 3.642870477623360e+01	 9.966610553926433e+00
0	 3.357154598848280e+01	 3.714295725428857e+01	 9.963191008553661e+00
0	 3.357154598848279e+01	 3.785720989899838e+01	 9.958765394980563e+00
0	 3.357154598848279e+01	 3.857146279369100e+01	 9.954103985932846e+00
0	 3.357154598848280e+01	 3.928571602169433e+01	 9.949977052913985e+00
0	 3.357154598848280e+01	 3.999996966633629e+01	 9.947154866205253e+00
0	 3.357154598848280e+01	 4.071422381094481e+01	 9.946407694865687e+00
0	 3.357154598848280e+01	 4.142847853884785e+01	 9.948505806732157e+00
0	 3.357154598848280e+01	 4.214273393337328e+01	 9.954219468419348e+00
0	 3.357154598848280e+01	 4.285699007784907e+01	 9.964318945319736e+00
0	 3.428584784171235e+01	 3.571445238150555e+01	 9.974209785304600e+00
0	 3.428584784171235e+01	 3.642870477623359e+01	 9.967742709727700e+00
0	 3.428584784171235e+01	 3.714295725428857e+01	 9.960786019718089e+00
0	 3.428584784171235e+01	 3.785720989899839e+01	 9.953993795283582e+00
0	 3.428584784171235e+01	 3.857146279369100e+01	 9.948020114674968e+00
0	 3.428584784171235e+01	 3.928571602169433e+01	 9.943519054386012e+00
0	 3.428584784171235e+01	 3.999996966633628e+01	 9.941144689153479e+00
0	 3.428584784171235e+01	 4.071422381094480e+01	 9.941551091957118e+00
0	 3.428584784171235e+01	 4.142847853884783e+01	 9.945392334019695e+00
0	 3.428584784171234e+01	 4.214273393337328e+01	 9.953322484807014e+00
0	 3.428584784171236e+01	 4.285699007784908e+01	 9.965995612027932e+00
0	 3.500015002827575e+01	 3.571445238150555e+01	 9.976499551285761e+00
0	 3.500015002827575e+01	 3.642870477623359e+01	 9.966288470764422e+00
0	 3.500015002827575e+01	 3.714295725428857e+01	 9.956925970579588e+00
0	 3.500015002827574e+01	 3.785720989899839e+01	 9.948885559218086e+00
0	 3.500015002827575e+01	 3.857146279369101e+01	 9.942640743052692e+00
0	 3.500015002827575e+01	 3.928571602169433e+01	 9.938665026342150e+00
0	 3.500015002827575e+01	 3.999996966633629e+01	 9.937431911231133e+00
0	 3.500015002827575e+01	 4.071422381094481e+01	 9.939414897750350e+00
0	 3.500015002827575e+01	 4.142847853884783e+01	 9.945087483816431e+00
0	 3.500015002827575e+01	 4.214273393337328e+01	 9.954923165232069e+00
0	 3.500015002827575e+01	 4.285699007784908e+01	 9.969395435685961e+00
0	 3.571445238150555e+01	 3.571445238150556e+01	 9.974409694302834e+00
0	 3.571445238150556e+01	 3.642870477623360e+01	 9.961974407011549e+00
0	 3.571445238150556e+01	 3.714295725428856e+01	 9.951698571970510e+00
0	 3.571445238150555e+01	 3.785720989899839e+01	 9.943810748420885e+00
0	 3.571445238150557e+01	 3.857146279369101e+01	 9.938539493365642e+00
0	 3.571445238150555e+01	 3.928571602169433e+01	 9.936113361569639e+00
0	 3.571445238150555e+01	 3.999996966633629e+01	 9.936760905559584e+00
0	 3.571445238150555e+01	 4.071422381094481e+01	 9.940710675624038e+00
0	 3.571445238150555e+01	 4.142847853884783e+01	 9.948191219813463e+00
0	 3.571445238150555e+01	 4.214273393337327e+01	 9.959431083940240e+00
0	 3.571445238150556e+01	 4.285699007784908e+01	 9.974658811578683e+00
0	 2.857145634928704e+01	 4.285699007784908e+01	 9.989037827021646e+00
0	 2.857145634928704e+01	 4.357129694500738e+01	 9.980809015073985e+00
0	 2.857145634928704e+01	 4.428560406221392e+01	 9.974901993145421e+00
0	 2.857145634928704e+01	 4.499991084612204e+01	 9.971578338448650e+00
0	 2.857145634928704e+01	 4.571421671338500e+01	 9.971099641230877e+00
0	 2.857145634928704e+01	 4.642852108065615e+01	 9.973727504773910e+00
0	 2.857145634928703e+01	 4.714282336458874e+01	 9.979723545394442e+00
0	 2.857145634928704e+01	 4.785712298183613e+01	 9.989349392444456e+00
0	 2.857145634928704e+01	 4.857141934905160e+01	 1.000286668831204e+01
0	 2.857145634928704e+01	 4.928571188288845e+01	 1.002053708842189e+01
0	 2.857145634928704e+01	 5.000000000000000e+01	 1.004262226123651e+01
0	 2.928575120249185e+01	 4.285699007784907e+01	 9.982583319860053e+00
0	 2.928575120249186e+01	 4.357129694500737e+01	 9.976027168237254e+00
0	 2.928575120249186e+01	 4.428560406221393e+01	 9.972358177543548e+00
0	 2.928575120249186e+01	 4.499991084612202e+01	 9.971471092847134e+00
0	 2.928575120249186e+01	 4.571421671338500e+01	 9.973260669983166e+00
0	 2.928575120249186e+01	 4.642852108065615e+01	 9.977621675554042e+00
0	 2.928575120249185e+01	 4.714282336458874e+01	 9.984448886929513e+00
0	 2.928575120249186e+01	 4.785712298183613e+01	 9.993637092247162e+00
0	 2.928575120249186e+01	 4.857141934905161e+01	 1.000508109041287e+01
0	 2.928575120249186e+01	 4.928571188288846e+01	 1.001867569110153e+01
0	 2.928575120249186e+01	 5.000000000000000e+01	 1.003431571475774e+01
0	 3.000004755570247e+01	 4.285699007784908e+01	 9.976869250386773e+00
0	 3.000004755570248e+01	 4.357129694500736e+01	 9.972863375407600e+00
0	 3.000004755570247e+01	 4.428560406221392e+01	 9.971848780555021e+00
0	 3.000004755570247e+01	 4.499991084612203e+01	 9.973425723131527e+00
0	 3.000004755570248e+01	 4.571421671338500e+01	 9.977194467667207e+00
0	 3.000004755570247e+01	 4.642852108065615e+01	 9.982755285920051e+00
0	 3.000004755570247e+01	 4.714282336458875e+01	 9.989708456875894e+00
0	 3.000004755570248e+01	 4.785712298183612e+01	 9.997654266748935e+00
0	 3.000004755570248e+01	 4.857141934905160e+01	 1.000619300898198e+01
0	 3.000004755570247e+01	 4.928571188288844e+01	 1.001492498424695e+01
0	 3.000004755570248e+01	 4.999999999999999e+01	 1.002345050044547e+01
0	 3.071434524225147e+01	 4.285699007784906e+01	 9.972036001953418e+00
0	 3.071434524225148e+01	 4.357129694500737e+01	 9.971188225762038e+00
0	 3.071434524225148e+01	 4.428560406221393e+01	 9.973052199756093e+00
0	 3.071434524225148e+01	 4.499991084612203e+01	 9.977006036757327e+00
0	 3.071434524225148e+01	 4.571421671338500e+01	 9.982427852384109e+00
0	 3.071434524225148e+01	 4.642852108065614e+01	 9.988695765051535e+00
0	 3.071434524225147e+01	 4.714282336458874e+01	 9.995187895971537e+00
0	 3.071434524225148e+01	 4.785712298183613e+01	 1.000128236915304e+01
0	 3.071434524225148e+01	 4.857141934905160e+01	 1.000635731140214e+01
0	 3.071434524225148e+01	 4.928571188288846e+01	 1.000979085232244e+01
0	 3.071434524225148e+01	 5.000000000000000e+01	 1.001096112431510e+01
0	 3.142864409547142e+01	 4.285699007784908e+01	 9.968223959616438e+00
0	 3.142864409547142e+01	 4.357129694500738e+01	 9.970872310106861e+00
0	 3.142864409547143e+01	 4.428560406221393e+01	 9.975646833994425e+00
0	 3.142864409547142e+01	 4.499991084612203e+01	 9.981775841912523e+00
0	 3.142864409547142e+01	 4.571421671338500e+01	 9.988487642348726e+00
0	 3.142864409547143e+01	 4.642852108065613e+01	 9.995010541644755e+00
0	 3.142864409547143e+01	 4.714282336458875e+01	 1.000057284399659e+01
0	 3.142864409547142e+01	 4.785712298183613e+01	 1.000440285145442e+01
0	 3.142864409547142e+01	 4.857141934905159e+01	 1.000572886392280e+01
0	 3.142864409547142e+01	 4.928571188288846e+01	 1.000377917916045e+01
0	 3.142864409547142e+01	 4.999999999999999e+01	 9.997782092780213e+00
0	 3.214294394869491e+01	 4.285699007784907e+01	 9.965573510137077e+00
0	 3.214294394869491e+01	 4.357129694500737e+01	 9.971786220877620e+00
0	 3.214294394869491e+01	 4.428560406221393e+01	 9.979311083389080e+00
0	 3.214294394869491e+01	 4.499991084612203e+01	 9.987298947517594e+00
0	 3.214294394869491e+01	 4.571421671338501e+01	 9.994900655889712e+00
0	 3.214294394869492e+01	 4.642852108065613e+01	 1.000126704391247e+01
0	 3.214294394869491e+01	 4.714282336458875e+01	 1.000554893977329e+01
0	 3.214294394869491e+01	 4.785712298183613e+01	 1.000689716443996e+01
0	 3.214294394869491e+01	 4.857141934905160e+01	 1.000446253166027e+01
0	 3.214294394869491e+01	 4.928571188288846e+01	 9.997395847961917e+00
0	 3.214294394869492e+01	 5.000000000000000e+01	 9.984847912651970e+00
0	 3.285724463525451e+01	 4.285699007784908e+01	 9.964225041981264e+00
0	 3.285724463525451e+01	 4.357129694500737e+01	 9.973800552139105e+00
0	 3.285724463525450e+01	 4.428560406221391e+01	 9.983723349330536e+00
0	 3.285724463525450e+01	 4.499991084612203e+01	 9.993139163225461e+00
0	 3.285724463525451e+01	 4.571421671338500e+01	 1.000119371144950e+01
0	 3.285724463525451e+01	 4.642852108065614e+01	 1.000703269958408e+01
0	 3.285724463525451e+01	 4.714282336458874e+01	 1.000980182116616e+01
0	 3.285724463525450e+01	 4.785712298183613e+01	 1.000864675768819e+01
0	 3.285724463525450e+01	 4.857141934905159e+01	 1.000271317859764e+01
0	 3.285724463525451e+01	 4.928571188288845e+01	 9.991146741296255e+00
0	 3.285724463525451e+01	 4.999999999999999e+01	 9.973093091139610e+00
0	 3.357154598848280e+01	 4.285699007784907e+01	 9.964318945319739e+00
0	 3.357154598848280e+01	 4.357129694500738e+01	 9.976785899585307e+00
0	 3.357154598848280e+01	 4.428560406221391e+01	 9.988562034480600e+00
0	 3.357154598848280e+01	 4.499991084612202e+01	 9.998860299421553e+00
0	 3.357154598848280e+01	 4.571421671338501e+01	 1.000689362758433e+01
0	 3.357154598848279e+01	 4.642852108065612e+01	 1.001187493590554e+01
0	 3.357154598848280e+01	 4.714282336458875e+01	 1.001301712508185e+01
0	 3.357154598848278e+01	 4.785712298183611e+01	 1.000953307956974e+01
0	 3.357154598848280e+01	 4.857141934905160e+01	 1.000063566758480e+01
0	 3.357154598848280e+01	 4.928571188288846e+01	 9.985537741101140e+00
0	 3.357154598848280e+01	 5.000000000000000e+01	 9.963452135850373e+00
0	 3.428584784171236e+01	 4.285699007784908e+01	 9.965995612027934e+00
0	 3.428584784171235e+01	 4.357129694500737e+01	 9.980612860539457e+00
0	 3.428584784171234e+01	 4.428560406221391e+01	 9.993505542772478e+00
0	 3.428584784171235e+01	 4.499991084612203e+01	 1.000402616722369e+01
0	 3.428584784171235e+01	 4.571421671338499e+01	 1.001152722296420e+01
0	 3.428584784171235e+01	 4.642852108065614e+01	 1.001536117963950e+01
0	 3.428584784171235e+01	 4.714282336458875e+01	 1.001488048746926e+01
0	 3.428584784171235e+01	 4.785712298183614e+01	 1.000943757724686e+01
0	 3.428584784171235e+01	 4.857141934905160e+01	 9.998384860338604e+00
0	 3.428584784171235e+01	 4.928571188288846e+01	 9.981074728682913e+00
0	 3.428584784171235e+01	 4.999999999999999e+01	 9.956859554789125e+00
0	 3.500015002827575e+01	 4.285699007784908e+01	 9.969395435685961e+00
0	 3.500015002827575e+01	 4.357129694500737e+01	 9.985152033953964e+00
0	 3.500015002827575e+01	 4.428560406221392e+01	 9.998232279410679e+00
0	 3.500015002827575e+01	 4.499991084612203e+01	 1.000820057848224e+01
0	 3.500015002827575e+01	 4.571421671338499e+01	 1.001462131637290e+01
0	 3.500015002827575e+01	 4.642852108065614e+01	 1.001705885706519e+01
0	 3.500015002827575e+01	 4.714282336458875e+01	 1.001507754331953e+01
0	 3.500015002827575e+01	 4.785712298183614e+01	 1.000824169667385e+01
0	 3.500015002827574e+01	 4.857141934905159e+01	 9.996115617442630e+00
0	 3.500015002827575e+01	 4.928571188288846e+01	 9.978263584716174e+00
0	 3.500015002827575e+01	 5.000000000000001e+01	 9.954249856358867e+00
0	 3.571445238150556e+01	 4.285699007784908e+01	 9.974658811578680e+00
0	 3.571445238150555e+01	 4.357129694500737e+01	 9.990274020410368e+00
0	 3.571445238150556e+01	 4.428560406221391e+01	 1.000242065087111e+01
0	 3.571445238150556e+01	 4.499991084612203e+01	 1.001094734577997e+01
0	 3.571445238150556e+01	 4.571421671338500e+01	 1.001570272670805e+01
0	 3.571445238150556e+01	 4.642852108065614e+01	 1.001653539397844e+01
0	 3.571445238150556e+01	 4.714282336458874e+01	 1.001329392666598e+01
0	 3.571445238150555e+01	 4.785712298183612e+01	 1.000582688259685e+01
0	 3.571445238150555e+01	 4.857141934905161e+01	 9.993982798347499e+00
0	 3.571445238150555e+01	 4.928571188288847e+01	 9.977610189244011e+00
0	 3.571445238150555e+01	 5.000000000000000e+01	 9.956557549360410e+00
0	 3.571445238150555e+01	 0.000000000000000e+00	 7.297702045195670e+00
0	 3.571445238150555e+01	 7.142881171115513e-01	 8.209022428682152e+00
0	 3.571445238150556e+01	 1.428580650948409e+00	 8.976847793201426e+00
0	 3.571445238150555e+01	 2.142877018163878e+00	 9.606708216023966e+00
0	 3.571445238150556e+01	 2.857176635411264e+00	 1.010413332639818e+01
0	 3.571445238150555e+01	 3.571478919343873e+00	 1.047465230558200e+01
0	 3.571445238150556e+01	 4.285783286615009e+00	 1.072379388686896e+01
0	 3.571445238150555e+01	 5.000089153877976e+00	 1.085708635560884e+01
0	 3.571445238150555e+01	 5.714395937786081e+00	 1.088005754922277e+01
0	 3.571445238150555e+01	 6.428703054992629e+00	 1.079823485721289e+01
0	 3.571445238150555e+01	 7.143009922150927e+00	 1.061714522116650e+01
0	 3.642870477623359e+01	 0.000000000000000e+00	 7.335019452931926e+00
0	 3.642870477623360e+01	 7.142881171115514e-01	 8.196365528293455e+00
0	 3.642870477623360e+01	 1.428580650948409e+00	 8.940703551795423e+00
0	 3.642870477623360e+01	 2.142877018163879e+00	 9.567847927941305e+00
0	 3.642870477623360e+01	 2.857176635411264e+00	 1.007761248598741e+01
0	 3.642870477623360e+01	 3.571478919343873e+00	 1.046981047998361e+01
0	 3.642870477623360e+01	 4.285783286615009e+00	 1.074425458880717e+01
0	 3.642870477623359e+01	 5.000089153877975e+00	 1.090075691618942e+01
0	 3.642870477623360e+01	 5.714395937786082e+00	 1.093912899073543e+01
0	 3.642870477623360e+01	 6.428703054992630e+00	 1.085918176593663e+01
0	 3.642870477623362e+01	 7.143009922150928e+00	 1.066072562017639e+01
0	 3.714295725428858e+01	 0.000000000000000e+00	 7.637971571756617e+00
0	 3.714295725428858e+01	 7.142881171115513e-01	 8.373062984084918e+00
0	 3.714295725428857e+01	 1.428580650948410e+00	 9.024045978938984e+00
0	 3.714295725428856e+01	 2.142877018163878e+00	 9.586160678826369e+00
0	 3.714295725428856e+01	 2.857176635411264e+00	 1.005464658603355e+01
0	 3.714295725428858e+01	 3.571478919343872e+00	 1.042474258267008e+01
0	 3.714295725428859e+01	 4.285783286615009e+00	 1.069168693070516e+01
0	 3.714295725428856e+01	 5.000089153877974e+00	 1.085071727199649e+01
0	 3.714295725428858e+01	 5.714395937786080e+00	 1.089707062831163e+01
0	 3.714295725428857e+01	 6.428703054992629e+00	 1.082598340134177e+01
0	 3.714295725428855e+01	 7.143009922150926e+00	 1.063269137270782e+01
0	 3.785720989899839e+01	 0.000000000000000e+00	 8.137148537223599e+00
0	 3.785720989899838e+01	 7.142881171115513e-01	 8.691868755524620e+00
0	 3.785720989899839e+01	 1.428580650948409e+00	 9.198786745814701e+00
0	 3.785720989899841e+01	 2.142877018163878e+00	 9.649709839395079e+00
0	 3.785720989899840e+01	 2.857176635411264e+00	 1.003644476989182e+01
0	 3.785720989899839e+01	 3.571478919343872e+00	 1.035079767329843e+01
0	 3.785720989899840e+01	 4.285783286615009e+00	 1.058457408801113e+01
0	 3.785720989899841e+01	 5.000089153877976e+00	 1.072957895485678e+01
0	 3.785720989899841e+01	 5.714395937786081e+00	 1.077761661711358e+01
0	 3.785720989899841e+01	 6.428703054992631e+00	 1.072049082052433e+01
0	 3.785720989899840e+01	 7.143009922150927e+00	 1.055000471330240e+01
0	 3.857146279369101e+01	 0.000000000000000e+00	 8.763140574335930e+00
0	 3.857146279369100e+01	 7.142881171115515e-01	 9.105536857752970e+00
0	 3.857146279369100e+01	 1.428580650948409e+00	 9.436837552760435e+00
0	 3.857146279369101e+01	 2.142877018163878e+00	 9.746558789462176e+00
0	 3.857146279369100e+01	 2.857176635411265e+00	 1.002421617562095e+01
0	 3.857146279369100e+01	 3.571478919343873e+00	 1.025932479669563e+01
0	 3.857146279369101e+01	 4.285783286615009e+00	 1.044139921587219e+01
0	 3.857146279369100e+01	 5.000089153877975e+00	 1.055995347408809e+01
0	 3.857146279369100e+01	 5.714395937786080e+00	 1.060450109005038e+01
0	 3.857146279369101e+01	 6.428703054992628e+00	 1.056455506024745e+01
0	 3.857146279369101e+01	 7.143009922150927e+00	 1.042962785895426e+01
0	 3.928571602169433e+01	 0.000000000000000e+00	 9.446537997545770e+00
0	 3.928571602169432e+01	 7.142881171115514e-01	 9.566821361582649e+00
0	 3.928571602169433e+01	 1.428580650948409e+00	 9.710110129269339e+00
0	 3.928571602169432e+01	 2.142877018163878e+00	 9.864770917941193e+00
0	 3.928571602169433e+01	 2.857176635411265e+00	 1.001916993598309e+01
0	 3.928571602169433e+01	 3.571478919343872e+00	 1.016167298285863e+01
0	 3.928571602169433e+01	 4.285783286615009e+00	 1.028064544913442e+01
0	 3.928571602169433e+01	 5.000089153877975e+00	 1.036445231649917e+01
0	 3.928571602169433e+01	 5.714395937786081e+00	 1.040145815777798e+01
0	 3.928571602169432e+01	 6.428703054992627e+00	 1.038002713694147e+01
0	 3.928571602169433e+01	 7.143009922150926e+00	 1.028852300911001e+01
0	 3.999996966633629e+01	 0.000000000000000e+00	 1.011793121075412e+01
0	 3.999996966633629e+01	 7.142881171115515e-01	 1.002847639349843e+01
0	 3.999996966633628e+01	 1.428580650948410e+00	 9.990516233989778e+00
0	 3.999996966633628e+01	 2.142877018163878e+00	 9.992409622844434e+00
0	 3.999996966633628e+01	 2.857176635411265e+00	 1.002251517844393e+01
0	 3.999996966633629e+01	 3.571478919343873e+00	 1.006919124695442e+01
0	 3.999996966633629e+01	 4.285783286615008e+00	 1.012079590234288e+01
0	 3.999996966633629e+01	 5.000089153877975e+00	 1.016568694638993e+01
0	 3.999996966633628e+01	 5.714395937786079e+00	 1.019222190869928e+01
0	 3.999996966633628e+01	 6.428703054992628e+00	 1.018875804670391e+01
0	 3.999996966633630e+01	 7.143009922150927e+00	 1.014365234566886e+01
0	 4.071422381094481e+01	 0.000000000000000e+00	 1.070791070731043e+01
0	 4.071422381094481e+01	 7.142881171115513e-01	 1.044325613565697e+01
0	 4.071422381094482e+01	 1.428580650948409e+00	 1.024996765472515e+01
0	 4.071422381094482e+01	 2.142877018163878e+00	 1.011753831128296e+01
0	 4.071422381094481e+01	 2.857176635411264e+00	 1.003546102517269e+01
0	 4.071422381094479e+01	 3.571478919343872e+00	 9.993228589320063e+00
0	 4.071422381094481e+01	 4.285783286615009e+00	 9.980333669741748e+00
0	 4.071422381094481e+01	 5.000089153877975e+00	 9.986268805551436e+00
0	 4.071422381094481e+01	 5.714395937786081e+00	 1.000052640896424e+01
0	 4.071422381094481e+01	 6.428703054992629e+00	 1.001259876529959e+01
0	 4.071422381094480e+01	 7.143009922150926e+00	 1.001197803298262e+01
0	 4.142847853884783e+01	 0.000000000000000e+00	 1.114706707001203e+01
0	 4.142847853884783e+01	 7.142881171115512e-01	 1.076391482588639e+01
0	 4.142847853884783e+01	 1.428580650948409e+00	 1.046037620843378e+01
0	 4.142847853884784e+01	 2.142877018163879e+00	 1.022822039946650e+01
0	 4.142847853884783e+01	 2.857176635411265e+00	 1.005921659304215e+01
0	 4.142847853884784e+01	 3.571478919343873e+00	 9.945133995462824e+00
0	 4.142847853884783e+01	 4.285783286615008e+00	 9.877741825274407e+00
0	 4.142847853884784e+01	 5.000089153877975e+00	 9.848809313266106e+00
0	 4.142847853884783e+01	 5.714395937786081e+00	 9.850105702469991e+00
0	 4.142847853884783e+01	 6.428703054992631e+00	 9.873400248160813e+00
0	 4.142847853884784e+01	 7.143009922150928e+00	 9.910462217855908e+00
0	 4.214273393337328e+01	 0.000000000000000e+00	 1.136599097110343e+01
0	 4.214273393337328e+01	 7.142881171115515e-01	 1.094320675768588e+01
0	 4.214273393337328e+01	 1.428580650948410e+00	 1.059365374122862e+01
0	 4.214273393337327e+01	 2.142877018163878e+00	 1.031251931270339e+01
0	 4.214273393337327e+01	 2.857176635411264e+00	 1.009499099362868e+01
0	 4.214273393337327e+01	 3.571478919343873e+00	 9.936256436060265e+00
0	 4.214273393337329e+01	 4.285783286615009e+00	 9.831503422583642e+00
0	 4.214273393337327e+01	 5.000089153877975e+00	 9.775919866307863e+00
0	 4.214273393337329e+01	 5.714395937786081e+00	 9.764693810861040e+00
0	 4.214273393337328e+01	 6.428703054992631e+00	 9.793013430387427e+00
0	 4.214273393337328e+01	 7.143009922150927e+00	 9.856067029546164e+00
0	 4.285699007784908e+01	 0.000000000000000e+00	 1.129527317227537e+01
0	 4.285699007784909e+01	 7.142881171115515e-01	 1.093388628022517e+01
0	 4.285699007784908e+01	 1.428580650948409e+00	 1.062171212837698e+01
0	 4.285699007784908e+01	 2.142877018163878e+00	 1.035849848540052e+01
0	 4.285699007784908e+01	 2.857176635411264e+00	 1.014399333321232e+01
0	 4.285699007784908e+01	 3.571478919343873e+00	 9.977944866960435e+00
0	 4.285699007784908e+01	 4.285783286615009e+00	 9.860101495011836e+00
0	 4.285699007784908e+01	 5.000089153877975e+00	 9.790211838942383e+00
0	 4.285699007784908e+01	 5.714395937786081e+00	 9.768024733529447e+00
0	 4.285699007784907e+01	 6.428703054992629e+00	 9.793289226747106e+00
0	 4.285699007784908e+01	 7.143009922150927e+00	 9.865754579763941e+00
0	 3.571445238150555e+01	 7.143009922150927e+00	 1.061714522116650e+01
0	 3.571445238150555e+01	 7.857266066626719e+00	 1.040153143578171e+01
0	 3.571445238150555e+01	 8.571521461152161e+00	 1.021290832901492e+01
0	 3.571445238150557e+01	 9.285776189055184e+00	 1.005200860542671e+01
0	 3.571445238150557e+01	 1.000003033366371e+01	 9.919564949568420e+00
0	 3.571445238150555e+01	 1.071428397830567e+01	 9.816310025982007e+00
0	 3.571445238150555e+01	 1.142853720630899e+01	 9.742976479199774e+00
0	 3.571445238150555e+01	 1.214279010100160e+01	 9.700296933744250e+00
0	 3.571445238150557e+01	 1.285704274571143e+01	 9.689003994128026e+00
0	 3.571445238150556e+01	 1.357129522376639e+01	 9.709830244853700e+00
0	 3.571445238150556e+01	 1.428554761849444e+01	 9.763508250413777e+00
0	 3.642870477623362e+01	 7.143009922150928e+00	 1.066072562017639e+01
0	 3.642870477623359e+01	 7.857266066626718e+00	 1.041971362523604e+01
0	 3.642870477623359e+01	 8.571521461152159e+00	 1.021231045465059e+01
0	 3.642870477623360e+01	 9.285776189055186e+00	 1.003869757130516e+01
0	 3.642870477623359e+01	 1.000003033366371e+01	 9.899056413756748e+00
0	 3.642870477623360e+01	 1.071428397830567e+01	 9.793568396233992e+00
0	 3.642870477623360e+01	 1.142853720630899e+01	 9.722414908636885e+00
0	 3.642870477623360e+01	 1.214279010100160e+01	 9.685777316536575e+00
0	 3.642870477623361e+01	 1.285704274571143e+01	 9.683836961175249e+00
0	 3.642870477623361e+01	 1.357129522376640e+01	 9.716775159465952e+00
0	 3.642870477623360e+01	 1.428554761849444e+01	 9.784773203992566e+00
0	 3.714295725428855e+01	 7.143009922150926e+00	 1.063269137270782e+01
0	 3.714295725428858e+01	 7.857266066626718e+00	 1.039459137441157e+01
0	 3.714295725428856e+01	 8.571521461152166e+00	 1.019203625759417e+01
0	 3.714295725428858e+01	 9.285776189055184e+00	 1.002474910378806e+01
0	 3.714295725428858e+01	 1.000003033366371e+01	 9.892452969155322e+00
0	 3.714295725428858e+01	 1.071428397830567e+01	 9.794870884487299e+00
0	 3.714295725428857e+01	 1.142853720630899e+01	 9.731725855204434e+00
0	 3.714295725428856e+01	 1.214279010100160e+01	 9.702740861355977e+00
0	 3.714295725428857e+01	 1.285704274571142e+01	 9.707638857619877e+00
0	 3.714295725428858e+01	 1.357129522376639e+01	 9.746142773302632e+00
0	 3.714295725428857e+01	 1.428554761849445e+01	 9.817975512339203e+00
0	 3.785720989899840e+01	 7.143009922150927e+00	 1.055000471330240e+01
0	 3.785720989899840e+01	 7.857266066626719e+00	 1.033717321149949e+01
0	 3.785720989899839e+01	 8.571521461152159e+00	 1.015801563448684e+01
0	 3.785720989899839e+01	 9.285776189055184e+00	 1.001188954725946e+01
0	 3.785720989899840e+01	 1.000003033366371e+01	 9.898152491063781e+00
0	 3.785720989899840e+01	 1.071428397830567e+01	 9.816161983397347e+00
0	 3.785720989899840e+01	 1.142853720630899e+01	 9.765275518008593e+00
0	 3.785720989899840e+01	 1.214279010100160e+01	 9.744850564896648e+00
0	 3.785720989899839e+01	 1.285704274571142e+01	 9.754244570311201e+00
0	 3.785720989899841e+01	 1.357129522376639e+01	 9.792814956752320e+00
0	 3.785720989899840e+01	 1.428554761849444e+01	 9.859919122970439e+00
0	 3.857146279369101e+01	 7.143009922150927e+00	 1.042962785895426e+01
0	 3.857146279369099e+01	 7.857266066626718e+00	 1.025846765011676e+01
0	 3.857146279369100e+01	 8.571521461152164e+00	 1.011617847036953e+01
0	 3.857146279369099e+01	 9.285776189055182e+00	 1.000184523741278e+01
0	 3.857146279369098e+01	 1.000003033366371e+01	 9.914552848871502e+00
0	 3.857146279369100e+01	 1.071428397830567e+01	 9.853386182295219e+00
0	 3.857146279369100e+01	 1.142853720630899e+01	 9.817430095157802e+00
0	 3.857146279369101e+01	 1.214279010100160e+01	 9.805769424857299e+00
0	 3.857146279369100e+01	 1.285704274571142e+01	 9.817488988715789e+00
0	 3.857146279369102e+01	 1.357129522376639e+01	 9.851673583979297e+00
0	 3.857146279369101e+01	 1.428554761849444e+01	 9.907407987817711e+00
0	 3.928571602169433e+01	 7.143009922150926e+00	 1.028852300911001e+01
0	 3.928571602169433e+01	 7.857266066626721e+00	 1.016948318930613e+01
0	 3.928571602169433e+01	 8.571521461152164e+00	 1.007245463868294e+01
0	 3.928571602169433e+01	 9.285776189055184e+00	 9.996342501250862e+00
0	 3.928571602169432e+01	 1.000003033366371e+01	 9.940051906057548e+00
0	 3.928571602169433e+01	 1.071428397830567e+01	 9.902487967187685e+00
0	 3.928571602169433e+01	 1.142853720630899e+01	 9.882555783762777e+00
0	 3.928571602169432e+01	 1.214279010100160e+01	 9.879160439941096e+00
0	 3.928571602169432e+01	 1.285704274571142e+01	 9.891207004917536e+00
0	 3.928571602169432e+01	 1.357129522376640e+01	 9.917600532923547e+00
0	 3.928571602169433e+01	 1.428554761849444e+01	 9.957246063227075e+00
0	 3.999996966633630e+01	 7.143009922150927e+00	 1.014365234566886e+01
0	 3.999996966633629e+01	 7.857266066626719e+00	 1.008122831353617e+01
0	 3.999996966633629e+01	 8.571521461152164e+00	 1.003277400126748e+01
0	 3.999996966633628e+01	 9.285776189055181e+00	 9.997107657085909e+00
0	 3.999996966633628e+01	 1.000003033366371e+01	 9.973047520190729e+00
0	 3.999996966633630e+01	 1.071428397830567e+01	 9.959411820757204e+00
0	 3.999996966633628e+01	 1.142853720630899e+01	 9.955018779936532e+00
0	 3.999996966633628e+01	 1.214279010100160e+01	 9.958686609855739e+00
0	 3.999996966633629e+01	 1.285704274571143e+01	 9.969233513617633e+00
0	 3.999996966633629e+01	 1.357129522376639e+01	 9.985477685300733e+00
0	 3.999996966633630e+01	 1.428554761849444e+01	 1.000623730995923e+01
0	 4.071422381094480e+01	 7.143009922150926e+00	 1.001197803298262e+01
0	 4.071422381094481e+01	 7.857266066626719e+00	 1.000471149270131e+01
0	 4.071422381094482e+01	 8.571521461152162e+00	 1.000306640836344e+01
0	 4.071422381094481e+01	 9.285776189055181e+00	 1.000586701453963e+01
0	 4.071422381094481e+01	 1.000003033366371e+01	 1.001193754292958e+01
0	 4.071422381094482e+01	 1.071428397830567e+01	 1.002010222236193e+01
0	 4.071422381094480e+01	 1.142853720630899e+01	 1.002918527879434e+01
0	 4.071422381094482e+01	 1.214279010100160e+01	 1.003801093531339e+01
0	 4.071422381094482e+01	 1.285704274571142e+01	 1.004540341213454e+01
0	 4.071422381094481e+01	 1.357129522376640e+01	 1.005018692660217e+01
0	 4.071422381094482e+01	 1.428554761849444e+01	 1.005118569318950e+01
0	 4.142847853884784e+01	 7.143009922150928e+00	 9.910462217855908e+00
0	 4.142847853884783e+01	 7.857266066626719e+00	 9.950941182121966e+00
0	 4.142847853884783e+01	 8.571521461152161e+00	 9.989261698610985e+00
0	 4.142847853884783e+01	 9.285776189055182e+00	 1.002434687454323e+01
0	 4.142847853884783e+01	 1.000003033366371e+01	 1.005511982002243e+01
0	 4.142847853884783e+01	 1.071428397830567e+01	 1.008050364803574e+01
0	 4.142847853884782e+01	 1.142853720630899e+01	 1.009942147445379e+01
0	 4.142847853884783e+01	 1.214279010100160e+01	 1.011079641803068e+01
0	 4.142847853884783e+01	 1.285704274571143e+01	 1.011355160040399e+01
0	 4.142847853884784e+01	 1.357129522376640e+01	 1.010661014609483e+01
0	 4.142847853884783e+01	 1.428554761849444e+01	 1.008889518250776e+01
0	 4.214273393337328e+01	 7.143009922150927e+00	 9.856067029546166e+00
0	 4.214273393337326e+01	 7.857266066626718e+00	 9.930925822544639e+00
0	 4.214273393337329e+01	 8.571521461152162e+00	 9.997289699050251e+00
0	 4.214273393337328e+01	 9.285776189055184e+00	 1.005427352933746e+01
0	 4.214273393337328e+01	 1.000003033366371e+01	 1.010099219130746e+01
0	 4.214273393337328e+01	 1.071428397830567e+01	 1.013656057048826e+01
0	 4.214273393337328e+01	 1.142853720630899e+01	 1.016009356003473e+01
0	 4.214273393337326e+01	 1.214279010100160e+01	 1.017070606072869e+01
0	 4.214273393337328e+01	 1.285704274571142e+01	 1.016751298097894e+01
0	 4.214273393337327e+01	 1.357129522376640e+01	 1.014962923682126e+01
0	 4.214273393337328e+01	 1.428554761849444e+01	 1.011616975191845e+01
0	 4.285699007784908e+01	 7.143009922150927e+00	 9.865754579763944e+00
0	 4.285699007784908e+01	 7.857266066626719e+00	 9.955673840142049e+00
0	 4.285699007784907e+01	 8.571521461152162e+00	 1.003308022512151e+01
0	 4.285699007784908e+01	 9.285776189055184e+00	 1.009737326247275e+01
0	 4.285699007784908e+01	 1.000003033366371e+01	 1.014795249071271e+01
0	 4.285699007784908e+01	 1.071428397830567e+01	 1.018421745910486e+01
0	 4.285699007784908e+01	 1.142853720630899e+01	 1.020556772765932e+01
0	 4.285699007784908e+01	 1.214279010100160e+01	 1.021140286713300e+01
0	 4.285699007784907e+01	 1.285704274571142e+01	 1.020112245902958e+01
0	 4.285699007784908e+01	 1.357129522376640e+01	 1.017412609559961e+01
0	 4.285699007784908e+01	 1.428554761849444e+01	 1.012981337984049e+01
0	 3.571445238150556e+01	 1.428554761849444e+01	 9.763508250413777e+00
0	 3.571445238150555e+01	 1.499984997172426e+01	 9.830338447278830e+00
0	 3.571445238150556e+01	 1.571415215828766e+01	 9.889500647001780e+00
0	 3.571445238150557e+01	 1.642845401151722e+01	 9.940061223204300e+00
0	 3.571445238150556e+01	 1.714275536474550e+01	 9.981086533082236e+00
0	 3.571445238150555e+01	 1.785705605130510e+01	 1.001164291740560e+01
0	 3.571445238150555e+01	 1.857135590452859e+01	 1.003079670051844e+01
0	 3.571445238150556e+01	 1.928565475774854e+01	 1.003761419033875e+01
0	 3.571445238150557e+01	 1.999995244429754e+01	 1.003116167835825e+01
0	 3.571445238150557e+01	 2.071424879750816e+01	 1.001050543964208e+01
0	 3.571445238150556e+01	 2.142854365071296e+01	 9.974711732828540e+00
0	 3.642870477623360e+01	 1.428554761849444e+01	 9.784773203992570e+00
0	 3.642870477623359e+01	 1.499984997172426e+01	 9.863902897894480e+00
0	 3.642870477623359e+01	 1.571415215828766e+01	 9.930007376354817e+00
0	 3.642870477623360e+01	 1.642845401151722e+01	 9.982942872203351e+00
0	 3.642870477623359e+01	 1.714275536474550e+01	 1.002256559955794e+01
0	 3.642870477623360e+01	 1.785705605130510e+01	 1.004873175382447e+01
0	 3.642870477623359e+01	 1.857135590452859e+01	 1.006129751169674e+01
0	 3.642870477623360e+01	 1.928565475774854e+01	 1.006011903115636e+01
0	 3.642870477623360e+01	 1.999995244429754e+01	 1.004505245147247e+01
0	 3.642870477623359e+01	 2.071424879750814e+01	 1.001595389320146e+01
0	 3.642870477623360e+01	 2.142854365071297e+01	 9.972679458186635e+00
0	 3.714295725428857e+01	 1.428554761849445e+01	 9.817975512339205e+00
0	 3.714295725428856e+01	 1.499984997172426e+01	 9.898275078789887e+00
0	 3.714295725428857e+01	 1.571415215828766e+01	 9.962684746935103e+00
0	 3.714295725428857e+01	 1.642845401151722e+01	 1.001170385908910e+01
0	 3.714295725428858e+01	 1.714275536474550e+01	 1.004583173909391e+01
0	 3.714295725428858e+01	 1.785705605130510e+01	 1.006556769231930e+01
0	 3.714295725428858e+01	 1.857135590452858e+01	 1.007141100566272e+01
0	 3.714295725428857e+01	 1.928565475774854e+01	 1.006386094754913e+01
0	 3.714295725428858e+01	 1.999995244429754e+01	 1.004341676793075e+01
0	 3.714295725428858e+01	 2.071424879750816e+01	 1.001057769828681e+01
0	 3.714295725428858e+01	 2.142854365071296e+01	 9.965842951623188e+00
0	 3.785720989899840e+01	 1.428554761849444e+01	 9.859919122970442e+00
0	 3.785720989899840e+01	 1.499984997172426e+01	 9.932433576899234e+00
0	 3.785720989899840e+01	 1.571415215828766e+01	 9.988315686633172e+00
0	 3.785720989899839e+01	 1.642845401151722e+01	 1.002856115497346e+01
0	 3.785720989899841e+01	 1.714275536474550e+01	 1.005416566849627e+01
0	 3.785720989899840e+01	 1.785705605130510e+01	 1.006612489755262e+01
0	 3.785720989899840e+01	 1.857135590452858e+01	 1.006543449626843e+01
0	 3.785720989899840e+01	 1.928565475774854e+01	 1.005309010254426e+01
0	 3.785720989899840e+01	 1.999995244429753e+01	 1.003008733805519e+01
0	 3.785720989899840e+01	 2.071424879750816e+01	 9.997421808250541e+00
0	 3.785720989899839e+01	 2.142854365071296e+01	 9.956089102353584e+00
0	 3.857146279369101e+01	 1.428554761849444e+01	 9.907407987817709e+00
0	 3.857146279369100e+01	 1.499984997172426e+01	 9.965356983653816e+00
0	 3.857146279369101e+01	 1.571415215828766e+01	 1.000768312743725e+01
0	 3.857146279369101e+01	 1.642845401151721e+01	 1.003573173428758e+01
0	 3.857146279369100e+01	 1.714275536474550e+01	 1.005084810683551e+01
0	 3.857146279369100e+01	 1.785705605130510e+01	 1.005437753522281e+01
0	 3.857146279369101e+01	 1.857135590452858e+01	 1.004766529710227e+01
0	 3.857146279369099e+01	 1.928565475774854e+01	 1.003205665763763e+01
0	 3.857146279369100e+01	 1.999995244429754e+01	 1.000889686950339e+01
0	 3.857146279369100e+01	 2.071424879750815e+01	 9.979531172884627e+00
0	 3.857146279369100e+01	 2.142854365071296e+01	 9.945304795476767e+00
0	 3.928571602169433e+01	 1.428554761849444e+01	 9.957246063227075e+00
0	 3.928571602169431e+01	 1.499984997172426e+01	 9.996023894981988e+00
0	 3.928571602169433e+01	 1.571415215828766e+01	 1.002157000543325e+01
0	 3.928571602169433e+01	 1.642845401151722e+01	 1.003543257478180e+01
0	 3.928571602169431e+01	 1.714275536474550e+01	 1.003915977544648e+01
0	 3.928571602169432e+01	 1.785705605130509e+01	 1.003429977206403e+01
0	 3.928571602169432e+01	 1.857135590452858e+01	 1.002240072148904e+01
0	 3.928571602169433e+01	 1.928565475774854e+01	 1.000501077279384e+01
0	 3.928571602169433e+01	 1.999995244429753e+01	 9.983678067268489e+00
0	 3.928571602169433e+01	 2.071424879750816e+01	 9.959950738420607e+00
0	 3.928571602169432e+01	 2.142854365071296e+01	 9.935376911975220e+00
0	 3.999996966633630e+01	 1.428554761849444e+01	 1.000623730995923e+01
0	 3.999996966633629e+01	 1.499984997172427e+01	 1.002341291130918e+01
0	 3.999996966633628e+01	 1.571415215828766e+01	 1.003075926080477e+01
0	 3.999996966633630e+01	 1.642845401151722e+01	 1.002988065752566e+01
0	 3.999996966633629e+01	 1.714275536474550e+01	 1.002238139792838e+01
0	 3.999996966633628e+01	 1.785705605130510e+01	 1.000986577584636e+01
0	 3.999996966633628e+01	 1.857135590452858e+01	 9.993938082489901e+00
0	 3.999996966633628e+01	 1.928565475774854e+01	 9.976202606446167e+00
0	 3.999996966633628e+01	 1.999995244429753e+01	 9.958263633679131e+00
0	 3.999996966633629e+01	 2.071424879750816e+01	 9.941725447529576e+00
0	 3.999996966633628e+01	 2.142854365071296e+01	 9.928192328714966e+00
0	 4.071422381094482e+01	 1.428554761849444e+01	 1.005118569318950e+01
0	 4.071422381094480e+01	 1.499984997172426e+01	 1.004650263755787e+01
0	 4.071422381094482e+01	 1.571415215828767e+01	 1.003603383783311e+01
0	 4.071422381094481e+01	 1.642845401151721e+01	 1.002129296690792e+01
0	 4.071422381094481e+01	 1.714275536474550e+01	 1.000379370014472e+01
0	 4.071422381094482e+01	 1.785705605130510e+01	 9.985049715375613e+00
0	 4.071422381094482e+01	 1.857135590452859e+01	 9.966574692902391e+00
0	 4.071422381094481e+01	 1.928565475774854e+01	 9.949882315496598e+00
0	 4.071422381094482e+01	 1.999995244429754e+01	 9.936486268399520e+00
0	 4.071422381094482e+01	 2.071424879750816e+01	 9.927900239322213e+00
0	 4.071422381094481e+01	 2.142854365071296e+01	 9.925637918445597e+00
0	 4.142847853884783e+01	 1.428554761849444e+01	 1.008889518250776e+01
0	 4.142847853884783e+01	 1.499984997172426e+01	 1.006427168314754e+01
0	 4.142847853884783e+01	 1.571415215828766e+01	 1.003817668489713e+01
0	 4.142847853884783e+01	 1.642845401151722e+01	 1.001188649063647e+01
0	 4.142847853884783e+01	 1.714275536474550e+01	 9.986677410223349e+00
0	 4.142847853884784e+01	 1.785705605130509e+01	 9.963825760493464e+00
0	 4.142847853884784e+01	 1.857135590452858e+01	 9.944607865260423e+00
0	 4.142847853884783e+01	 1.928565475774854e+01	 9.930300055315836e+00
0	 4.142847853884784e+01	 1.999995244429754e+01	 9.922178668429350e+00
0	 4.142847853884783e+01	 2.071424879750816e+01	 9.921520049348805e+00
0	 4.142847853884782e+01	 2.142854365071296e+01	 9.929600549800291e+00
0	 4.214273393337328e+01	 1.428554761849444e+01	 1.011616975191845e+01
0	 4.214273393337327e+01	 1.499984997172426e+01	 1.007569866199463e+01
0	 4.214273393337328e+01	 1.571415215828766e+01	 1.003797075447337e+01
0	 4.214273393337328e+01	 1.642845401151721e+01	 1.000387821973837e+01
0	 4.214273393337329e+01	 1.714275536474550e+01	 9.974313258556410e+00
0	 4.214273393337327e+01	 1.785705605130510e+01	 9.950168082077381e+00
0	 4.214273393337327e+01	 1.857135590452858e+01	 9.932334911834277e+00
0	 4.214273393337328e+01	 1.928565475774854e+01	 9.921705979743285e+00
0	 4.214273393337328e+01	 1.999995244429753e+01	 9.919173528103945e+00
0	 4.214273393337327e+01	 2.071424879750816e+01	 9.925629809599245e+00
0	 4.214273393337327e+01	 2.142854365071296e+01	 9.941967087295868e+00
0	 4.285699007784908e+01	 1.428554761849444e+01	 1.012981337984049e+01
0	 4.285699007784907e+01	 1.499984997172426e+01	 1.007976219251257e+01
0	 4.285699007784906e+01	 1.571415215828766e+01	 1.003619900313587e+01
0	 4.285699007784907e+01	 1.642845401151721e+01	 9.999485148559721e+00
0	 4.285699007784908e+01	 1.714275536474550e+01	 9.969981977800298e+00
0	 4.285699007784907e+01	 1.785705605130510e+01	 9.948050852040623e+00
0	 4.285699007784908e+01	 1.857135590452858e+01	 9.934053144630589e+00
0	 4.285699007784908e+01	 1.928565475774854e+01	 9.928350241087104e+00
0	 4.285699007784908e+01	 1.999995244429753e+01	 9.931303539094174e+00
0	 4.285699007784907e+01	 2.071424879750816e+01	 9.943274448503120e+00
0	 4.285699007784908e+01	 2.142854365071297e+01	 9.964624391332761e+00
0	 3.571445238150556e+01	 2.142854365071296e+01	 9.974711732828540e+00
0	 3.571445238150555e+01	 2.214283692057824e+01	 9.933256908514263e+00
0	 3.571445238150556e+01	 2.285712885710494e+01	 9.896673899487254e+00
0	 3.571445238150555e+01	 2.357141979362770e+01	 9.865613807379905e+00
0	 3.571445238150556e+01	 2.428571006348118e+01	 9.840727709860607e+00
0	 3.571445238150555e+01	 2.500000000000000e+01	 9.822666660633335e+00
0	 3.571445238150556e+01	 2.571428993651884e+01	 9.812081689437331e+00
0	 3.571445238150556e+01	 2.642858020637231e+01	 9.809623802046998e+00
0	 3.571445238150555e+01	 2.714287114289507e+01	 9.815943980271944e+00
0	 3.571445238150556e+01	 2.785716307942177e+01	 9.831693181957213e+00
0	 3.571445238150555e+01	 2.857145634928703e+01	 9.857522340983616e+00
0	 3.642870477623360e+01	 2.142854365071297e+01	 9.972679458186635e+00
0	 3.642870477623360e+01	 2.214283692057824e+01	 9.926231398509110e+00
0	 3.642870477623360e+01	 2.285712885710494e+01	 9.887766588696078e+00
0	 3.642870477623361e+01	 2.357141979362770e+01	 9.857373031643103e+00
0	 3.642870477623360e+01	 2.428571006348118e+01	 9.835138705469538e+00
0	 3.642870477623360e+01	 2.500000000000000e+01	 9.821151563518056e+00
0	 3.642870477623359e+01	 2.571428993651883e+01	 9.815499534354293e+00
0	 3.642870477623360e+01	 2.642858020637231e+01	 9.818270521766747e+00
0	 3.642870477623360e+01	 2.714287114289507e+01	 9.829552404766826e+00
0	 3.642870477623360e+01	 2.785716307942177e+01	 9.849433037588975e+00
0	 3.642870477623360e+01	 2.857145634928704e+01	 9.878000249691176e+00
0	 3.714295725428858e+01	 2.142854365071296e+01	 9.965842951623188e+00
0	 3.714295725428858e+01	 2.214283692057824e+01	 9.920269566945887e+00
0	 3.714295725428857e+01	 2.285712885710494e+01	 9.884336118980487e+00
0	 3.714295725428858e+01	 2.357141979362769e+01	 9.857674093216730e+00
0	 3.714295725428857e+01	 2.428571006348118e+01	 9.839914952156995e+00
0	 3.714295725428857e+01	 2.500000000000001e+01	 9.830690135315798e+00
0	 3.714295725428857e+01	 2.571428993651883e+01	 9.829631059219476e+00
0	 3.714295725428858e+01	 2.642858020637231e+01	 9.836369117406095e+00
0	 3.714295725428858e+01	 2.714287114289507e+01	 9.850535680425414e+00
0	 3.714295725428858e+01	 2.785716307942177e+01	 9.871762095839124e+00
0	 3.714295725428857e+01	 2.857145634928703e+01	 9.899679688221145e+00
0	 3.785720989899839e+01	 2.142854365071296e+01	 9.956089102353584e+00
0	 3.785720989899839e+01	 2.214283692057824e+01	 9.916021235026083e+00
0	 3.785720989899840e+01	 2.285712885710493e+01	 9.886007547152383e+00
0	 3.785720989899840e+01	 2.357141979362770e+01	 9.865329590726251e+00
0	 3.785720989899839e+01	 2.428571006348117e+01	 9.853268898549441e+00
0	 3.785720989899841e+01	 2.500000000000001e+01	 9.849106984231355e+00
0	 3.785720989899838e+01	 2.571428993651883e+01	 9.852125342188724e+00
0	 3.785720989899840e+01	 2.642858020637231e+01	 9.861605447645552e+00
0	 3.785720989899841e+01	 2.714287114289509e+01	 9.876828756633095e+00
0	 3.785720989899840e+01	 2.785716307942177e+01	 9.897076705989974e+00
0	 3.785720989899839e+01	 2.857145634928704e+01	 9.921630713362493e+00
0	 3.857146279369100e+01	 2.142854365071296e+01	 9.945304795476767e+00
0	 3.857146279369100e+01	 2.214283692057824e+01	 9.914136219691791e+00
0	 3.857146279369100e+01	 2.285712885710494e+01	 9.892405925989470e+00
0	 3.857146279369102e+01	 2.357141979362770e+01	 9.879152119281482e+00
0	 3.857146279369102e+01	 2.428571006348118e+01	 9.873412990495069e+00
0	 3.857146279369100e+01	 2.500000000000000e+01	 9.874226716572805e+00
0	 3.857146279369101e+01	 2.571428993651885e+01	 9.880631460472333e+00
0	 3.857146279369100e+01	 2.642858020637232e+01	 9.891665371166301e+00
0	 3.857146279369101e+01	 2.714287114289507e+01	 9.906366583642376e+00
0	 3.857146279369100e+01	 2.785716307942177e+01	 9.923773218903298e+00
0	 3.857146279369101e+01	 2.857145634928704e+01	 9.942923383967093e+00
0	 3.928571602169432e+01	 2.142854365071296e+01	 9.935376911975220e+00
0	 3.928571602169433e+01	 2.214283692057824e+01	 9.915264333625773e+00
0	 3.928571602169432e+01	 2.285712885710494e+01	 9.903156304235186e+00
0	 3.928571602169432e+01	 2.357141979362771e+01	 9.897954270476539e+00
0	 3.928571602169432e+01	 2.428571006348117e+01	 9.898559671063774e+00
0	 3.928571602169433e+01	 2.500000000000001e+01	 9.903873936751541e+00
0	 3.928571602169432e+01	 2.571428993651883e+01	 9.912798490335081e+00
0	 3.928571602169432e+01	 2.642858020637231e+01	 9.924234746650139e+00
0	 3.928571602169433e+01	 2.714287114289508e+01	 9.937084112572959e+00
0	 3.928571602169433e+01	 2.785716307942177e+01	 9.950247987020331e+00
0	 3.928571602169433e+01	 2.857145634928704e+01	 9.962627760949680e+00
0	 3.999996966633628e+01	 2.142854365071296e+01	 9.928192328714966e+00
0	 3.999996966633629e+01	 2.214283692057824e+01	 9.920055385251382e+00
0	 3.999996966633628e+01	 2.285712885710493e+01	 9.917883726598724e+00
0	 3.999996966633628e+01	 2.357141979362770e+01	 9.920548632389863e+00
0	 3.999996966633629e+01	 2.428571006348117e+01	 9.926921380547137e+00
0	 3.999996966633629e+01	 2.500000000000001e+01	 9.935873247282251e+00
0	 3.999996966633630e+01	 2.571428993651884e+01	 9.946275507096258e+00
0	 3.999996966633628e+01	 2.642858020637231e+01	 9.956999432779511e+00
0	 3.999996966633630e+01	 2.714287114289509e+01	 9.966916295411691e+00
0	 3.999996966633629e+01	 2.785716307942177e+01	 9.974897364361732e+00
0	 3.999996966633628e+01	 2.857145634928704e+01	 9.979813907287864e+00
0	 4.071422381094481e+01	 2.142854365071296e+01	 9.925637918445597e+00
0	 4.071422381094480e+01	 2.214283692057824e+01	 9.929159178732661e+00
0	 4.071422381094482e+01	 2.285712885710494e+01	 9.936213233755080e+00
0	 4.071422381094480e+01	 2.357141979362770e+01	 9.945747789584274e+00
0	 4.071422381094480e+01	 2.428571006348118e+01	 9.956710556458509e+00
0	 4.071422381094480e+01	 2.500000000000001e+01	 9.968049248782910e+00
0	 4.071422381094480e+01	 2.571428993651884e+01	 9.978711585129583e+00
0	 4.071422381094482e+01	 2.642858020637231e+01	 9.987645288237506e+00
0	 4.071422381094482e+01	 2.714287114289507e+01	 9.993798085012608e+00
0	 4.071422381094480e+01	 2.785716307942177e+01	 9.996117706527627e+00
0	 4.071422381094482e+01	 2.857145634928704e+01	 9.993551888022081e+00
0	 4.142847853884782e+01	 2.142854365071296e+01	 9.929600549800291e+00
0	 4.142847853884783e+01	 2.214283692057824e+01	 9.943225513974301e+00
0	 4.142847853884783e+01	 2.285712885710494e+01	 9.957769862345044e+00
0	 4.142847853884783e+01	 2.357141979362770e+01	 9.972364323106920e+00
0	 4.142847853884784e+01	 2.428571006348118e+01	 9.986139633532927e+00
0	 4.142847853884783e+01	 2.500000000000000e+01	 9.998226539974848e+00
0	 4.142847853884784e+01	 2.571428993651885e+01	 1.000775579786332e+01
0	 4.142847853884783e+01	 2.642858020637231e+01	 1.001385817170786e+01
0	 4.142847853884783e+01	 2.714287114289507e+01	 1.001566443509688e+01
0	 4.142847853884783e+01	 2.785716307942177e+01	 1.001230537069753e+01
0	 4.142847853884782e+01	 2.857145634928703e+01	 1.000291177025561e+01
0	 4.214273393337327e+01	 2.142854365071296e+01	 9.941967087295868e+00
0	 4.214273393337328e+01	 2.214283692057824e+01	 9.962904186621714e+00
0	 4.214273393337327e+01	 2.285712885710494e+01	 9.982178644975239e+00
0	 4.214273393337328e+01	 2.357141979362770e+01	 9.999210810489343e+00
0	 4.214273393337328e+01	 2.428571006348118e+01	 1.001342104372723e+01
0	 4.214273393337328e+01	 2.500000000000000e+01	 1.002422971768269e+01
0	 4.214273393337328e+01	 2.571428993651884e+01	 1.003105721778017e+01
0	 4.214273393337329e+01	 2.642858020637231e+01	 1.003332394187491e+01
0	 4.214273393337327e+01	 2.714287114289507e+01	 1.003045030025281e+01
0	 4.214273393337329e+01	 2.785716307942178e+01	 1.002185671563039e+01
0	 4.214273393337328e+01	 2.857145634928704e+01	 1.000696362315457e+01
0	 4.285699007784908e+01	 2.142854365071297e+01	 9.964624391332761e+00
0	 4.285699007784907e+01	 2.214283692057824e+01	 9.988844988061063e+00
0	 4.285699007784908e+01	 2.285712885710493e+01	 1.000906461021818e+01
0	 4.285699007784908e+01	 2.357141979362770e+01	 1.002509982574751e+01
0	 4.285699007784908e+01	 2.428571006348117e+01	 1.003676721622001e+01
0	 4.285699007784908e+01	 2.500000000000001e+01	 1.004388337683442e+01
0	 4.285699007784907e+01	 2.571428993651883e+01	 1.004626491641739e+01
0	 4.285699007784907e+01	 2.642858020637231e+01	 1.004372845742365e+01
0	 4.285699007784906e+01	 2.714287114289507e+01	 1.003609063593585e+01
0	 4.285699007784908e+01	 2.785716307942178e+01	 1.002316810166453e+01
0	 4.285699007784907e+01	 2.857145634928704e+01	 1.000477751794783e+01
0	 3.571445238150555e+01	 2.857145634928703e+01	 9.857522340983616e+00
0	 3.571445238150555e+01	 2.928575120249185e+01	 9.887184491576859e+00
0	 3.571445238150555e+01	 3.000004755570247e+01	 9.913769498354190e+00
0	 3.571445238150556e+01	 3.071434524225148e+01	 9.936933517659961e+00
0	 3.571445238150556e+01	 3.142864409547142e+01	 9.956332698970623e+00
0	 3.571445238150556e+01	 3.214294394869491e+01	 9.971623184894959e+00
0	 3.571445238150555e+01	 3.285724463525451e+01	 9.982461111174111e+00
0	 3.571445238150555e+01	 3.357154598848280e+01	 9.988502606681813e+00
0	 3.571445238150555e+01	 3.428584784171235e+01	 9.989403793424362e+00
0	 3.571445238150556e+01	 3.500015002827574e+01	 9.984820786540791e+00
0	 3.571445238150555e+01	 3.571445238150556e+01	 9.974409694302835e+00
0	 3.642870477623360e+01	 2.857145634928704e+01	 9.878000249691176e+00
0	 3.642870477623360e+01	 2.928575120249186e+01	 9.908527414557284e+00
0	 3.642870477623359e+01	 3.000004755570247e+01	 9.934244727465099e+00
0	 3.642870477623360e+01	 3.071434524225148e+01	 9.955175226984776e+00
0	 3.642870477623361e+01	 3.142864409547143e+01	 9.971341945024438e+00
0	 3.642870477623359e+01	 3.214294394869492e+01	 9.982767906830230e+00
0	 3.642870477623359e+01	 3.285724463525450e+01	 9.989476130986613e+00
0	 3.642870477623359e+01	 3.357154598848280e+01	 9.991489629416328e+00
0	 3.642870477623359e+01	 3.428584784171234e+01	 9.988831407380570e+00
0	 3.642870477623359e+01	 3.500015002827574e+01	 9.981524463479019e+00
0	 3.642870477623360e+01	 3.571445238150555e+01	 9.969591789649877e+00
0	 3.714295725428857e+01	 2.857145634928703e+01	 9.899679688221145e+00
0	 3.714295725428858e+01	 2.928575120249186e+01	 9.927876467448993e+00
0	 3.714295725428857e+01	 3.000004755570248e+01	 9.950398441620033e+00
0	 3.714295725428858e+01	 3.071434524225148e+01	 9.967563911086174e+00
0	 3.714295725428857e+01	 3.142864409547142e+01	 9.979691170451312e+00
0	 3.714295725428857e+01	 3.214294394869491e+01	 9.987098508571401e+00
0	 3.714295725428858e+01	 3.285724463525452e+01	 9.990104208554582e+00
0	 3.714295725428858e+01	 3.357154598848280e+01	 9.989026547761279e+00
0	 3.714295725428856e+01	 3.428584784171234e+01	 9.984183797804288e+00
0	 3.714295725428857e+01	 3.500015002827574e+01	 9.975894224548796e+00
0	 3.714295725428857e+01	 3.571445238150556e+01	 9.964476088112477e+00
0	 3.785720989899839e+01	 2.857145634928704e+01	 9.921630713362493e+00
0	 3.785720989899840e+01	 2.928575120249186e+01	 9.945017435693952e+00
0	 3.785720989899839e+01	 3.000004755570248e+01	 9.962603891777825e+00
0	 3.785720989899840e+01	 3.071434524225147e+01	 9.974932024412452e+00
0	 3.785720989899841e+01	 3.142864409547143e+01	 9.982543772090725e+00
0	 3.785720989899840e+01	 3.214294394869492e+01	 9.985981069000157e+00
0	 3.785720989899840e+01	 3.285724463525450e+01	 9.985785845023011e+00
0	 3.785720989899840e+01	 3.357154598848280e+01	 9.982500025736339e+00
0	 3.785720989899840e+01	 3.428584784171235e+01	 9.976665532412085e+00
0	 3.785720989899840e+01	 3.500015002827575e+01	 9.968824282017062e+00
0	 3.785720989899840e+01	 3.571445238150555e+01	 9.959518187213035e+00
0	 3.857146279369101e+01	 2.857145634928704e+01	 9.942923383967093e+00
0	 3.857146279369100e+01	 2.928575120249186e+01	 9.959736106997697e+00
0	 3.857146279369101e+01	 3.000004755570248e+01	 9.971234331108338e+00
0	 3.857146279369100e+01	 3.071434524225147e+01	 9.978112023367123e+00
0	 3.857146279369100e+01	 3.142864409547142e+01	 9.981063148328360e+00
0	 3.857146279369099e+01	 3.214294394869491e+01	 9.980781668032574e+00
0	 3.857146279369100e+01	 3.285724463525451e+01	 9.977961542006565e+00
0	 3.857146279369100e+01	 3.357154598848278e+01	 9.973296727263515e+00
0	 3.857146279369099e+01	 3.428584784171234e+01	 9.967481178302936e+00
0	 3.857146279369100e+01	 3.500015002827574e+01	 9.961208847110750e+00
0	 3.857146279369101e+01	 3.571445238150555e+01	 9.955173683159320e+00
0	 3.928571602169433e+01	 2.857145634928704e+01	 9.962627760949680e+00
0	 3.928571602169432e+01	 2.928575120249186e+01	 9.971818271329417e+00
0	 3.928571602169433e+01	 3.000004755570248e+01	 9.976663014992415e+00
0	 3.928571602169433e+01	 3.071434524225148e+01	 9.977936366308858e+00
0	 3.928571602169432e+01	 3.142864409547142e+01	 9.976412699096196e+00
0	 3.928571602169433e+01	 3.214294394869492e+01	 9.972866386619124e+00
0	 3.928571602169433e+01	 3.285724463525451e+01	 9.968071801589669e+00
0	 3.928571602169432e+01	 3.357154598848279e+01	 9.962803316167147e+00
0	 3.928571602169434e+01	 3.428584784171237e+01	 9.957835301958207e+00
0	 3.928571602169431e+01	 3.500015002827575e+01	 9.953942130016850e+00
0	 3.928571602169433e+01	 3.571445238150556e+01	 9.951898170844432e+00
0	 3.999996966633628e+01	 2.857145634928704e+01	 9.979813907287864e+00
0	 3.999996966633628e+01	 2.928575120249185e+01	 9.981049720921845e+00
0	 3.999996966633629e+01	 3.000004755570247e+01	 9.979263201021885e+00
0	 3.999996966633628e+01	 3.071434524225147e+01	 9.975237513551502e+00
0	 3.999996966633628e+01	 3.142864409547142e+01	 9.969755825872461e+00
0	 3.999996966633628e+01	 3.214294394869491e+01	 9.963601306744714e+00
0	 3.999996966633629e+01	 3.285724463525451e+01	 9.957557126326417e+00
0	 3.999996966633629e+01	 3.357154598848280e+01	 9.952406456173906e+00
0	 3.999996966633628e+01	 3.428584784171234e+01	 9.948932469241665e+00
0	 3.999996966633631e+01	 3.500015002827576e+01	 9.947918339882351e+00
0	 3.999996966633630e+01	 3.571445238150556e+01	 9.950147243846803e+00
0	 4.071422381094482e+01	 2.857145634928704e+01	 9.993551888022081e+00
0	 4.071422381094482e+01	 2.928575120249186e+01	 9.987216250271340e+00
0	 4.071422381094481e+01	 3.000004755570248e+01	 9.979408148999545e+00
0	 4.071422381094482e+01	 3.071434524225147e+01	 9.970847927364028e+00
0	 4.071422381094481e+01	 3.142864409547142e+01	 9.962255931681616e+00
0	 4.071422381094481e+01	 3.214294394869491e+01	 9.954352511428592e+00
0	 4.071422381094482e+01	 3.285724463525451e+01	 9.947858019240641e+00
0	 4.071422381094481e+01	 3.357154598848280e+01	 9.943492810912801e+00
0	 4.071422381094482e+01	 3.428584784171235e+01	 9.941977245399457e+00
0	 4.071422381094480e+01	 3.500015002827575e+01	 9.944031684814250e+00
0	 4.071422381094482e+01	 3.571445238150556e+01	 9.950376494430214e+00
0	 4.142847853884782e+01	 2.857145634928703e+01	 1.000291177025561e+01
0	 4.142847853884783e+01	 2.928575120249184e+01	 9.990103656137807e+00
0	 4.142847853884783e+01	 3.000004755570248e+01	 9.977471120939178e+00
0	 4.142847853884783e+01	 3.071434524225148e+01	 9.965600071970583e+00
0	 4.142847853884783e+01	 3.142864409547142e+01	 9.955076421094400e+00
0	 4.142847853884783e+01	 3.214294394869491e+01	 9.946486084724445e+00
0	 4.142847853884783e+01	 3.285724463525451e+01	 9.940414983825891e+00
0	 4.142847853884784e+01	 3.357154598848280e+01	 9.937449043915208e+00
0	 4.142847853884784e+01	 3.428584784171235e+01	 9.938174195060142e+00
0	 4.142847853884783e+01	 3.500015002827574e+01	 9.943176371879618e+00
0	 4.142847853884783e+01	 3.571445238150555e+01	 9.953041513543804e+00
0	 4.214273393337328e+01	 2.857145634928704e+01	 1.000696362315457e+01
0	 4.214273393337327e+01	 2.928575120249186e+01	 9.989497737544710e+00
0	 4.214273393337328e+01	 3.000004755570248e+01	 9.973825381065494e+00
0	 4.214273393337327e+01	 3.071434524225148e+01	 9.960326413550424e+00
0	 4.214273393337327e+01	 3.142864409547142e+01	 9.949380700227756e+00
0	 4.214273393337326e+01	 3.214294394869491e+01	 9.941368111720296e+00
0	 4.214273393337327e+01	 3.285724463525452e+01	 9.936668524045393e+00
0	 4.214273393337327e+01	 3.357154598848280e+01	 9.935661818614811e+00
0	 4.214273393337329e+01	 3.428584784171234e+01	 9.938727882234687e+00
0	 4.214273393337328e+01	 3.500015002827575e+01	 9.946246607105508e+00
0	 4.214273393337327e+01	 3.571445238150555e+01	 9.958597890822062e+00
0	 4.285699007784907e+01	 2.857145634928704e+01	 1.000477751794783e+01
0	 4.285699007784908e+01	 2.928575120249185e+01	 9.985184295779039e+00
0	 4.285699007784908e+01	 3.000004755570248e+01	 9.968844195814103e+00
0	 4.285699007784908e+01	 3.071434524225148e+01	 9.955859420237918e+00
0	 4.285699007784907e+01	 3.142864409547143e+01	 9.946332176744818e+00
0	 4.285699007784908e+01	 3.214294394869492e+01	 9.940364678538536e+00
0	 4.285699007784908e+01	 3.285724463525452e+01	 9.938059144332080e+00
0	 4.285699007784908e+01	 3.357154598848280e+01	 9.939517798347609e+00
0	 4.285699007784908e+01	 3.428584784171235e+01	 9.944842870316467e+00
0	 4.285699007784908e+01	 3.500015002827575e+01	 9.954136595479060e+00
0	 4.285699007784907e+01	 3.571445238150555e+01	 9.967501214584875e+00
0	 3.571445238150555e+01	 3.571445238150556e+01	 9.974409694302835e+00
0	 3.571445238150556e+01	 3.642870477623360e+01	 9.961974407011549e+00
0	 3.571445238150556e+01	 3.714295725428856e+01	 9.951698571970510e+00
0	 3.571445238150555e+01	 3.785720989899839e+01	 9.943810748420884e+00
0	 3.571445238150557e+01	 3.857146279369101e+01	 9.938539493365642e+00
0	 3.571445238150555e+01	 3.928571602169433e+01	 9.936113361569639e+00
0	 3.571445238150555e+01	 3.999996966633629e+01	 9.936760905559584e+00
0	 3.571445238150555e+01	 4.071422381094481e+01	 9.940710675624038e+00
0	 3.571445238150555e+01	 4.142847853884783e+01	 9.948191219813463e+00
0	 3.571445238150555e+01	 4.214273393337327e+01	 9.959431083940240e+00
0	 3.571445238150556e+01	 4.285699007784908e+01	 9.974658811578681e+00
0	 3.642870477623360e+01	 3.571445238150555e+01	 9.969591789649877e+00
0	 3.642870477623361e+01	 3.642870477623361e+01	 9.956924362637452e+00
0	 3.642870477623360e+01	 3.714295725428857e+01	 9.947380303792809e+00
0	 3.642870477623360e+01	 3.785720989899840e+01	 9.940936305292158e+00
0	 3.642870477623360e+01	 3.857146279369100e+01	 9.937569057217930e+00
0	 3.642870477623360e+01	 3.928571602169432e+01	 9.937255247558788e+00
0	 3.642870477623360e+01	 3.999996966633628e+01	 9.939971562209600e+00
0	 3.642870477623359e+01	 4.071422381094481e+01	 9.945694684971523e+00
0	 3.642870477623359e+01	 4.142847853884784e+01	 9.954401297551929e+00
0	 3.642870477623359e+01	 4.214273393337328e+01	 9.966068079564499e+00
0	 3.642870477623362e+01	 4.285699007784908e+01	 9.980671708529190e+00
0	 3.714295725428857e+01	 3.571445238150556e+01	 9.964476088112475e+00
0	 3.714295725428858e+01	 3.642870477623360e+01	 9.953441917872787e+00
0	 3.714295725428858e+01	 3.714295725428858e+01	 9.945940489975051e+00
0	 3.714295725428856e+01	 3.785720989899840e+01	 9.941747133061114e+00
0	 3.714295725428858e+01	 3.857146279369101e+01	 9.940637174049096e+00
0	 3.714295725428857e+01	 3.928571602169432e+01	 9.942385938133494e+00
0	 3.714295725428858e+01	 3.999996966633629e+01	 9.946768748785093e+00
0	 3.714295725428858e+01	 4.071422381094482e+01	 9.953560927751045e+00
0	 3.714295725428855e+01	 4.142847853884783e+01	 9.962537795054839e+00
0	 3.714295725428857e+01	 4.214273393337327e+01	 9.973474668996362e+00
0	 3.714295725428856e+01	 4.285699007784907e+01	 9.986146866151847e+00
0	 3.785720989899840e+01	 3.571445238150555e+01	 9.959518187213035e+00
0	 3.785720989899839e+01	 3.642870477623359e+01	 9.951524468252503e+00
0	 3.785720989899840e+01	 3.714295725428857e+01	 9.947007338795025e+00
0	 3.785720989899838e+01	 3.785720989899838e+01	 9.945591267605051e+00
0	 3.785720989899841e+01	 3.857146279369100e+01	 9.946900722256835e+00
0	 3.785720989899841e+01	 3.928571602169433e+01	 9.950560169134505e+00
0	 3.785720989899840e+01	 3.999996966633629e+01	 9.956194073432036e+00
0	 3.785720989899839e+01	 4.071422381094482e+01	 9.963426899153246e+00
0	 3.785720989899838e+01	 4.142847853884782e+01	 9.971883109111801e+00
0	 3.785720989899838e+01	 4.214273393337328e+01	 9.981187164931246e+00
0	 3.785720989899840e+01	 4.285699007784908e+01	 9.990963527045052e+00
0	 3.857146279369101e+01	 3.571445238150555e+01	 9.955173683159323e+00
0	 3.857146279369101e+01	 3.642870477623359e+01	 9.951169407905830e+00
0	 3.857146279369100e+01	 3.714295725428857e+01	 9.950209057196112e+00
0	 3.857146279369100e+01	 3.785720989899841e+01	 9.951816743665310e+00
0	 3.857146279369099e+01	 3.857146279369099e+01	 9.955516579393036e+00
0	 3.857146279369099e+01	 3.928571602169433e+01	 9.960832675903363e+00
0	 3.857146279369099e+01	 3.999996966633628e+01	 9.967289144164827e+00
0	 3.857146279369100e+01	 4.071422381094481e+01	 9.974410094590446e+00
0	 3.857146279369100e+01	 4.142847853884783e+01	 9.981719637037704e+00
0	 3.857146279369100e+01	 4.214273393337327e+01	 9.988741880808536e+00
0	 3.857146279369101e+01	 4.285699007784907e+01	 9.995000934649408e+00
0	 3.928571602169433e+01	 3.571445238150556e+01	 9.951898170844432e+00
0	 3.928571602169433e+01	 3.642870477623360e+01	 9.952374129556176e+00
0	 3.928571602169431e+01	 3.714295725428856e+01	 9.955173850787212e+00
0	 3.928571602169434e+01	 3.785720989899840e+01	 9.959771594847231e+00
0	 3.928571602169433e+01	 3.857146279369100e+01	 9.965641622163796e+00
0	 3.928571602169433e+01	 3.928571602169433e+01	 9.972258193282361e+00
0	 3.928571602169433e+01	 3.999996966633629e+01	 9.979095568866253e+00
0	 3.928571602169432e+01	 4.071422381094481e+01	 9.985628009696697e+00
0	 3.928571602169432e+01	 4.142847853884783e+01	 9.991329776672782e+00
0	 3.928571602169432e+01	 4.214273393337328e+01	 9.995675130811508e+00
0	 3.928571602169431e+01	 4.285699007784905e+01	 9.998138333247715e+00
0	 3.999996966633630e+01	 3.571445238150556e+01	 9.950147243846803e+00
0	 3.999996966633628e+01	 3.642870477623360e+01	 9.955136024521227e+00
0	 3.999996966633630e+01	 3.714295725428858e+01	 9.961529923842878e+00
0	 3.999996966633629e+01	 3.785720989899839e+01	 9.968803853620193e+00
0	 3.999996966633628e+01	 3.857146279369100e+01	 9.976432726429437e+00
0	 3.999996966633629e+01	 3.928571602169434e+01	 9.983891455614593e+00
0	 3.999996966633628e+01	 3.999996966633628e+01	 9.990654955287473e+00
0	 3.999996966633630e+01	 4.071422381094482e+01	 9.996198140327696e+00
0	 3.999996966633629e+01	 4.142847853884783e+01	 9.999995926382617e+00
0	 3.999996966633628e+01	 4.214273393337327e+01	 1.000152322986740e+01
0	 3.999996966633630e+01	 4.285699007784908e+01	 1.000025496796496e+01
0	 4.071422381094482e+01	 3.571445238150556e+01	 9.950376494430214e+00
0	 4.071422381094482e+01	 3.642870477623361e+01	 9.959452482712893e+00
0	 4.071422381094482e+01	 3.714295725428857e+01	 9.968905479303210e+00
0	 4.071422381094482e+01	 3.785720989899840e+01	 9.978261551317622e+00
0	 4.071422381094482e+01	 3.857146279369100e+01	 9.987046767204465e+00
0	 4.071422381094482e+01	 3.928571602169432e+01	 9.994787196743919e+00
0	 4.071422381094482e+01	 3.999996966633629e+01	 1.000100891104807e+01
0	 4.071422381094481e+01	 4.071422381094480e+01	 1.000523798256085e+01
0	 4.071422381094481e+01	 4.142847853884782e+01	 1.000700048505808e+01
0	 4.071422381094482e+01	 4.214273393337328e+01	 1.000582249364739e+01
0	 4.071422381094481e+01	 4.285699007784907e+01	 1.000123008476828e+01
0	 4.142847853884783e+01	 3.571445238150555e+01	 9.953041513543806e+00
0	 4.142847853884783e+01	 3.642870477623360e+01	 9.965320892637344e+00
0	 4.142847853884783e+01	 3.714295725428857e+01	 9.976928718773937e+00
0	 4.142847853884783e+01	 3.785720989899841e+01	 9.987492718136947e+00
0	 4.142847853884782e+01	 3.857146279369100e+01	 9.996640618657615e+00
0	 4.142847853884783e+01	 3.928571602169433e+01	 1.000400015001500e+01
0	 4.142847853884784e+01	 3.999996966633629e+01	 1.000919904363598e+01
0	 4.142847853884783e+01	 4.071422381094482e+01	 1.001186503269526e+01
0	 4.142847853884782e+01	 4.142847853884782e+01	 1.001162585211536e+01
0	 4.142847853884783e+01	 4.214273393337326e+01	 1.000810923856658e+01
0	 4.142847853884783e+01	 4.285699007784908e+01	 1.000094293046701e+01
0	 4.214273393337327e+01	 3.571445238150555e+01	 9.958597890822062e+00
0	 4.214273393337328e+01	 3.642870477623360e+01	 9.972738641395042e+00
0	 4.214273393337327e+01	 3.714295725428857e+01	 9.985227842526360e+00
0	 4.214273393337327e+01	 3.785720989899839e+01	 9.995845383139644e+00
0	 4.214273393337329e+01	 3.857146279369100e+01	 1.000437115411185e+01
0	 4.214273393337328e+01	 3.928571602169432e+01	 1.001058504827328e+01
0	 4.214273393337328e+01	 3.999996966633628e+01	 1.001426696040756e+01
0	 4.214273393337328e+01	 4.071422381094482e+01	 1.001519678725168e+01
0	 4.214273393337329e+01	 4.142847853884783e+01	 1.001315442749596e+01
0	 4.214273393337328e+01	 4.214273393337328e+01	 1.000791978178399e+01
0	 4.214273393337329e+01	 4.285699007784908e+01	 9.999272752712667e+00
0	 4.285699007784907e+01	 3.571445238150555e+01	 9.967501214584875e+00
0	 4.285699007784907e+01	 3.642870477623359e+01	 9.981703114680663e+00
0	 4.285699007784907e+01	 3.714295725428857e+01	 9.993431049497442e+00
0	 4.285699007784908e+01	 3.785720989899839e+01	 1.000266757425126e+01
0	 4.285699007784907e+01	 3.857146279369100e+01	 1.000939524604434e+01
0	 4.285699007784906e+01	 3.928571602169431e+01	 1.001359662386497e+01
0	 4.285699007784908e+01	 3.999996966633628e+01	 1.001525426858755e+01
0	 4.285699007784908e+01	 4.071422381094481e+01	 1.001435074297261e+01
0	 4.285699007784908e+01	 4.142847853884783e+01	 1.001086861166671e+01
0	 4.285699007784908e+01	 4.214273393337328e+01	 1.000479044120257e+01
0	 4.285699007784907e+01	 4.285699007784908e+01	 9.996098799998894e+00
0	 3.571445238150556e+01	 4.285699007784908e+01	 9.974658811578683e+00
0	 3.571445238150555e+01	 4.357129694500737e+01	 9.990274020410368e+00
0	 3.571445238150556e+01	 4.428560406221391e+01	 1.000242065087111e+01
0	 3.571445238150556e+01	 4.499991084612203e+01	 1.001094734577997e+01
0	 3.571445238150556e+01	 4.571421671338500e+01	 1.001570272670805e+01
0	 3.571445238150556e+01	 4.642852108065614e+01	 1.001653539397844e+01
0	 3.571445238150556e+01	 4.714282336458874e+01	 1.001329392666598e+01
0	 3.571445238150555e+01	 4.785712298183612e+01	 1.000582688259685e+01
0	 3.571445238150555e+01	 4.857141934905161e+01	 9.993982798347499e+00
0	 3.571445238150555e+01	 4.928571188288847e+01	 9.977610189244011e+00
0	 3.571445238150555e+01	 5.000000000000000e+01	 9.956557549360411e+00
0	 3.642870477623362e+01	 4.285699007784908e+01	 9.980671708529192e+00
0	 3.642870477623359e+01	 4.357129694500737e+01	 9.994754997272629e+00
0	 3.642870477623360e+01	 4.428560406221392e+01	 1.000496627206977e+01
0	 3.642870477623359e+01	 4.499991084612202e+01	 1.001144383825744e+01
0	 3.642870477623359e+01	 4.571421671338500e+01	 1.001432598190245e+01
0	 3.642870477623359e+01	 4.642852108065613e+01	 1.001375096980169e+01
0	 3.642870477623360e+01	 4.714282336458875e+01	 1.000985704948195e+01
0	 3.642870477623360e+01	 4.785712298183613e+01	 1.000278244919927e+01
0	 3.642870477623361e+01	 4.857141934905160e+01	 9.992665377938458e+00
0	 3.642870477623359e+01	 4.928571188288846e+01	 9.979644025412028e+00
0	 3.642870477623359e+01	 4.999999999999998e+01	 9.963856562059002e+00
0	 3.714295725428856e+01	 4.285699007784907e+01	 9.986146866151843e+00
0	 3.714295725428857e+01	 4.357129694500737e+01	 9.997602331920966e+00
0	 3.714295725428858e+01	 4.428560406221394e+01	 1.000528127549199e+01
0	 3.714295725428856e+01	 4.499991084612201e+01	 1.000955022388769e+01
0	 3.714295725428857e+01	 4.571421671338500e+01	 1.001077568849459e+01
0	 3.714295725428858e+01	 4.642852108065614e+01	 1.000932416506284e+01
0	 3.714295725428858e+01	 4.714282336458875e+01	 1.000556213370604e+01
0	 3.714295725428856e+01	 4.785712298183613e+01	 9.999856058901035e+00
0	 3.714295725428856e+01	 4.857141934905160e+01	 9.992572389487123e+00
0	 3.714295725428858e+01	 4.928571188288846e+01	 9.984077558665408e+00
0	 3.714295725428858e+01	 5.000000000000000e+01	 9.974737983997969e+00
0	 3.785720989899840e+01	 4.285699007784908e+01	 9.990963527045055e+00
0	 3.785720989899841e+01	 4.357129694500737e+01	 9.999032284049640e+00
0	 3.785720989899839e+01	 4.428560406221393e+01	 1.000381804489926e+01
0	 3.785720989899841e+01	 4.499991084612204e+01	 1.000585411798437e+01
0	 3.785720989899839e+01	 4.571421671338500e+01	 1.000567380085386e+01
0	 3.785720989899841e+01	 4.642852108065614e+01	 1.000381038021511e+01
0	 3.785720989899841e+01	 4.714282336458876e+01	 1.000079713193379e+01
0	 3.785720989899840e+01	 4.785712298183613e+01	 9.997167321033725e+00
0	 3.785720989899838e+01	 4.857141934905158e+01	 9.993454201696437e+00
0	 3.785720989899840e+01	 4.928571188288847e+01	 9.990191017260766e+00
0	 3.785720989899839e+01	 5.000000000000001e+01	 9.987911000222041e+00
0	 3.857146279369101e+01	 4.285699007784907e+01	 9.995000934649408e+00
0	 3.857146279369100e+01	 4.357129694500736e+01	 9.999261114150585e+00
0	 3.857146279369100e+01	 4.428560406221391e+01	 1.000102896469375e+01
0	 3.857146279369100e+01	 4.499991084612203e+01	 1.000094313627485e+01
0	 3.857146279369100e+01	 4.571421671338499e+01	 9.999642273509810e+00
0	 3.857146279369102e+01	 4.642852108065615e+01	 9.997765015634632e+00
0	 3.857146279369101e+01	 4.714282336458875e+01	 9.995949996505345e+00
0	 3.857146279369100e+01	 4.785712298183613e+01	 9.994835844597912e+00
0	 3.857146279369100e+01	 4.857141934905160e+01	 9.995061183008033e+00
0	 3.857146279369101e+01	 4.928571188288846e+01	 9.997264629451040e+00
0	 3.857146279369101e+01	 5.000000000000001e+01	 1.000208479626144e+01
0	 3.928571602169431e+01	 4.285699007784905e+01	 9.998138333247715e+00
0	 3.928571602169431e+01	 4.357129694500736e+01	 9.998505083513548e+00
0	 3.928571602169433e+01	 4.428560406221393e+01	 9.997366419918206e+00
0	 3.928571602169432e+01	 4.499991084612203e+01	 9.995404894900197e+00
0	 3.928571602169433e+01	 4.571421671338499e+01	 9.993303061152012e+00
0	 3.928571602169433e+01	 4.642852108065613e+01	 9.991743471620229e+00
0	 3.928571602169433e+01	 4.714282336458874e+01	 9.991408679505607e+00
0	 3.928571602169434e+01	 4.785712298183613e+01	 9.992981238263120e+00
0	 3.928571602169433e+01	 4.857141934905160e+01	 9.997143701601951e+00
0	 3.928571602169432e+01	 4.928571188288845e+01	 1.000457862348566e+01
0	 3.928571602169433e+01	 5.000000000000000e+01	 1.001596855813218e+01
0	 3.999996966633630e+01	 4.285699007784908e+01	 1.000025496796496e+01
0	 3.999996966633629e+01	 4.357129694500738e+01	 9.996980454226026e+00
0	 3.999996966633628e+01	 4.428560406221393e+01	 9.993282796255995e+00
0	 3.999996966633630e+01	 4.499991084612203e+01	 9.989827010415189e+00
0	 3.999996966633628e+01	 4.571421671338500e+01	 9.987278118630122e+00
0	 3.999996966633629e+01	 4.642852108065614e+01	 9.986301148393476e+00
0	 3.999996966633628e+01	 4.714282336458874e+01	 9.987561132764204e+00
0	 3.999996966633629e+01	 4.785712298183614e+01	 9.991723110367875e+00
0	 3.999996966633628e+01	 4.857141934905158e+01	 9.999452125396759e+00
0	 3.999996966633628e+01	 4.928571188288846e+01	 1.001141322761036e+01
0	 3.999996966633629e+01	 5.000000000000000e+01	 1.002827147233562e+01
0	 4.071422381094481e+01	 4.285699007784907e+01	 1.000123008476828e+01
0	 4.071422381094481e+01	 4.357129694500738e+01	 9.994903489173288e+00
0	 4.071422381094482e+01	 4.428560406221392e+01	 9.989230480031024e+00
0	 4.071422381094482e+01	 4.499991084612203e+01	 9.984797099788352e+00
0	 4.071422381094481e+01	 4.571421671338499e+01	 9.982189400953986e+00
0	 4.071422381094482e+01	 4.642852108065613e+01	 9.981993446098729e+00
0	 4.071422381094482e+01	 4.714282336458875e+01	 9.984795307855453e+00
0	 4.071422381094481e+01	 4.785712298183613e+01	 9.991181068919616e+00
0	 4.071422381094481e+01	 4.857141934905158e+01	 1.000173682204958e+01
0	 4.071422381094481e+01	 4.928571188288846e+01	 1.001704867006727e+01
0	 4.071422381094481e+01	 5.000000000000001e+01	 1.003770272585872e+01
0	 4.142847853884783e+01	 4.285699007784908e+01	 1.000094293046701e+01
0	 4.142847853884783e+01	 4.357129694500738e+01	 9.992490452038332e+00
0	 4.142847853884783e+01	 4.428560406221393e+01	 9.985661858207866e+00
0	 4.142847853884784e+01	 4.499991084612204e+01	 9.980902780401845e+00
0	 4.142847853884783e+01	 4.571421671338500e+01	 9.978658863293482e+00
0	 4.142847853884784e+01	 4.642852108065613e+01	 9.979375764803125e+00
0	 4.142847853884783e+01	 4.714282336458875e+01	 9.983499156098411e+00
0	 4.142847853884783e+01	 4.785712298183613e+01	 9.991474721594823e+00
0	 4.142847853884784e+01	 4.857141934905161e+01	 1.000374815895607e+01
0	 4.142847853884784e+01	 4.928571188288846e+01	 1.002076517909492e+01
0	 4.142847853884783e+01	 4.999999999999999e+01	 1.004297150617408e+01
0	 4.214273393337329e+01	 4.285699007784908e+01	 9.999272752712667e+00
0	 4.214273393337328e+01	 4.357129694500738e+01	 9.989957607301911e+00
0	 4.214273393337328e+01	 4.428560406221392e+01	 9.983029318391639e+00
0	 4.214273393337327e+01	 4.499991084612203e+01	 9.978731670051609e+00
0	 4.214273393337327e+01	 4.571421671338499e+01	 9.977308460978577e+00
0	 4.214273393337327e+01	 4.642852108065613e+01	 9.979003504496548e+00
0	 4.214273393337327e+01	 4.714282336458876e+01	 9.984060628556916e+00
0	 4.214273393337327e+01	 4.785712298183612e+01	 9.992723675738958e+00
0	 4.214273393337328e+01	 4.857141934905160e+01	 1.000523650325039e+01
0	 4.214273393337327e+01	 4.928571188288846e+01	 1.002184298292822e+01
0	 4.214273393337328e+01	 5.000000000000000e+01	 1.004278700123967e+01
0	 4.285699007784907e+01	 4.285699007784908e+01	 9.996098799998894e+00
0	 4.285699007784908e+01	 4.357129694500737e+01	 9.987521220242517e+00
0	 4.285699007784906e+01	 4.428560406221393e+01	 9.981785248828078e+00
0	 4.285699007784908e+01	 4.499991084612203e+01	 9.978871386947219e+00
0	 4.285699007784908e+01	 4.571421671338501e+01	 9.978760149499344e+00
0	 4.285699007784907e+01	 4.642852108065613e+01	 9.981432065091656e+00
0	 4.285699007784908e+01	 4.714282336458876e+01	 9.986867676039417e+00
0	 4.285699007784908e+01	 4.785712298183613e+01	 9.995047538366347e+00
0	 4.285699007784908e+01	 4.857141934905160e+01	 1.000595222180517e+01
0	 4.285699007784908e+01	 4.928571188288846e+01	 1.001956230979843e+01
0	 4.285699007784908e+01	 5.000000000000001e+01	 1.003585839949916e+01
0	 4.285699007784908e+01	 0.000000000000000e+00	 1.129527317227537e+01
0	 4.285699007784909e+01	 7.142881171115515e-01	 1.093388628022517e+01
0	 4.285699007784908e+01	 1.428580650948409e+00	 1.062171212837698e+01
0	 4.285699007784908e+01	 2.142877018163878e+00	 1.035849848540052e+01
0	 4.285699007784908e+01	 2.857176635411264e+00	 1.014399333321232e+01
0	 4.285699007784908e+01	 3.571478919343873e+00	 9.977944866960435e+00
0	 4.285699007784908e+01	 4.285783286615009e+00	 9.860101495011834e+00
0	 4.285699007784908e+01	 5.000089153877975e+00	 9.790211838942387e+00
0	 4.285699007784908e+01	 5.714395937786081e+00	 9.768024733529447e+00
0	 4.285699007784907e+01	 6.428703054992629e+00	 9.793289226747106e+00
0	 4.285699007784908e+01	 7.143009922150927e+00	 9.865754579763941e+00
0	 4.357129694500737e+01	 0.000000000000000e+00	 1.101801487766019e+01
0	 4.357129694500739e+01	 7.142881171115514e-01	 1.078342923294090e+01
0	 4.357129694500737e+01	 1.428580650948410e+00	 1.056561382640132e+01
0	 4.357129694500737e+01	 2.142877018163878e+00	 1.036873817301710e+01
0	 4.357129694500737e+01	 2.857176635411265e+00	 1.019697203740840e+01
0	 4.357129694500735e+01	 3.571478919343872e+00	 1.005448543382196e+01
0	 4.357129694500737e+01	 4.285783286615008e+00	 9.945448626116310e+00
0	 4.357129694500738e+01	 5.000089153877975e+00	 9.874032127749992e+00
0	 4.357129694500737e+01	 5.714395937786082e+00	 9.844406701772849e+00
0	 4.357129694500738e+01	 6.428703054992631e+00	 9.860743360820372e+00
0	 4.357129694500738e+01	 7.143009922150927e+00	 9.927213367111124e+00
0	 4.428560406221392e+01	 0.000000000000000e+00	 1.069266197225268e+01
0	 4.428560406221393e+01	 7.142881171115514e-01	 1.059053818218721e+01
0	 4.428560406221393e+01	 1.428580650948409e+00	 1.047682389401656e+01
0	 4.428560406221393e+01	 2.142877018163880e+00	 1.035869012295804e+01
0	 4.428560406221392e+01	 2.857176635411264e+00	 1.024330812937800e+01
0	 4.428560406221393e+01	 3.571478919343873e+00	 1.013784941877431e+01
0	 4.428560406221392e+01	 4.285783286615009e+00	 1.004948574176167e+01
0	 4.428560406221392e+01	 5.000089153877976e+00	 9.985389094060061e+00
0	 4.428560406221392e+01	 5.714395937786083e+00	 9.952731716486094e+00
0	 4.428560406221391e+01	 6.428703054992628e+00	 9.958686094947469e+00
0	 4.428560406221393e+01	 7.143009922150928e+00	 1.001042496044035e+01
0	 4.499991084612202e+01	 0.000000000000000e+00	 1.036277269504899e+01
0	 4.499991084612204e+01	 7.142881171115514e-01	 1.038478284917444e+01
0	 4.499991084612203e+01	 1.428580650948409e+00	 1.037285116176919e+01
0	 4.499991084612202e+01	 2.142877018163878e+00	 1.033572984638605e+01
0	 4.499991084612204e+01	 2.857176635411265e+00	 1.028217132578517e+01
0	 4.499991084612203e+01	 3.571478919343873e+00	 1.022092823191890e+01
0	 4.499991084612203e+01	 4.285783286615008e+00	 1.016075340591931e+01
0	 4.499991084612203e+01	 5.000089153877975e+00	 1.011039989808820e+01
0	 4.499991084612203e+01	 5.714395937786082e+00	 1.007862096788968e+01
0	 4.499991084612203e+01	 6.428703054992630e+00	 1.007417008394532e+01
0	 4.499991084612203e+01	 7.143009922150927e+00	 1.010580092403186e+01
0	 4.571421671338500e+01	 0.000000000000000e+00	 1.007190596929716e+01
0	 4.571421671338500e+01	 7.142881171115513e-01	 1.019573336839209e+01
0	 4.571421671338499e+01	 1.428580650948409e+00	 1.027120466340054e+01
0	 4.571421671338500e+01	 2.142877018163878e+00	 1.030723290150244e+01
0	 4.571421671338499e+01	 2.857176635411264e+00	 1.031273128114371e+01
0	 4.571421671338499e+01	 3.571478919343873e+00	 1.029661315202520e+01
0	 4.571421671338499e+01	 4.285783286615009e+00	 1.026779201509358e+01
0	 4.571421671338500e+01	 5.000089153877975e+00	 1.023518152253401e+01
0	 4.571421671338498e+01	 5.714395937786080e+00	 1.020769547776469e+01
0	 4.571421671338499e+01	 6.428703054992630e+00	 1.019424783543321e+01
0	 4.571421671338501e+01	 7.143009922150926e+00	 1.020375270141488e+01
0	 4.642852108065614e+01	 0.000000000000000e+00	 9.863621402498996e+00
0	 4.642852108065613e+01	 7.142881171115514e-01	 1.005296028760980e+01
0	 4.642852108065613e+01	 1.428580650948409e+00	 1.018939363584714e+01
0	 4.642852108065614e+01	 2.142877018163878e+00	 1.028057489354692e+01
0	 4.642852108065614e+01	 2.857176635411264e+00	 1.033415758781681e+01
0	 4.642852108065613e+01	 3.571478919343873e+00	 1.035779532653019e+01
0	 4.642852108065614e+01	 4.285783286615009e+00	 1.035914179832116e+01
0	 4.642852108065615e+01	 5.000089153877976e+00	 1.034585077258044e+01
0	 4.642852108065614e+01	 5.714395937786081e+00	 1.032557609945231e+01
0	 4.642852108065613e+01	 6.428703054992630e+00	 1.030597170983254e+01
0	 4.642852108065613e+01	 7.143009922150926e+00	 1.029469161536738e+01
0	 4.714282336458874e+01	 0.000000000000000e+00	 9.781479286420542e+00
0	 4.714282336458874e+01	 7.142881171115513e-01	 9.986034567883532e+00
0	 4.714282336458874e+01	 1.428580650948409e+00	 1.014492751924360e+01
0	 4.714282336458874e+01	 2.142877018163879e+00	 1.026313147479812e+01
0	 4.714282336458874e+01	 2.857176635411265e+00	 1.034561977601584e+01
0	 4.714282336458873e+01	 3.571478919343873e+00	 1.039736577153616e+01
0	 4.714282336458875e+01	 4.285783286615009e+00	 1.042334281716838e+01
0	 4.714282336458874e+01	 5.000089153877975e+00	 1.042852427589102e+01
0	 4.714282336458874e+01	 5.714395937786080e+00	 1.041788351785130e+01
0	 4.714282336458874e+01	 6.428703054992628e+00	 1.039639392036464e+01
0	 4.714282336458874e+01	 7.143009922150926e+00	 1.036902886791435e+01
0	 4.785712298183613e+01	 0.000000000000000e+00	 9.869040597110695e+00
0	 4.785712298183613e+01	 7.142881171115514e-01	 1.002452758356669e+01
0	 4.785712298183613e+01	 1.428580650948409e+00	 1.015531595692797e+01
0	 4.785712298183613e+01	 2.142877018163878e+00	 1.026227834457464e+01
0	 4.785712298183612e+01	 2.857176635411265e+00	 1.034628731379845e+01
0	 4.785712298183613e+01	 3.571478919343872e+00	 1.040821537180694e+01
0	 4.785712298183613e+01	 4.285783286615009e+00	 1.044893496572652e+01
0	 4.785712298183613e+01	 5.000089153877973e+00	 1.046931848260502e+01
0	 4.785712298183614e+01	 5.714395937786080e+00	 1.047023824941339e+01
0	 4.785712298183614e+01	 6.428703054992630e+00	 1.045256653304676e+01
0	 4.785712298183613e+01	 7.143009922150927e+00	 1.041717554032467e+01
0	 4.857141934905160e+01	 0.000000000000000e+00	 1.016986699492834e+01
0	 4.857141934905161e+01	 7.142881171115514e-01	 1.019801112232634e+01
0	 4.857141934905160e+01	 1.428580650948409e+00	 1.023806879544954e+01
0	 4.857141934905160e+01	 2.142877018163879e+00	 1.028539124923664e+01
0	 4.857141934905161e+01	 2.857176635411265e+00	 1.033532960706587e+01
0	 4.857141934905160e+01	 3.571478919343873e+00	 1.038323488076248e+01
0	 4.857141934905159e+01	 4.285783286615009e+00	 1.042445797060503e+01
0	 4.857141934905162e+01	 5.000089153877976e+00	 1.045434966533027e+01
0	 4.857141934905160e+01	 5.714395937786081e+00	 1.046826064213663e+01
0	 4.857141934905160e+01	 6.428703054992631e+00	 1.046154146668641e+01
0	 4.857141934905160e+01	 7.143009922150926e+00	 1.042954259310643e+01
0	 4.928571188288846e+01	 0.000000000000000e+00	 1.072752082457784e+01
0	 4.928571188288846e+01	 7.142881171115513e-01	 1.053605738516459e+01
0	 4.928571188288845e+01	 1.428580650948409e+00	 1.041069608457911e+01
0	 4.928571188288845e+01	 2.142877018163878e+00	 1.033984598218804e+01
0	 4.928571188288846e+01	 2.857176635411265e+00	 1.031191599955937e+01
0	 4.928571188288846e+01	 3.571478919343873e+00	 1.031531492047184e+01
0	 4.928571188288846e+01	 4.285783286615008e+00	 1.033845139092272e+01
0	 4.928571188288846e+01	 5.000089153877976e+00	 1.036973391913399e+01
0	 4.928571188288846e+01	 5.714395937786080e+00	 1.039757087555672e+01
0	 4.928571188288846e+01	 6.428703054992630e+00	 1.041037049287374e+01
0	 4.928571188288846e+01	 7.143009922150927e+00	 1.039654086600082e+01
0	 5.000000000000000e+01	 0.000000000000000e+00	 1.158556511515290e+01
0	 5.000000000000001e+01	 7.142881171115513e-01	 1.106823898644483e+01
0	 4.999999999999999e+01	 1.428580650948409e+00	 1.069070807732193e+01
0	 4.999999999999999e+01	 2.142877018163878e+00	 1.043301838387932e+01
0	 5.000000000000000e+01	 2.857176635411265e+00	 1.027521577285618e+01
0	 5.000000000000000e+01	 3.571478919343873e+00	 1.019734598164460e+01
0	 5.000000000000000e+01	 4.285783286615008e+00	 1.017945461829687e+01
0	 5.000000000000000e+01	 5.000089153877976e+00	 1.020158716153122e+01
0	 4.999999999999999e+01	 5.714395937786080e+00	 1.024378896073600e+01
0	 5.000000000000000e+01	 6.428703054992629e+00	 1.028610523597221e+01
0	 5.000000000000001e+01	 7.143009922150927e+00	 1.030858107797443e+01
0	 4.285699007784908e+01	 7.143009922150927e+00	 9.865754579763941e+00
0	 4.285699007784908e+01	 7.857266066626719e+00	 9.955673840142049e+00
0	 4.285699007784907e+01	 8.571521461152162e+00	 1.003308022512151e+01
0	 4.285699007784908e+01	 9.285776189055184e+00	 1.009737326247275e+01
0	 4.285699007784908e+01	 1.000003033366371e+01	 1.014795249071271e+01
0	 4.285699007784908e+01	 1.071428397830567e+01	 1.018421745910486e+01
0	 4.285699007784908e+01	 1.142853720630899e+01	 1.020556772765932e+01
0	 4.285699007784908e+01	 1.214279010100160e+01	 1.021140286713300e+01
0	 4.285699007784907e+01	 1.285704274571142e+01	 1.020112245902958e+01
0	 4.285699007784908e+01	 1.357129522376640e+01	 1.017412609559961e+01
0	 4.285699007784908e+01	 1.428554761849444e+01	 1.012981337984048e+01
0	 4.357129694500738e+01	 7.143009922150927e+00	 9.927213367111124e+00
0	 4.357129694500737e+01	 7.857266066626718e+00	 1.001333648702272e+01
0	 4.357129694500738e+01	 8.571521461152164e+00	 1.008567369283071e+01
0	 4.357129694500738e+01	 9.285776189055184e+00	 1.014393873732915e+01
0	 4.357129694500738e+01	 1.000003033366371e+01	 1.018784538511938e+01
0	 4.357129694500736e+01	 1.071428397830567e+01	 1.021710741261007e+01
0	 4.357129694500737e+01	 1.142853720630899e+01	 1.023143860801742e+01
0	 4.357129694500738e+01	 1.214279010100160e+01	 1.023055277136522e+01
0	 4.357129694500738e+01	 1.285704274571142e+01	 1.021416371448485e+01
0	 4.357129694500738e+01	 1.357129522376640e+01	 1.018198526101543e+01
0	 4.357129694500737e+01	 1.428554761849444e+01	 1.013373124640378e+01
0	 4.428560406221393e+01	 7.143009922150928e+00	 1.001042496044035e+01
0	 4.428560406221391e+01	 7.857266066626718e+00	 1.008099363272476e+01
0	 4.428560406221393e+01	 8.571521461152159e+00	 1.013866237761470e+01
0	 4.428560406221392e+01	 9.285776189055182e+00	 1.018342536300170e+01
0	 4.428560406221391e+01	 1.000003033366371e+01	 1.021527676785970e+01
0	 4.428560406221393e+01	 1.071428397830567e+01	 1.023421078224503e+01
0	 4.428560406221391e+01	 1.142853720630899e+01	 1.024022160729663e+01
0	 4.428560406221392e+01	 1.214279010100159e+01	 1.023330345523611e+01
0	 4.428560406221392e+01	 1.285704274571142e+01	 1.021345054936776e+01
0	 4.428560406221392e+01	 1.357129522376639e+01	 1.018065712407864e+01
0	 4.428560406221391e+01	 1.428554761849444e+01	 1.013491742483864e+01
0	 4.499991084612203e+01	 7.143009922150927e+00	 1.010580092403187e+01
0	 4.499991084612204e+01	 7.857266066626720e+00	 1.015305721579816e+01
0	 4.499991084612203e+01	 8.571521461152162e+00	 1.018981466879224e+01
0	 4.499991084612202e+01	 9.285776189055184e+00	 1.021631405366772e+01
0	 4.499991084612203e+01	 1.000003033366371e+01	 1.023279615010072e+01
0	 4.499991084612203e+01	 1.071428397830567e+01	 1.023950174678987e+01
0	 4.499991084612203e+01	 1.142853720630899e+01	 1.023667164145647e+01
0	 4.499991084612203e+01	 1.214279010100160e+01	 1.022454664084454e+01
0	 4.499991084612203e+01	 1.285704274571142e+01	 1.020336756072083e+01
0	 4.499991084612203e+01	 1.357129522376640e+01	 1.017337522587494e+01
0	 4.499991084612203e+01	 1.428554761849445e+01	 1.013481047011927e+01
0	 4.571421671338501e+01	 7.143009922150926e+00	 1.020375270141488e+01
0	 4.571421671338501e+01	 7.857266066626719e+00	 1.022393907986342e+01
0	 4.571421671338500e+01	 8.571521461152164e+00	 1.023689888465289e+01
0	 4.571421671338499e+01	 9.285776189055182e+00	 1.024308567428863e+01
0	 4.571421671338499e+01	 1.000003033366371e+01	 1.024295301335424e+01
0	 4.571421671338500e+01	 1.071428397830567e+01	 1.023695447251172e+01
0	 4.571421671338498e+01	 1.142853720630899e+01	 1.022554362850156e+01
0	 4.571421671338499e+01	 1.214279010100160e+01	 1.020917406414271e+01
0	 4.571421671338499e+01	 1.285704274571142e+01	 1.018829936833266e+01
0	 4.571421671338500e+01	 1.357129522376639e+01	 1.016337313604746e+01
0	 4.571421671338500e+01	 1.428554761849444e+01	 1.013484896834172e+01
0	 4.642852108065613e+01	 7.143009922150926e+00	 1.029469161536738e+01
0	 4.642852108065613e+01	 7.857266066626718e+00	 1.028805097361135e+01
0	 4.642852108065613e+01	 8.571521461152161e+00	 1.027768327245693e+01
0	 4.642852108065613e+01	 9.285776189055182e+00	 1.026422104060992e+01
0	 4.642852108065613e+01	 1.000003033366371e+01	 1.024829680947680e+01
0	 4.642852108065614e+01	 1.071428397830567e+01	 1.023054311316478e+01
0	 4.642852108065614e+01	 1.142853720630899e+01	 1.021159248848174e+01
0	 4.642852108065613e+01	 1.214279010100160e+01	 1.019207747493634e+01
0	 4.642852108065614e+01	 1.285704274571143e+01	 1.017263061473798e+01
0	 4.642852108065613e+01	 1.357129522376639e+01	 1.015388445279684e+01
0	 4.642852108065614e+01	 1.428554761849444e+01	 1.013647153672387e+01
0	 4.714282336458874e+01	 7.143009922150926e+00	 1.036902886791435e+01
0	 4.714282336458874e+01	 7.857266066626722e+00	 1.033980455080191e+01
0	 4.714282336458874e+01	 8.571521461152161e+00	 1.030993600843443e+01
0	 4.714282336458874e+01	 9.285776189055184e+00	 1.028020091916063e+01
0	 4.714282336458874e+01	 1.000003033366371e+01	 1.025137696066948e+01
0	 4.714282336458874e+01	 1.071428397830567e+01	 1.022424180999016e+01
0	 4.714282336458874e+01	 1.142853720630899e+01	 1.019957314349204e+01
0	 4.714282336458874e+01	 1.214279010100160e+01	 1.017814863688469e+01
0	 4.714282336458875e+01	 1.285704274571142e+01	 1.016074596521785e+01
0	 4.714282336458874e+01	 1.357129522376639e+01	 1.014814280288147e+01
0	 4.714282336458874e+01	 1.428554761849444e+01	 1.014111682360568e+01
0	 4.785712298183613e+01	 7.143009922150927e+00	 1.041717554032467e+01
0	 4.785712298183613e+01	 7.857266066626720e+00	 1.037361137026163e+01
0	 4.785712298183613e+01	 8.571521461152164e+00	 1.033142519778346e+01
0	 4.785712298183613e+01	 9.285776189055182e+00	 1.029150602725205e+01
0	 4.785712298183613e+01	 1.000003033366371e+01	 1.025474285947703e+01
0	 4.785712298183614e+01	 1.071428397830567e+01	 1.022202469171566e+01
0	 4.785712298183612e+01	 1.142853720630899e+01	 1.019424051767283e+01
0	 4.785712298183613e+01	 1.214279010100160e+01	 1.017227932750102e+01
0	 4.785712298183613e+01	 1.285704274571142e+01	 1.015703010780028e+01
0	 4.785712298183613e+01	 1.357129522376639e+01	 1.014938184161821e+01
0	 4.785712298183613e+01	 1.428554761849445e+01	 1.015022350844996e+01
0	 4.857141934905160e+01	 7.143009922150926e+00	 1.042954259310644e+01
0	 4.857141934905159e+01	 7.857266066626718e+00	 1.038388289588009e+01
0	 4.857141934905160e+01	 8.571521461152162e+00	 1.033991887466747e+01
0	 4.857141934905160e+01	 9.285776189055184e+00	 1.029861703297599e+01
0	 4.857141934905161e+01	 1.000003033366371e+01	 1.026094386878691e+01
0	 4.857141934905160e+01	 1.071428397830567e+01	 1.022786587455528e+01
0	 4.857141934905161e+01	 1.142853720630899e+01	 1.020034953720986e+01
0	 4.857141934905160e+01	 1.214279010100160e+01	 1.017936133815308e+01
0	 4.857141934905160e+01	 1.285704274571142e+01	 1.016586775326104e+01
0	 4.857141934905160e+01	 1.357129522376639e+01	 1.016083525288341e+01
0	 4.857141934905161e+01	 1.428554761849444e+01	 1.016523030184347e+01
0	 4.928571188288846e+01	 7.143009922150927e+00	 1.039654086600082e+01
0	 4.928571188288846e+01	 7.857266066626719e+00	 1.036503049660511e+01
0	 4.928571188288846e+01	 8.571521461152164e+00	 1.033318500221173e+01
0	 4.928571188288846e+01	 9.285776189055184e+00	 1.030201455520229e+01
0	 4.928571188288846e+01	 1.000003033366371e+01	 1.027252932182783e+01
0	 4.928571188288846e+01	 1.071428397830567e+01	 1.024573946220870e+01
0	 4.928571188288846e+01	 1.142853720630899e+01	 1.022265513033445e+01
0	 4.928571188288846e+01	 1.214279010100160e+01	 1.020428647406387e+01
0	 4.928571188288846e+01	 1.285704274571142e+01	 1.019164363512482e+01
0	 4.928571188288846e+01	 1.357129522376639e+01	 1.018573674911428e+01
0	 4.928571188288846e+01	 1.428554761849444e+01	 1.018757594549837e+01
0	 5.000000000000001e+01	 7.143009922150927e+00	 1.030858107797443e+01
0	 5.000000000000001e+01	 7.857266066626719e+00	 1.031146544643687e+01
0	 5.000000000000001e+01	 8.571521461152161e+00	 1.030899147249894e+01
0	 5.000000000000000e+01	 9.285776189055182e+00	 1.030217916357590e+01
0	 5.000000000000000e+01	 1.000003033366371e+01	 1.029204852216801e+01
0	 4.999999999999999e+01	 1.071428397830567e+01	 1.027961954586056e+01
0	 5.000000000000000e+01	 1.142853720630899e+01	 1.026591222732368e+01
0	 5.000000000000000e+01	 1.214279010100160e+01	 1.025194655431238e+01
0	 4.999999999999999e+01	 1.285704274571142e+01	 1.023874250966648e+01
0	 5.000000000000000e+01	 1.357129522376639e+01	 1.022732007131061e+01
0	 5.000000000000000e+01	 1.428554761849444e+01	 1.021869921225411e+01
0	 4.285699007784908e+01	 1.428554761849444e+01	 1.012981337984049e+01
0	 4.285699007784907e+01	 1.499984997172426e+01	 1.007976219251257e+01
0	 4.285699007784906e+01	 1.571415215828766e+01	 1.003619900313587e+01
0	 4.285699007784907e+01	 1.642845401151721e+01	 9.999485148559721e+00
0	 4.285699007784908e+01	 1.714275536474550e+01	 9.969981977800296e+00
0	 4.285699007784907e+01	 1.785705605130510e+01	 9.948050852040623e+00
0	 4.285699007784908e+01	 1.857135590452858e+01	 9.934053144630589e+00
0	 4.285699007784908e+01	 1.928565475774854e+01	 9.928350241087104e+00
0	 4.285699007784908e+01	 1.999995244429753e+01	 9.931303539094175e+00
0	 4.285699007784907e+01	 2.071424879750816e+01	 9.943274448503120e+00
0	 4.285699007784908e+01	 2.142854365071297e+01	 9.964624391332762e+00
0	 4.357129694500737e+01	 1.428554761849444e+01	 1.013373124640378e+01
0	 4.357129694500738e+01	 1.499984997172426e+01	 1.008184334731766e+01
0	 4.357129694500738e+01	 1.571415215828766e+01	 1.003884289048345e+01
0	 4.357129694500737e+01	 1.642845401151722e+01	 1.000455136237865e+01
0	 4.357129694500737e+01	 1.714275536474550e+01	 9.978790261463184e+00
0	 4.357129694500736e+01	 1.785705605130510e+01	 9.961381098179476e+00
0	 4.357129694500738e+01	 1.857135590452858e+01	 9.952145394952431e+00
0	 4.357129694500738e+01	 1.928565475774854e+01	 9.950904686189581e+00
0	 4.357129694500737e+01	 1.999995244429754e+01	 9.957480518281178e+00
0	 4.357129694500738e+01	 2.071424879750815e+01	 9.971694449600362e+00
0	 4.357129694500737e+01	 2.142854365071296e+01	 9.993368050503411e+00
0	 4.428560406221391e+01	 1.428554761849444e+01	 1.013491742483864e+01
0	 4.428560406221393e+01	 1.499984997172426e+01	 1.008767371543134e+01
0	 4.428560406221393e+01	 1.571415215828766e+01	 1.004998637286598e+01
0	 4.428560406221391e+01	 1.642845401151721e+01	 1.002126586274452e+01
0	 4.428560406221392e+01	 1.714275536474550e+01	 1.000092266083919e+01
0	 4.428560406221392e+01	 1.785705605130509e+01	 9.988367253092500e+00
0	 4.428560406221392e+01	 1.857135590452858e+01	 9.983010135617238e+00
0	 4.428560406221391e+01	 1.928565475774854e+01	 9.984261814696550e+00
0	 4.428560406221392e+01	 1.999995244429753e+01	 9.991532806784075e+00
0	 4.428560406221393e+01	 2.071424879750816e+01	 1.000423363850406e+01
0	 4.428560406221392e+01	 2.142854365071295e+01	 1.002177484665149e+01
0	 4.499991084612203e+01	 1.428554761849445e+01	 1.013481047011927e+01
0	 4.499991084612202e+01	 1.499984997172426e+01	 1.009675772473544e+01
0	 4.499991084612203e+01	 1.571415215828766e+01	 1.006756569354282e+01
0	 4.499991084612203e+01	 1.642845401151722e+01	 1.004636264906622e+01
0	 4.499991084612203e+01	 1.714275536474550e+01	 1.003227687107304e+01
0	 4.499991084612203e+01	 1.785705605130509e+01	 1.002443664657319e+01
0	 4.499991084612203e+01	 1.857135590452858e+01	 1.002197026981917e+01
0	 4.499991084612202e+01	 1.928565475774854e+01	 1.002400604230600e+01
0	 4.499991084612203e+01	 1.999995244429754e+01	 1.002967227277144e+01
0	 4.499991084612202e+01	 2.071424879750816e+01	 1.003809727719594e+01
0	 4.499991084612203e+01	 2.142854365071297e+01	 1.004840937880285e+01
0	 4.571421671338500e+01	 1.428554761849444e+01	 1.013484896834173e+01
0	 4.571421671338501e+01	 1.499984997172427e+01	 1.010859983351789e+01
0	 4.571421671338501e+01	 1.571415215828766e+01	 1.008951712268169e+01
0	 4.571421671338500e+01	 1.642845401151722e+01	 1.007657574201249e+01
0	 4.571421671338501e+01	 1.714275536474550e+01	 1.006875060140130e+01
0	 4.571421671338499e+01	 1.785705605130509e+01	 1.006501661445066e+01
0	 4.571421671338500e+01	 1.857135590452858e+01	 1.006434869847472e+01
0	 4.571421671338501e+01	 1.928565475774853e+01	 1.006572177449922e+01
0	 4.571421671338501e+01	 1.999995244429753e+01	 1.006811076726153e+01
0	 4.571421671338501e+01	 2.071424879750816e+01	 1.007049060521062e+01
0	 4.571421671338499e+01	 2.142854365071296e+01	 1.007183622050716e+01
0	 4.642852108065614e+01	 1.428554761849444e+01	 1.013647153672387e+01
0	 4.642852108065613e+01	 1.499984997172426e+01	 1.012270453047262e+01
0	 4.642852108065614e+01	 1.571415215828766e+01	 1.011377695735859e+01
0	 4.642852108065613e+01	 1.642845401151721e+01	 1.010863918351188e+01
0	 4.642852108065613e+01	 1.714275536474550e+01	 1.010624157515235e+01
0	 4.642852108065613e+01	 1.785705605130510e+01	 1.010553449858952e+01
0	 4.642852108065612e+01	 1.857135590452858e+01	 1.010546832022267e+01
0	 4.642852108065613e+01	 1.928565475774854e+01	 1.010499340654071e+01
0	 4.642852108065614e+01	 1.999995244429753e+01	 1.010306012412221e+01
0	 4.642852108065613e+01	 2.071424879750815e+01	 1.009861883963536e+01
0	 4.642852108065614e+01	 2.142854365071297e+01	 1.009061991983796e+01
0	 4.714282336458874e+01	 1.428554761849444e+01	 1.014111682360568e+01
0	 4.714282336458874e+01	 1.499984997172426e+01	 1.013857633469992e+01
0	 4.714282336458875e+01	 1.571415215828767e+01	 1.013828152155806e+01
0	 4.714282336458874e+01	 1.642845401151722e+01	 1.013928703675287e+01
0	 4.714282336458874e+01	 1.714275536474550e+01	 1.014064752974638e+01
0	 4.714282336458875e+01	 1.785705605130510e+01	 1.014141764688987e+01
0	 4.714282336458874e+01	 1.857135590452858e+01	 1.014065203142382e+01
0	 4.714282336458874e+01	 1.928565475774854e+01	 1.013740532347783e+01
0	 4.714282336458876e+01	 1.999995244429754e+01	 1.013073216007059e+01
0	 4.714282336458875e+01	 2.071424879750815e+01	 1.011968717510981e+01
0	 4.714282336458875e+01	 2.142854365071297e+01	 1.010332499939207e+01
0	 4.785712298183613e+01	 1.428554761849445e+01	 1.015022350844996e+01
0	 4.785712298183613e+01	 1.499984997172426e+01	 1.015571979570706e+01
0	 4.785712298183613e+01	 1.571415215828766e+01	 1.016096716617368e+01
0	 4.785712298183613e+01	 1.642845401151721e+01	 1.016525338618424e+01
0	 4.785712298183612e+01	 1.714275536474550e+01	 1.016786621669567e+01
0	 4.785712298183613e+01	 1.785705605130510e+01	 1.016809341328732e+01
0	 4.785712298183612e+01	 1.857135590452858e+01	 1.016522272616093e+01
0	 4.785712298183613e+01	 1.928565475774854e+01	 1.015854190014057e+01
0	 4.785712298183613e+01	 1.999995244429753e+01	 1.014733867467253e+01
0	 4.785712298183613e+01	 2.071424879750816e+01	 1.013090078382521e+01
0	 4.785712298183611e+01	 2.142854365071296e+01	 1.010851595628899e+01
0	 4.857141934905161e+01	 1.428554761849444e+01	 1.016523030184347e+01
0	 4.857141934905160e+01	 1.499984997172426e+01	 1.017363949340940e+01
0	 4.857141934905160e+01	 1.571415215828766e+01	 1.017977026900907e+01
0	 4.857141934905160e+01	 1.642845401151722e+01	 1.018327233751590e+01
0	 4.857141934905161e+01	 1.714275536474550e+01	 1.018379540160499e+01
0	 4.857141934905160e+01	 1.785705605130510e+01	 1.018098915775305e+01
0	 4.857141934905161e+01	 1.857135590452859e+01	 1.017450329623844e+01
0	 4.857141934905159e+01	 1.928565475774854e+01	 1.016398750114095e+01
0	 4.857141934905160e+01	 1.999995244429754e+01	 1.014909145034182e+01
0	 4.857141934905160e+01	 2.071424879750816e+01	 1.012946481552355e+01
0	 4.857141934905160e+01	 2.142854365071296e+01	 1.010475726216980e+01
0	 4.928571188288846e+01	 1.428554761849444e+01	 1.018757594549837e+01
0	 4.928571188288846e+01	 1.499984997172426e+01	 1.019184003813174e+01
0	 4.928571188288846e+01	 1.571415215828766e+01	 1.019262723477905e+01
0	 4.928571188288846e+01	 1.642845401151722e+01	 1.019007801771967e+01
0	 4.928571188288846e+01	 1.714275536474550e+01	 1.018433286417212e+01
0	 4.928571188288846e+01	 1.785705605130510e+01	 1.017553224629408e+01
0	 4.928571188288846e+01	 1.857135590452858e+01	 1.016381663118226e+01
0	 4.928571188288846e+01	 1.928565475774854e+01	 1.014932648087243e+01
0	 4.928571188288846e+01	 1.999995244429753e+01	 1.013220225233929e+01
0	 4.928571188288846e+01	 2.071424879750816e+01	 1.011258439749632e+01
0	 4.928571188288846e+01	 2.142854365071296e+01	 1.009061336319578e+01
0	 5.000000000000000e+01	 1.428554761849444e+01	 1.021869921225411e+01
0	 5.000000000000000e+01	 1.499984997172426e+01	 1.020982607061018e+01
0	 5.000000000000001e+01	 1.571415215828766e+01	 1.019747449511123e+01
0	 5.000000000000000e+01	 1.642845401151722e+01	 1.018240457503057e+01
0	 4.999999999999999e+01	 1.714275536474550e+01	 1.016537639818872e+01
0	 5.000000000000000e+01	 1.785705605130510e+01	 1.014715005095340e+01
0	 5.000000000000000e+01	 1.857135590452858e+01	 1.012848561823954e+01
0	 5.000000000000000e+01	 1.928565475774854e+01	 1.011014318350920e+01
0	 5.000000000000000e+01	 1.999995244429753e+01	 1.009288282877160e+01
0	 5.000000000000000e+01	 2.071424879750816e+01	 1.007746463458304e+01
0	 5.000000000000001e+01	 2.142854365071296e+01	 1.006464868004684e+01
0	 4.285699007784908e+01	 2.142854365071297e+01	 9.964624391332762e+00
0	 4.285699007784907e+01	 2.214283692057824e+01	 9.988844988061063e+00
0	 4.285699007784908e+01	 2.285712885710493e+01	 1.000906461021818e+01
0	 4.285699007784908e+01	 2.357141979362770e+01	 1.002509982574751e+01
0	 4.285699007784908e+01	 2.428571006348117e+01	 1.003676721622001e+01
0	 4.285699007784908e+01	 2.500000000000001e+01	 1.004388337683442e+01
0	 4.285699007784907e+01	 2.571428993651883e+01	 1.004626491641739e+01
0	 4.285699007784907e+01	 2.642858020637231e+01	 1.004372845742365e+01
0	 4.285699007784906e+01	 2.714287114289507e+01	 1.003609063593585e+01
0	 4.285699007784908e+01	 2.785716307942178e+01	 1.002316810166453e+01
0	 4.285699007784907e+01	 2.857145634928704e+01	 1.000477751794783e+01
0	 4.357129694500737e+01	 2.142854365071296e+01	 9.993368050503411e+00
0	 4.357129694500738e+01	 2.214283692057823e+01	 1.001591249167286e+01
0	 4.357129694500736e+01	 2.285712885710494e+01	 1.003300074615979e+01
0	 4.357129694500738e+01	 2.357141979362770e+01	 1.004484710608458e+01
0	 4.357129694500736e+01	 2.428571006348117e+01	 1.005166587586640e+01
0	 4.357129694500736e+01	 2.500000000000000e+01	 1.005367137222338e+01
0	 4.357129694500737e+01	 2.571428993651884e+01	 1.005107792417278e+01
0	 4.357129694500738e+01	 2.642858020637232e+01	 1.004409987303103e+01
0	 4.357129694500738e+01	 2.714287114289508e+01	 1.003295157241372e+01
0	 4.357129694500737e+01	 2.785716307942177e+01	 1.001784738823546e+01
0	 4.357129694500737e+01	 2.857145634928704e+01	 9.999001698709680e+00
0	 4.428560406221392e+01	 2.142854365071295e+01	 1.002177484665149e+01
0	 4.428560406221392e+01	 2.214283692057824e+01	 1.003851664153530e+01
0	 4.428560406221392e+01	 2.285712885710494e+01	 1.004955110581651e+01
0	 4.428560406221391e+01	 2.357141979362770e+01	 1.005538659917021e+01
0	 4.428560406221393e+01	 2.428571006348117e+01	 1.005653149023660e+01
0	 4.428560406221393e+01	 2.500000000000000e+01	 1.005349415662103e+01
0	 4.428560406221393e+01	 2.571428993651883e+01	 1.004678298489419e+01
0	 4.428560406221391e+01	 2.642858020637231e+01	 1.003690637059208e+01
0	 4.428560406221393e+01	 2.714287114289509e+01	 1.002437271821602e+01
0	 4.428560406221392e+01	 2.785716307942177e+01	 1.000969044123258e+01
0	 4.428560406221392e+01	 2.857145634928704e+01	 9.993367962073370e+00
0	 4.499991084612203e+01	 2.142854365071297e+01	 1.004840937880285e+01
0	 4.499991084612205e+01	 2.214283692057824e+01	 1.005663141342421e+01
0	 4.499991084612203e+01	 2.285712885710494e+01	 1.005983317454047e+01
0	 4.499991084612202e+01	 2.357141979362770e+01	 1.005871343055786e+01
0	 4.499991084612203e+01	 2.428571006348118e+01	 1.005397095425339e+01
0	 4.499991084612203e+01	 2.500000000000001e+01	 1.004630452277501e+01
0	 4.499991084612203e+01	 2.571428993651883e+01	 1.003641291764156e+01
0	 4.499991084612202e+01	 2.642858020637232e+01	 1.002499492474286e+01
0	 4.499991084612203e+01	 2.714287114289507e+01	 1.001274933433960e+01
0	 4.499991084612203e+01	 2.785716307942177e+01	 1.000037494106339e+01
0	 4.499991084612203e+01	 2.857145634928704e+01	 9.988570543916570e+00
0	 4.571421671338499e+01	 2.142854365071296e+01	 1.007183622050716e+01
0	 4.571421671338499e+01	 2.214283692057824e+01	 1.007023075731971e+01
0	 4.571421671338501e+01	 2.285712885710495e+01	 1.006496441395979e+01
0	 4.571421671338499e+01	 2.357141979362770e+01	 1.005682270603178e+01
0	 4.571421671338500e+01	 2.428571006348117e+01	 1.004659114840061e+01
0	 4.571421671338499e+01	 2.500000000000000e+01	 1.003505525519162e+01
0	 4.571421671338499e+01	 2.571428993651883e+01	 1.002300053979061e+01
0	 4.571421671338498e+01	 2.642858020637231e+01	 1.001121251484382e+01
0	 4.571421671338500e+01	 2.714287114289507e+01	 1.000047669225780e+01
0	 4.571421671338499e+01	 2.785716307942177e+01	 9.991578583199560e+00
0	 4.571421671338499e+01	 2.857145634928703e+01	 9.985303698096441e+00
0	 4.642852108065614e+01	 2.142854365071297e+01	 1.009061991983796e+01
0	 4.642852108065613e+01	 2.214283692057824e+01	 1.007928859740611e+01
0	 4.642852108065615e+01	 2.285712885710494e+01	 1.006606226197831e+01
0	 4.642852108065614e+01	 2.357141979362770e+01	 1.005170951160700e+01
0	 4.642852108065613e+01	 2.428571006348117e+01	 1.003699893872311e+01
0	 4.642852108065612e+01	 2.500000000000001e+01	 1.002269913013590e+01
0	 4.642852108065613e+01	 2.571428993651884e+01	 1.000957866703290e+01
0	 4.642852108065613e+01	 2.642858020637231e+01	 9.998406124979780e+00
0	 4.642852108065613e+01	 2.714287114289507e+01	 9.989950073920451e+00
0	 4.642852108065613e+01	 2.785716307942177e+01	 9.984979078176963e+00
0	 4.642852108065615e+01	 2.857145634928704e+01	 9.984261696449652e+00
0	 4.714282336458875e+01	 2.142854365071297e+01	 1.010332499939207e+01
0	 4.714282336458875e+01	 2.214283692057824e+01	 1.008377883207149e+01
0	 4.714282336458875e+01	 2.285712885710494e+01	 1.006424413277541e+01
0	 4.714282336458875e+01	 2.357141979362770e+01	 1.004536891352899e+01
0	 4.714282336458876e+01	 2.428571006348117e+01	 1.002780117682656e+01
0	 4.714282336458874e+01	 2.500000000000000e+01	 1.001218891563141e+01
0	 4.714282336458874e+01	 2.571428993651883e+01	 9.999180113375610e+00
0	 4.714282336458874e+01	 2.642858020637231e+01	 9.989422743959967e+00
0	 4.714282336458874e+01	 2.714287114289508e+01	 9.983564771753944e+00
0	 4.714282336458874e+01	 2.785716307942177e+01	 9.982254151595789e+00
0	 4.714282336458875e+01	 2.857145634928704e+01	 9.986138828792580e+00
0	 4.785712298183611e+01	 2.142854365071296e+01	 1.010851595628899e+01
0	 4.785712298183613e+01	 2.214283692057824e+01	 1.008367533390694e+01
0	 4.785712298183612e+01	 2.285712885710493e+01	 1.006062741680516e+01
0	 4.785712298183613e+01	 2.357141979362770e+01	 1.003979595827306e+01
0	 4.785712298183613e+01	 2.428571006348118e+01	 1.002160469987697e+01
0	 4.785712298183613e+01	 2.500000000000000e+01	 1.000647737145997e+01
0	 4.785712298183613e+01	 2.571428993651884e+01	 9.994837691141651e+00
0	 4.785712298183613e+01	 2.642858020637231e+01	 9.987109365318021e+00
0	 4.785712298183613e+01	 2.714287114289508e+01	 9.983716088661502e+00
0	 4.785712298183613e+01	 2.785716307942177e+01	 9.985081544120925e+00
0	 4.785712298183612e+01	 2.857145634928704e+01	 9.991629402921738e+00
0	 4.857141934905160e+01	 2.142854365071296e+01	 1.010475726216980e+01
0	 4.857141934905160e+01	 2.214283692057824e+01	 1.007895194970556e+01
0	 4.857141934905160e+01	 2.285712885710494e+01	 1.005632948079552e+01
0	 4.857141934905161e+01	 2.357141979362770e+01	 1.003698567254362e+01
0	 4.857141934905159e+01	 2.428571006348117e+01	 1.002101633060013e+01
0	 4.857141934905160e+01	 2.500000000000001e+01	 1.000851724916133e+01
0	 4.857141934905160e+01	 2.571428993651883e+01	 9.999584210969426e+00
0	 4.857141934905160e+01	 2.642858020637231e+01	 9.994312987312291e+00
0	 4.857141934905160e+01	 2.714287114289507e+01	 9.992799338023552e+00
0	 4.857141934905159e+01	 2.785716307942177e+01	 9.995139011482532e+00
0	 4.857141934905160e+01	 2.857145634928703e+01	 1.000142774461447e+01
0	 4.928571188288846e+01	 2.142854365071296e+01	 1.009061336319578e+01
0	 4.928571188288846e+01	 2.214283692057824e+01	 1.006958250046108e+01
0	 4.928571188288846e+01	 2.285712885710494e+01	 1.005246766774696e+01
0	 4.928571188288846e+01	 2.357141979362770e+01	 1.003893306327313e+01
0	 4.928571188288846e+01	 2.428571006348118e+01	 1.002864287728084e+01
0	 4.928571188288845e+01	 2.500000000000000e+01	 1.002126129203275e+01
0	 4.928571188288846e+01	 2.571428993651884e+01	 1.001645248181278e+01
0	 4.928571188288845e+01	 2.642858020637231e+01	 1.001388061292592e+01
0	 4.928571188288846e+01	 2.714287114289507e+01	 1.001320984369819e+01
0	 4.928571188288845e+01	 2.785716307942177e+01	 1.001410432447674e+01
0	 4.928571188288845e+01	 2.857145634928704e+01	 1.001622819762978e+01
0	 5.000000000000001e+01	 2.142854365071296e+01	 1.006464868004684e+01
0	 5.000000000000000e+01	 2.214283692057824e+01	 1.005554078136615e+01
0	 5.000000000000000e+01	 2.285712885710494e+01	 1.005015929693102e+01
0	 5.000000000000000e+01	 2.357141979362770e+01	 1.004763311762076e+01
0	 5.000000000000000e+01	 2.428571006348117e+01	 1.004709113376195e+01
0	 5.000000000000001e+01	 2.500000000000001e+01	 1.004766223512840e+01
0	 5.000000000000001e+01	 2.571428993651884e+01	 1.004847531094085e+01
0	 4.999999999999999e+01	 2.642858020637231e+01	 1.004865924986712e+01
0	 5.000000000000000e+01	 2.714287114289507e+01	 1.004734294002186e+01
0	 4.999999999999999e+01	 2.785716307942177e+01	 1.004365526896656e+01
0	 5.000000000000000e+01	 2.857145634928704e+01	 1.003672512370943e+01
0	 4.285699007784907e+01	 2.857145634928704e+01	 1.000477751794783e+01
0	 4.285699007784908e+01	 2.928575120249185e+01	 9.985184295779039e+00
0	 4.285699007784908e+01	 3.000004755570248e+01	 9.968844195814103e+00
0	 4.285699007784908e+01	 3.071434524225148e+01	 9.955859420237918e+00
0	 4.285699007784907e+01	 3.142864409547143e+01	 9.946332176744820e+00
0	 4.285699007784908e+01	 3.214294394869492e+01	 9.940364678538538e+00
0	 4.285699007784908e+01	 3.285724463525452e+01	 9.938059144332080e+00
0	 4.285699007784908e+01	 3.357154598848280e+01	 9.939517798347609e+00
0	 4.285699007784908e+01	 3.428584784171235e+01	 9.944842870316467e+00
0	 4.285699007784908e+01	 3.500015002827575e+01	 9.954136595479060e+00
0	 4.285699007784907e+01	 3.571445238150555e+01	 9.967501214584875e+00
0	 4.357129694500737e+01	 2.857145634928704e+01	 9.999001698709680e+00
0	 4.357129694500737e+01	 2.928575120249186e+01	 9.980471964022785e+00
0	 4.357129694500736e+01	 3.000004755570248e+01	 9.966057264695738e+00
0	 4.357129694500738e+01	 3.071434524225148e+01	 9.955584422261936e+00
0	 4.357129694500738e+01	 3.142864409547142e+01	 9.948880263046858e+00
0	 4.357129694500737e+01	 3.214294394869492e+01	 9.945771618168052e+00
0	 4.357129694500736e+01	 3.285724463525452e+01	 9.946085323534984e+00
0	 4.357129694500738e+01	 3.357154598848280e+01	 9.949648219848967e+00
0	 4.357129694500738e+01	 3.428584784171235e+01	 9.956287152603165e+00
0	 4.357129694500737e+01	 3.500015002827575e+01	 9.965828972082505e+00
0	 4.357129694500737e+01	 3.571445238150555e+01	 9.978100533363669e+00
0	 4.428560406221392e+01	 2.857145634928704e+01	 9.993367962073370e+00
0	 4.428560406221392e+01	 2.928575120249186e+01	 9.978597336285958e+00
0	 4.428560406221392e+01	 3.000004755570248e+01	 9.967983429105068e+00
0	 4.428560406221393e+01	 3.071434524225148e+01	 9.961153886798842e+00
0	 4.428560406221393e+01	 3.142864409547143e+01	 9.957736359078101e+00
0	 4.428560406221393e+01	 3.214294394869492e+01	 9.957358499096360e+00
0	 4.428560406221393e+01	 3.285724463525452e+01	 9.959647963449621e+00
0	 4.428560406221391e+01	 3.357154598848280e+01	 9.964232412176447e+00
0	 4.428560406221391e+01	 3.428584784171233e+01	 9.970739508757859e+00
0	 4.428560406221391e+01	 3.500015002827573e+01	 9.978796920117336e+00
0	 4.428560406221392e+01	 3.571445238150557e+01	 9.988032316620764e+00
0	 4.499991084612203e+01	 2.857145634928704e+01	 9.988570543916570e+00
0	 4.499991084612202e+01	 2.928575120249186e+01	 9.979236860769365e+00
0	 4.499991084612203e+01	 3.000004755570247e+01	 9.973478523214311e+00
0	 4.499991084612202e+01	 3.071434524225147e+01	 9.970800205418325e+00
0	 4.499991084612203e+01	 3.142864409547143e+01	 9.970706583285564e+00
0	 4.499991084612203e+01	 3.214294394869492e+01	 9.972702334457436e+00
0	 4.499991084612202e+01	 3.285724463525451e+01	 9.976292138312502e+00
0	 4.499991084612203e+01	 3.357154598848279e+01	 9.980980675966515e+00
0	 4.499991084612203e+01	 3.428584784171236e+01	 9.986272630272360e+00
0	 4.499991084612203e+01	 3.500015002827575e+01	 9.991672685820040e+00
0	 4.499991084612202e+01	 3.571445238150555e+01	 9.996685528936688e+00
0	 4.571421671338499e+01	 2.857145634928703e+01	 9.985303698096441e+00
0	 4.571421671338500e+01	 2.928575120249186e+01	 9.982067004535191e+00
0	 4.571421671338499e+01	 3.000004755570248e+01	 9.981398399132068e+00
0	 4.571421671338501e+01	 3.071434524225148e+01	 9.982755785267871e+00
0	 4.571421671338500e+01	 3.142864409547143e+01	 9.985597066275258e+00
0	 4.571421671338500e+01	 3.214294394869492e+01	 9.989380145438734e+00
0	 4.571421671338500e+01	 3.285724463525451e+01	 9.993562925994638e+00
0	 4.571421671338500e+01	 3.357154598848280e+01	 9.997603311131190e+00
0	 4.571421671338501e+01	 3.428584784171235e+01	 1.000095920398840e+01
0	 4.571421671338499e+01	 3.500015002827575e+01	 1.000308850765816e+01
0	 4.571421671338501e+01	 3.571445238150556e+01	 1.000344912518417e+01
0	 4.642852108065615e+01	 2.857145634928704e+01	 9.984261696449652e+00
0	 4.642852108065613e+01	 2.928575120249186e+01	 9.986764253507051e+00
0	 4.642852108065615e+01	 3.000004755570247e+01	 9.990598926903289e+00
0	 4.642852108065613e+01	 3.071434524225148e+01	 9.995253049072719e+00
0	 4.642852108065613e+01	 3.142864409547142e+01	 1.000021395081220e+01
0	 4.642852108065613e+01	 3.214294394869492e+01	 1.000496896128115e+01
0	 4.642852108065615e+01	 3.285724463525451e+01	 1.000900540800153e+01
0	 4.642852108065613e+01	 3.357154598848279e+01	 1.001181061685795e+01
0	 4.642852108065613e+01	 3.428584784171234e+01	 1.001287191209754e+01
0	 4.642852108065613e+01	 3.500015002827575e+01	 1.001167661633014e+01
0	 4.642852108065613e+01	 3.571445238150556e+01	 1.000771205052814e+01
0	 4.714282336458875e+01	 2.857145634928704e+01	 9.986138828792580e+00
0	 4.714282336458874e+01	 2.928575120249186e+01	 9.993005112470174e+00
0	 4.714282336458875e+01	 3.000004755570247e+01	 9.999935994509514e+00
0	 4.714282336458874e+01	 3.071434524225147e+01	 1.000652443513607e+01
0	 4.714282336458874e+01	 3.142864409547143e+01	 1.001236339182056e+01
0	 4.714282336458875e+01	 3.214294394869491e+01	 1.001704581927909e+01
0	 4.714282336458875e+01	 3.285724463525452e+01	 1.002016466947316e+01
0	 4.714282336458874e+01	 3.357154598848280e+01	 1.002131289160970e+01
0	 4.714282336458875e+01	 3.428584784171235e+01	 1.002008343214111e+01
0	 4.714282336458875e+01	 3.500015002827575e+01	 1.001606923476526e+01
0	 4.714282336458874e+01	 3.571445238150555e+01	 1.000886324042553e+01
0	 4.785712298183612e+01	 2.857145634928704e+01	 9.991629402921738e+00
0	 4.785712298183613e+01	 2.928575120249186e+01	 1.000046610507184e+01
0	 4.785712298183612e+01	 3.000004755570247e+01	 1.000826550786926e+01
0	 4.785712298183613e+01	 3.071434524225147e+01	 1.001480239733941e+01
0	 4.785712298183613e+01	 3.142864409547143e+01	 1.001985155638389e+01
0	 4.785712298183613e+01	 3.214294394869492e+01	 1.002318776478065e+01
0	 4.785712298183613e+01	 3.285724463525451e+01	 1.002458579918404e+01
0	 4.785712298183613e+01	 3.357154598848280e+01	 1.002382043312475e+01
0	 4.785712298183613e+01	 3.428584784171235e+01	 1.002066643700998e+01
0	 4.785712298183613e+01	 3.500015002827575e+01	 1.001489857812335e+01
0	 4.785712298183613e+01	 3.571445238150555e+01	 1.000629162062495e+01
0	 4.857141934905160e+01	 2.857145634928703e+01	 1.000142774461447e+01
0	 4.857141934905160e+01	 2.928575120249186e+01	 1.000882377382212e+01
0	 4.857141934905160e+01	 3.000004755570247e+01	 1.001444339083872e+01
0	 4.857141934905160e+01	 3.071434524225148e+01	 1.001831940514311e+01
0	 4.857141934905161e+01	 3.142864409547143e+01	 1.002048462374556e+01
0	 4.857141934905160e+01	 3.214294394869491e+01	 1.002097185118789e+01
0	 4.857141934905160e+01	 3.285724463525450e+01	 1.001981388954332e+01
0	 4.857141934905161e+01	 3.357154598848280e+01	 1.001704353841671e+01
0	 4.857141934905160e+01	 3.428584784171235e+01	 1.001269359494443e+01
0	 4.857141934905160e+01	 3.500015002827575e+01	 1.000679685379444e+01
0	 4.857141934905160e+01	 3.571445238150555e+01	 9.999386107166341e+00
0	 4.928571188288845e+01	 2.857145634928704e+01	 1.001622819762978e+01
0	 4.928571188288846e+01	 2.928575120249186e+01	 1.001775468009481e+01
0	 4.928571188288846e+01	 3.000004755570248e+01	 1.001732558521258e+01
0	 4.928571188288846e+01	 3.071434524225147e+01	 1.001530794358715e+01
0	 4.928571188288846e+01	 3.142864409547142e+01	 1.001206878530940e+01
0	 4.928571188288846e+01	 3.214294394869491e+01	 1.000797513995713e+01
0	 4.928571188288845e+01	 3.285724463525451e+01	 1.000339403659495e+01
0	 4.928571188288846e+01	 3.357154598848280e+01	 9.998692503774375e+00
0	 4.928571188288846e+01	 3.428584784171235e+01	 9.994237569533771e+00
0	 4.928571188288846e+01	 3.500015002827575e+01	 9.990396261398406e+00
0	 4.928571188288846e+01	 3.571445238150555e+01	 9.987535606380410e+00
0	 5.000000000000000e+01	 2.857145634928704e+01	 1.003672512370943e+01
0	 5.000000000000000e+01	 2.928575120249186e+01	 1.002693540412845e+01
0	 4.999999999999999e+01	 3.000004755570248e+01	 1.001576805072515e+01
0	 5.000000000000000e+01	 3.071434524225148e+01	 1.000400051329206e+01
0	 4.999999999999999e+01	 3.142864409547142e+01	 9.992410244640283e+00
0	 5.000000000000000e+01	 3.214294394869492e+01	 9.981774700599498e+00
0	 4.999999999999999e+01	 3.285724463525451e+01	 9.972871340017786e+00
0	 5.000000000000000e+01	 3.357154598848280e+01	 9.966477624761680e+00
0	 4.999999999999999e+01	 3.428584784171235e+01	 9.963371019716096e+00
0	 5.000000000000001e+01	 3.500015002827575e+01	 9.964328992784324e+00
0	 5.000000000000000e+01	 3.571445238150555e+01	 9.970129014887997e+00
0	 4.285699007784907e+01	 3.571445238150555e+01	 9.967501214584875e+00
0	 4.285699007784907e+01	 3.642870477623359e+01	 9.981703114680663e+00
0	 4.285699007784907e+01	 3.714295725428857e+01	 9.993431049497442e+00
0	 4.285699007784908e+01	 3.785720989899839e+01	 1.000266757425126e+01
0	 4.285699007784907e+01	 3.857146279369100e+01	 1.000939524604434e+01
0	 4.285699007784906e+01	 3.928571602169431e+01	 1.001359662386497e+01
0	 4.285699007784908e+01	 3.999996966633628e+01	 1.001525426858755e+01
0	 4.285699007784908e+01	 4.071422381094481e+01	 1.001435074297260e+01
0	 4.285699007784908e+01	 4.142847853884783e+01	 1.001086861166671e+01
0	 4.285699007784908e+01	 4.214273393337328e+01	 1.000479044120257e+01
0	 4.285699007784907e+01	 4.285699007784908e+01	 9.996098799998894e+00
0	 4.357129694500737e+01	 3.571445238150555e+01	 9.978100533363667e+00
0	 4.357129694500738e+01	 3.642870477623360e+01	 9.990194928649611e+00
0	 4.357129694500738e+01	 3.714295725428858e+01	 9.999443071285310e+00
0	 4.357129694500737e+01	 3.785720989899841e+01	 1.000602570131496e+01
0	 4.357129694500735e+01	 3.857146279369100e+01	 1.001012356029543e+01
0	 4.357129694500737e+01	 3.928571602169432e+01	 1.001191739129620e+01
0	 4.357129694500738e+01	 3.999996966633629e+01	 1.001158793889943e+01
0	 4.357129694500738e+01	 4.071422381094482e+01	 1.000931594919988e+01
0	 4.357129694500736e+01	 4.142847853884783e+01	 1.000528216980496e+01
0	 4.357129694500737e+01	 4.214273393337327e+01	 9.999667349834700e+00
0	 4.357129694500737e+01	 4.285699007784908e+01	 9.992652239921734e+00
0	 4.428560406221392e+01	 3.571445238150557e+01	 9.988032316620764e+00
0	 4.428560406221392e+01	 3.642870477623360e+01	 9.996305085590187e+00
0	 4.428560406221393e+01	 3.714295725428858e+01	 1.000193714117461e+01
0	 4.428560406221393e+01	 3.785720989899841e+01	 1.000524791023035e+01
0	 4.428560406221391e+01	 3.857146279369100e+01	 1.000655682052868e+01
0	 4.428560406221392e+01	 3.928571602169433e+01	 1.000618330075589e+01
0	 4.428560406221393e+01	 3.999996966633628e+01	 1.000444678051313e+01
0	 4.428560406221392e+01	 4.071422381094482e+01	 1.000166669031659e+01
0	 4.428560406221393e+01	 4.142847853884784e+01	 9.998162461597360e+00
0	 4.428560406221391e+01	 4.214273393337326e+01	 9.994253526701460e+00
0	 4.428560406221392e+01	 4.285699007784908e+01	 9.990259318889873e+00
0	 4.499991084612202e+01	 3.571445238150555e+01	 9.996685528936688e+00
0	 4.499991084612204e+01	 3.642870477623361e+01	 1.000019858655391e+01
0	 4.499991084612202e+01	 3.714295725428855e+01	 1.000169588921288e+01
0	 4.499991084612204e+01	 3.785720989899841e+01	 1.000157605276240e+01
0	 4.499991084612203e+01	 3.857146279369100e+01	 1.000023769325524e+01
0	 4.499991084612202e+01	 3.928571602169433e+01	 9.998079426948067e+00
0	 4.499991084612203e+01	 3.999996966633629e+01	 9.995499870301481e+00
0	 4.499991084612203e+01	 4.071422381094482e+01	 9.992897639980042e+00
0	 4.499991084612203e+01	 4.142847853884783e+01	 9.990671352852178e+00
0	 4.499991084612203e+01	 4.214273393337327e+01	 9.989219625990261e+00
0	 4.499991084612203e+01	 4.285699007784908e+01	 9.988941076670626e+00
0	 4.571421671338501e+01	 3.571445238150556e+01	 1.000344912518417e+01
0	 4.571421671338500e+01	 3.642870477623360e+01	 1.000204042238838e+01
0	 4.571421671338499e+01	 3.714295725428857e+01	 9.999501936009370e+00
0	 4.571421671338501e+01	 3.785720989899840e+01	 9.996251972973667e+00
0	 4.571421671338499e+01	 3.857146279369100e+01	 9.992708839698219e+00
0	 4.571421671338500e+01	 3.928571602169433e+01	 9.989290842090421e+00
0	 4.571421671338499e+01	 3.999996966633628e+01	 9.986416285548128e+00
0	 4.571421671338499e+01	 4.071422381094482e+01	 9.984503474959585e+00
0	 4.571421671338499e+01	 4.142847853884783e+01	 9.983970714703529e+00
0	 4.571421671338499e+01	 4.214273393337327e+01	 9.985236308649139e+00
0	 4.571421671338501e+01	 4.285699007784908e+01	 9.988718560156013e+00
0	 4.642852108065613e+01	 3.571445238150556e+01	 1.000771205052814e+01
0	 4.642852108065615e+01	 3.642870477623359e+01	 1.000199557373726e+01
0	 4.642852108065614e+01	 3.714295725428858e+01	 9.996137892735019e+00
0	 4.642852108065614e+01	 3.785720989899841e+01	 9.990517507224162e+00
0	 4.642852108065615e+01	 3.857146279369100e+01	 9.985512915792750e+00
0	 4.642852108065613e+01	 3.928571602169432e+01	 9.981502615914259e+00
0	 4.642852108065615e+01	 3.999996966633629e+01	 9.978865103947500e+00
0	 4.642852108065613e+01	 4.071422381094482e+01	 9.977978875136701e+00
0	 4.642852108065613e+01	 4.142847853884783e+01	 9.979222423611438e+00
0	 4.642852108065613e+01	 4.214273393337327e+01	 9.982974242386700e+00
0	 4.642852108065613e+01	 4.285699007784907e+01	 9.989612823362897e+00
0	 4.714282336458874e+01	 3.571445238150555e+01	 1.000886324042553e+01
0	 4.714282336458876e+01	 3.642870477623361e+01	 1.000022901104008e+01
0	 4.714282336458874e+01	 3.714295725428858e+01	 9.992386361122291e+00
0	 4.714282336458875e+01	 3.785720989899841e+01	 9.985614484171304e+00
0	 4.714282336458874e+01	 3.857146279369099e+01	 9.980192572185899e+00
0	 4.714282336458874e+01	 3.928571602169432e+01	 9.976399815664440e+00
0	 4.714282336458874e+01	 3.999996966633628e+01	 9.974515403604947e+00
0	 4.714282336458876e+01	 4.071422381094482e+01	 9.974818523504979e+00
0	 4.714282336458874e+01	 4.142847853884784e+01	 9.977588361361818e+00
0	 4.714282336458874e+01	 4.214273393337327e+01	 9.983104101672298e+00
0	 4.714282336458875e+01	 4.285699007784908e+01	 9.991644927432988e+00
0	 4.785712298183613e+01	 3.571445238150555e+01	 1.000629162062495e+01
0	 4.785712298183611e+01	 3.642870477623359e+01	 9.996905694531963e+00
0	 4.785712298183613e+01	 3.714295725428857e+01	 9.989029933464845e+00
0	 4.785712298183612e+01	 3.785720989899840e+01	 9.982784724769656e+00
0	 4.785712298183613e+01	 3.857146279369100e+01	 9.978290454236456e+00
0	 4.785712298183613e+01	 3.928571602169433e+01	 9.975667506099386e+00
0	 4.785712298183613e+01	 3.999996966633628e+01	 9.975036263036612e+00
0	 4.785712298183613e+01	 4.071422381094481e+01	 9.976517106170315e+00
0	 4.785712298183612e+01	 4.142847853884783e+01	 9.980230415066741e+00
0	 4.785712298183613e+01	 4.214273393337328e+01	 9.986296567736190e+00
0	 4.785712298183613e+01	 4.285699007784907e+01	 9.994835940633099e+00
0	 4.857141934905160e+01	 3.571445238150555e+01	 9.999386107166337e+00
0	 4.857141934905159e+01	 3.642870477623359e+01	 9.992190574243171e+00
0	 4.857141934905160e+01	 3.714295725428857e+01	 9.986851192617248e+00
0	 4.857141934905160e+01	 3.785720989899839e+01	 9.983270042270611e+00
0	 4.857141934905159e+01	 3.857146279369100e+01	 9.981349202014822e+00
0	 4.857141934905158e+01	 3.928571602169432e+01	 9.980990749490928e+00
0	 4.857141934905160e+01	 3.999996966633628e+01	 9.982096761169583e+00
0	 4.857141934905160e+01	 4.071422381094482e+01	 9.984569312350903e+00
0	 4.857141934905160e+01	 4.142847853884783e+01	 9.988310477164575e+00
0	 4.857141934905161e+01	 4.214273393337328e+01	 9.993222328569839e+00
0	 4.857141934905160e+01	 4.285699007784908e+01	 9.999206938355510e+00
0	 4.928571188288846e+01	 3.571445238150555e+01	 9.987535606380410e+00
0	 4.928571188288846e+01	 3.642870477623359e+01	 9.986248589998601e+00
0	 4.928571188288846e+01	 3.714295725428857e+01	 9.986632711994439e+00
0	 4.928571188288846e+01	 3.785720989899840e+01	 9.988312242222090e+00
0	 4.928571188288846e+01	 3.857146279369100e+01	 9.990911450302637e+00
0	 4.928571188288846e+01	 3.928571602169433e+01	 9.994054605624193e+00
0	 4.928571188288846e+01	 3.999996966633628e+01	 9.997365977341818e+00
0	 4.928571188288846e+01	 4.071422381094481e+01	 1.000046983437752e+01
0	 4.928571188288846e+01	 4.142847853884783e+01	 1.000299044542034e+01
0	 4.928571188288846e+01	 4.214273393337328e+01	 1.000455207892624e+01
0	 4.928571188288846e+01	 4.285699007784908e+01	 1.000477900311818e+01
0	 5.000000000000000e+01	 3.571445238150555e+01	 9.970129014887993e+00
0	 4.999999999999998e+01	 3.642870477623359e+01	 9.979244671417092e+00
0	 5.000000000000000e+01	 3.714295725428858e+01	 9.989157055571084e+00
0	 5.000000000000001e+01	 3.785720989899839e+01	 9.999153122467856e+00
0	 5.000000000000001e+01	 3.857146279369101e+01	 1.000851982859253e+01
0	 5.000000000000000e+01	 3.928571602169433e+01	 1.001654413179746e+01
0	 5.000000000000000e+01	 3.999996966633629e+01	 1.002251299130223e+01
0	 5.000000000000001e+01	 4.071422381094481e+01	 1.002571336769373e+01
0	 4.999999999999999e+01	 4.142847853884783e+01	 1.002543222292601e+01
0	 5.000000000000000e+01	 4.214273393337328e+01	 1.002095652032037e+01
0	 5.000000000000001e+01	 4.285699007784908e+01	 1.001157322456530e+01
0	 4.285699007784907e+01	 4.285699007784908e+01	 9.996098799998894e+00
0	 4.285699007784908e+01	 4.357129694500737e+01	 9.987521220242517e+00
0	 4.285699007784906e+01	 4.428560406221393e+01	 9.981785248828080e+00
0	 4.285699007784908e+01	 4.499991084612203e+01	 9.978871386947219e+00
0	 4.285699007784908e+01	 4.571421671338501e+01	 9.978760149499344e+00
0	 4.285699007784907e+01	 4.642852108065613e+01	 9.981432065091656e+00
0	 4.285699007784908e+01	 4.714282336458876e+01	 9.986867676039417e+00
0	 4.285699007784908e+01	 4.785712298183613e+01	 9.995047538366347e+00
0	 4.285699007784908e+01	 4.857141934905160e+01	 1.000595222180517e+01
0	 4.285699007784908e+01	 4.928571188288846e+01	 1.001956230979843e+01
0	 4.285699007784908e+01	 5.000000000000001e+01	 1.003585839949916e+01
0	 4.357129694500737e+01	 4.285699007784908e+01	 9.992652239921734e+00
0	 4.357129694500738e+01	 4.357129694500737e+01	 9.986467303588896e+00
0	 4.357129694500736e+01	 4.428560406221393e+01	 9.983042647024064e+00
0	 4.357129694500738e+01	 4.499991084612203e+01	 9.982106886041745e+00
0	 4.357129694500736e+01	 4.571421671338500e+01	 9.983388646697957e+00
0	 4.357129694500736e+01	 4.642852108065613e+01	 9.986616565290332e+00
0	 4.357129694500738e+01	 4.714282336458875e+01	 9.991519288358148e+00
0	 4.357129694500737e+01	 4.785712298183613e+01	 9.997825472682788e+00
0	 4.357129694500737e+01	 4.857141934905162e+01	 1.000526378528807e+01
0	 4.357129694500738e+01	 4.928571188288846e+01	 1.001356290344076e+01
0	 4.357129694500737e+01	 4.999999999999999e+01	 1.002245151465141e+01
0	 4.428560406221392e+01	 4.285699007784908e+01	 9.990259318889871e+00
0	 4.428560406221392e+01	 4.357129694500737e+01	 9.987533416784018e+00
0	 4.428560406221393e+01	 4.428560406221393e+01	 9.986924324444672e+00
0	 4.428560406221391e+01	 4.499991084612203e+01	 9.987993042287647e+00
0	 4.428560406221392e+01	 4.571421671338499e+01	 9.990300575698880e+00
0	 4.428560406221393e+01	 4.642852108065613e+01	 9.993407935034590e+00
0	 4.428560406221392e+01	 4.714282336458875e+01	 9.996876135621292e+00
0	 4.428560406221393e+01	 4.785712298183614e+01	 1.000026619775596e+01
0	 4.428560406221393e+01	 4.857141934905160e+01	 1.000313914670619e+01
0	 4.428560406221391e+01	 4.928571188288846e+01	 1.000505601271053e+01
0	 4.428560406221392e+01	 5.000000000000001e+01	 1.000557783097873e+01
0	 4.499991084612203e+01	 4.285699007784908e+01	 9.988941076670628e+00
0	 4.499991084612203e+01	 4.357129694500738e+01	 9.990112664060289e+00
0	 4.499991084612203e+01	 4.428560406221393e+01	 9.992397310261813e+00
0	 4.499991084612203e+01	 4.499991084612203e+01	 9.995272668866107e+00
0	 4.499991084612203e+01	 4.571421671338501e+01	 9.998216392346977e+00
0	 4.499991084612203e+01	 4.642852108065615e+01	 1.000070613206115e+01
0	 4.499991084612203e+01	 4.714282336458874e+01	 1.000221953824822e+01
0	 4.499991084612203e+01	 4.785712298183613e+01	 1.000223426003072e+01
0	 4.499991084612203e+01	 4.857141934905160e+01	 1.000022794541390e+01
0	 4.499991084612202e+01	 4.928571188288844e+01	 9.995678241285830e+00
0	 4.499991084612202e+01	 5.000000000000000e+01	 9.988062793417177e+00
0	 4.571421671338501e+01	 4.285699007784908e+01	 9.988718560156013e+00
0	 4.571421671338499e+01	 4.357129694500737e+01	 9.993598155894219e+00
0	 4.571421671338499e+01	 4.428560406221391e+01	 9.998428638061439e+00
0	 4.571421671338499e+01	 4.499991084612203e+01	 1.000268858100593e+01
0	 4.571421671338499e+01	 4.571421671338497e+01	 1.000585655204471e+01
0	 4.571421671338500e+01	 4.642852108065614e+01	 1.000741111146349e+01
0	 4.571421671338501e+01	 4.714282336458874e+01	 1.000683081251667e+01
0	 4.571421671338499e+01	 4.785712298183611e+01	 1.000359420142699e+01
0	 4.571421671338501e+01	 4.857141934905160e+01	 9.997179817385332e+00
0	 4.571421671338501e+01	 4.928571188288847e+01	 9.987066192550335e+00
0	 4.571421671338500e+01	 4.999999999999999e+01	 9.972731852047907e+00
0	 4.642852108065613e+01	 4.285699007784907e+01	 9.989612823362899e+00
0	 4.642852108065613e+01	 4.357129694500737e+01	 9.997383009006509e+00
0	 4.642852108065613e+01	 4.428560406221392e+01	 1.000398534584366e+01
0	 4.642852108065614e+01	 4.499991084612203e+01	 1.000898359598352e+01
0	 4.642852108065614e+01	 4.571421671338501e+01	 1.001194150975206e+01
0	 4.642852108065614e+01	 4.642852108065614e+01	 1.001242282569200e+01
0	 4.642852108065613e+01	 4.714282336458874e+01	 1.000999127056270e+01
0	 4.642852108065613e+01	 4.785712298183613e+01	 1.000421055933974e+01
0	 4.642852108065614e+01	 4.857141934905159e+01	 9.994644395214419e+00
0	 4.642852108065613e+01	 4.928571188288846e+01	 9.980856469593251e+00
0	 4.642852108065614e+01	 5.000000000000001e+01	 9.962410462097077e+00
0	 4.714282336458875e+01	 4.285699007784908e+01	 9.991644927432988e+00
0	 4.714282336458875e+01	 4.357129694500738e+01	 1.000086034636203e+01
0	 4.714282336458875e+01	 4.428560406221391e+01	 1.000803447602274e+01
0	 4.714282336458875e+01	 4.499991084612203e+01	 1.001290053312294e+01
0	 4.714282336458874e+01	 4.571421671338501e+01	 1.001519171998653e+01
0	 4.714282336458875e+01	 4.642852108065614e+01	 1.001464122455377e+01
0	 4.714282336458874e+01	 4.714282336458875e+01	 1.001098222038066e+01
0	 4.714282336458874e+01	 4.785712298183613e+01	 1.000394786663883e+01
0	 4.714282336458874e+01	 4.857141934905159e+01	 9.993271308114828e+00
0	 4.714282336458875e+01	 4.928571188288847e+01	 9.978685675209327e+00
0	 4.714282336458874e+01	 4.999999999999999e+01	 9.959924083936320e+00
0	 4.785712298183613e+01	 4.285699007784907e+01	 9.994835940633102e+00
0	 4.785712298183613e+01	 4.357129694500738e+01	 1.000342329717013e+01
0	 4.785712298183613e+01	 4.428560406221392e+01	 1.000954307542730e+01
0	 4.785712298183613e+01	 4.499991084612203e+01	 1.001318221379590e+01
0	 4.785712298183613e+01	 4.571421671338499e+01	 1.001432763682322e+01
0	 4.785712298183612e+01	 4.642852108065613e+01	 1.001296625521261e+01
0	 4.785712298183613e+01	 4.714282336458874e+01	 1.000908496582307e+01
0	 4.785712298183613e+01	 4.785712298183613e+01	 1.000267065166909e+01
0	 4.785712298183613e+01	 4.857141934905160e+01	 9.993710181919909e+00
0	 4.785712298183613e+01	 4.928571188288846e+01	 9.982190411898898e+00
0	 4.785712298183613e+01	 5.000000000000000e+01	 9.968098183082603e+00
0	 4.857141934905160e+01	 4.285699007784908e+01	 9.999206938355512e+00
0	 4.857141934905160e+01	 4.357129694500738e+01	 1.000446499688483e+01
0	 4.857141934905159e+01	 4.428560406221392e+01	 1.000747819530040e+01
0	 4.857141934905160e+01	 4.499991084612203e+01	 1.000857146142194e+01
0	 4.857141934905160e+01	 4.571421671338500e+01	 1.000806971389463e+01
0	 4.857141934905160e+01	 4.642852108065614e+01	 1.000629786218887e+01
0	 4.857141934905160e+01	 4.714282336458874e+01	 1.000358080660040e+01
0	 4.857141934905160e+01	 4.785712298183613e+01	 1.000024343824984e+01
0	 4.857141934905160e+01	 4.857141934905160e+01	 9.996610639082494e+00
0	 4.857141934905161e+01	 4.928571188288846e+01	 9.993007281867795e+00
0	 4.857141934905160e+01	 5.000000000000000e+01	 9.989758230198706e+00
0	 4.928571188288846e+01	 4.285699007784908e+01	 1.000477900311818e+01
0	 4.928571188288846e+01	 4.357129694500737e+01	 1.000337858720511e+01
0	 4.928571188288845e+01	 4.428560406221392e+01	 1.000080689129981e+01
0	 4.928571188288846e+01	 4.499991084612203e+01	 9.997811101468493e+00
0	 4.928571188288845e+01	 4.571421671338499e+01	 9.995138404390719e+00
0	 4.928571188288846e+01	 4.642852108065613e+01	 9.993535987359401e+00
0	 4.928571188288846e+01	 4.714282336458875e+01	 9.993751038280857e+00
0	 4.928571188288846e+01	 4.785712298183613e+01	 9.996530745674892e+00
0	 4.928571188288846e+01	 4.857141934905161e+01	 1.000262229867478e+01
0	 4.928571188288846e+01	 4.928571188288846e+01	 1.001277288702742e+01
0	 4.928571188288846e+01	 5.000000000000000e+01	 1.002772970109328e+01
0	 5.000000000000001e+01	 4.285699007784908e+01	 1.001157322456530e+01
0	 4.999999999999999e+01	 4.357129694500737e+01	 9.999557216075393e+00
0	 5.000000000000001e+01	 4.428560406221392e+01	 9.988496223498350e+00
0	 5.000000000000000e+01	 4.499991084612202e+01	 9.979643961450927e+00
0	 4.999999999999999e+01	 4.571421671338500e+01	 9.974254161058919e+00
0	 5.000000000000001e+01	 4.642852108065614e+01	 9.973580569957203e+00
0	 4.999999999999999e+01	 4.714282336458874e+01	 9.978876952290170e+00
0	 5.000000000000000e+01	 4.785712298183613e+01	 9.991397088712109e+00
0	 5.000000000000000e+01	 4.857141934905160e+01	 1.001239477638813e+01
0	 5.000000000000000e+01	 4.928571188288846e+01	 1.004312382899475e+01
0	 5.000000000000000e+01	 5.000000000000000e+01	 1.008483807672140e+01
1	 1.000000000000000e+00	 0.000000000000000e+00	 2.277209694505414e+02
1	 9.998426119581704e-01	 1.774123198744521e-02	 2.016484895172347e+02
1	 9.993659466402713e-01	 3.560484089073321e-02	 1.746423042072180e+02
1	 9.985633751090949e-01	 5.358344789747921e-02	 1.466973003019486e+02
1	 9.974284469032259e-01	 7.166933308134273e-02	 1.178104673219808e+02
1	 9.959549086084808e-01	 8.985443791194039e-02	 8.798101841494616e+01
1	 9.941367226520526e-01	 1.081303688402291e-01	 5.721050816096037e+01
1	 9.919680862544972e-01	 1.264884019976692e-01	 2.550294642054060e+01
1	 9.894434504702301e-01	 1.449194890435835e-01	-7.135092679659323e+00
1	 9.865575392429453e-01	 1.634142641907508e-01	-4.069436755164885e+01
1	 9.833053683983746e-01	 1.819630524344169e-01	-7.516287268660132e+01
1	 1.012500000000000e+00	 0.000000000000000e+00	 2.290607763436921e+02
1	 1.012340644607676e+00	 1.796299738536411e-02	 2.022452203492673e+02
1	 1.011858020973390e+00	 3.604990139831822e-02	 1.744650630440077e+02
1	 1.011045417298220e+00	 5.425324099133014e-02	 1.457384261883028e+02
1	 1.009896302489983e+00	 7.256519973898737e-02	 1.160864784787962e+02
1	 1.008404344966822e+00	 9.097761837928382e-02	 8.553350823060620e+01
1	 1.006563431686269e+00	 1.094819984438203e-01	 5.410698615728155e+01
1	 1.004367687334138e+00	 1.280695070157070e-01	 2.183761730734806e+01
1	 1.001811493603026e+00	 1.467309826500149e-01	-1.124061876541154e+01
1	 9.988895084859243e-01	 1.654569424871888e-01	-4.509044049283099e+01
1	 9.955966855063876e-01	 1.842375905849211e-01	-7.967125030117319e+01
1	 1.025000000000000e+00	 0.000000000000000e+00	 2.281554353694110e+02
1	 1.024838677257182e+00	 1.818476278346252e-02	 2.008891095458474e+02
1	 1.024350095306508e+00	 3.649496190623553e-02	 1.726287958499296e+02
1	 1.023527459487344e+00	 5.492303408563875e-02	 1.434154343485083e+02
1	 1.022364158076741e+00	 7.346106639718697e-02	 1.132939399830472e+02
1	 1.020853781325163e+00	 9.210079884725078e-02	 8.231322773045889e+01
1	 1.018990140720485e+00	 1.108336280480742e-01	 5.052622114209295e+01
1	 1.016767288413778e+00	 1.296506120344168e-01	 1.798984325465822e+01
1	 1.014179536735822e+00	 1.485424762570972e-01	-1.523501106746282e+01
1	 1.011221477728904e+00	 1.674996207842254e-01	-4.908352222014667e+01
1	 1.007888002614400e+00	 1.865121287359399e-01	-8.348701314709362e+01
1	 1.037500000000000e+00	 0.000000000000000e+00	 2.250860964499946e+02
1	 1.037336709906687e+00	 1.840652818174046e-02	 1.976507417439600e+02
1	 1.036842169639627e+00	 3.694002241448514e-02	 1.691934674209954e+02
1	 1.036009501676469e+00	 5.559282718040499e-02	 1.397776302423906e+02
1	 1.034832013663499e+00	 7.435693305594146e-02	 1.094714741112764e+02
1	 1.033303217683504e+00	 9.322397931584123e-02	 7.834810837171456e+01
1	 1.031416849754700e+00	 1.121852576529908e-01	 4.648546286284937e+01
1	 1.029166889493419e+00	 1.312317170537988e-01	 1.396621865793445e+01
1	 1.026547579868618e+00	 1.503539698648304e-01	-1.912228646951929e+01
1	 1.023553446971883e+00	 1.695422990818606e-01	-5.268817868108442e+01
1	 1.020179319722413e+00	 1.887866668874734e-01	-8.663519549316861e+01
1	 1.050000000000000e+00	 0.000000000000000e+00	 2.199300452258902e+02
1	 1.049834742556193e+00	 1.862829358019793e-02	 1.925973404075227e+02
1	 1.049334243972746e+00	 3.738508292306705e-02	 1.642161870868266e+02
1	 1.048491543865594e+00	 5.626262027562888e-02	 1.348719714507924e+02
1	 1.047299869250256e+00	 7.525279971525092e-02	 1.046558639840328e+02
1	 1.045752654041845e+00	 9.434715978505519e-02	 7.366475154220777e+01
1	 1.043843558788917e+00	 1.135368872585703e-01	 4.200113965046435e+01
1	 1.041566490573060e+00	 1.328128220738529e-01	 9.773023893808379e+00
1	 1.038915623001414e+00	 1.521654634732144e-01	-2.290627057510917e+01
1	 1.035885416214862e+00	 1.715849773800943e-01	-5.591828220657590e+01
1	 1.032470636830427e+00	 1.910612050395216e-01	-8.913963950014146e+01
1	 1.062500000000000e+00	 0.000000000000000e+00	 2.127609303663824e+02
1	 1.062332775205699e+00	 1.885005897883492e-02	 1.857929655434409e+02
1	 1.061826318305864e+00	 3.783014343198125e-02	 1.577513766792601e+02
1	 1.060973586054718e+00	 5.693241337131042e-02	 1.287432057860981e+02
1	 1.059767724837014e+00	 7.614866637511535e-02	 9.888216175151712e+01
1	 1.058202090400185e+00	 9.547034025489266e-02	 6.828850679977131e+01
1	 1.056270267823133e+00	 1.148885168648125e-01	 3.708890673792980e+01
1	 1.053966091652700e+00	 1.343939270945790e-01	 5.416243791775438e+00
1	 1.051283666134210e+00	 1.539769570822494e-01	-2.659060895935790e+01
1	 1.048217385457841e+00	 1.736276556789267e-01	-5.878705231197035e+01
1	 1.044761953938439e+00	 1.933357431920845e-01	-9.102306534469795e+01
1	 1.075000000000000e+00	 0.000000000000000e+00	 2.036489750213970e+02
1	 1.074830807855204e+00	 1.907182437765143e-02	 1.772986976235218e+02
1	 1.074318392638983e+00	 3.827520394122774e-02	 1.498509267822154e+02
1	 1.073455628243843e+00	 5.760220646744962e-02	 1.214339997671419e+02
1	 1.072235580423771e+00	 7.704453303553466e-02	 9.218378923139024e+01
1	 1.070651526758527e+00	 9.659352072535370e-02	 6.224354465304940e+01
1	 1.068696976857348e+00	 1.162401464717175e-01	 3.176369120786957e+01
1	 1.066365692732341e+00	 1.359750321159773e-01	 9.015848171681740e-01
1	 1.063651709267006e+00	 1.557884506919352e-01	-3.017877763575601e+01
1	 1.060549354700821e+00	 1.756703339783577e-01	-6.130709365142970e+01
1	 1.057053271046452e+00	 1.956102813451620e-01	-9.230713645109898e+01
1	 1.087500000000000e+00	 0.000000000000000e+00	 1.926611736904210e+02
1	 1.087328840504711e+00	 1.929358977664748e-02	 1.671728088221165e+02
1	 1.086810466972101e+00	 3.872026445080654e-02	 1.405643422057081e+02
1	 1.085937670432968e+00	 5.827199956404649e-02	 1.129850582337763e+02
1	 1.084703436010529e+00	 7.794039969650891e-02	 8.459263160604482e+01
1	 1.083100963116868e+00	 9.771670119643823e-02	 5.555292432294489e+01
1	 1.081123685891564e+00	 1.175917760792853e-01	 2.603973384026148e+01
1	 1.078765293811981e+00	 1.375561371380476e-01	-3.765508930903333e+00
1	 1.076019752399802e+00	 1.575999443022719e-01	-3.367409280108054e+01
1	 1.072881323943800e+00	 1.777130122783873e-01	-6.349043135477872e+01
1	 1.069344588154466e+00	 1.978848194987542e-01	-9.301252022407941e+01
1	 1.100000000000000e+00	 0.000000000000000e+00	 1.798614756685429e+02
1	 1.099826873154216e+00	 1.951535517582304e-02	 1.554709225784705e+02
1	 1.099302541305220e+00	 3.916532496071764e-02	 1.299388775411813e+02
1	 1.098419712622092e+00	 5.894179266110097e-02	 1.034352358059029e+02
1	 1.097171291597287e+00	 7.883626635803816e-02	 7.613912473142551e+01
1	 1.095550399475209e+00	 9.883988166814628e-02	 4.823865688396706e+01
1	 1.093550394925780e+00	 1.189434056875159e-01	 1.993062810690557e+01
1	 1.091164894891622e+00	 1.391372421607900e-01	-8.579840812380013e+00
1	 1.088387795532598e+00	 1.594114379132595e-01	-3.707971991589026e+01
1	 1.085213293186779e+00	 1.797556905790154e-01	-6.534854395502467e+01
1	 1.081635905262479e+00	 2.001593576528611e-01	-9.315894464086817e+01
1	 1.112500000000000e+00	 0.000000000000000e+00	 1.653109561253449e+02
1	 1.112324905803722e+00	 1.973712057517813e-02	 1.422461624020614e+02
1	 1.111794615638338e+00	 3.961038547096103e-02	 1.180196635782766e+02
1	 1.110901754811217e+00	 5.961158575861313e-02	 9.282164082841089e+01
1	 1.109639147184044e+00	 7.973213302012230e-02	 6.685233655986175e+01
1	 1.107999835833550e+00	 9.996306214047786e-02	 4.032176414886020e+01
1	 1.105977103959996e+00	 1.202950352964092e-01	 1.344935653705178e+01
1	 1.103564495971262e+00	 1.407183471842045e-01	-1.353644774405927e+01
1	 1.100755838665393e+00	 1.612229315248979e-01	-4.039868217285279e+01
1	 1.097545262429758e+00	 1.817983688802421e-01	-6.689239409604392e+01
1	 1.093927222370492e+00	 2.024338958074826e-01	-9.276525102801489e+01
1	 1.125000000000000e+00	 0.000000000000000e+00	 1.490679757785353e+02
1	 1.124822938453228e+00	 1.995888597471274e-02	 1.275492907575814e+02
1	 1.124286689971457e+00	 4.005544598153672e-02	 1.048498252938185e+02
1	 1.123383797000342e+00	 6.028137885658293e-02	 8.117973238645361e+01
1	 1.122107002770802e+00	 8.062799968276138e-02	 5.676004313471201e+01
1	 1.120449272191891e+00	 1.010862426134330e-01	 3.182233362758998e+01
1	 1.118403812994212e+00	 1.216466649059652e-01	 6.608324658653066e+00
1	 1.115964097050903e+00	 1.422994522082910e-01	-1.863058722421499e+01
1	 1.113123881798189e+00	 1.630344251371873e-01	-4.363386840051613e+01
1	 1.109877231672737e+00	 1.838410471820675e-01	-6.813245719308976e+01
1	 1.106218539478505e+00	 2.047084339626188e-01	-9.184944331976253e+01
1	 9.833053683983746e-01	 1.819630524344169e-01	-7.516287268660132e+01
1	 9.796822644935034e-01	 2.005558790047255e-01	-7.277845021354200e+01
1	 9.756838834365029e-01	 2.191824800562895e-01	-7.049214549672647e+01
1	 9.713062287906588e-01	 2.378323146029681e-01	-6.824472578432155e+01
1	 9.665456696731551e-01	 2.564945776994924e-01	-6.597447801605036e+01
1	 9.613989581557346e-01	 2.751582148638952e-01	-6.361736225970050e+01
1	 9.558632460744549e-01	 2.938119377279353e-01	-6.110718352913590e+01
1	 9.499361011546518e-01	 3.124442408950446e-01	-5.837578173372921e+01
1	 9.436155223571460e-01	 3.310434199775670e-01	-5.535323935091730e+01
1	 9.368999543523497e-01	 3.495975907771368e-01	-5.196810625075321e+01
1	 9.297883010302649e-01	 3.680947095640363e-01	-4.814764093554233e+01
1	 9.955966855063876e-01	 1.842375905849211e-01	-7.967125030117319e+01
1	 9.919282928033321e-01	 2.030628274885299e-01	-7.692596819465609e+01
1	 9.878799319837496e-01	 2.219222610543536e-01	-7.419258076004265e+01
1	 9.834475566554662e-01	 2.408052185339226e-01	-7.142514483562786e+01
1	 9.786274905496307e-01	 2.597007599201509e-01	-6.857589922253857e+01
1	 9.734164451388825e-01	 2.785976925500452e-01	-6.559538609288433e+01
1	 9.678115366572296e-01	 2.974845869507597e-01	-6.243258630862395e+01
1	 9.618103024265737e-01	 3.163497939082676e-01	-5.903506843346933e+01
1	 9.554107163947458e-01	 3.351814627300659e-01	-5.534915109903197e+01
1	 9.486112037905381e-01	 3.539675606653077e-01	-5.132007826198774e+01
1	 9.414106548025766e-01	 3.726958934376526e-01	-4.689220676259207e+01
1	 1.007888002614400e+00	 1.865121287359399e-01	-8.348701314709362e+01
1	 1.004174321113151e+00	 2.055697759727489e-01	-8.054693787971330e+01
1	 1.000075980530958e+00	 2.246620420527318e-01	-7.753502532494259e+01
1	 9.955888845201883e-01	 2.437781224650910e-01	-7.441837865899602e+01
1	 9.907093114259543e-01	 2.629069421409228e-01	-7.116293362086039e+01
1	 9.854339321217915e-01	 2.820371702362078e-01	-6.773354836687984e+01
1	 9.797598272396584e-01	 3.011572361734960e-01	-6.409410283402323e+01
1	 9.736845036980223e-01	 3.202553469213019e-01	-6.020760742625351e+01
1	 9.672059104317243e-01	 3.393195054822754e-01	-5.603632075386251e+01
1	 9.603224532279363e-01	 3.583375305530889e-01	-5.154187606905435e+01
1	 9.530330085739085e-01	 3.772970773107793e-01	-4.668541595337430e+01
1	 1.020179319722413e+00	 1.887866668874734e-01	-8.663519549316861e+01
1	 1.016420349422961e+00	 2.080767244573826e-01	-8.366039113489215e+01
1	 1.012272029078130e+00	 2.274018230514244e-01	-8.053241861431096e+01
1	 1.007730212384825e+00	 2.467510263964731e-01	-7.723119298560120e+01
1	 1.002791132302125e+00	 2.661131243618078e-01	-7.373610121617342e+01
1	 9.974514191044608e-01	 2.854766479223831e-01	-7.002606094532037e+01
1	 9.917081178217403e-01	 3.048298853961441e-01	-6.607958441578519e+01
1	 9.855587049689970e-01	 3.241608999341473e-01	-6.187484742447063e+01
1	 9.790011044680813e-01	 3.434575482341956e-01	-5.738976308999666e+01
1	 9.720337026645446e-01	 3.627075004404805e-01	-5.260206018554830e+01
1	 9.646553623442610e-01	 3.818982611834161e-01	-4.748936573597717e+01
1	 1.032470636830427e+00	 1.910612050395216e-01	-8.913963950014146e+01
1	 1.028666377732762e+00	 2.105836729424308e-01	-8.628445354701199e+01
1	 1.024468077625263e+00	 2.301416040504314e-01	-8.319708388802648e+01
1	 1.019871540249377e+00	 2.497239303280692e-01	-7.987003136893830e+01
1	 1.014872953178144e+00	 2.693193065828061e-01	-7.629589725148477e+01
1	 1.009468906086891e+00	 2.889161256085709e-01	-7.246741131738428e+01
1	 1.003656408403476e+00	 3.085025346187041e-01	-6.837746087339440e+01
1	 9.974329062394982e-01	 3.280664529468040e-01	-6.401912053516712e+01
1	 9.907962985038169e-01	 3.475955909858267e-01	-5.938568265467053e+01
1	 9.837449521003627e-01	 3.670774703274826e-01	-5.447068824347387e+01
1	 9.762777161136343e-01	 3.864994450555633e-01	-4.926795823239677e+01
1	 1.044761953938439e+00	 1.933357431920845e-01	-9.102306534469795e+01
1	 1.040912406042553e+00	 2.130906214278937e-01	-8.843639773408425e+01
1	 1.036664126172359e+00	 2.328813850497527e-01	-8.554076448784569e+01
1	 1.032012868113843e+00	 2.526968342598790e-01	-8.234103413645025e+01
1	 1.026954774054010e+00	 2.725254888039177e-01	-7.884279366424771e+01
1	 1.021486393069082e+00	 2.923556032947711e-01	-7.505234638452752e+01
1	 1.015604698984865e+00	 3.121751838411760e-01	-7.097670650542503e+01
1	 1.009307107509526e+00	 3.319720059592721e-01	-6.662359029565459e+01
1	 1.002591492538931e+00	 3.517336337371683e-01	-6.200140378114207e+01
1	 9.954562015353910e-01	 3.714474402140948e-01	-5.711922692745644e+01
1	 9.879000698820278e-01	 3.911006289272207e-01	-5.198679428830714e+01
1	 1.057053271046452e+00	 1.956102813451620e-01	-9.230713645109898e+01
1	 1.053158434352335e+00	 2.155975699137711e-01	-9.013269293652327e+01
1	 1.048860174719417e+00	 2.356211660493882e-01	-8.757465755357316e+01
1	 1.044154195978224e+00	 2.556697381919028e-01	-8.465005601894993e+01
1	 1.039036594929724e+00	 2.757316710251425e-01	-8.137724044133611e+01
1	 1.033503880051033e+00	 2.957950809809841e-01	-7.777585737837418e+01
1	 1.027552989565909e+00	 3.158478330635599e-01	-7.386680843377957e+01
1	 1.021181308779080e+00	 3.358775589715513e-01	-6.967220333454030e+01
1	 1.014386686573424e+00	 3.558716764882207e-01	-6.521530548485207e+01
1	 1.007167450969629e+00	 3.758174101003176e-01	-6.052047005307656e+01
1	 9.995224236494423e-01	 3.957018127983884e-01	-5.561307471005493e+01
1	 1.069344588154466e+00	 1.978848194987542e-01	-9.301252022407941e+01
1	 1.065404462662107e+00	 2.181045184000633e-01	-9.138905118827357e+01
1	 1.061056223266437e+00	 2.383609470493381e-01	-8.930944541397913e+01
1	 1.056295523842520e+00	 2.586426421241405e-01	-8.680268256422013e+01
1	 1.051118415805285e+00	 2.789378532464805e-01	-8.389966688057173e+01
1	 1.045521367032745e+00	 2.992345586672095e-01	-8.063316581875264e+01
1	 1.039501280146605e+00	 3.195204822858554e-01	-7.703773713108323e+01
1	 1.033055510048160e+00	 3.397831119836419e-01	-7.314964436647993e+01
1	 1.026181880607295e+00	 3.600097192389838e-01	-6.900676084950474e+01
1	 1.018878700403077e+00	 3.801873799861507e-01	-6.464846229497680e+01
1	 1.011144777415877e+00	 4.003029966690664e-01	-6.011550831289649e+01
1	 1.081635905262479e+00	 2.001593576528611e-01	-9.315894464086817e+01
1	 1.077650490971870e+00	 2.206114668867699e-01	-9.222047033990518e+01
1	 1.073252271813420e+00	 2.411007280496023e-01	-9.075532483742663e+01
1	 1.068436851706730e+00	 2.616155460565918e-01	-8.880424543150386e+01
1	 1.063200236680694e+00	 2.821440354679318e-01	-8.641048276623880e+01
1	 1.057538854014219e+00	 3.026740363534475e-01	-8.361971042913828e+01
1	 1.051449570726956e+00	 3.231931315080629e-01	-8.047991895757451e+01
1	 1.044929711316766e+00	 3.436886649955435e-01	-7.704129425547006e+01
1	 1.037977074640545e+00	 3.641477619894577e-01	-7.335608054591643e+01
1	 1.030589949835735e+00	 3.845573498715942e-01	-6.947842811532277e+01
1	 1.022767131181332e+00	 4.049041805392548e-01	-6.546422623867304e+01
1	 1.093927222370492e+00	 2.024338958074826e-01	-9.276525102801489e+01
1	 1.089896519281624e+00	 2.231184153738912e-01	-9.264127418127637e+01
1	 1.085448320360364e+00	 2.438405090501808e-01	-9.192203431054648e+01
1	 1.080578179570856e+00	 2.645884499892571e-01	-9.065983665490586e+01
1	 1.075282057555951e+00	 2.853502176894963e-01	-8.891007946535005e+01
1	 1.069556340995452e+00	 3.061135140396980e-01	-8.673113493420138e+01
1	 1.063397861306960e+00	 3.268657807301824e-01	-8.418421054944113e+01
1	 1.056803912584899e+00	 3.475942180072564e-01	-8.133319090533388e+01
1	 1.049772268673173e+00	 3.682858047396423e-01	-7.824446015858149e+01
1	 1.042301199267603e+00	 3.889273197566481e-01	-7.498670548360535e+01
1	 1.034389484945809e+00	 4.095053644089534e-01	-7.163070204982253e+01
1	 1.106218539478505e+00	 2.047084339626188e-01	-9.184944331976253e+01
1	 1.102142547591368e+00	 2.256253638614272e-01	-9.266514988935093e+01
1	 1.097644368907272e+00	 2.465802900510737e-01	-9.281887949833457e+01
1	 1.092719507434896e+00	 2.675613539221362e-01	-9.237432195590047e+01
1	 1.087363878431055e+00	 2.885563999111739e-01	-9.139883095082843e+01
1	 1.081573827976446e+00	 3.095529917259612e-01	-8.996327667085129e+01
1	 1.075346151886618e+00	 3.305384299522137e-01	-8.814187491460058e+01
1	 1.068678113852559e+00	 3.514997710187806e-01	-8.601199275750857e+01
1	 1.061567462705179e+00	 3.724238474895377e-01	-8.365393102380114e+01
1	 1.054012448698681e+00	 3.932972896413123e-01	-8.115068401512181e+01
1	 1.046011838709305e+00	 4.141065482781622e-01	-7.858767715045713e+01
1	 9.297883010302649e-01	 3.680947095640363e-01	-4.814764093554233e+01
1	 9.222799379563009e-01	 3.865225944039564e-01	-4.831866456583343e+01
1	 9.143747236862125e-01	 4.048689474701951e-01	-4.780394042516870e+01
1	 9.060730098564396e-01	 4.231213782743761e-01	-4.668648946237833e+01
1	 8.973756499704220e-01	 4.412674277413337e-01	-4.505277542116417e+01
1	 8.882840068073012e-01	 4.592945930433334e-01	-4.299241927252383e+01
1	 8.787999583847406e-01	 4.771903531042267e-01	-4.059788994290691e+01
1	 8.689259024143142e-01	 4.949421946770166e-01	-3.796417272270115e+01
1	 8.586647591951593e-01	 5.125376388923134e-01	-3.518841696705866e+01
1	 8.480199728994641e-01	 5.299642681697645e-01	-3.236956491963910e+01
1	 8.369955112118155e-01	 5.472097533798151e-01	-2.960796369656878e+01
1	 9.414106548025766e-01	 3.726958934376526e-01	-4.689220676259207e+01
1	 9.338084371907733e-01	 3.913541268386016e-01	-4.801109066851816e+01
1	 9.258044077427657e-01	 4.099298093186076e-01	-4.848847051206566e+01
1	 9.173989224904455e-01	 4.284103955081879e-01	-4.839490375577151e+01
1	 9.085928456060454e-01	 4.467832705937361e-01	-4.780405119326965e+01
1	 8.993875569034437e-01	 4.650357754621704e-01	-4.679243619005263e+01
1	 8.897849578755234e-01	 4.831552325238889e-01	-4.543918290850443e+01
1	 8.797874762052527e-01	 5.011289721163065e-01	-4.382573466532326e+01
1	 8.693980686955066e-01	 5.189443593841651e-01	-4.203555376926698e+01
1	 8.586202225706245e-01	 5.365888215273571e-01	-4.015380437986816e+01
1	 8.474579551112504e-01	 5.540498753022077e-01	-3.826702011079711e+01
1	 9.530330085739085e-01	 3.772970773107793e-01	-4.668541595337430e+01
1	 9.453369364240809e-01	 3.961856592726618e-01	-4.861739714769415e+01
1	 9.372340917979960e-01	 4.149906711663489e-01	-4.995108365554961e+01
1	 9.287248351230007e-01	 4.336994127412525e-01	-5.074480572165137e+01
1	 9.198100412401194e-01	 4.522991134453253e-01	-5.105966358818431e+01
1	 9.104911069979682e-01	 4.707769578801373e-01	-5.095933082972890e+01
1	 9.007699573646499e-01	 4.891201119426346e-01	-5.050983931777628e+01
1	 8.906490499945261e-01	 5.073157495546431e-01	-4.977934672997256e+01
1	 8.801313781942111e-01	 5.253510798750376e-01	-4.883788769186912e+01
1	 8.692204722401954e-01	 5.432133748839548e-01	-4.775710980621565e+01
1	 8.579203990091799e-01	 5.608899972236004e-01	-4.660999598452895e+01
1	 9.646553623442610e-01	 3.818982611834161e-01	-4.748936573597717e+01
1	 9.568654356562231e-01	 4.010171917061370e-01	-5.010455218281429e+01
1	 9.486637758519040e-01	 4.200515330134196e-01	-5.216365637193661e+01
1	 9.400507477541058e-01	 4.389884299735700e-01	-5.371300905887485e+01
1	 9.310272368726441e-01	 4.578149562961006e-01	-5.480138357159019e+01
1	 9.215946570908742e-01	 4.765181402972340e-01	-5.547984255119428e+01
1	 9.117549568521194e-01	 4.950849913604636e-01	-5.580156892592403e+01
1	 9.015106237821341e-01	 5.135025269920270e-01	-5.582168180390750e+01
1	 8.908646876912724e-01	 5.317578003649310e-01	-5.559703811610659e+01
1	 8.798207219081765e-01	 5.498379282395579e-01	-5.518602098304086e+01
1	 8.683828429056041e-01	 5.677301191439930e-01	-5.464831591557125e+01
1	 9.762777161136343e-01	 3.864994450555633e-01	-4.926795823239677e+01
1	 9.683939348872000e-01	 4.058487241390272e-01	-5.244109689717210e+01
1	 9.600934599044899e-01	 4.251123948598194e-01	-5.509940439105529e+01
1	 9.513766603837601e-01	 4.442774472051405e-01	-5.727743157587952e+01
1	 9.422444325036197e-01	 4.633307991460626e-01	-5.901185015842513e+01
1	 9.326982071821625e-01	 4.822593227134609e-01	-6.034134217315681e+01
1	 9.227399563379315e-01	 5.010498707773759e-01	-6.130647626171313e+01
1	 9.123721975680773e-01	 5.196893044284582e-01	-6.194957120832696e+01
1	 9.015979971866909e-01	 5.381645208538457e-01	-6.231454730982823e+01
1	 8.904209715745676e-01	 5.564624815941661e-01	-6.244676627639721e+01
1	 8.788452868005231e-01	 5.745702410633855e-01	-6.239286047325987e+01
1	 9.879000698820278e-01	 3.911006289272207e-01	-5.198679428830714e+01
1	 9.799224341170119e-01	 4.106802565713322e-01	-5.559705283179412e+01
1	 9.715231439557533e-01	 4.301732567055483e-01	-5.873280387898183e+01
1	 9.627025730119644e-01	 4.495664644359640e-01	-6.141703024306301e+01
1	 9.534616281330460e-01	 4.688466419952109e-01	-6.367451935116220e+01
1	 9.438017572718324e-01	 4.880005051288175e-01	-6.553179482874064e+01
1	 9.337249558220870e-01	 5.070147501933717e-01	-6.701703740549731e+01
1	 9.232337713523547e-01	 5.258760818639360e-01	-6.815999537872739e+01
1	 9.123313066804664e-01	 5.445712413417811e-01	-6.899188496357147e+01
1	 9.010212212393695e-01	 5.630870349477797e-01	-6.954528095275793e+01
1	 8.893077306939365e-01	 5.814103629817780e-01	-6.985399820013413e+01
1	 9.995224236494423e-01	 3.957018127983884e-01	-5.561307471005493e+01
1	 9.914509333456585e-01	 4.155117890030526e-01	-5.954383587464055e+01
1	 9.829528280056942e-01	 4.352341185506064e-01	-6.303951815686253e+01
1	 9.740284856387178e-01	 4.548554816660403e-01	-6.611174077638842e+01
1	 9.646788237609235e-01	 4.743624848435458e-01	-6.877361664053376e+01
1	 9.549053073598841e-01	 4.937416875433039e-01	-7.103972541232201e+01
1	 9.447099553045856e-01	 5.129796296084510e-01	-7.292607838738307e+01
1	 9.340953451349669e-01	 5.320628592984610e-01	-7.445007519546621e+01
1	 9.230646161725991e-01	 5.509779618287377e-01	-7.563045241017423e+01
1	 9.116214709025816e-01	 5.697115883003986e-01	-7.648722421968823e+01
1	 8.997701745858451e-01	 5.882504848991706e-01	-7.704161538093649e+01
1	 1.011144777415877e+00	 4.003029966690664e-01	-6.011550831289649e+01
1	 1.002979432573140e+00	 4.203433214341877e-01	-6.425417612572420e+01
1	 9.943825120543131e-01	 4.402949803949937e-01	-6.799632947361061e+01
1	 9.853543982640206e-01	 4.601444988953695e-01	-7.134242138763955e+01
1	 9.758960193872512e-01	 4.798783276910670e-01	-7.429409278206859e+01
1	 9.660088574463180e-01	 4.994828699569205e-01	-7.685418640934213e+01
1	 9.556949547854272e-01	 5.189445090226136e-01	-7.902675507517444e+01
1	 9.449569189159139e-01	 5.382496367320331e-01	-8.081706391221877e+01
1	 9.337979256630885e-01	 5.573846823147149e-01	-8.223158655337815e+01
1	 9.222217205642039e-01	 5.763361416520226e-01	-8.327799509130028e+01
1	 9.102326184762480e-01	 5.950906068155633e-01	-8.396514375857886e+01
1	 1.022767131181332e+00	 4.049041805392548e-01	-6.546422623867304e+01
1	 1.014507931799456e+00	 4.251748538647378e-01	-6.970204322597046e+01
1	 1.005812196101609e+00	 4.453558422387101e-01	-7.358107543046474e+01
1	 9.966803108878730e-01	 4.654335161239517e-01	-7.709080036988543e+01
1	 9.871132150120300e-01	 4.853941705377748e-01	-8.022158258786442e+01
1	 9.771124075311334e-01	 5.052240523696667e-01	-8.296472791954190e+01
1	 9.666799542646118e-01	 5.249093884358594e-01	-8.531253443359455e+01
1	 9.558184926951958e-01	 5.444364141646523e-01	-8.725833963476639e+01
1	 9.445312351519353e-01	 5.637914027997134e-01	-8.879656352857248e+01
1	 9.328219702242366e-01	 5.829606950026520e-01	-8.992274717197226e+01
1	 9.206950623651458e-01	 6.019307287309560e-01	-9.063358636038217e+01
1	 1.034389484945809e+00	 4.095053644089534e-01	-7.163070204982253e+01
1	 1.026036431024607e+00	 4.300063862947030e-01	-7.586257672008736e+01
1	 1.017241880147583e+00	 4.504167040817556e-01	-7.977258969153232e+01
1	 1.008006223510275e+00	 4.707225333517867e-01	-8.333942721650899e+01
1	 9.983304106352595e-01	 4.909100133836690e-01	-8.654236649644344e+01
1	 9.882159576143311e-01	 5.109652347815431e-01	-8.936136970110263e+01
1	 9.776649537421397e-01	 5.308742678481889e-01	-9.177717704693080e+01
1	 9.666800664728121e-01	 5.506231915963183e-01	-9.377139830683348e+01
1	 9.552645446391390e-01	 5.701981232837328e-01	-9.532660211674647e+01
1	 9.434222198826796e-01	 5.895852483522865e-01	-9.642640244341214e+01
1	 9.311575062525380e-01	 6.087708506453484e-01	-9.705554158322340e+01
1	 1.046011838709305e+00	 4.141065482781622e-01	-7.858767715045713e+01
1	 1.037564930248593e+00	 4.348379187240830e-01	-8.271202106191089e+01
1	 1.028671564192235e+00	 4.554775659241303e-01	-8.655064664696337e+01
1	 1.019332136131226e+00	 4.760115505788748e-01	-9.007162699896752e+01
1	 1.009547606256940e+00	 4.964258562287497e-01	-9.324333470461787e+01
1	 9.993195076959104e-01	 5.167064171925492e-01	-9.603457507850999e+01
1	 9.886499532180107e-01	 5.368391472596017e-01	-9.841472080683664e+01
1	 9.775416402487633e-01	 5.568099690270316e-01	-1.003538471635349e+02
1	 9.659978541247000e-01	 5.766048437667730e-01	-1.018228669308454e+02
1	 9.540224695395332e-01	 5.962098017009265e-01	-1.027936641325838e+02
1	 9.416199501384250e-01	 6.156109725587411e-01	-1.032392256730036e+02
1	 8.369955112118155e-01	 5.472097533798151e-01	-2.960796369656878e+01
1	 8.255958632931958e-01	 5.642618811384013e-01	-2.300213372005629e+01
1	 8.138260360506314e-01	 5.811085811170719e-01	-1.717786603060866e+01
1	 8.016915487021741e-01	 5.977379532449607e-01	-1.215736638929753e+01
1	 7.891984256370140e-01	 6.141382946773878e-01	-7.960269988568950e+00
1	 7.763531875817183e-01	 6.302981264093361e-01	-4.603538364313678e+00
1	 7.631628410930560e-01	 6.462062194093811e-01	-2.101369178861582e+00
1	 7.496348664083717e-01	 6.618516201518141e-01	-4.651196160983346e-01
1	 7.357772036946522e-01	 6.772236754270479e-01	 2.967559746164952e-01
1	 7.215982377473873e-01	 6.923120563137026e-01	 1.787536612696670e-01
1	 7.071067811999999e-01	 7.071067811999999e-01	-8.216476670194979e-01
1	 8.474579551112504e-01	 5.540498753022077e-01	-3.826702011079711e+01
1	 8.359158115929692e-01	 5.713151546574315e-01	-3.173523321184337e+01
1	 8.239988615092374e-01	 5.883724383855524e-01	-2.593068267203113e+01
1	 8.117126930683318e-01	 6.052096776648181e-01	-2.087804962440518e+01
1	 7.990634059643095e-01	 6.218150233649912e-01	-1.659961529819343e+01
1	 7.860576024328196e-01	 6.381768529934919e-01	-1.311514818499574e+01
1	 7.727023766125910e-01	 6.542837971560034e-01	-1.044180315902433e+01
1	 7.590053022439359e-01	 6.701247654077456e-01	-8.594033354562356e+00
1	 7.449744187459286e-01	 6.856889713740123e-01	-7.583515507066252e+00
1	 7.306182157240029e-01	 7.009659570219055e-01	-7.419089359205259e+00
1	 7.159456159695000e-01	 7.159456159695000e-01	-8.106711620863834e+00
1	 8.579203990091799e-01	 5.608899972236004e-01	-4.660999598452895e+01
1	 8.462357598913327e-01	 5.783684281754621e-01	-4.017608597741128e+01
1	 8.341716869665182e-01	 5.956362956530330e-01	-3.441611762890369e+01
1	 8.217338374332409e-01	 6.126814020836755e-01	-2.935720556006848e+01
1	 8.089283862904220e-01	 6.294917520515947e-01	-2.502423228434957e+01
1	 7.957620172827934e-01	 6.460555795766478e-01	-2.143972576057387e+01
1	 7.822419121310444e-01	 6.623613749016258e-01	-1.862374799768649e+01
1	 7.683757380784541e-01	 6.783979106626776e-01	-1.659379557559285e+01
1	 7.541716337961848e-01	 6.941542673199765e-01	-1.536471285738474e+01
1	 7.396381936996136e-01	 7.096198577291084e-01	-1.494861857009042e+01
1	 7.247844507379998e-01	 7.247844507379999e-01	-1.535484632511025e+01
1	 8.683828429056041e-01	 5.677301191439930e-01	-5.464831591557125e+01
1	 8.565557081882860e-01	 5.854217016924925e-01	-4.833525515142122e+01
1	 8.443445124224748e-01	 6.029001529195133e-01	-4.264383529945729e+01
1	 8.317549817969009e-01	 6.201531265015331e-01	-3.760356409868503e+01
1	 8.187933666153511e-01	 6.371684807371980e-01	-3.324188221176026e+01
1	 8.054664321316400e-01	 6.539343061588038e-01	-2.958403129270787e+01
1	 7.917814476484165e-01	 6.704389526462485e-01	-2.665293221807240e+01
1	 7.777461739119264e-01	 6.866710559166093e-01	-2.446907440636947e+01
1	 7.633688488454204e-01	 7.026195632649410e-01	-2.305041706908828e+01
1	 7.486581716742190e-01	 7.182737584353109e-01	-2.241230314527890e+01
1	 7.336232855055000e-01	 7.336232855055000e-01	-2.256738657196991e+01
1	 8.788452868005231e-01	 5.745702410633855e-01	-6.239286047325987e+01
1	 8.668756564838288e-01	 5.924749752085229e-01	-5.622280086211667e+01
1	 8.545173378771065e-01	 6.101640101849937e-01	-5.062303987248005e+01
1	 8.417761261593122e-01	 6.276248509183908e-01	-4.562543943301143e+01
1	 8.286583469390975e-01	 6.448452094218015e-01	-4.125995676111310e+01
1	 8.151708469793590e-01	 6.618130327399596e-01	-3.755450306869034e+01
1	 8.013209831647067e-01	 6.785165303898708e-01	-3.453481155658366e+01
1	 7.871166097443530e-01	 6.949442011695413e-01	-3.222431568230032e+01
1	 7.725660638936355e-01	 7.110848592089053e-01	-3.064403861145997e+01
1	 7.576781496478195e-01	 7.269276591405139e-01	-2.981249467895513e+01
1	 7.424621202719999e-01	 7.424621202720001e-01	-2.974560359211969e+01
1	 8.893077306939365e-01	 5.814103629817780e-01	-6.985399820013413e+01
1	 8.771956047779617e-01	 5.995282487235530e-01	-6.384830981993786e+01
1	 8.646901633304135e-01	 6.174278674494742e-01	-5.836250239846062e+01
1	 8.517972705204740e-01	 6.350965753342479e-01	-5.343075449967252e+01
1	 8.385233272616601e-01	 6.525219381054047e-01	-4.908549976929471e+01
1	 8.248752618259512e-01	 6.696917593201157e-01	-4.535727639758671e+01
1	 8.108605186799150e-01	 6.865941081324930e-01	-4.227458500908495e+01
1	 7.964870455757337e-01	 7.032173464214730e-01	-3.986375602300854e+01
1	 7.817632789408300e-01	 7.195501551518694e-01	-3.814882746111101e+01
1	 7.666981276204146e-01	 7.355815598447166e-01	-3.715143410204700e+01
1	 7.513009550375001e-01	 7.513009550375001e-01	-3.689070879361643e+01
1	 8.997701745858451e-01	 5.882504848991706e-01	-7.704161538093649e+01
1	 8.875155530706845e-01	 6.065815222375835e-01	-7.122092284181288e+01
1	 8.748629887823961e-01	 6.246917247129546e-01	-6.587058597204836e+01
1	 8.618184148803874e-01	 6.425682997491056e-01	-6.102706372660929e+01
1	 8.483883075830400e-01	 6.601986667880082e-01	-5.672522745287027e+01
1	 8.345796766714155e-01	 6.775704858992714e-01	-5.299820122524871e+01
1	 8.204000541940423e-01	 6.946716858741154e-01	-4.987720975767844e+01
1	 8.058574814060682e-01	 7.114904916724046e-01	-4.739143499604130e+01
1	 7.909604939870044e-01	 7.280154510938338e-01	-4.556788243294898e+01
1	 7.757181055920049e-01	 7.442354605479196e-01	-4.443125811613687e+01
1	 7.601397898020000e-01	 7.601397898019999e-01	-4.400385723995602e+01
1	 9.102326184762480e-01	 5.950906068155633e-01	-8.396514375857886e+01
1	 8.978355013619972e-01	 6.136347957506137e-01	-7.834936047722150e+01
1	 8.850358142330540e-01	 6.319555819754350e-01	-7.315526917779043e+01
1	 8.718395592390517e-01	 6.500400241629630e-01	-6.842157421174140e+01
1	 8.582532879032364e-01	 6.678753954696115e-01	-6.418554723683691e+01
1	 8.442840915157530e-01	 6.854492124774274e-01	-6.048285853449939e+01
1	 8.299395897070877e-01	 7.027492636147378e-01	-5.734741506804655e+01
1	 8.152279172353567e-01	 7.197636369223365e-01	-5.481120644170132e+01
1	 8.001577090321583e-01	 7.364807470347983e-01	-5.290415986763256e+01
1	 7.847380835625897e-01	 7.528893612501224e-01	-5.165400518365363e+01
1	 7.689786245654999e-01	 7.689786245654999e-01	-5.108615088826696e+01
1	 9.206950623651458e-01	 6.019307287309560e-01	-9.063358636038217e+01
1	 9.081554496518998e-01	 6.206880692626442e-01	-8.524194688702754e+01
1	 8.952086396823874e-01	 6.392194392369155e-01	-8.022416793729786e+01
1	 8.818607035964670e-01	 6.575117485758205e-01	-7.562116545762547e+01
1	 8.681182682222500e-01	 6.755521241502151e-01	-7.147257529959873e+01
1	 8.539885063589624e-01	 6.933279390545832e-01	-6.781657562712221e+01
1	 8.394791252190520e-01	 7.108268413543603e-01	-6.468971523924870e+01
1	 8.245983530635995e-01	 7.280367821712683e-01	-6.212674902573160e+01
1	 8.093549240762918e-01	 7.449460429747625e-01	-6.016048172669886e+01
1	 7.937580615321697e-01	 7.615432619513252e-01	-5.882162110964291e+01
1	 7.778174593279999e-01	 7.778174593279999e-01	-5.813864160671687e+01
1	 9.311575062525380e-01	 6.087708506453484e-01	-9.705554158322340e+01
1	 9.184753979403921e-01	 6.277413427736747e-01	-9.190663211250271e+01
1	 9.053814651303959e-01	 6.464832964973959e-01	-8.708455588356739e+01
1	 8.918818479526330e-01	 6.649834729876779e-01	-8.263240777569021e+01
1	 8.779832485400803e-01	 6.832288528298185e-01	-7.859215293513584e+01
1	 8.636929212010450e-01	 7.012066656307392e-01	-7.500444037560612e+01
1	 8.490186607299344e-01	 7.189044190929826e-01	-7.190842168049829e+01
1	 8.339687888907961e-01	 7.363099274192001e-01	-6.934157608058214e+01
1	 8.185521391194046e-01	 7.534113389137267e-01	-6.733954314195296e+01
1	 8.027780395007446e-01	 7.701971626515282e-01	-6.593596424723796e+01
1	 7.866562940895000e-01	 7.866562940895000e-01	-6.516233398849978e+01
1	 9.416199501384250e-01	 6.156109725587411e-01	-1.032392256730036e+02
1	 9.287953462274744e-01	 6.347946162837050e-01	-9.835101285974856e+01
1	 9.155542905770797e-01	 6.537471537568762e-01	-9.374338337701568e+01
1	 9.019029923075504e-01	 6.724551973985354e-01	-8.946157946352093e+01
1	 8.878482288567273e-01	 6.909055815084219e-01	-8.554986182436087e+01
1	 8.733973360420002e-01	 7.090853922058951e-01	-8.205131452477255e+01
1	 8.585581962397351e-01	 7.269819968306050e-01	-7.900765418282047e+01
1	 8.433392247169470e-01	 7.445830726661317e-01	-7.645904479059423e+01
1	 8.277493541614975e-01	 7.618766348516912e-01	-7.444391946156367e+01
1	 8.117980174683143e-01	 7.788510633507310e-01	-7.299881035609914e+01
1	 7.954951288500001e-01	 7.954951288500001e-01	-7.215818797822337e+01
1	 7.071067811999999e-01	 7.071067811999999e-01	-8.216476670194979e-01
1	 6.923120563137025e-01	 7.215982377473872e-01	-1.586868362373707e+00
1	 6.772236754270478e-01	 7.357772036946522e-01	-1.487280825956901e+00
1	 6.618516201518141e-01	 7.496348664083716e-01	-5.381944343812464e-01
1	 6.462062194093813e-01	 7.631628410930559e-01	 1.241806586685058e+00
1	 6.302981264093362e-01	 7.763531875817182e-01	 3.830953065805538e+00
1	 6.141382946773881e-01	 7.891984256370137e-01	 7.204397424844977e+00
1	 5.977379532449610e-01	 8.016915487021739e-01	 1.133433603886765e+01
1	 5.811085811170723e-01	 8.138260360506312e-01	 1.619014647603351e+01
1	 5.642618811384018e-01	 8.255958632931955e-01	 2.173853856156428e+01
1	 5.472097533798151e-01	 8.369955112118155e-01	 2.794371810685147e+01
1	 7.159456159695000e-01	 7.159456159695000e-01	-8.106711620863834e+00
1	 7.009659570219053e-01	 7.306182157240030e-01	-8.658722363487286e+00
1	 6.856889713740122e-01	 7.449744187459286e-01	-8.387323920653735e+00
1	 6.701247654077458e-01	 7.590053022439357e-01	-7.306042247917027e+00
1	 6.542837971560036e-01	 7.727023766125908e-01	-5.431545809916820e+00
1	 6.381768529934920e-01	 7.860576024328195e-01	-2.783564493549278e+00
1	 6.218150233649915e-01	 7.990634059643091e-01	 6.152075132097607e-01
1	 6.052096776648186e-01	 8.117126930683318e-01	 4.739224129049305e+00
1	 5.883724383855530e-01	 8.239988615092370e-01	 9.560214203835685e+00
1	 5.713151546574324e-01	 8.359158115929688e-01	 1.504732177812320e+01
1	 5.540498753022077e-01	 8.474579551112504e-01	 2.116725869520623e+01
1	 7.247844507379998e-01	 7.247844507379999e-01	-1.535484632511025e+01
1	 7.096198577291083e-01	 7.396381936996136e-01	-1.567556783028596e+01
1	 6.941542673199766e-01	 7.541716337961849e-01	-1.521317405596080e+01
1	 6.783979106626776e-01	 7.683757380784542e-01	-1.397944558534647e+01
1	 6.623613749016261e-01	 7.822419121310443e-01	-1.198917583529278e+01
1	 6.460555795766482e-01	 7.957620172827933e-01	-9.260098632537769e+00
1	 6.294917520515949e-01	 8.089283862904216e-01	-5.812800345656555e+00
1	 6.126814020836757e-01	 8.217338374332406e-01	-1.670617254423703e+00
1	 5.956362956530332e-01	 8.341716869665180e-01	 3.140481043482659e+00
1	 5.783684281754625e-01	 8.462357598913323e-01	 8.592021279575356e+00
1	 5.608899972236003e-01	 8.579203990091798e-01	 1.465316820818881e+01
1	 7.336232855055000e-01	 7.336232855055000e-01	-2.256738657196991e+01
1	 7.182737584353108e-01	 7.486581716742190e-01	-2.263939302310992e+01
1	 7.026195632649409e-01	 7.633688488454202e-01	-2.196751290517892e+01
1	 6.866710559166094e-01	 7.777461739119265e-01	-2.056181810250875e+01
1	 6.704389526462485e-01	 7.917814476484162e-01	-1.843526622583471e+01
1	 6.539343061588040e-01	 8.054664321316398e-01	-1.560363670379091e+01
1	 6.371684807371982e-01	 8.187933666153508e-01	-1.208545200917594e+01
1	 6.201531265015334e-01	 8.317549817969007e-01	-7.901884636696852e+00
1	 6.029001529195136e-01	 8.443445124224743e-01	-3.076650563385503e+00
1	 5.854217016924929e-01	 8.565557081882855e-01	 2.364109971182426e+00
1	 5.677301191439930e-01	 8.683828429056042e-01	 8.391963431552181e+00
1	 7.424621202719999e-01	 7.424621202720001e-01	-2.974560359211969e+01
1	 7.269276591405137e-01	 7.576781496478194e-01	-2.955209152323497e+01
1	 7.110848592089053e-01	 7.725660638936355e-01	-2.865289444287993e+01
1	 6.949442011695413e-01	 7.871166097443529e-01	-2.705641090020266e+01
1	 6.785165303898705e-01	 8.013209831647063e-01	-2.477380054001004e+01
1	 6.618130327399598e-01	 8.151708469793592e-01	-2.181892856695646e+01
1	 6.448452094218017e-01	 8.286583469390970e-01	-1.820829591298654e+01
1	 6.276248509183910e-01	 8.417761261593117e-01	-1.396095566076415e+01
1	 6.101640101849942e-01	 8.545173378771063e-01	-9.098416386632199e+00
1	 5.924749752085233e-01	 8.668756564838282e-01	-3.644533189658748e+00
1	 5.745702410633855e-01	 8.788452868005230e-01	 2.374612732683563e+00
1	 7.513009550375001e-01	 7.513009550375001e-01	-3.689070879361643e+01
1	 7.355815598447167e-01	 7.666981276204147e-01	-3.641546780222969e+01
1	 7.195501551518695e-01	 7.817632789408299e-01	-3.527175245659703e+01
1	 7.032173464214733e-01	 7.964870455757336e-01	-3.346632208624715e+01
1	 6.865941081324931e-01	 8.108605186799150e-01	-3.100857487471009e+01
1	 6.696917593201157e-01	 8.248752618259508e-01	-2.791050055887336e+01
1	 6.525219381054053e-01	 8.385233272616602e-01	-2.418661938987087e+01
1	 6.350965753342483e-01	 8.517972705204742e-01	-1.985390784524056e+01
1	 6.174278674494746e-01	 8.646901633304133e-01	-1.493171168930209e+01
1	 5.995282487235538e-01	 8.771956047779614e-01	-9.441647078838567e+00
1	 5.814103629817781e-01	 8.893077306939365e-01	-3.407490503020028e+00
1	 7.601397898020000e-01	 7.601397898019999e-01	-4.400385723995602e+01
1	 7.442354605479196e-01	 7.757181055920047e-01	-4.323124240275256e+01
1	 7.280154510938339e-01	 7.909604939870044e-01	-4.182640753444302e+01
1	 7.114904916724047e-01	 8.058574814060682e-01	-3.979450567042306e+01
1	 6.946716858741158e-01	 8.204000541940424e-01	-3.714320876417930e+01
1	 6.775704858992717e-01	 8.345796766714155e-01	-3.388266848908460e+01
1	 6.601986667880085e-01	 8.483883075830395e-01	-3.002546385015534e+01
1	 6.425682997491058e-01	 8.618184148803871e-01	-2.558653603345537e+01
1	 6.246917247129552e-01	 8.748629887823960e-01	-2.058311102452767e+01
1	 6.065815222375840e-01	 8.875155530706840e-01	-1.503461062452827e+01
1	 5.882504848991708e-01	 8.997701745858451e-01	-8.962552582503747e+00
1	 7.689786245654999e-01	 7.689786245654999e-01	-5.108615088826696e+01
1	 7.528893612501225e-01	 7.847380835625901e-01	-5.000105676205223e+01
1	 7.364807470347983e-01	 8.001577090321584e-01	-4.831907357082329e+01
1	 7.197636369223366e-01	 8.152279172353567e-01	-4.604377984596898e+01
1	 7.027492636147382e-01	 8.299395897070879e-01	-4.318115532729404e+01
1	 6.854492124774276e-01	 8.442840915157526e-01	-3.973954973910765e+01
1	 6.678753954696118e-01	 8.582532879032362e-01	-3.572963891518418e+01
1	 6.500400241629634e-01	 8.718395592390513e-01	-3.116436863915743e+01
1	 6.319555819754356e-01	 8.850358142330536e-01	-2.605888666713471e+01
1	 6.136347957506144e-01	 8.978355013619969e-01	-2.043046349383153e+01
1	 5.950906068155634e-01	 9.102326184762480e-01	-1.429840251123990e+01
1	 7.778174593279999e-01	 7.778174593279999e-01	-5.813864160671687e+01
1	 7.615432619513252e-01	 7.937580615321698e-01	-5.672647770659305e+01
1	 7.449460429747624e-01	 8.093549240762917e-01	-5.475186382857979e+01
1	 7.280367821712684e-01	 8.245983530635994e-01	-5.221683470642973e+01
1	 7.108268413543607e-01	 8.394791252190520e-01	-4.912571072298034e+01
1	 6.933279390545833e-01	 8.539885063589621e-01	-4.548507453675325e+01
1	 6.755521241502154e-01	 8.681182682222498e-01	-4.130373558714853e+01
1	 6.575117485758207e-01	 8.818607035964664e-01	-3.659268278455986e+01
1	 6.392194392369160e-01	 8.952086396823867e-01	-3.136502578854549e+01
1	 6.206880692626449e-01	 9.081554496518994e-01	-2.563592536898092e+01
1	 6.019307287309560e-01	 9.206950623651458e-01	-1.942251343081297e+01
1	 7.866562940895000e-01	 7.866562940895000e-01	-6.516233398849978e+01
1	 7.701971626515279e-01	 8.027780395007448e-01	-6.340900164367237e+01
1	 7.534113389137267e-01	 8.185521391194046e-01	-6.112679659244842e+01
1	 7.363099274192003e-01	 8.339687888907965e-01	-5.831623944226975e+01
1	 7.189044190929827e-01	 8.490186607299340e-01	-5.498002296819016e+01
1	 7.012066656307393e-01	 8.636929212010448e-01	-5.112299647037893e+01
1	 6.832288528298186e-01	 8.779832485400799e-01	-4.675213853106069e+01
1	 6.649834729876783e-01	 8.918818479526329e-01	-4.187651841784199e+01
1	 6.464832964973964e-01	 9.053814651303955e-01	-3.650724647382447e+01
1	 6.277413427736752e-01	 9.184753979403918e-01	-3.065741392401643e+01
1	 6.087708506453484e-01	 9.311575062525379e-01	-2.434202261127311e+01
1	 7.954951288500001e-01	 7.954951288500001e-01	-7.215818797822337e+01
1	 7.788510633507308e-01	 8.117980174683144e-01	-7.005005847359627e+01
1	 7.618766348516911e-01	 8.277493541614976e-01	-6.744580044562137e+01
1	 7.445830726661320e-01	 8.433392247169471e-01	-6.434444905770960e+01
1	 7.269819968306053e-01	 8.585581962397351e-01	-6.074710016800971e+01
1	 7.090853922058953e-01	 8.733973360420000e-01	-5.665690230219226e+01
1	 6.909055815084221e-01	 8.878482288567272e-01	-5.207903753793169e+01
1	 6.724551973985359e-01	 9.019029923075501e-01	-4.702069148948529e+01
1	 6.537471537568769e-01	 9.155542905770793e-01	-4.149101267092023e+01
1	 6.347946162837055e-01	 9.287953462274742e-01	-3.550106160301883e+01
1	 6.156109725587411e-01	 9.416199501384250e-01	-2.906375011066534e+01
1	 5.472097533798151e-01	 8.369955112118155e-01	 2.794371810685147e+01
1	 5.299642681697644e-01	 8.480199728994640e-01	 4.180834900613408e+01
1	 5.125376388923134e-01	 8.586647591951594e-01	 5.201998639318590e+01
1	 4.949421946770166e-01	 8.689259024143141e-01	 5.846844462878937e+01
1	 4.771903531042269e-01	 8.787999583847403e-01	 6.105745356957203e+01
1	 4.592945930433337e-01	 8.882840068073012e-01	 5.970482723801191e+01
1	 4.412674277413340e-01	 8.973756499704219e-01	 5.434255767754784e+01
1	 4.231213782743766e-01	 9.060730098564395e-01	 4.491683507579761e+01
1	 4.048689474701956e-01	 9.143747236862123e-01	 3.138799580218193e+01
1	 3.865225944039570e-01	 9.222799379563006e-01	 1.373040053647019e+01
1	 3.680947095640363e-01	 9.297883010302649e-01	-8.067754843238426e+00
1	 5.540498753022077e-01	 8.474579551112504e-01	 2.116725869520623e+01
1	 5.365888215273570e-01	 8.586202225706244e-01	 3.396248856102112e+01
1	 5.189443593841651e-01	 8.693980686955066e-01	 4.327273648230224e+01
1	 5.011289721163066e-01	 8.797874762052528e-01	 4.899935281187049e+01
1	 4.831552325238891e-01	 8.897849578755235e-01	 5.105688850675668e+01
1	 4.650357754621707e-01	 8.993875569034435e-01	 4.937323075698309e+01
1	 4.467832705937365e-01	 9.085928456060449e-01	 4.388966821948389e+01
1	 4.284103955081883e-01	 9.173989224904452e-01	 3.456088702708849e+01
1	 4.099298093186080e-01	 9.258044077427652e-01	 2.135489926730045e+01
1	 3.913541268386022e-01	 9.338084371907733e-01	 4.252906118053307e+00
1	 3.726958934376526e-01	 9.414106548025766e-01	-1.675090171708356e+01
1	 5.608899972236003e-01	 8.579203990091798e-01	 1.465316820818881e+01
1	 5.432133748839548e-01	 8.692204722401957e-01	 2.651743782136100e+01
1	 5.253510798750377e-01	 8.801313781942111e-01	 3.506067387943763e+01
1	 5.073157495546432e-01	 8.906490499945261e-01	 4.019553989688588e+01
1	 4.891201119426348e-01	 9.007699573646497e-01	 4.184719848239652e+01
1	 4.707769578801375e-01	 9.104911069979682e-01	 3.995341445170961e+01
1	 4.522991134453255e-01	 9.198100412401192e-01	 3.446459189062737e+01
1	 4.336994127412528e-01	 9.287248351230004e-01	 2.534374642394736e+01
1	 4.149906711663495e-01	 9.372340917979960e-01	 1.256641443305183e+01
1	 3.961856592726625e-01	 9.453369364240807e-01	-3.879498579886139e+00
1	 3.772970773107793e-01	 9.530330085739084e-01	-2.399392786392440e+01
1	 5.677301191439930e-01	 8.683828429056042e-01	 8.391963431552181e+00
1	 5.498379282395577e-01	 8.798207219081762e-01	 1.945870968927753e+01
1	 5.317578003649310e-01	 8.908646876912723e-01	 2.736445446495192e+01
1	 5.135025269920271e-01	 9.015106237821341e-01	 3.203295965840280e+01
1	 4.950849913604638e-01	 9.117549568521192e-01	 3.339979765166940e+01
1	 4.765181402972344e-01	 9.215946570908742e-01	 3.141242241216098e+01
1	 4.578149562961010e-01	 9.310272368726438e-01	 2.603017881875420e+01
1	 4.389884299735704e-01	 9.400507477541058e-01	 1.722425155135380e+01
1	 4.200515330134201e-01	 9.486637758519038e-01	 4.977555334177758e+00
1	 4.010171917061375e-01	 9.568654356562227e-01	-1.071543125834108e+01
1	 3.818982611834161e-01	 9.646553623442610e-01	-2.984888584050956e+01
1	 5.745702410633855e-01	 8.788452868005230e-01	 2.374612732683563e+00
1	 5.564624815941662e-01	 8.904209715745679e-01	 1.277250692870348e+01
1	 5.381645208538457e-01	 9.015979971866910e-01	 2.016565526776450e+01
1	 5.196893044284583e-01	 9.123721975680770e-01	 2.448871092934813e+01
1	 5.010498707773762e-01	 9.227399563379314e-01	 2.568746140046726e+01
1	 4.822593227134611e-01	 9.326982071821623e-01	 2.371886805736123e+01
1	 4.633307991460628e-01	 9.422444325036196e-01	 1.855104817318137e+01
1	 4.442774472051409e-01	 9.513766603837600e-01	 1.016320077596227e+01
1	 4.251123948598199e-01	 9.600934599044898e-01	-1.454521805750964e+00
1	 4.058487241390278e-01	 9.683939348871998e-01	-1.630119448967505e+01
1	 3.864994450555633e-01	 9.762777161136343e-01	-3.436534951039874e+01
1	 5.814103629817781e-01	 8.893077306939365e-01	-3.407490503020028e+00
1	 5.630870349477796e-01	 9.010212212393696e-01	 6.445681585273313e+00
1	 5.445712413417813e-01	 9.123313066804662e-01	 1.344672028014441e+01
1	 5.258760818639362e-01	 9.232337713523550e-01	 1.754097024463356e+01
1	 5.070147501933719e-01	 9.337249558220868e-01	 1.868424627299605e+01
1	 4.880005051288177e-01	 9.438017572718324e-01	 1.684284182191490e+01
1	 4.688466419952113e-01	 9.534616281330459e-01	 1.199348410349839e+01
1	 4.495664644359644e-01	 9.627025730119640e-01	 4.123237247177840e+00
1	 4.301732567055489e-01	 9.715231439557529e-01	-6.770644585442874e+00
1	 4.106802565713329e-01	 9.799224341170115e-01	-2.068091190166340e+01
1	 3.911006289272207e-01	 9.879000698820278e-01	-3.759055984944536e+01
1	 5.882504848991708e-01	 8.997701745858451e-01	-8.962552582503747e+00
1	 5.697115883003985e-01	 9.116214709025819e-01	 4.656972373863795e-01
1	 5.509779618287376e-01	 9.230646161725989e-01	 7.190910052865249e+00
1	 5.320628592984612e-01	 9.340953451349671e-01	 1.116892918406356e+01
1	 5.129796296084511e-01	 9.447099553045852e-01	 1.236541548583034e+01
1	 4.937416875433043e-01	 9.549053073598841e-01	 1.075582528300772e+01
1	 4.743624848435461e-01	 9.646788237609232e-01	 6.325338938388505e+00
1	 4.548554816660406e-01	 9.740284856387172e-01	-9.312583576539382e-01
1	 4.352341185506070e-01	 9.829528280056942e-01	-1.100974164552076e+01
1	 4.155117890030531e-01	 9.914509333456581e-01	-2.389665486031689e+01
1	 3.957018127983884e-01	 9.995224236494423e-01	-3.956956057880282e+01
1	 5.950906068155634e-01	 9.102326184762480e-01	-1.429840251123990e+01
1	 5.763361416520227e-01	 9.222217205642042e-01	-5.179406149353607e+00
1	 5.573846823147151e-01	 9.337979256630887e-01	 1.382254766554368e+00
1	 5.382496367320332e-01	 9.449569189159140e-01	 5.352736036421661e+00
1	 5.189445090226138e-01	 9.556949547854271e-01	 6.707369578924116e+00
1	 4.994828699569208e-01	 9.660088574463179e-01	 5.430611209683875e+00
1	 4.798783276910674e-01	 9.758960193872510e-01	 1.515943060393226e+00
1	 4.601444988953700e-01	 9.853543982640203e-01	-5.034267691175565e+00
1	 4.402949803949942e-01	 9.943825120543127e-01	-1.420895180404474e+01
1	 4.203433214341882e-01	 1.002979432573140e+00	-2.598856041596096e+01
1	 4.003029966690664e-01	 1.011144777415877e+00	-4.034532444393154e+01
1	 6.019307287309560e-01	 9.206950623651458e-01	-1.942251343081297e+01
1	 5.829606950026519e-01	 9.328219702242370e-01	-1.050104497141210e+01
1	 5.637914027997134e-01	 9.445312351519353e-01	-3.994489497276675e+00
1	 5.444364141646524e-01	 9.558184926951957e-01	 7.344144100559902e-02
1	 5.249093884358597e-01	 9.666799542646118e-01	 1.687581794966235e+00
1	 5.052240523696671e-01	 9.771124075311334e-01	 8.412290633078428e-01
1	 4.853941705377752e-01	 9.871132150120299e-01	-2.463979074420244e+00
1	 4.654335161239521e-01	 9.966803108878728e-01	-8.218227785450253e+00
1	 4.453558422387106e-01	 1.005812196101609e+00	-1.640372575097577e+01
1	 4.251748538647384e-01	 1.014507931799456e+00	-2.699494120753588e+01
1	 4.049041805392548e-01	 1.022767131181332e+00	-3.995887088367186e+01
1	 6.087708506453484e-01	 9.311575062525379e-01	-2.434202261127311e+01
1	 5.895852483522863e-01	 9.434222198826796e-01	-1.551012252878080e+01
1	 5.701981232837326e-01	 9.552645446391391e-01	-8.953881537180322e+00
1	 5.506231915963185e-01	 9.666800664728121e-01	-4.687052306222711e+00
1	 5.308742678481890e-01	 9.776649537421396e-01	-2.715462184820879e+00
1	 5.109652347815433e-01	 9.882159576143307e-01	-3.037124479532494e+00
1	 4.909100133836695e-01	 9.983304106352595e-01	-5.642387255197605e+00
1	 4.707225333517872e-01	 1.008006223510275e+00	-1.051411782839897e+01
1	 4.504167040817562e-01	 1.017241880147583e+00	-1.762792088683328e+01
1	 4.300063862947036e-01	 1.026036431024607e+00	-2.695238795761990e+01
1	 4.095053644089534e-01	 1.034389484945808e+00	-3.844937576657234e+01
1	 6.156109725587411e-01	 9.416199501384250e-01	-2.906375011066534e+01
1	 5.962098017009264e-01	 9.540224695395332e-01	-2.021705753033773e+01
1	 5.766048437667730e-01	 9.659978541247000e-01	-1.350983309399181e+01
1	 5.568099690270316e-01	 9.775416402487633e-01	-8.946038566895194e+00
1	 5.368391472596018e-01	 9.886499532180105e-01	-6.522320487264587e+00
1	 5.167064171925495e-01	 9.993195076959103e-01	-6.228150372315937e+00
1	 4.964258562287501e-01	 1.009547606256940e+00	-8.045998613785287e+00
1	 4.760115505788752e-01	 1.019332136131226e+00	-1.195154015514224e+01
1	 4.554775659241308e-01	 1.028671564192235e+00	-1.791388983877577e+01
1	 4.348379187240837e-01	 1.037564930248593e+00	-2.589586513444860e+01
1	 4.141065482781622e-01	 1.046011838709305e+00	-3.585427381146116e+01
1	 3.680947095640363e-01	 9.297883010302649e-01	-8.067754843238426e+00
1	 3.495975907771368e-01	 9.368999543523497e-01	-1.658168626814378e+01
1	 3.310434199775671e-01	 9.436155223571460e-01	-2.179645902191839e+01
1	 3.124442408950447e-01	 9.499361011546517e-01	-2.364966052721228e+01
1	 2.938119377279355e-01	 9.558632460744549e-01	-2.209384049100265e+01
1	 2.751582148638955e-01	 9.613989581557346e-01	-1.709623224526693e+01
1	 2.564945776994927e-01	 9.665456696731550e-01	-8.638409781040608e+00
1	 2.378323146029685e-01	 9.713062287906586e-01	 3.284114813687125e+00
1	 2.191824800562900e-01	 9.756838834365028e-01	 1.866234854821495e+01
1	 2.005558790047262e-01	 9.796822644935033e-01	 3.747432419739030e+01
1	 1.819630524344169e-01	 9.833053683983746e-01	 5.968565115016430e+01
1	 3.726958934376526e-01	 9.414106548025766e-01	-1.675090171708356e+01
1	 3.539675606653077e-01	 9.486112037905382e-01	-2.275322712508738e+01
1	 3.351814627300657e-01	 9.554107163947457e-01	-2.571337347822462e+01
1	 3.163497939082678e-01	 9.618103024265738e-01	-2.558188183050758e+01
1	 2.974845869507599e-01	 9.678115366572296e-01	-2.232301844245025e+01
1	 2.785976925500455e-01	 9.734164451388825e-01	-1.591448744879334e+01
1	 2.597007599201513e-01	 9.786274905496308e-01	-6.347085612646907e+00
1	 2.408052185339230e-01	 9.834475566554659e-01	 6.375696357741248e+00
1	 2.219222610543540e-01	 9.878799319837492e-01	 2.223812123677440e+01
1	 2.030628274885305e-01	 9.919282928033322e-01	 4.121269659955040e+01
1	 1.842375905849211e-01	 9.955966855063876e-01	 6.326070506839471e+01
1	 3.772970773107793e-01	 9.530330085739084e-01	-2.399392786392440e+01
1	 3.583375305530888e-01	 9.603224532279364e-01	-2.766163854816953e+01
1	 3.393195054822754e-01	 9.672059104317243e-01	-2.853665624416465e+01
1	 3.202553469213020e-01	 9.736845036980224e-01	-2.658227389199671e+01
1	 3.011572361734961e-01	 9.797598272396583e-01	-2.177429519146078e+01
1	 2.820371702362082e-01	 9.854339321217914e-01	-1.410073859842725e+01
1	 2.629069421409231e-01	 9.907093114259542e-01	-3.561489699192165e+00
1	 2.437781224650914e-01	 9.955888845201885e-01	 9.832093790876556e+00
1	 2.246620420527323e-01	 1.000075980530958e+00	 2.605761997792737e+01
1	 2.055697759727496e-01	 1.004174321113151e+00	 4.508213913365237e+01
1	 1.865121287359399e-01	 1.007888002614400e+00	 6.686265379719003e+01
1	 3.818982611834161e-01	 9.646553623442610e-01	-2.984888584050956e+01
1	 3.627075004404804e-01	 9.720337026645445e-01	-3.135257581852234e+01
1	 3.434575482341956e-01	 9.790011044680814e-01	-3.030583617642517e+01
1	 3.241608999341474e-01	 9.855587049689971e-01	-2.668451728709148e+01
1	 3.048298853961442e-01	 9.917081178217401e-01	-2.047578764935827e+01
1	 2.854766479223834e-01	 9.974514191044608e-01	-1.167782921455482e+01
1	 2.661131243618082e-01	 1.002791132302125e+00	-2.994872848060481e-01
1	 2.467510263964736e-01	 1.007730212384825e+00	 1.364012099632333e+01
1	 2.274018230514250e-01	 1.012272029078129e+00	 3.011203539602146e+01
1	 2.080767244573832e-01	 1.016420349422961e+00	 4.907791432482509e+01
1	 1.887866668874734e-01	 1.020179319722413e+00	 7.049052523477246e+01
1	 3.864994450555633e-01	 9.762777161136343e-01	-3.436534951039874e+01
1	 3.670774703274824e-01	 9.837449521003626e-01	-3.386952015625888e+01
1	 3.475955909858267e-01	 9.907962985038169e-01	-3.105855980516793e+01
1	 3.280664529468041e-01	 9.974329062394982e-01	-2.592068875426476e+01
1	 3.085025346187044e-01	 1.003656408403476e+00	-1.845427382691067e+01
1	 2.889161256085711e-01	 1.009468906086891e+00	-8.667515030861630e+00
1	 2.693193065828065e-01	 1.014872953178144e+00	 3.421907112306606e+00
1	 2.497239303280696e-01	 1.019871540249376e+00	 1.778721976764806e+01
1	 2.301416040504319e-01	 1.024468077625263e+00	 3.439297760949174e+01
1	 2.105836729424314e-01	 1.028666377732761e+00	 5.319551029224479e+01
1	 1.910612050395216e-01	 1.032470636830427e+00	 7.414339356992579e+01
1	 3.911006289272207e-01	 9.879000698820278e-01	-3.759055984944536e+01
1	 3.714474402140946e-01	 9.954562015353907e-01	-3.525390660641476e+01
1	 3.517336337371683e-01	 1.002591492538931e+00	-3.083070205912123e+01
1	 3.319720059592722e-01	 1.009307107509526e+00	-2.432135553839671e+01
1	 3.121751838411762e-01	 1.015604698984865e+00	-1.573527159318754e+01
1	 2.923556032947714e-01	 1.021486393069082e+00	-5.090527981787286e+00
1	 2.725254888039181e-01	 1.026954774054010e+00	 7.586479657160833e+00
1	 2.526968342598795e-01	 1.032012868113843e+00	 2.226142287284580e+01
1	 2.328813850497531e-01	 1.036664126172358e+00	 3.889245155473554e+01
1	 2.130906214278943e-01	 1.040912406042553e+00	 5.743062747889525e+01
1	 1.933357431920845e-01	 1.044761953938439e+00	 7.782037655902182e+01
1	 3.957018127983884e-01	 9.995224236494423e-01	-3.956956057880282e+01
1	 3.758174101003174e-01	 1.007167450969629e+00	-3.554524300261700e+01
1	 3.558716764882207e-01	 1.014386686573424e+00	-2.965646926566262e+01
1	 3.358775589715515e-01	 1.021181308779080e+00	-2.191566315203417e+01
1	 3.158478330635600e-01	 1.027552989565908e+00	-1.234311193961315e+01
1	 2.957950809809843e-01	 1.033503880051033e+00	-9.666357257378753e-01
1	 2.757316710251428e-01	 1.039036594929724e+00	 1.217877064664506e+01
1	 2.556697381919033e-01	 1.044154195978224e+00	 2.705131969536333e+01
1	 2.356211660493888e-01	 1.048860174719417e+00	 4.360283403157941e+01
1	 2.155975699137717e-01	 1.053158434352334e+00	 6.177916630715949e+01
1	 1.956102813451620e-01	 1.057053271046452e+00	 8.152063299302007e+01
1	 4.003029966690664e-01	 1.011144777415877e+00	-4.034532444393154e+01
1	 3.801873799861506e-01	 1.018878700403077e+00	-3.478122072636018e+01
1	 3.600097192389839e-01	 1.026181880607295e+00	-2.756849504745016e+01
1	 3.397831119836419e-01	 1.033055510048160e+00	-1.873141708414452e+01
1	 3.195204822858556e-01	 1.039501280146605e+00	-8.301007191326708e+00
1	 2.992345586672098e-01	 1.045521367032745e+00	 3.685302936750238e+00
1	 2.789378532464808e-01	 1.051118415805285e+00	 1.718403116860448e+01
1	 2.586426421241408e-01	 1.056295523842520e+00	 3.214602424470420e+01
1	 2.383609470493386e-01	 1.061056223266437e+00	 4.851685233181980e+01
1	 2.181045184000638e-01	 1.065404462662107e+00	 6.623721568575135e+01
1	 1.978848194987542e-01	 1.069344588154466e+00	 8.524336033915853e+01
1	 4.049041805392548e-01	 1.022767131181332e+00	-3.995887088367186e+01
1	 3.845573498715942e-01	 1.030589949835736e+00	-3.299781791451542e+01
1	 3.641477619894577e-01	 1.037977074640545e+00	-2.459792968064598e+01
1	 3.436886649955436e-01	 1.044929711316767e+00	-1.479515893782114e+01
1	 3.231931315080631e-01	 1.051449570726956e+00	-3.631114567766037e+00
1	 3.026740363534478e-01	 1.057538854014218e+00	 8.847286423358915e+00
1	 2.821440354679321e-01	 1.063200236680694e+00	 2.258818271599241e+01
1	 2.616155460565923e-01	 1.068436851706730e+00	 3.753514534813007e+01
1	 2.411007280496028e-01	 1.073252271813419e+00	 5.362756432490326e+01
1	 2.206114668867706e-01	 1.077650490971870e+00	 7.080104230026518e+01
1	 2.001593576528611e-01	 1.081635905262479e+00	 8.898779254343813e+01
1	 4.095053644089534e-01	 1.034389484945808e+00	-3.844937576657234e+01
1	 3.889273197566479e-01	 1.042301199267603e+00	-3.022939570902880e+01
1	 3.682858047396424e-01	 1.049772268673173e+00	-2.077452342898868e+01
1	 3.475942180072565e-01	 1.056803912584900e+00	-1.013223743510753e+01
1	 3.268657807301825e-01	 1.063397861306960e+00	 1.645404541728624e+00
1	 3.061135140396982e-01	 1.069556340995452e+00	 1.450212221165915e+01
1	 2.853502176894966e-01	 1.075282057555951e+00	 2.837777952366173e+01
1	 2.645884499892575e-01	 1.080578179570855e+00	 4.320875885190928e+01
1	 2.438405090501814e-01	 1.085448320360364e+00	 5.892833988614979e+01
1	 2.231184153738919e-01	 1.089896519281624e+00	 7.546708062570909e+01
1	 2.024338958074826e-01	 1.093927222370491e+00	 9.275319798125352e+01
1	 4.141065482781622e-01	 1.046011838709305e+00	-3.585427381146116e+01
1	 3.932972896413123e-01	 1.054012448698682e+00	-2.650878808997285e+01
1	 3.724238474895377e-01	 1.061567462705179e+00	-1.612670432226253e+01
1	 3.514997710187807e-01	 1.068678113852559e+00	-4.766874688167665e+00
1	 3.305384299522138e-01	 1.075346151886617e+00	 7.508329254020840e+00
1	 3.095529917259615e-01	 1.081573827976446e+00	 2.063338189134047e+01
1	 2.885563999111744e-01	 1.087363878431055e+00	 3.453997341603542e+01
1	 2.675613539221366e-01	 1.092719507434895e+00	 4.915738167581646e+01
1	 2.465802900510743e-01	 1.097644368907271e+00	 6.441284356309214e+01
1	 2.256253638614278e-01	 1.102142547591368e+00	 8.023192360487175e+01
1	 2.047084339626188e-01	 1.106218539478505e+00	 9.653887754464887e+01
1	 1.819630524344169e-01	 9.833053683983746e-01	 5.968565115016430e+01
1	 1.634142641907509e-01	 9.865575392429453e-01	 4.665515246631097e+01
1	 1.449194890435836e-01	 9.894434504702300e-01	 3.286027193533334e+01
1	 1.264884019976694e-01	 9.919680862544974e-01	 1.853703350235673e+01
1	 1.081303688402294e-01	 9.941367226520524e-01	 3.914426785161542e+00
1	 8.985443791194073e-02	 9.959549086084808e-01	-1.078615024668776e+01
1	 7.166933308134309e-02	 9.974284469032259e-01	-2.535138760457059e+01
1	 5.358344789747966e-02	 9.985633751090948e-01	-3.957649892437984e+01
1	 3.560484089073371e-02	 9.993659466402712e-01	-5.326559714022572e+01
1	 1.774123198744578e-02	 9.998426119581703e-01	-6.623201129422561e+01
1	 0.000000000000000e+00	 1.000000000000000e+00	-7.829854593969014e+01
1	 1.842375905849211e-01	 9.955966855063876e-01	 6.326070506839471e+01
1	 1.654569424871889e-01	 9.988895084859244e-01	 5.183152713132475e+01
1	 1.467309826500151e-01	 1.001811493603026e+00	 3.903008012519012e+01
1	 1.280695070157072e-01	 1.004367687334138e+00	 2.508235103792795e+01
1	 1.094819984438205e-01	 1.006563431686268e+00	 1.020973387855012e+01
1	 9.097761837928414e-02	 1.008404344966822e+00	-5.371598459845043e+00
1	 7.256519973898776e-02	 1.009896302489984e+00	-2.145126915486565e+01
1	 5.425324099133060e-02	 1.011045417298220e+00	-3.782521865855027e+01
1	 3.604990139831873e-02	 1.011858020973390e+00	-5.429617200194876e+01
1	 1.796299738536468e-02	 1.012340644607676e+00	-7.067405244730415e+01
1	 0.000000000000000e+00	 1.012500000000000e+00	-8.677634210099676e+01
1	 1.865121287359399e-01	 1.007888002614400e+00	 6.686265379719003e+01
1	 1.674996207842255e-01	 1.011221477728904e+00	 5.674911701246806e+01
1	 1.485424762570973e-01	 1.014179536735822e+00	 4.467143077340380e+01
1	 1.296506120344171e-01	 1.016767288413778e+00	 3.084569084024030e+01
1	 1.108336280480745e-01	 1.018990140720485e+00	 1.548580096390252e+01
1	 9.210079884725111e-02	 1.020853781325163e+00	-1.197224953143431e+00
1	 7.346106639718736e-02	 1.022364158076741e+00	-1.899591520212051e+01
1	 5.492303408563919e-02	 1.023527459487344e+00	-3.770694569507003e+01
1	 3.649496190623605e-02	 1.024350095306508e+00	-5.713169747104439e+01
1	 1.818476278346310e-02	 1.024838677257182e+00	-7.707676568135324e+01
1	 0.000000000000000e+00	 1.025000000000000e+00	-9.735441983521379e+01
1	 1.887866668874734e-01	 1.020179319722413e+00	 7.049052523477246e+01
1	 1.695422990818606e-01	 1.023553446971883e+00	 6.141727577646517e+01
1	 1.503539698648305e-01	 1.026547579868618e+00	 4.980342475478422e+01
1	 1.312317170537990e-01	 1.029166889493419e+00	 3.585531716445156e+01
1	 1.121852576529911e-01	 1.031416849754700e+00	 1.977946804113971e+01
1	 9.322397931584156e-02	 1.033303217683504e+00	 1.781795993882216e+00
1	 7.435693305594188e-02	 1.034832013663499e+00	-1.793310534348022e+01
1	 5.559282718040544e-02	 1.036009501676469e+00	-3.916265567441273e+01
1	 3.694002241448566e-02	 1.036842169639627e+00	-6.170693436987175e+01
1	 1.840652818174105e-02	 1.037336709906688e+00	-8.536928333185435e+01
1	 0.000000000000000e+00	 1.037500000000000e+00	-1.099568653516930e+02
1	 1.910612050395216e-01	 1.032470636830427e+00	 7.414339356992579e+01
1	 1.715849773800944e-01	 1.035885416214862e+00	 6.584491167733309e+01
1	 1.521654634732146e-01	 1.038915623001414e+00	 5.444425337866775e+01
1	 1.328128220738531e-01	 1.041566490573059e+00	 4.013814834880424e+01
1	 1.135368872585706e-01	 1.043843558788917e+00	 2.312582082448004e+01
1	 9.434715978505553e-02	 1.045752654041845e+00	 3.608155543604642e+00
1	 7.525279971525133e-02	 1.047299869250256e+00	-1.821310586189783e+01
1	 5.626262027562935e-02	 1.048491543865594e+00	-4.213613492077352e+01
1	 3.738508292306758e-02	 1.049334243972746e+00	-6.795975014820405e+01
1	 1.862829358019852e-02	 1.049834742556193e+00	-9.548411238485694e+01
1	 0.000000000000000e+00	 1.050000000000000e+00	-1.245113798020437e+02
1	 1.933357431920845e-01	 1.044761953938439e+00	 7.782037655902182e+01
1	 1.736276556789268e-01	 1.048217385457841e+00	 7.004051375712908e+01
1	 1.539769570822495e-01	 1.051283666134210e+00	 5.861125189276768e+01
1	 1.343939270945792e-01	 1.053966091652700e+00	 4.371983598621104e+01
1	 1.148885168648128e-01	 1.056270267823132e+00	 2.555829393571663e+01
1	 9.547034025489304e-02	 1.058202090400186e+00	 4.322535862542111e+00
1	 7.614866637511571e-02	 1.059767724837014e+00	-1.978852345049894e+01
1	 5.693241337131089e-02	 1.060973586054718e+00	-4.657381510773185e+01
1	 3.783014343198180e-02	 1.061826318305864e+00	-7.583093614044392e+01
1	 1.885005897883552e-02	 1.062332775205699e+00	-1.073569359681284e+02
1	 0.000000000000000e+00	 1.062500000000000e+00	-1.409490666364800e+02
1	 1.956102813451620e-01	 1.057053271046452e+00	 8.152063299302007e+01
1	 1.756703339783578e-01	 1.060549354700821e+00	 7.401217621873944e+01
1	 1.557884506919354e-01	 1.063651709267005e+00	 6.232094925419946e+01
1	 1.359750321159775e-01	 1.066365692732341e+00	 4.662483857223756e+01
1	 1.162401464717178e-01	 1.068696976857348e+00	 2.710876689796184e+01
1	 9.659352072535407e-02	 1.070651526758527e+00	 3.963726923442280e+00
1	 7.704453303553507e-02	 1.072235580423771e+00	-2.261416914222522e+01
1	 5.760220646745011e-02	 1.073455628243843e+00	-5.242461945887715e+01
1	 3.827520394122830e-02	 1.074318392638983e+00	-8.526403757233470e+01
1	 1.907182437765204e-02	 1.074830807855205e+00	-1.209264286917606e+02
1	 0.000000000000000e+00	 1.075000000000000e+00	-1.592042337957706e+02
1	 1.978848194987542e-01	 1.069344588154466e+00	 8.524336033915853e+01
1	 1.777130122783873e-01	 1.072881323943800e+00	 7.776762111778663e+01
1	 1.575999443022721e-01	 1.076019752399801e+00	 6.558911446802244e+01
1	 1.375561371380478e-01	 1.078765293811981e+00	 4.887649007391689e+01
1	 1.175917760792856e-01	 1.081123685891564e+00	 2.780765350913467e+01
1	 9.771670119643860e-02	 1.083100963116868e+00	 2.568735252050146e+00
1	 7.794039969650934e-02	 1.084703436010529e+00	-2.664693162364123e+01
1	 5.827199956404695e-02	 1.085937670432968e+00	-5.963981955527908e+01
1	 3.872026445080710e-02	 1.086810466972101e+00	-9.620519529135002e+01
1	 1.929358977664810e-02	 1.087328840504710e+00	-1.361340847239026e+02
1	 0.000000000000000e+00	 1.087500000000000e+00	-1.792142095451230e+02
1	 2.001593576528611e-01	 1.081635905262479e+00	 8.898779254343813e+01
1	 1.797556905790155e-01	 1.085213293186779e+00	 8.131421950735997e+01
1	 1.594114379132596e-01	 1.088387795532598e+00	 6.843079976633339e+01
1	 1.391372421607902e-01	 1.091164894891622e+00	 5.049706382341526e+01
1	 1.189434056875161e-01	 1.093550394925780e+00	 2.768398512180075e+01
1	 9.883988166814665e-02	 1.095550399475209e+00	 1.728852593213084e-01
1	 7.883626635803856e-02	 1.097171291597286e+00	-3.184565918643478e+01
1	 5.894179266110147e-02	 1.098419712622093e+00	-6.817290190609100e+01
1	 3.916532496071819e-02	 1.099302541305220e+00	-1.086029982881895e+02
1	 1.951535517582367e-02	 1.099826873154216e+00	-1.529240575886030e+02
1	 0.000000000000000e+00	 1.100000000000000e+00	-2.009191708648458e+02
1	 2.024338958074826e-01	 1.093927222370491e+00	 9.275319798125352e+01
1	 1.817983688802422e-01	 1.097545262429758e+00	 8.465901115725921e+01
1	 1.612229315248981e-01	 1.100755838665393e+00	 7.086038087641049e+01
1	 1.407183471842047e-01	 1.103564495971262e+00	 5.150783210426091e+01
1	 1.202950352964094e-01	 1.105977103959997e+00	 2.676548830864129e+01
1	 9.996306214047822e-02	 1.107999835833549e+00	-3.190086257746131e+00
1	 7.973213302012272e-02	 1.109639147184044e+00	-3.817104963724294e+01
1	 5.961158575861362e-02	 1.110901754811217e+00	-7.797944351438916e+01
1	 3.961038547096159e-02	 1.111794615638339e+00	-1.224083461606460e+02
1	 1.973712057517876e-02	 1.112324905803722e+00	-1.712430107638018e+02
1	 0.000000000000000e+00	 1.112500000000000e+00	-2.242619834101824e+02
1	 2.047084339626188e-01	 1.106218539478505e+00	 9.653887754464887e+01
1	 1.838410471820675e-01	 1.109877231672737e+00	 8.780872295862282e+01
1	 1.630344251371875e-01	 1.113123881798189e+00	 7.289159460431526e+01
1	 1.422994522082913e-01	 1.115964097050903e+00	 5.192912176515751e+01
1	 1.216466649059655e-01	 1.118403812994212e+00	 2.507865735022416e+01
1	 1.010862426134333e-01	 1.120449272191891e+00	-7.487941915339103e+00
1	 8.062799968276181e-02	 1.122107002770802e+00	-4.558554754682328e+01
1	 6.028137885658343e-02	 1.123383797000342e+00	-8.901699573862440e+01
1	 4.005544598153728e-02	 1.124286689971457e+00	-1.375743207465488e+02
1	 1.995888597471339e-02	 1.124822938453228e+00	-1.910399782394478e+02
1	 0.000000000000000e+00	 1.125000000000000e+00	-2.491880521404868e+02
1	 1.125000000000000e+00	 0.000000000000000e+00	 1.490679757785353e+02
1	 1.124822938453228e+00	 1.995888597471274e-02	 1.275492907575814e+02
1	 1.124286689971457e+00	 4.005544598153672e-02	 1.048498252938185e+02
1	 1.123383797000342e+00	 6.028137885658293e-02	 8.117973238645361e+01
1	 1.122107002770802e+00	 8.062799968276138e-02	 5.676004313471201e+01
1	 1.120449272191891e+00	 1.010862426134330e-01	 3.182233362758998e+01
1	 1.118403812994212e+00	 1.216466649059652e-01	 6.608324658653066e+00
1	 1.115964097050903e+00	 1.422994522082910e-01	-1.863058722421499e+01
1	 1.113123881798189e+00	 1.630344251371873e-01	-4.363386840051613e+01
1	 1.109877231672737e+00	 1.838410471820675e-01	-6.813245719308976e+01
1	 1.106218539478505e+00	 2.047084339626188e-01	-9.184944331976253e+01
1	 1.137500000000000e+00	 0.000000000000000e+00	 1.338176886196714e+02
1	 1.137320971102731e+00	 2.018065137442460e-02	 1.154084635901602e+02
1	 1.136778764304567e+00	 4.050050649243549e-02	 9.590634946826343e+01
1	 1.135865839189446e+00	 6.095117195498952e-02	 7.548664098597666e+01
1	 1.134574858357522e+00	 8.152386634591800e-02	 5.433399955645707e+01
1	 1.132898708550173e+00	 1.022094230869528e-01	 3.264218719618802e+01
1	 1.130830522028343e+00	 1.229982945160989e-01	 1.061374362192266e+01
1	 1.128363698130427e+00	 1.438805572329329e-01	-1.154039483058681e+01
1	 1.125491924930832e+00	 1.648459187499742e-01	-3.360133546595777e+01
1	 1.122209200915521e+00	 1.858837254842960e-01	-5.534272927911822e+01
1	 1.118509856586275e+00	 2.069829721180270e-01	-7.653133098835026e+01
1	 1.150000000000000e+00	 0.000000000000000e+00	 1.213795616440364e+02
1	 1.149819003752230e+00	 2.040241677431140e-02	 1.056648386194183e+02
1	 1.149270838637657e+00	 4.094556700364810e-02	 8.894202381325491e+01
1	 1.148347881378508e+00	 6.162096505381197e-02	 7.135212610790313e+01
1	 1.147042713944167e+00	 8.241973300955485e-02	 5.304403423814959e+01
1	 1.145348144908337e+00	 1.033326035609785e-01	 3.417431689193131e+01
1	 1.143257231062303e+00	 1.243499241267248e-01	 1.490697619222009e+01
1	 1.140763299209717e+00	 1.454616622580135e-01	-4.586846658180694e+00
1	 1.137859968063168e+00	 1.666574123631049e-01	-2.412921450373323e+01
1	 1.134541170157914e+00	 1.879264037867323e-01	-4.353578675778402e+01
1	 1.130801173693560e+00	 2.092575102734646e-01	-6.261626160173098e+01
1	 1.162500000000000e+00	 0.000000000000000e+00	 1.116628800073107e+02
1	 1.162317036401724e+00	 2.062418217437315e-02	 9.824108674242872e+01
1	 1.161762912970730e+00	 4.139062751517460e-02	 8.389300477501548e+01
1	 1.160829923567528e+00	 6.229075815305031e-02	 6.872591109028065e+01
1	 1.159510569530738e+00	 8.331559967367190e-02	 5.285349949402425e+01
1	 1.157797581266385e+00	 1.044557840355102e-01	 3.639574606560354e+01
1	 1.155683940096093e+00	 1.257015537378430e-01	 1.947873805971822e+01
1	 1.153162900288774e+00	 1.470427672835326e-01	 2.234465171234203e+00
1	 1.150228011195196e+00	 1.684689059765797e-01	-1.519942770809444e+01
1	 1.146873139399917e+00	 1.899690820893765e-01	-3.267992687423255e+01
1	 1.143092490800359e+00	 2.115320484289315e-01	-5.005897570976184e+01
1	 1.175000000000000e+00	 0.000000000000000e+00	 1.045807890711692e+02
1	 1.174815069051214e+00	 2.084594757460985e-02	 9.306316945628760e+01
1	 1.174254987303784e+00	 4.183568802701497e-02	 8.069816554667320e+01
1	 1.173311965756507e+00	 6.296055125270457e-02	 6.755985870354525e+01
1	 1.171978425117234e+00	 8.421146633826908e-02	 5.372730711429168e+01
1	 1.170247017624314e+00	 1.055789645105478e-01	 3.928447579774014e+01
1	 1.168110649129713e+00	 1.270531833494537e-01	 2.432013999160633e+01
1	 1.165562501367597e+00	 1.486238723094903e-01	 8.927760966600115e+00
1	 1.162596054326918e+00	 1.702803995903985e-01	-6.794666541638185e+00
1	 1.159205108641529e+00	 1.920117603922284e-01	-2.274479592704235e+01
1	 1.155383807906674e+00	 2.138065865844276e-01	-3.881613979641183e+01
1	 1.187500000000000e+00	 0.000000000000000e+00	 1.000500912345525e+02
1	 1.187313101700699e+00	 2.106771297502151e-02	 9.006016566864466e+01
1	 1.186747061636820e+00	 4.228074853916918e-02	 7.929895308158507e+01
1	 1.185794007945443e+00	 6.363034435277468e-02	 6.780785854881883e+01
1	 1.184446280703655e+00	 8.510733300334646e-02	 5.563184628745611e+01
1	 1.182696453982126e+00	 1.067021449860912e-01	 4.281943343916804e+01
1	 1.180537358163162e+00	 1.284048129615565e-01	 2.942266703856182e+01
1	 1.177962102446187e+00	 1.502049773358866e-01	 1.549708333963840e+01
1	 1.174964097458333e+00	 1.720918932045612e-01	 1.101648752502849e+00
1	 1.171537077882749e+00	 1.940544386952882e-01	-1.370131826541102e+01
1	 1.167675125012503e+00	 2.160811247399532e-01	-2.884624491480510e+01
1	 1.200000000000000e+00	 0.000000000000000e+00	 9.799105546298263e+01
1	 1.199811134350180e+00	 2.128947837560811e-02	 8.916410933257524e+01
1	 1.199239135969837e+00	 4.272580905163728e-02	 7.963925404332885e+01
1	 1.198276050134338e+00	 6.430013745326070e-02	 6.942572149381252e+01
1	 1.196914136290001e+00	 8.600319966890399e-02	 5.853490665248822e+01
1	 1.195145890339820e+00	 1.078253254621407e-01	 4.698042436776143e+01
1	 1.192964067196440e+00	 1.297564425741518e-01	 3.477815904081937e+01
1	 1.190361703524544e+00	 1.517860823627215e-01	 2.194630645991344e+01
1	 1.187332140589441e+00	 1.739033868190680e-01	 8.505407107980250e+00
1	 1.183869047123579e+00	 1.960971169985557e-01	-5.521629724017014e+00
1	 1.179966442117847e+00	 2.183556628955082e-01	-2.010951165757457e+01
1	 1.212500000000000e+00	 0.000000000000000e+00	 9.832723859957107e+01
1	 1.212309166999656e+00	 2.151124377636965e-02	 9.030983712465542e+01
1	 1.211731210302836e+00	 4.317086956441923e-02	 8.166526904744683e+01
1	 1.210758092323192e+00	 6.496993055416259e-02	 7.237108063846783e+01
1	 1.209381991876273e+00	 8.689906633494171e-02	 6.240560611065735e+01
1	 1.207595326697396e+00	 1.089485059386960e-01	 5.174808672931559e+01
1	 1.205390776229548e+00	 1.311080721872393e-01	 4.037879234004880e+01
1	 1.202761304602666e+00	 1.533671873899949e-01	 2.827914473741804e+01
1	 1.199700183720242e+00	 1.757148804339188e-01	 1.543184224467461e+01
1	 1.196201016364018e+00	 1.981397953020310e-01	 1.820984824686871e+00
1	 1.192257759222705e+00	 2.206302010510924e-01	-1.256780100533792e+01
1	 1.225000000000000e+00	 0.000000000000000e+00	 1.009853176161680e+02
1	 1.224807199649127e+00	 2.173300917730615e-02	 9.343484544886957e+01
1	 1.224223284635816e+00	 4.361593007751505e-02	 8.532539460267496e+01
1	 1.223240134512003e+00	 6.563972365548039e-02	 7.660329834392623e+01
1	 1.221849847462470e+00	 8.779493300145964e-02	 6.721432305704754e+01
1	 1.220044763054855e+00	 1.100716864157573e-01	 5.710384894938763e+01
1	 1.217817485262486e+00	 1.324597018008191e-01	 4.621706261091462e+01
1	 1.215160905680556e+00	 1.549482924177070e-01	 3.449916097357216e+01
1	 1.212068226850737e+00	 1.775263740491136e-01	 2.189556609797021e+01
1	 1.208532985604066e+00	 2.001824736057143e-01	 8.352150094851400e+00
1	 1.204549076327078e+00	 2.229047392067060e-01	-6.184530633430464e+00
1	 1.237500000000000e+00	 0.000000000000000e+00	 1.058949320311086e+02
1	 1.237305232298594e+00	 2.195477457841760e-02	 9.847915610694690e+01
1	 1.236715358968778e+00	 4.406099059092473e-02	 9.057011220724851e+01
1	 1.235722176700773e+00	 6.630951675721405e-02	 8.208337889610590e+01
1	 1.234317703048592e+00	 8.869079966845773e-02	 7.293263271925446e+01
1	 1.232494199412197e+00	 1.111948668933245e-01	 6.302988982017757e+01
1	 1.230244194295253e+00	 1.338113314148913e-01	 5.228576873314681e+01
1	 1.227560506758211e+00	 1.565293974458576e-01	 4.060977401822143e+01
1	 1.224436269980924e+00	 1.793378676646523e-01	 2.791060022201292e+01
1	 1.220864954843724e+00	 2.022251519096052e-01	 1.409645545861586e+01
1	 1.216840393430966e+00	 2.251792773623488e-01	-9.245962909573997e-01
1	 1.250000000000000e+00	 0.000000000000000e+00	 1.129885357818937e+02
1	 1.249803264948056e+00	 2.217653997970400e-02	 1.053851900284781e+02
1	 1.249207433301722e+00	 4.450605110464827e-02	 9.735188409942933e+01
1	 1.248204218889501e+00	 6.697930985936361e-02	 8.877388640946444e+01
1	 1.246785558634639e+00	 8.958666633593600e-02	 7.953324731575987e+01
1	 1.244943635769421e+00	 1.123180473713976e-01	 6.950910098219600e+01
1	 1.242670903327850e+00	 1.351629610294558e-01	 5.857799763128762e+01
1	 1.239960107835634e+00	 1.581105024744469e-01	 4.661426596721618e+01
1	 1.236804313110804e+00	 1.811493612805350e-01	 3.349040530877241e+01
1	 1.233196924082991e+00	 2.042678302137040e-01	 1.907750671321002e+01
1	 1.229131710534368e+00	 2.274538155180211e-01	 3.245702102896992e+00
1	 1.106218539478505e+00	 2.047084339626188e-01	-9.184944331976253e+01
1	 1.102142547591368e+00	 2.256253638614272e-01	-9.266514988935093e+01
1	 1.097644368907272e+00	 2.465802900510737e-01	-9.281887949833457e+01
1	 1.092719507434896e+00	 2.675613539221362e-01	-9.237432195590047e+01
1	 1.087363878431055e+00	 2.885563999111739e-01	-9.139883095082843e+01
1	 1.081573827976446e+00	 3.095529917259612e-01	-8.996327667085129e+01
1	 1.075346151886618e+00	 3.305384299522137e-01	-8.814187491460058e+01
1	 1.068678113852559e+00	 3.514997710187806e-01	-8.601199275750857e+01
1	 1.061567462705179e+00	 3.724238474895377e-01	-8.365393102380114e+01
1	 1.054012448698681e+00	 3.932972896413123e-01	-8.115068401512181e+01
1	 1.046011838709305e+00	 4.141065482781622e-01	-7.858767715045713e+01
1	 1.118509856586275e+00	 2.069829721180270e-01	-7.653133098835026e+01
1	 1.114388575900822e+00	 2.281323123490921e-01	-7.808139577718585e+01
1	 1.109840417453845e+00	 2.493200710519664e-01	-7.902232330757758e+01
1	 1.104860835298564e+00	 2.705342578549000e-01	-7.940477280949554e+01
1	 1.099445699305754e+00	 2.917625821326358e-01	-7.928258518905236e+01
1	 1.093591314957006e+00	 3.129924694119225e-01	-7.871267314392966e+01
1	 1.087294442465818e+00	 3.342110791738725e-01	-7.775489148823925e+01
1	 1.080552315119742e+00	 3.554053240298770e-01	-7.647188764896374e+01
1	 1.073362656736697e+00	 3.765618902389651e-01	-7.492893245309681e+01
1	 1.065723698129263e+00	 3.976672595254847e-01	-7.319373148873922e+01
1	 1.057634192472302e+00	 4.187077321468711e-01	-7.133621749314855e+01
1	 1.130801173693560e+00	 2.092575102734646e-01	-6.261626160173098e+01
1	 1.126634604209704e+00	 2.306392608366003e-01	-6.476093399287203e+01
1	 1.122036465999790e+00	 2.520598520525441e-01	-6.634831027924443e+01
1	 1.117002163161574e+00	 2.735071617872195e-01	-6.741624062400005e+01
1	 1.111527520179795e+00	 2.949687643535529e-01	-6.800528228035296e+01
1	 1.105608801936938e+00	 3.164319470972682e-01	-6.815862668366890e+01
1	 1.099242733044450e+00	 3.378837283948746e-01	-6.792201041802335e+01
1	 1.092426516386447e+00	 3.593108770403062e-01	-6.734360992133954e+01
1	 1.085157850767857e+00	 3.806999329877463e-01	-6.647391991685784e+01
1	 1.077434947559639e+00	 4.020372294090629e-01	-6.536561568899319e+01
1	 1.069256546235278e+00	 4.233089160150696e-01	-6.407339945744855e+01
1	 1.143092490800359e+00	 2.115320484289315e-01	-5.005897570976184e+01
1	 1.138880632518016e+00	 2.331462093239517e-01	-5.266301317078116e+01
1	 1.134232514545106e+00	 2.547996330528071e-01	-5.476062934343960e+01
1	 1.129143491023926e+00	 2.764800657190944e-01	-5.637707969090961e+01
1	 1.123609341053178e+00	 2.981749465739247e-01	-5.753985955199482e+01
1	 1.117626288916241e+00	 3.198714247819978e-01	-5.827866770723411e+01
1	 1.111191023622513e+00	 3.415563776152200e-01	-5.862535743436219e+01
1	 1.104300717652674e+00	 3.632164300500684e-01	-5.861387482036670e+01
1	 1.096953044798661e+00	 3.848379757358811e-01	-5.828018418810549e+01
1	 1.089146196989810e+00	 4.064071992920468e-01	-5.766218059236604e+01
1	 1.080878899998233e+00	 4.279100998827580e-01	-5.679958944256719e+01
1	 1.155383807906674e+00	 2.138065865844276e-01	-3.881613979641183e+01
1	 1.151126660825756e+00	 2.356531578111465e-01	-4.174861604599887e+01
1	 1.146428563089792e+00	 2.575394140527553e-01	-4.422461032689529e+01
1	 1.141284818885619e+00	 2.794529696505251e-01	-4.625699092763983e+01
1	 1.135691161925902e+00	 3.013811287937518e-01	-4.786040593435567e+01
1	 1.129643775894916e+00	 3.233109024661115e-01	-4.905128278426236e+01
1	 1.123139314200007e+00	 3.452290268349085e-01	-4.984781887488805e+01
1	 1.116174918918422e+00	 3.671219830591637e-01	-5.026996290047138e+01
1	 1.108748238829107e+00	 3.889760184833697e-01	-5.033938664526487e+01
1	 1.100857446419777e+00	 4.107771691744366e-01	-5.007944702740443e+01
1	 1.092501253761168e+00	 4.325112837499361e-01	-4.951513825625892e+01
1	 1.167675125012503e+00	 2.160811247399532e-01	-2.884624491480510e+01
1	 1.163372689132924e+00	 2.381601062981845e-01	-3.198036818586339e+01
1	 1.158624611633849e+00	 2.602791950523886e-01	-3.470704285314705e+01
1	 1.153426146746654e+00	 2.824258735815113e-01	-3.702695100247654e+01
1	 1.147772982797968e+00	 3.045873110130340e-01	-3.894210135023503e+01
1	 1.141661262872963e+00	 3.267503801496095e-01	-4.045586431304811e+01
1	 1.135087604776933e+00	 3.489016760539403e-01	-4.157300165249650e+01
1	 1.128049120183692e+00	 3.710275360675916e-01	-4.229969027168525e+01
1	 1.120543432859196e+00	 3.931140612302118e-01	-4.264353976661755e+01
1	 1.112568695849540e+00	 4.151471390562321e-01	-4.261360336671618e+01
1	 1.104123607524082e+00	 4.371124676166038e-01	-4.222038193542529e+01
1	 1.179966442117847e+00	 2.183556628955082e-01	-2.010951165757457e+01
1	 1.175618717439522e+00	 2.406670547850658e-01	-2.332245242578334e+01
1	 1.170820660177278e+00	 2.630189760517072e-01	-2.617610031144855e+01
1	 1.165567474607031e+00	 2.853987775120529e-01	-2.865914588921670e+01
1	 1.159854803669377e+00	 3.077934932317711e-01	-3.076115989233141e+01
1	 1.153678749850381e+00	 3.301898578324914e-01	-3.247266334196680e+01
1	 1.147035895353290e+00	 3.525743252723154e-01	-3.378519572538471e+01
1	 1.139923321448485e+00	 3.749330890753527e-01	-3.469138070612451e+01
1	 1.132338626888928e+00	 3.972521039764076e-01	-3.518498884385092e+01
1	 1.124279945279097e+00	 4.195171089374333e-01	-3.526099680071714e+01
1	 1.115745961286976e+00	 4.417136514827613e-01	-3.491564251543039e+01
1	 1.192257759222705e+00	 2.206302010510924e-01	-1.256780100533792e+01
1	 1.187864745745548e+00	 2.431740032717905e-01	-1.574052859768569e+01
1	 1.183016708720077e+00	 2.657587570507109e-01	-1.860126852864006e+01
1	 1.177708802466750e+00	 2.883716814421504e-01	-2.112690853183150e+01
1	 1.171936624540126e+00	 3.109996754499633e-01	-2.329477651551463e+01
1	 1.165696236827171e+00	 3.336293355147576e-01	-2.508274530916069e+01
1	 1.158984185929078e+00	 3.562469744900338e-01	-2.646933888853032e+01
1	 1.151797522712798e+00	 3.788386420824467e-01	-2.743383946984101e+01
1	 1.144133820918304e+00	 4.013901467219569e-01	-2.795639482672753e+01
1	 1.135991194708451e+00	 4.238870788180404e-01	-2.801812515114596e+01
1	 1.127368315049849e+00	 4.463148353484084e-01	-2.760122875182953e+01
1	 1.204549076327078e+00	 2.229047392067060e-01	-6.184530633430464e+00
1	 1.200110774051002e+00	 2.456809517583584e-01	-9.201658173048330e+00
1	 1.195212757262247e+00	 2.684985380493998e-01	-1.195327880804567e+01
1	 1.189850130325810e+00	 2.913445853718033e-01	-1.440466032557893e+01
1	 1.184018445410218e+00	 3.142058576676106e-01	-1.652107699283702e+01
1	 1.177713723803332e+00	 3.370688131964078e-01	-1.826794849204026e+01
1	 1.170932476504299e+00	 3.599196237070955e-01	-1.961098372079427e+01
1	 1.163671723976633e+00	 3.827441950888736e-01	-2.051632875680519e+01
1	 1.155929014947322e+00	 4.055281894668601e-01	-2.095071821808153e+01
1	 1.147702444137599e+00	 4.282570486980532e-01	-2.088162918579279e+01
1	 1.138990668812702e+00	 4.509160192135453e-01	-2.027743679791041e+01
1	 1.216840393430966e+00	 2.251792773623488e-01	-9.245962909573997e-01
1	 1.212356802355885e+00	 2.481879002447696e-01	-3.674233473021964e+00
1	 1.207408805803788e+00	 2.712383190477738e-01	-6.204045026619028e+00
1	 1.201991458184212e+00	 2.943174893010117e-01	-8.467856144715501e+00
1	 1.196100266279652e+00	 3.174120398847128e-01	-1.041907090451320e+01
1	 1.189731210778864e+00	 3.405082908774421e-01	-1.201084497499745e+01
1	 1.182880767078950e+00	 3.635922729235002e-01	-1.319626653522951e+01
1	 1.175545925239990e+00	 3.866497480946335e-01	-1.392854461173796e+01
1	 1.167724208975982e+00	 4.096662322111168e-01	-1.416120394487546e+01
1	 1.159413693566543e+00	 4.326270185774718e-01	-1.384828539900155e+01
1	 1.150613022575534e+00	 4.555172030781720e-01	-1.294455084117154e+01
1	 1.229131710534368e+00	 2.274538155180211e-01	 3.245702102896992e+00
1	 1.224602830660197e+00	 2.506948487310240e-01	 8.720888740552937e-01
1	 1.219604854344699e+00	 2.739781000458331e-01	-1.326604506260789e+00
1	 1.214132786041956e+00	 2.972903932297759e-01	-3.292932668545550e+00
1	 1.208182087148427e+00	 3.206182221012702e-01	-4.968607447561396e+00
1	 1.201748697753769e+00	 3.439477685578606e-01	-6.294703959056271e+00
1	 1.194829057653032e+00	 3.672649221392482e-01	-7.211878192371149e+00
1	 1.187420126502869e+00	 3.905553010997262e-01	-7.660595237573492e+00
1	 1.179519403004286e+00	 4.138042749547273e-01	-7.581367136994039e+00
1	 1.171124942995283e+00	 4.369969884562962e-01	-6.914999225342452e+00
1	 1.162235376338345e+00	 4.601183869422883e-01	-5.602843701611409e+00
1	 1.046011838709305e+00	 4.141065482781622e-01	-7.858767715045713e+01
1	 1.037564930248593e+00	 4.348379187240830e-01	-8.271202106191089e+01
1	 1.028671564192235e+00	 4.554775659241303e-01	-8.655064664696337e+01
1	 1.019332136131226e+00	 4.760115505788748e-01	-9.007162699896752e+01
1	 1.009547606256940e+00	 4.964258562287497e-01	-9.324333470461787e+01
1	 9.993195076959104e-01	 5.167064171925492e-01	-9.603457507850999e+01
1	 9.886499532180107e-01	 5.368391472596017e-01	-9.841472080683664e+01
1	 9.775416402487633e-01	 5.568099690270316e-01	-1.003538471635349e+02
1	 9.659978541247000e-01	 5.766048437667730e-01	-1.018228669308454e+02
1	 9.540224695395332e-01	 5.962098017009265e-01	-1.027936641325838e+02
1	 9.416199501384250e-01	 6.156109725587411e-01	-1.032392256730036e+02
1	 1.057634192472302e+00	 4.187077321468711e-01	-7.133621749314855e+01
1	 1.049093429472079e+00	 4.396694511529656e-01	-7.516812026533668e+01
1	 1.040101248236386e+00	 4.605384277660148e-01	-7.874400964273269e+01
1	 1.030658048751678e+00	 4.813005678054846e-01	-8.203537993155004e+01
1	 1.020764801878120e+00	 5.019416990733694e-01	-8.501398831249105e+01
1	 1.010423057776990e+00	 5.224475996031163e-01	-8.765197341476008e+01
1	 9.996349526933814e-01	 5.428040266706026e-01	-8.992197516775633e+01
1	 9.884032140242147e-01	 5.629967464573652e-01	-9.179725518712561e+01
1	 9.767311636097610e-01	 5.830115642494709e-01	-9.325181692378581e+01
1	 9.646227191958864e-01	 6.028343550492662e-01	-9.426052478329080e+01
1	 9.520823940238123e-01	 6.224510944718811e-01	-9.479922140897179e+01
1	 1.069256546235278e+00	 4.233089160150696e-01	-6.407339945744855e+01
1	 1.060621928695730e+00	 4.445009835814379e-01	-6.764215172733481e+01
1	 1.051530932280860e+00	 4.655992896075891e-01	-7.098409402168404e+01
1	 1.041983961372580e+00	 4.865895850318852e-01	-7.407408345055767e+01
1	 1.031981997499850e+00	 5.074575419178803e-01	-7.688720375206677e+01
1	 1.021526607858687e+00	 5.281887820136757e-01	-7.939886941619281e+01
1	 1.010619952169409e+00	 5.487689060816964e-01	-8.158493095726323e+01
1	 9.992647878003310e-01	 5.691835238878922e-01	-8.342178068387645e+01
1	 9.874644730954648e-01	 5.894182847324629e-01	-8.488645829024273e+01
1	 9.752229688528294e-01	 6.094589083980005e-01	-8.595675557403889e+01
1	 9.625448379097046e-01	 6.292912163855157e-01	-8.661131957341399e+01
1	 1.080878899998233e+00	 4.279100998827580e-01	-5.679958944256719e+01
1	 1.072150427919546e+00	 4.493325160095001e-01	-6.013353698787462e+01
1	 1.062960616325657e+00	 4.706601514488539e-01	-6.326939264236378e+01
1	 1.053309873993932e+00	 4.918786022580766e-01	-6.618531979509316e+01
1	 1.043199193122128e+00	 5.129733847622828e-01	-6.885967257713220e+01
1	 1.032630157941003e+00	 5.339299644242272e-01	-7.127108573875792e+01
1	 1.021604951646094e+00	 5.547337854928831e-01	-7.339856554863448e+01
1	 1.010126361577113e+00	 5.753703013186130e-01	-7.522158115467789e+01
1	 9.981977825818115e-01	 5.958250052157493e-01	-7.672015582466369e+01
1	 9.858232185103620e-01	 6.160834617471294e-01	-7.787495746811902e+01
1	 9.730072817961023e-01	 6.361313382996451e-01	-7.866738783001733e+01
1	 1.092501253761168e+00	 4.325112837499361e-01	-4.951513825625892e+01
1	 1.083678927143527e+00	 4.541640484371521e-01	-5.264172220224629e+01
1	 1.074390300370775e+00	 4.757210132898089e-01	-5.559846249699680e+01
1	 1.064635786615735e+00	 4.971676194840585e-01	-5.836677408770076e+01
1	 1.054416388744956e+00	 5.184892276065766e-01	-6.092822712641870e+01
1	 1.043733708023937e+00	 5.396711468347709e-01	-6.326462279772453e+01
1	 1.032589951123436e+00	 5.606986649041628e-01	-6.535807004394108e+01
1	 1.020987935354560e+00	 5.815570787495272e-01	-6.719106271739972e+01
1	 1.008931092068801e+00	 6.022317256993295e-01	-6.874655667066342e+01
1	 9.964234681684848e-01	 6.227080150966529e-01	-7.000804628144134e+01
1	 9.834697256830054e-01	 6.429714602142690e-01	-7.095963989932477e+01
1	 1.104123607524082e+00	 4.371124676166038e-01	-4.222038193542529e+01
1	 1.095207426367674e+00	 4.589955808643940e-01	-4.516617684551668e+01
1	 1.085819984416216e+00	 4.807818751304540e-01	-4.796992133602981e+01
1	 1.075961699237989e+00	 5.024566367098313e-01	-5.061622891944870e+01
1	 1.065633584368334e+00	 5.240050704507618e-01	-5.308983311386751e+01
1	 1.054837258107488e+00	 5.454123292453066e-01	-5.537564941192765e+01
1	 1.043574950601434e+00	 5.666635443155353e-01	-5.745883802516397e+01
1	 1.031849509132672e+00	 5.877438561806352e-01	-5.932486702178726e+01
1	 1.019664401556434e+00	 6.086384461832040e-01	-6.095957546054166e+01
1	 1.007023717827197e+00	 6.293325684465709e-01	-6.234923611134477e+01
1	 9.939321695704136e-01	 6.498115821293877e-01	-6.348061734521670e+01
1	 1.115745961286976e+00	 4.417136514827613e-01	-3.491564251543039e+01
1	 1.106735925591986e+00	 4.638271132912256e-01	-3.770639249795839e+01
1	 1.097249668461980e+00	 4.858427369707892e-01	-4.038244450364046e+01
1	 1.087287611860693e+00	 5.077456539353947e-01	-4.293155927344323e+01
1	 1.076850779992260e+00	 5.295209132948384e-01	-4.534158268200456e+01
1	 1.065940808191658e+00	 5.511535116558346e-01	-4.760049403274885e+01
1	 1.054559950080090e+00	 5.726284237270007e-01	-4.969645500836580e+01
1	 1.042711082911450e+00	 5.939306336119368e-01	-5.161785898217613e+01
1	 1.030397711044709e+00	 6.150451666673727e-01	-5.335338038358081e+01
1	 1.017623967486499e+00	 6.359571217968834e-01	-5.489202380110660e+01
1	 1.004394613458327e+00	 6.566517040450012e-01	-5.622317249973765e+01
1	 1.127368315049849e+00	 4.463148353484084e-01	-2.760122875182953e+01
1	 1.118264424816463e+00	 4.686586457176470e-01	-3.026188170560569e+01
1	 1.108679352508066e+00	 4.909035988108147e-01	-3.283476196898855e+01
1	 1.098613524483847e+00	 5.130346711607490e-01	-3.531072776235261e+01
1	 1.088067975616736e+00	 5.350367561388065e-01	-3.768068788500314e+01
1	 1.077044358276446e+00	 5.568946940663547e-01	-3.993563651563482e+01
1	 1.065544949559402e+00	 5.785933031385589e-01	-4.206668855018142e+01
1	 1.053572656690893e+00	 6.001174110434317e-01	-4.406511526900858e+01
1	 1.041131020533627e+00	 6.214518871518355e-01	-4.592238011609876e+01
1	 1.028224217146390e+00	 6.425816751475903e-01	-4.763017436540953e+01
1	 1.014857057346746e+00	 6.634918259611092e-01	-4.918045244411910e+01
1	 1.138990668812702e+00	 4.509160192135453e-01	-2.027743679791041e+01
1	 1.129792924041105e+00	 4.734901781436583e-01	-2.283217691057323e+01
1	 1.120109036554474e+00	 4.959644606505302e-01	-2.532565553922706e+01
1	 1.109939437107452e+00	 5.183236883858939e-01	-2.775178015751116e+01
1	 1.099285171241760e+00	 5.405525989826659e-01	-3.010447457074271e+01
1	 1.088147908361853e+00	 5.626358764768669e-01	-3.237770039540023e+01
1	 1.076529949039371e+00	 5.845581825502102e-01	-3.456547896003384e+01
1	 1.064434230471001e+00	 6.063041884751205e-01	-3.666191350495042e+01
1	 1.051864330023189e+00	 6.278586076365928e-01	-3.866121155170256e+01
1	 1.038824466806871e+00	 6.492062284986921e-01	-4.055770730812773e+01
1	 1.025319501235670e+00	 6.703319478777121e-01	-4.234588397055585e+01
1	 1.150613022575534e+00	 4.555172030781720e-01	-1.294455084117154e+01
1	 1.141321423265912e+00	 4.783217105692595e-01	-1.541682944620304e+01
1	 1.131538720601204e+00	 5.010253224899361e-01	-1.785395624142169e+01
1	 1.121265349731507e+00	 5.236127056108295e-01	-2.025284118898660e+01
1	 1.110502366867334e+00	 5.460684418264167e-01	-2.261037663365213e+01
1	 1.099251458447877e+00	 5.683770588873712e-01	-2.492344562969407e+01
1	 1.087514948519997e+00	 5.905230619619543e-01	-2.718893057524616e+01
1	 1.075295804251774e+00	 6.124909659070027e-01	-2.940372211578938e+01
1	 1.062597639513394e+00	 6.342653281216439e-01	-3.156472827516255e+01
1	 1.049424716467942e+00	 6.558307818501883e-01	-3.366888376933733e+01
1	 1.035781945125100e+00	 6.771720697948095e-01	-3.571315945539037e+01
1	 1.162235376338345e+00	 4.601183869422883e-01	-5.602843701611409e+00
1	 1.152849922490885e+00	 4.831532429944503e-01	-8.015408592503629e+00
1	 1.142968404648257e+00	 5.060861843290319e-01	-1.041854186155536e+01
1	 1.132591262356013e+00	 5.289017228355558e-01	-1.281211059764334e+01
1	 1.121719562493458e+00	 5.515842846700590e-01	-1.519593061238220e+01
1	 1.110355008534519e+00	 5.741182412978676e-01	-1.756976177785807e+01
1	 1.098499948001281e+00	 5.964879413737912e-01	-1.993330355964632e+01
1	 1.086157378033213e+00	 6.186777433390787e-01	-2.228619079027877e+01
1	 1.073330949004241e+00	 6.406720486069893e-01	-2.462798972785486e+01
1	 1.060024966129602e+00	 6.624553352020790e-01	-2.695819444350683e+01
1	 1.046244389015035e+00	 6.840121917124017e-01	-2.927622357990549e+01
1	 9.416199501384250e-01	 6.156109725587411e-01	-1.032392256730036e+02
1	 9.287953462274744e-01	 6.347946162837050e-01	-9.835101285974856e+01
1	 9.155542905770797e-01	 6.537471537568762e-01	-9.374338337701568e+01
1	 9.019029923075504e-01	 6.724551973985354e-01	-8.946157946352093e+01
1	 8.878482288567273e-01	 6.909055815084219e-01	-8.554986182436087e+01
1	 8.733973360420002e-01	 7.090853922058951e-01	-8.205131452477255e+01
1	 8.585581962397351e-01	 7.269819968306050e-01	-7.900765418282047e+01
1	 8.433392247169470e-01	 7.445830726661317e-01	-7.645904479059423e+01
1	 8.277493541614975e-01	 7.618766348516912e-01	-7.444391946156367e+01
1	 8.117980174683143e-01	 7.788510633507310e-01	-7.299881035609914e+01
1	 7.954951288500001e-01	 7.954951288500001e-01	-7.215818797822337e+01
1	 9.520823940238123e-01	 6.224510944718811e-01	-9.479922140897179e+01
1	 9.391152945140595e-01	 6.418478897935279e-01	-9.053898627629017e+01
1	 9.257271160232740e-01	 6.610110110161846e-01	-8.651448429035864e+01
1	 9.119241366619902e-01	 6.799269218092460e-01	-8.276666080203086e+01
1	 8.977132091729143e-01	 6.985823101868938e-01	-7.933563674046589e+01
1	 8.831017508825175e-01	 7.169641187809249e-01	-7.626053223971797e+01
1	 8.680977317491259e-01	 7.350595745680968e-01	-7.357929382041587e+01
1	 8.527096605427205e-01	 7.528562179129182e-01	-7.132852632725283e+01
1	 8.369465692032501e-01	 7.703419307894854e-01	-6.954333079690203e+01
1	 8.208179954355866e-01	 7.875049640497287e-01	-6.825714939248977e+01
1	 8.043339636102501e-01	 8.043339636102501e-01	-6.750161849023317e+01
1	 9.625448379097046e-01	 6.292912163855157e-01	-8.661131957341399e+01
1	 9.494352428010591e-01	 6.489011633039358e-01	-8.294276953762827e+01
1	 9.358999414698121e-01	 6.682748682761483e-01	-7.946621927729717e+01
1	 9.219452810167237e-01	 6.873986462206629e-01	-7.621839051666464e+01
1	 9.075781894893646e-01	 7.062590388661032e-01	-7.323533520583993e+01
1	 8.928061657232872e-01	 7.248428453567026e-01	-7.055227760474743e+01
1	 8.776372672587778e-01	 7.431371523063274e-01	-6.820345918868102e+01
1	 8.620800963687846e-01	 7.611293631604144e-01	-6.622198744910642e+01
1	 8.461437842453429e-01	 7.788072267279392e-01	-6.463968964300142e+01
1	 8.298379734032688e-01	 7.961588647493163e-01	-6.348697251260665e+01
1	 8.131727983709998e-01	 8.131727983709998e-01	-6.279268895523496e+01
1	 9.730072817961023e-01	 6.361313382996451e-01	-7.866738783001733e+01
1	 9.597551910884740e-01	 6.559544368149283e-01	-7.555540103593381e+01
1	 9.460727669166951e-01	 6.755387255367674e-01	-7.259276143228115e+01
1	 9.319664253717509e-01	 6.948703706327861e-01	-6.981203801468030e+01
1	 9.174431698060769e-01	 7.139357675460493e-01	-6.724528226730708e+01
1	 9.025105805643084e-01	 7.327215719332285e-01	-6.492388843762026e+01
1	 8.871768027686909e-01	 7.512147300452967e-01	-6.287845590922434e+01
1	 8.714505321951391e-01	 7.694025084086192e-01	-6.113865462116519e+01
1	 8.553409992877762e-01	 7.872725226670531e-01	-5.973309446727454e+01
1	 8.388579513713611e-01	 8.048127654494942e-01	-5.868919958473660e+01
1	 8.220116331322499e-01	 8.220116331322499e-01	-5.803308840702471e+01
1	 9.834697256830054e-01	 6.429714602142690e-01	-7.095963989932477e+01
1	 9.700751393763041e-01	 6.630077103265059e-01	-6.837021540200234e+01
1	 9.562455923639225e-01	 6.828025827980423e-01	-6.588853180318399e+01
1	 9.419875697270718e-01	 7.023420950456155e-01	-6.354307400515215e+01
1	 9.273081501230523e-01	 7.216124962267327e-01	-6.136195935267696e+01
1	 9.122149954055820e-01	 7.406002985105027e-01	-5.937281584044668e+01
1	 8.967163382788652e-01	 7.592923077850046e-01	-5.760266170486295e+01
1	 8.808209680217846e-01	 7.776756536575339e-01	-5.607778722482237e+01
1	 8.645382143305497e-01	 7.957378186068262e-01	-5.482363954703074e+01
1	 8.478779293398637e-01	 8.134666661502616e-01	-5.386471133383360e+01
1	 8.308504678940001e-01	 8.308504678940001e-01	-5.322443400561802e+01
1	 9.939321695704136e-01	 6.498115821293877e-01	-6.348061734521670e+01
1	 9.803950876645493e-01	 6.700609838386684e-01	-6.138082791374859e+01
1	 9.664184178114943e-01	 6.900664400599723e-01	-5.934818634112325e+01
1	 9.520087140826864e-01	 7.098138194591513e-01	-5.740715990413916e+01
1	 9.371731304402908e-01	 7.292892249081534e-01	-5.558199604016619e+01
1	 9.219194102471076e-01	 7.484790250885244e-01	-5.389661823735317e+01
1	 9.062558737893012e-01	 7.673698855254514e-01	-5.237452260482171e+01
1	 8.901914038487204e-01	 7.859487989071573e-01	-5.103867582541266e+01
1	 8.737354293736630e-01	 8.042031145472591e-01	-4.991141519000900e+01
1	 8.568979073087760e-01	 8.221205668516193e-01	-4.901435140169566e+01
1	 8.396893026562502e-01	 8.396893026562502e-01	-4.836827482008074e+01
1	 1.004394613458327e+00	 6.566517040450012e-01	-5.622317249973765e+01
1	 9.907150359532092e-01	 6.771142573514157e-01	-5.458111987916870e+01
1	 9.765912432594107e-01	 6.973302973225582e-01	-5.296660366591655e+01
1	 9.620298584385946e-01	 7.172855438733935e-01	-5.140013790202920e+01
1	 9.470381107577920e-01	 7.369659535903109e-01	-4.990216234223175e+01
1	 9.316238250888850e-01	 7.563577516672941e-01	-4.849295578479415e+01
1	 9.157954092999983e-01	 7.754474632666368e-01	-4.719254938710825e+01
1	 8.995618396759473e-01	 7.942219441574904e-01	-4.602064054804897e+01
1	 8.829326444171172e-01	 8.126684104883521e-01	-4.499650794112537e+01
1	 8.659178852780987e-01	 8.307744675535668e-01	-4.413892827837780e+01
1	 8.485281374190000e-01	 8.485281374190000e-01	-4.346609537493286e+01
1	 1.014857057346746e+00	 6.634918259611092e-01	-4.918045244411910e+01
1	 1.001034984242285e+00	 6.841675308647481e-01	-4.796522492345014e+01
1	 9.867640687076716e-01	 7.045941545857993e-01	-4.673887358831367e+01
1	 9.720510027947967e-01	 7.247572682883416e-01	-4.551802164527522e+01
1	 9.569030910755562e-01	 7.446426822732061e-01	-4.431936146669244e+01
1	 9.413282399309146e-01	 7.642364782468121e-01	-4.315958512761780e+01
1	 9.253349448109566e-01	 7.835250410085610e-01	-4.205531424094658e+01
1	 9.089322755034644e-01	 8.024950894085326e-01	-4.102302955392196e+01
1	 8.921298594609115e-01	 8.211337064301045e-01	-4.007900077643351e+01
1	 8.749378632478313e-01	 8.394283682561041e-01	-3.923921711413895e+01
1	 8.573669721822499e-01	 8.573669721822500e-01	-3.851931897718689e+01
1	 1.025319501235670e+00	 6.703319478777121e-01	-4.234588397055585e+01
1	 1.011354932531775e+00	 6.912208043786654e-01	-4.152751611564548e+01
1	 9.969368941562768e-01	 7.118580118496960e-01	-4.066028633494910e+01
1	 9.820721471512923e-01	 7.322289927039963e-01	-3.975698748863609e+01
1	 9.667680713935828e-01	 7.523194109568380e-01	-3.883062302104745e+01
1	 9.510326547731961e-01	 7.721152048270781e-01	-3.789435447618845e+01
1	 9.348744803221760e-01	 7.916026187512237e-01	-3.696144763355205e+01
1	 9.183027113312726e-01	 8.107682346602844e-01	-3.604521760988857e+01
1	 9.013270745050462e-01	 8.295990023725169e-01	-3.515897328520943e+01
1	 8.839578412179739e-01	 8.480822689592314e-01	-3.431596142045100e+01
1	 8.662058069460000e-01	 8.662058069460000e-01	-3.352931083969013e+01
1	 1.035781945125100e+00	 6.771720697948095e-01	-3.571315945539037e+01
1	 1.021674880821681e+00	 6.982740778931678e-01	-3.526259387554843e+01
1	 1.007109719605227e+00	 7.191218691142480e-01	-3.472632242632851e+01
1	 9.920932915080820e-01	 7.397007171203575e-01	-3.411336627758646e+01
1	 9.766330517118729e-01	 7.599961396412075e-01	-3.343309662865366e+01
1	 9.607370696157297e-01	 7.799939314080919e-01	-3.269519898186617e+01
1	 9.444140158336568e-01	 7.996801964946254e-01	-3.190963536679781e+01
1	 9.276731471593713e-01	 8.190413799127453e-01	-3.108660474475089e+01
1	 9.105242895495208e-01	 8.380642983155886e-01	-3.023650184100057e+01
1	 8.929778191885266e-01	 8.567361696629487e-01	-2.936987466791778e+01
1	 8.750446417102501e-01	 8.750446417102501e-01	-2.849738101517359e+01
1	 1.046244389015035e+00	 6.840121917124017e-01	-2.927622357990549e+01
1	 1.031994829112001e+00	 7.053273514082546e-01	-2.916527460615680e+01
1	 1.017282545054521e+00	 7.263857263794559e-01	-2.893264316213407e+01
1	 1.002114435865165e+00	 7.471724415374245e-01	-2.858363562378024e+01
1	 9.864980320304253e-01	 7.676728683263137e-01	-2.812404592793345e+01
1	 9.704414844585151e-01	 7.878726579898537e-01	-2.756013638995602e+01
1	 9.539535513453987e-01	 8.077577742387658e-01	-2.689861581048282e+01
1	 9.370435829877606e-01	 8.273145251659155e-01	-2.614661498615941e+01
1	 9.197215045943361e-01	 8.465295942593203e-01	-2.531165976241246e+01
1	 9.019977971594894e-01	 8.653900703672559e-01	-2.440164178831865e+01
1	 8.838834764750000e-01	 8.838834764750000e-01	-2.342478715425799e+01
1	 7.954951288500001e-01	 7.954951288500001e-01	-7.215818797822337e+01
1	 7.788510633507308e-01	 8.117980174683144e-01	-7.005005847359627e+01
1	 7.618766348516911e-01	 8.277493541614976e-01	-6.744580044562137e+01
1	 7.445830726661320e-01	 8.433392247169471e-01	-6.434444905770960e+01
1	 7.269819968306053e-01	 8.585581962397351e-01	-6.074710016800971e+01
1	 7.090853922058953e-01	 8.733973360420000e-01	-5.665690230219226e+01
1	 6.909055815084221e-01	 8.878482288567272e-01	-5.207903753793169e+01
1	 6.724551973985359e-01	 9.019029923075501e-01	-4.702069148948529e+01
1	 6.537471537568769e-01	 9.155542905770793e-01	-4.149101267092023e+01
1	 6.347946162837055e-01	 9.287953462274742e-01	-3.550106160301883e+01
1	 6.156109725587411e-01	 9.416199501384250e-01	-2.906375011066534e+01
1	 8.043339636102501e-01	 8.043339636102501e-01	-6.750161849023317e+01
1	 7.875049640497286e-01	 8.208179954355866e-01	-6.519223859015707e+01
1	 7.703419307894857e-01	 8.369465692032504e-01	-6.247777110045618e+01
1	 7.528562179129183e-01	 8.527096605427203e-01	-5.935815353227524e+01
1	 7.350595745680969e-01	 8.680977317491256e-01	-5.583504475344441e+01
1	 7.169641187809250e-01	 8.831017508825173e-01	-5.191181575760393e+01
1	 6.985823101868941e-01	 8.977132091729141e-01	-4.759353114984665e+01
1	 6.799269218092464e-01	 9.119241366619899e-01	-4.288692152232455e+01
1	 6.610110110161852e-01	 9.257271160232733e-01	-3.780034696867411e+01
1	 6.418478897935284e-01	 9.391152945140590e-01	-3.234375205828347e+01
1	 6.224510944718810e-01	 9.520823940238121e-01	-2.652861265949931e+01
1	 8.131727983709998e-01	 8.131727983709998e-01	-6.279268895523496e+01
1	 7.961588647493163e-01	 8.298379734032689e-01	-6.029204905134786e+01
1	 7.788072267279395e-01	 8.461437842453429e-01	-5.747539620586736e+01
1	 7.611293631604142e-01	 8.620800963687844e-01	-5.434355670436452e+01
1	 7.431371523063276e-01	 8.776372672587778e-01	-5.089874396287532e+01
1	 7.248428453567030e-01	 8.928061657232867e-01	-4.714454810757948e+01
1	 7.062590388661033e-01	 9.075781894893641e-01	-4.308591805112232e+01
1	 6.873986462206633e-01	 9.219452810167234e-01	-3.872913622429315e+01
1	 6.682748682761487e-01	 9.358999414698115e-01	-3.408178618261996e+01
1	 6.489011633039364e-01	 9.494352428010588e-01	-2.915271336548608e+01
1	 6.292912163855158e-01	 9.625448379097047e-01	-2.395197933993659e+01
1	 8.220116331322499e-01	 8.220116331322499e-01	-5.803308840702471e+01
1	 8.048127654494940e-01	 8.388579513713611e-01	-5.535085662026304e+01
1	 7.872725226670528e-01	 8.553409992877761e-01	-5.243978368282114e+01
1	 7.694025084086196e-01	 8.714505321951391e-01	-4.930157151923576e+01
1	 7.512147300452968e-01	 8.871768027686908e-01	-4.593897990522383e+01
1	 7.327215719332288e-01	 9.025105805643083e-01	-4.235581487166726e+01
1	 7.139357675460497e-01	 9.174431698060764e-01	-3.855691136147369e+01
1	 6.948703706327866e-01	 9.319664253717506e-01	-3.454811028349737e+01
1	 6.755387255367677e-01	 9.460727669166946e-01	-3.033623015417808e+01
1	 6.559544368149288e-01	 9.597551910884736e-01	-2.592903356165726e+01
1	 6.361313382996451e-01	 9.730072817961023e-01	-2.133518872835753e+01
1	 8.308504678940001e-01	 8.308504678940001e-01	-5.322443400561802e+01
1	 8.134666661502615e-01	 8.478779293398638e-01	-5.036996989986422e+01
1	 7.957378186068262e-01	 8.645382143305497e-01	-4.737199430670953e+01
1	 7.776756536575337e-01	 8.808209680217844e-01	-4.423307207341216e+01
1	 7.592923077850048e-01	 8.967163382788653e-01	-4.095650140818015e+01
1	 7.406002985105028e-01	 9.122149954055819e-01	-3.754630112177533e+01
1	 7.216124962267330e-01	 9.273081501230521e-01	-3.400719385509620e+01
1	 7.023420950456158e-01	 9.419875697270713e-01	-3.034458542259254e+01
1	 6.828025827980426e-01	 9.562455923639220e-01	-2.656454043364473e+01
1	 6.630077103265065e-01	 9.700751393763041e-01	-2.267375438438028e+01
1	 6.429714602142689e-01	 9.834697256830051e-01	-1.867952244044672e+01
1	 8.396893026562502e-01	 8.396893026562502e-01	-4.836827482008074e+01
1	 8.221205668516191e-01	 8.568979073087760e-01	-4.535064239403970e+01
1	 8.042031145472591e-01	 8.737354293736630e-01	-4.227304418869704e+01
1	 7.859487989071573e-01	 8.901914038487202e-01	-3.913889565935292e+01
1	 7.673698855254515e-01	 9.062558737893011e-01	-3.595202576984765e+01
1	 7.484790250885247e-01	 9.219194102471072e-01	-3.271666308467880e+01
1	 7.292892249081535e-01	 9.371731304402904e-01	-2.943741955779851e+01
1	 7.098138194591518e-01	 9.520087140826861e-01	-2.611927213380683e+01
1	 6.900664400599729e-01	 9.664184178114940e-01	-2.276754229551543e+01
1	 6.700609838386691e-01	 9.803950876645489e-01	-1.938787370860430e+01
1	 6.498115821293877e-01	 9.939321695704137e-01	-1.598620812912474e+01
1	 8.485281374190000e-01	 8.485281374190000e-01	-4.346609537493286e+01
1	 8.307744675535665e-01	 8.659178852780989e-01	-4.029407537734837e+01
1	 8.126684104883521e-01	 8.829326444171173e-01	-3.714390710198247e+01
1	 7.942219441574904e-01	 8.995618396759469e-01	-3.401984468233077e+01
1	 7.754474632666368e-01	 9.157954092999980e-01	-3.092624040090848e+01
1	 7.563577516672944e-01	 9.316238250888849e-01	-2.786752964437034e+01
1	 7.369659535903115e-01	 9.470381107577917e-01	-2.484821524431396e+01
1	 7.172855438733938e-01	 9.620298584385945e-01	-2.187285130552562e+01
1	 6.973302973225586e-01	 9.765912432594104e-01	-1.894602662784830e+01
1	 6.771142573514164e-01	 9.907150359532090e-01	-1.607234783115628e+01
1	 6.566517040450012e-01	 1.004394613458327e+00	-1.325642229510804e+01
1	 8.573669721822499e-01	 8.573669721822500e-01	-3.851931897718689e+01
1	 8.394283682561042e-01	 8.749378632478314e-01	-3.520142058725280e+01
1	 8.211337064301045e-01	 8.921298594609115e-01	-3.198551666416818e+01
1	 8.024950894085328e-01	 9.089322755034644e-01	-2.887668845874101e+01
1	 7.835250410085610e-01	 9.253349448109562e-01	-2.587980436521222e+01
1	 7.642364782468123e-01	 9.413282399309145e-01	-2.299950375148244e+01
1	 7.446426822732063e-01	 9.569030910755558e-01	-2.024018184299510e+01
1	 7.247572682883421e-01	 9.720510027947962e-01	-1.760597574826311e+01
1	 7.045941545857998e-01	 9.867640687076713e-01	-1.510075170476165e+01
1	 6.841675308647487e-01	 1.001034984242284e+00	-1.272809361394347e+01
1	 6.634918259611091e-01	 1.014857057346746e+00	-1.049129292362089e+01
1	 8.662058069460000e-01	 8.662058069460000e-01	-3.352931083969013e+01
1	 8.480822689592312e-01	 8.839578412179739e-01	-3.007378275152231e+01
1	 8.295990023725168e-01	 9.013270745050461e-01	-2.679876838601495e+01
1	 8.107682346602842e-01	 9.183027113312724e-01	-2.371016490430963e+01
1	 7.916026187512240e-01	 9.348744803221758e-01	-2.081334982604318e+01
1	 7.721152048270784e-01	 9.510326547731961e-01	-1.811316374641730e+01
1	 7.523194109568384e-01	 9.667680713935827e-01	-1.561389575450683e+01
1	 7.322289927039969e-01	 9.820721471512921e-01	-1.331927162720694e+01
1	 7.118580118496967e-01	 9.969368941562767e-01	-1.123244485041029e+01
1	 6.912208043786661e-01	 1.011354932531775e+00	-9.355990495938759e+00
1	 6.703319478777120e-01	 1.025319501235670e+00	-7.691901959675672e+00
1	 8.750446417102501e-01	 8.750446417102501e-01	-2.849738101517359e+01
1	 8.567361696629487e-01	 8.929778191885266e-01	-2.491222196245992e+01
1	 8.380642983155886e-01	 9.105242895495208e-01	-2.158452159603031e+01
1	 8.190413799127454e-01	 9.276731471593713e-01	-1.852098211998494e+01
1	 7.996801964946257e-01	 9.444140158336568e-01	-1.572748340473511e+01
1	 7.799939314080920e-01	 9.607370696157294e-01	-1.320906460228846e+01
1	 7.599961396412075e-01	 9.766330517118722e-01	-1.096991009059871e+01
1	 7.397007171203579e-01	 9.920932915080817e-01	-9.013339807941151e+00
1	 7.191218691142488e-01	 1.007109719605227e+00	-7.341804002114690e+00
1	 6.982740778931683e-01	 1.021674880821680e+00	-5.956882383227614e+00
1	 6.771720697948095e-01	 1.035781945125100e+00	-4.859287633335393e+00
1	 8.838834764750000e-01	 8.838834764750000e-01	-2.342478715425799e+01
1	 8.653900703672558e-01	 9.019977971594894e-01	-1.971775590867597e+01
1	 8.465295942593203e-01	 9.197215045943362e-01	-1.634360124958073e+01
1	 8.273145251659157e-01	 9.370435829877607e-01	-1.330981988267795e+01
1	 8.077577742387659e-01	 9.539535513453987e-01	-1.062278745776757e+01
1	 7.878726579898540e-01	 9.704414844585149e-01	-8.287739093284738e+00
1	 7.676728683263140e-01	 9.864980320304252e-01	-6.308755838550100e+00
1	 7.471724415374250e-01	 1.002114435865165e+00	-4.688757121426487e+00
1	 7.263857263794565e-01	 1.017282545054521e+00	-3.429499179703166e+00
1	 7.053273514082554e-01	 1.031994829112000e+00	-2.531579425653399e+00
1	 6.840121917124017e-01	 1.046244389015035e+00	-1.994446645461734e+00
1	 6.156109725587411e-01	 9.416199501384250e-01	-2.906375011066534e+01
1	 5.962098017009264e-01	 9.540224695395332e-01	-2.021705753033773e+01
1	 5.766048437667730e-01	 9.659978541247000e-01	-1.350983309399181e+01
1	 5.568099690270316e-01	 9.775416402487633e-01	-8.946038566895194e+00
1	 5.368391472596018e-01	 9.886499532180105e-01	-6.522320487264587e+00
1	 5.167064171925495e-01	 9.993195076959103e-01	-6.228150372315937e+00
1	 4.964258562287501e-01	 1.009547606256940e+00	-8.045998613785287e+00
1	 4.760115505788752e-01	 1.019332136131226e+00	-1.195154015514224e+01
1	 4.554775659241308e-01	 1.028671564192235e+00	-1.791388983877577e+01
1	 4.348379187240837e-01	 1.037564930248593e+00	-2.589586513444860e+01
1	 4.141065482781622e-01	 1.046011838709305e+00	-3.585427381146116e+01
1	 6.224510944718810e-01	 9.520823940238121e-01	-2.652861265949931e+01
1	 6.028343550492661e-01	 9.646227191958865e-01	-1.838561638797365e+01
1	 5.830115642494710e-01	 9.767311636097610e-01	-1.220711422305439e+01
1	 5.629967464573653e-01	 9.884032140242146e-01	-7.998723886807625e+00
1	 5.428040266706029e-01	 9.996349526933817e-01	-5.759324790729156e+00
1	 5.224475996031166e-01	 1.010423057776989e+00	-5.481178840367797e+00
1	 5.019416990733697e-01	 1.020764801878120e+00	-7.150082471184433e+00
1	 4.813005678054852e-01	 1.030658048751678e+00	-1.074554820744176e+01
1	 4.605384277660153e-01	 1.040101248236386e+00	-1.624101384477181e+01
1	 4.396694511529662e-01	 1.049093429472078e+00	-2.360407719038898e+01
1	 4.187077321468711e-01	 1.057634192472302e+00	-3.279675415384956e+01
1	 6.292912163855158e-01	 9.625448379097047e-01	-2.395197933993659e+01
1	 6.094589083980003e-01	 9.752229688528293e-01	-1.651368061860685e+01
1	 5.894182847324629e-01	 9.874644730954647e-01	-1.086866631411770e+01
1	 5.691835238878924e-01	 9.992647878003311e-01	-7.024173804609283e+00
1	 5.487689060816965e-01	 1.010619952169409e+00	-4.981270136793142e+00
1	 5.281887820136760e-01	 1.021526607858687e+00	-4.734953722910298e+00
1	 5.074575419178806e-01	 1.031981997499849e+00	-6.274284845707758e+00
1	 4.865895850318857e-01	 1.041983961372579e+00	-9.582543460021430e+00
1	 4.655992896075897e-01	 1.051530932280860e+00	-1.463741260101292e+01
1	 4.445009835814387e-01	 1.060621928695729e+00	-2.141118555259532e+01
1	 4.233089160150698e-01	 1.069256546235278e+00	-2.987099479619557e+01
1	 6.361313382996451e-01	 9.730072817961023e-01	-2.133518872835753e+01
1	 6.160834617471291e-01	 9.858232185103623e-01	-1.460255650052280e+01
1	 5.958250052157492e-01	 9.981977825818114e-01	-9.495641916811117e+00
1	 5.753703013186131e-01	 1.010126361577113e+00	-6.023266881701144e+00
1	 5.547337854928833e-01	 1.021604951646094e+00	-4.188642298349031e+00
1	 5.339299644242276e-01	 1.032630157941003e+00	-3.989450942163305e+00
1	 5.129733847622833e-01	 1.043199193122128e+00	-5.417956753075288e+00
1	 4.918786022580771e-01	 1.053309873993932e+00	-8.461139229183900e+00
1	 4.706601514488546e-01	 1.062960616325656e+00	-1.310085143836038e+01
1	 4.493325160095007e-01	 1.072150427919546e+00	-1.931400001790681e+01
1	 4.279100998827580e-01	 1.080878899998233e+00	-2.707274540655541e+01
1	 6.429714602142689e-01	 9.834697256830051e-01	-1.867952244044672e+01
1	 6.227080150966526e-01	 9.964234681684844e-01	-1.265349472569833e+01
1	 6.022317256993296e-01	 1.008931092068801e+00	-8.089144536099457e+00
1	 5.815570787495273e-01	 1.020987935354560e+00	-4.996844293893126e+00
1	 5.606986649041629e-01	 1.032589951123436e+00	-3.381906377102258e+00
1	 5.396711468347712e-01	 1.043733708023936e+00	-3.244647444933197e+00
1	 5.184892276065770e-01	 1.054416388744956e+00	-4.580476825359259e+00
1	 4.971676194840591e-01	 1.064635786615735e+00	-7.380007839048314e+00
1	 4.757210132898095e-01	 1.074390300370775e+00	-1.162919077997842e+01
1	 4.541640484371527e-01	 1.083678927143527e+00	-1.730946613648862e+01
1	 4.325112837499361e-01	 1.092501253761168e+00	-2.439793651817398e+01
1	 6.498115821293877e-01	 9.939321695704137e-01	-1.598620812912474e+01
1	 6.293325684465706e-01	 1.007023717827196e+00	-1.066769332539687e+01
1	 6.086384461832042e-01	 1.019664401556434e+00	-6.650231213581867e+00
1	 5.877438561806352e-01	 1.031849509132672e+00	-3.945711799067025e+00
1	 5.666635443155355e-01	 1.043574950601434e+00	-2.561507891529232e+00
1	 5.454123292453070e-01	 1.054837258107488e+00	-2.500521148687177e+00
1	 5.240050704507622e-01	 1.065633584368333e+00	-3.761249857491734e+00
1	 5.024566367098319e-01	 1.075961699237989e+00	-6.337877515875746e+00
1	 4.807818751304545e-01	 1.085819984416216e+00	-1.022038113647690e+01
1	 4.589955808643948e-01	 1.095207426367674e+00	-1.539465806691911e+01
1	 4.371124676166038e-01	 1.104123607524082e+00	-2.184267001026416e+01
1	 6.566517040450012e-01	 1.004394613458327e+00	-1.325642229510804e+01
1	 6.359571217968834e-01	 1.017623967486498e+00	-8.646300412913147e+00
1	 6.150451666673726e-01	 1.030397711044709e+00	-5.179914947458199e+00
1	 5.939306336119369e-01	 1.042711082911450e+00	-2.870641581860045e+00
1	 5.726284237270008e-01	 1.054559950080089e+00	-1.727873796836596e+00
1	 5.511535116558349e-01	 1.065940808191658e+00	-1.757050890997860e+00
1	 5.295209132948389e-01	 1.076850779992260e+00	-2.959705444615970e+00
1	 5.077456539353953e-01	 1.087287611860692e+00	-5.333529476499262e+00
1	 4.858427369707898e-01	 1.097249668461979e+00	-8.872458413856405e+00
1	 4.638271132912263e-01	 1.106735925591985e+00	-1.356677187783541e+01
1	 4.417136514827614e-01	 1.115745961286976e+00	-1.940321018373797e+01
1	 6.634918259611091e-01	 1.014857057346746e+00	-1.049129292362089e+01
1	 6.425816751475903e-01	 1.028224217146390e+00	-6.590416756665198e+00
1	 6.214518871518357e-01	 1.041131020533627e+00	-3.679166962807241e+00
1	 6.001174110434320e-01	 1.053572656690893e+00	-1.772373984244467e+00
1	 5.785933031385591e-01	 1.065544949559402e+00	-8.814134418307678e-01
1	 5.568946940663551e-01	 1.077044358276446e+00	-1.014216382115322e+00
1	 5.350367561388070e-01	 1.088067975616736e+00	-2.175296703724369e+00
1	 5.130346711607495e-01	 1.098613524483847e+00	-4.365795196851586e+00
1	 4.909035988108152e-01	 1.108679352508065e+00	-7.583539511683659e+00
1	 4.686586457176479e-01	 1.118264424816463e+00	-1.182311926390980e+01
1	 4.463148353484084e-01	 1.127368315049849e+00	-1.707597538895375e+01
1	 6.703319478777120e-01	 1.025319501235670e+00	-7.691901959675672e+00
1	 6.492062284986920e-01	 1.038824466806871e+00	-4.501098195748226e+00
1	 6.278586076365926e-01	 1.051864330023189e+00	-2.148918842868736e+00
1	 6.063041884751207e-01	 1.064434230471001e+00	-6.516191301531657e-01
1	 5.845581825502105e-01	 1.076529949039371e+00	-2.251946720412512e-02
1	 5.626358764768672e-01	 1.088147908361853e+00	-2.719981604426334e-01
1	 5.405525989826665e-01	 1.099285171241760e+00	-1.407499073564701e+00
1	 5.183236883858944e-01	 1.109939437107452e+00	-3.433553847724395e+00
1	 4.959644606505308e-01	 1.120109036554474e+00	-6.351818190767583e+00
1	 4.734901781436591e-01	 1.129792924041105e+00	-1.016112164656216e+01
1	 4.509160192135453e-01	 1.138990668812702e+00	-1.485753016605082e+01
1	 6.771720697948095e-01	 1.035781945125100e+00	-4.859287633335393e+00
1	 6.558307818501883e-01	 1.049424716467942e+00	-2.379357909093631e+00
1	 6.342653281216438e-01	 1.062597639513393e+00	-5.900645311564039e-01
1	 6.124909659070029e-01	 1.075295804251774e+00	 4.909415483562625e-01
1	 5.905230619619546e-01	 1.087514948519997e+00	 8.484313506211159e-01
1	 5.683770588873716e-01	 1.099251458447877e+00	 4.696224492898144e-01
1	 5.460684418264172e-01	 1.110502366867334e+00	-6.558091872789191e-01
1	 5.236127056108301e-01	 1.121265349731507e+00	-2.535729885938265e+00
1	 5.010253224899366e-01	 1.131538720601204e+00	-5.175561191277873e+00
1	 4.783217105692602e-01	 1.141321423265912e+00	-8.578304632205136e+00
1	 4.555172030781719e-01	 1.150613022575534e+00	-1.274457786162714e+01
1	 6.840121917124017e-01	 1.046244389015035e+00	-1.994446645461734e+00
1	 6.624553352020789e-01	 1.060024966129602e+00	-2.261685484757692e-01
1	 6.406720486069893e-01	 1.073330949004241e+00	 9.965377865561500e-01
1	 6.186777433390788e-01	 1.086157378033213e+00	 1.654653876508534e+00
1	 5.964879413737916e-01	 1.098499948001280e+00	 1.731077306279741e+00
1	 5.741182412978680e-01	 1.110355008534519e+00	 1.210663375341030e+00
1	 5.515842846700593e-01	 1.121719562493458e+00	 8.025618731753337e-02
1	 5.289017228355563e-01	 1.132591262356013e+00	-1.671290790040077e+00
1	 5.060861843290325e-01	 1.142968404648257e+00	-4.053104583776648e+00
1	 4.831532429944511e-01	 1.152849922490885e+00	-7.072292802994435e+00
1	 4.601183869422882e-01	 1.162235376338345e+00	-1.073395368841628e+01
1	 4.141065482781622e-01	 1.046011838709305e+00	-3.585427381146116e+01
1	 3.932972896413123e-01	 1.054012448698682e+00	-2.650878808997285e+01
1	 3.724238474895377e-01	 1.061567462705179e+00	-1.612670432226253e+01
1	 3.514997710187807e-01	 1.068678113852559e+00	-4.766874688167665e+00
1	 3.305384299522138e-01	 1.075346151886617e+00	 7.508329254020840e+00
1	 3.095529917259615e-01	 1.081573827976446e+00	 2.063338189134047e+01
1	 2.885563999111744e-01	 1.087363878431055e+00	 3.453997341603542e+01
1	 2.675613539221366e-01	 1.092719507434895e+00	 4.915738167581646e+01
1	 2.465802900510743e-01	 1.097644368907271e+00	 6.441284356309214e+01
1	 2.256253638614278e-01	 1.102142547591368e+00	 8.023192360487175e+01
1	 2.047084339626188e-01	 1.106218539478505e+00	 9.653887754464887e+01
1	 4.187077321468711e-01	 1.057634192472302e+00	-3.279675415384956e+01
1	 3.976672595254846e-01	 1.065723698129262e+00	-2.324696413235536e+01
1	 3.765618902389651e-01	 1.073362656736697e+00	-1.296686026838149e+01
1	 3.554053240298771e-01	 1.080552315119742e+00	-2.005669940209760e+00
1	 3.342110791738727e-01	 1.087294442465818e+00	 9.584636650919094e+00
1	 3.129924694119229e-01	 1.093591314957006e+00	 2.174964787577920e+01
1	 2.917625821326362e-01	 1.099445699305754e+00	 3.443281526350952e+01
1	 2.705342578549005e-01	 1.104860835298564e+00	 4.757575919120981e+01
1	 2.493200710519669e-01	 1.109840417453845e+00	 6.111857366970942e+01
1	 2.281323123490928e-01	 1.114388575900822e+00	 7.500012831478625e+01
1	 2.069829721180270e-01	 1.118509856586275e+00	 8.915836570281370e+01
1	 4.233089160150698e-01	 1.069256546235278e+00	-2.987099479619557e+01
1	 4.020372294090627e-01	 1.077434947559639e+00	-2.006742128564138e+01
1	 3.806999329877463e-01	 1.085157850767857e+00	-9.833501598835301e+00
1	 3.593108770403063e-01	 1.092426516386447e+00	 7.909803211864066e-01
1	 3.378837283948748e-01	 1.099242733044450e+00	 1.176426328914854e+01
1	 3.164319470972685e-01	 1.105608801936938e+00	 2.304284727296433e+01
1	 2.949687643535532e-01	 1.111527520179795e+00	 3.458173365142792e+01
1	 2.735071617872199e-01	 1.117002163161573e+00	 4.633466569753968e+01
1	 2.520598520525447e-01	 1.122036465999790e+00	 5.825436771883647e+01
1	 2.306392608366009e-01	 1.126634604209704e+00	 7.029278136591196e+01
1	 2.092575102734646e-01	 1.130801173693560e+00	 8.240129771039088e+01
1	 4.279100998827580e-01	 1.080878899998233e+00	-2.707274540655541e+01
1	 4.064071992920467e-01	 1.089146196989810e+00	-1.696750532070052e+01
1	 3.848379757358810e-01	 1.096953044798660e+00	-6.725773946577736e+00
1	 3.632164300500685e-01	 1.104300717652674e+00	 3.621932692234612e+00
1	 3.415563776152200e-01	 1.111191023622512e+00	 1.404387628989000e+01
1	 3.198714247819980e-01	 1.117626288916241e+00	 2.450727255343910e+01
1	 2.981749465739252e-01	 1.123609341053177e+00	 3.497846804625690e+01
1	 2.764800657190950e-01	 1.129143491023926e+00	 4.542311638870363e+01
1	 2.547996330528077e-01	 1.134232514545106e+00	 5.580635268013540e+01
1	 2.331462093239524e-01	 1.138880632518015e+00	 6.609296506987602e+01
1	 2.115320484289314e-01	 1.143092490800359e+00	 7.624756247547879e+01
1	 4.325112837499361e-01	 1.092501253761168e+00	-2.439793651817398e+01
1	 4.107771691744364e-01	 1.100857446419777e+00	-1.394467495432253e+01
1	 3.889760184833697e-01	 1.108748238829107e+00	-3.642859300607508e+00
1	 3.671219830591637e-01	 1.116174918918422e+00	 6.486092424629359e+00
1	 3.452290268349087e-01	 1.123139314200007e+00	 1.642028459895597e+01
1	 3.233109024661119e-01	 1.129643775894916e+00	 2.613745906134351e+01
1	 3.013811287937522e-01	 1.135691161925902e+00	 3.561510942653330e+01
1	 2.794529696505255e-01	 1.141284818885619e+00	 4.483059389716587e+01
1	 2.575394140527559e-01	 1.146428563089792e+00	 5.376124586499965e+01
1	 2.356531578111472e-01	 1.151126660825756e+00	 6.238448163995866e+01
1	 2.138065865844276e-01	 1.155383807906674e+00	 7.067790469734864e+01
1	 4.371124676166038e-01	 1.104123607524082e+00	-2.184267001026416e+01
1	 4.151471390562320e-01	 1.112568695849540e+00	-1.099649590469568e+01
1	 3.931140612302117e-01	 1.120543432859196e+00	-5.839740924912959e-01
1	 3.710275360675918e-01	 1.128049120183693e+00	 9.382410864730483e+00
1	 3.489016760539405e-01	 1.135087604776933e+00	 1.889043152233628e+01
1	 3.267503801496099e-01	 1.141661262872963e+00	 2.792817223159308e+01
1	 3.045873110130343e-01	 1.147772982797968e+00	 3.648408178222924e+01
1	 2.824258735815118e-01	 1.153426146746654e+00	 4.454702369192689e+01
1	 2.602791950523892e-01	 1.158624611633849e+00	 5.210632385593457e+01
1	 2.381601062981852e-01	 1.163372689132924e+00	 5.915181530153210e+01
1	 2.160811247399532e-01	 1.167675125012503e+00	 6.567387982480223e+01
1	 4.417136514827614e-01	 1.115745961286976e+00	-1.940321018373797e+01
1	 4.195171089374332e-01	 1.124279945279097e+00	-8.120635318417023e+00
1	 3.972521039764076e-01	 1.132338626888928e+00	 2.451632597519179e+00
1	 3.749330890753527e-01	 1.139923321448485e+00	 1.230988305280002e+01
1	 3.525743252723156e-01	 1.147035895353290e+00	 2.145138772827229e+01
1	 3.301898578324918e-01	 1.153678749850381e+00	 2.987439560598434e+01
1	 3.077934932317715e-01	 1.159854803669376e+00	 3.757812477040628e+01
1	 2.853987775120535e-01	 1.165567474607031e+00	 4.456275101412036e+01
1	 2.630189760517078e-01	 1.170820660177278e+00	 5.082939337785364e+01
1	 2.406670547850666e-01	 1.175618717439521e+00	 5.638009677059507e+01
1	 2.183556628955082e-01	 1.179966442117847e+00	 6.121781182963245e+01
1	 4.463148353484084e-01	 1.127368315049849e+00	-1.707597538895375e+01
1	 4.238870788180403e-01	 1.135991194708451e+00	-5.314856542223785e+00
1	 4.013901467219571e-01	 1.144133820918303e+00	 5.464680723409217e+00
1	 3.788386420824468e-01	 1.151797522712798e+00	 1.526754547073870e+01
1	 3.562469744900341e-01	 1.158984185929079e+00	 2.410034468219247e+01
1	 3.336293355147580e-01	 1.165696236827171e+00	 3.197131959057228e+01
1	 3.109996754499638e-01	 1.171936624540127e+00	 3.889027744371516e+01
1	 2.883716814421509e-01	 1.177708802466749e+00	 4.486851923927338e+01
1	 2.657587570507115e-01	 1.183016708720077e+00	 4.991876397114920e+01
1	 2.431740032717912e-01	 1.187864745745547e+00	 5.405506992951400e+01
1	 2.206302010510924e-01	 1.192257759222705e+00	 5.729275359203551e+01
1	 4.509160192135453e-01	 1.138990668812702e+00	-1.485753016605082e+01
1	 4.282570486980531e-01	 1.147702444137599e+00	-2.577014214822951e+00
1	 4.055281894668601e-01	 1.155929014947321e+00	 8.455860853287255e+00
1	 3.827441950888737e-01	 1.163671723976633e+00	 1.825447392771713e+01
1	 3.599196237070956e-01	 1.170932476504298e+00	 2.683460848358995e+01
1	 3.370688131964081e-01	 1.177713723803332e+00	 3.421433090137081e+01
1	 3.142058576676110e-01	 1.184018445410219e+00	 4.041386297511124e+01
1	 2.913445853718038e-01	 1.189850130325810e+00	 4.545544956432729e+01
1	 2.684985380494003e-01	 1.195212757262246e+00	 4.936322233784094e+01
1	 2.456809517583592e-01	 1.200110774051002e+00	 5.216306054302342e+01
1	 2.229047392067060e-01	 1.204549076327078e+00	 5.388244971140485e+01
1	 4.555172030781719e-01	 1.150613022575534e+00	-1.274457786162714e+01
1	 4.326270185774718e-01	 1.159413693566544e+00	 9.495034381404999e-02
1	 4.096662322111168e-01	 1.167724208975982e+00	 1.142583565352025e+01
1	 3.866497480946336e-01	 1.175545925239990e+00	 2.126978157394906e+01
1	 3.635922729235004e-01	 1.182880767078950e+00	 2.965159407642363e+01
1	 3.405082908774424e-01	 1.189731210778864e+00	 3.659900264970837e+01
1	 3.174120398847132e-01	 1.196100266279651e+00	 4.214247430834320e+01
1	 2.943174893010123e-01	 1.201991458184212e+00	 4.631502192574771e+01
1	 2.712383190477745e-01	 1.207408805803788e+00	 4.915200824250361e+01
1	 2.481879002447703e-01	 1.212356802355885e+00	 5.069094687022673e+01
1	 2.251792773623489e-01	 1.216840393430966e+00	 5.097130157101676e+01
1	 4.601183869422882e-01	 1.162235376338345e+00	-1.073395368841628e+01
1	 4.369969884562961e-01	 1.171124942995283e+00	 2.703013466514705e+00
1	 4.138042749547273e-01	 1.179519403004286e+00	 1.437524128381949e+01
1	 3.905553010997264e-01	 1.187420126502869e+00	 2.431261703364063e+01
1	 3.672649221392484e-01	 1.194829057653032e+00	 3.254881980689529e+01
1	 3.439477685578608e-01	 1.201748697753768e+00	 3.912108502246245e+01
1	 3.206182221012706e-01	 1.208182087148427e+00	 4.406996066941343e+01
1	 2.972903932297764e-01	 1.214132786041956e+00	 4.743905706254775e+01
1	 2.739781000458337e-01	 1.219604854344699e+00	 4.927479185913854e+01
1	 2.506948487310247e-01	 1.224602830660197e+00	 4.962613203987671e+01
1	 2.274538155180211e-01	 1.229131710534368e+00	 4.854433449883655e+01
1	 2.047084339626188e-01	 1.106218539478505e+00	 9.653887754464887e+01
1	 1.838410471820675e-01	 1.109877231672737e+00	 8.780872295862282e+01
1	 1.630344251371875e-01	 1.113123881798189e+00	 7.289159460431526e+01
1	 1.422994522082913e-01	 1.115964097050903e+00	 5.192912176515751e+01
1	 1.216466649059655e-01	 1.118403812994212e+00	 2.507865735022416e+01
1	 1.010862426134333e-01	 1.120449272191891e+00	-7.487941915339103e+00
1	 8.062799968276181e-02	 1.122107002770802e+00	-4.558554754682328e+01
1	 6.028137885658343e-02	 1.123383797000342e+00	-8.901699573862440e+01
1	 4.005544598153728e-02	 1.124286689971457e+00	-1.375743207465488e+02
1	 1.995888597471339e-02	 1.124822938453228e+00	-1.910399782394478e+02
1	 0.000000000000000e+00	 1.125000000000000e+00	-2.491880521404868e+02
1	 2.069829721180270e-01	 1.118509856586275e+00	 8.915836570281370e+01
1	 1.858837254842960e-01	 1.122209200915521e+00	 7.930030811029437e+01
1	 1.648459187499743e-01	 1.125491924930832e+00	 6.426213407344865e+01
1	 1.438805572329332e-01	 1.128363698130427e+00	 4.416907757367777e+01
1	 1.229982945160992e-01	 1.130830522028343e+00	 1.915947413330114e+01
1	 1.022094230869531e-01	 1.132898708550173e+00	-1.061628420185827e+01
1	 8.152386634591845e-02	 1.134574858357522e+00	-4.499680277691689e+01
1	 6.095117195499002e-02	 1.135865839189446e+00	-8.381074048594854e+01
1	 4.050050649243606e-02	 1.136778764304567e+00	-1.268778618912664e+02
1	 2.018065137442525e-02	 1.137320971102731e+00	-1.740100794242088e+02
1	 0.000000000000000e+00	 1.137500000000000e+00	-2.250124802150902e+02
1	 2.092575102734646e-01	 1.130801173693560e+00	 8.240129771039088e+01
1	 1.879264037867324e-01	 1.134541170157915e+00	 7.145318822298148e+01
1	 1.666574123631051e-01	 1.137859968063168e+00	 5.631026997629068e+01
1	 1.454616622580137e-01	 1.140763299209717e+00	 3.708174629445387e+01
1	 1.243499241267251e-01	 1.143257231062304e+00	 1.388733719310492e+01
1	 1.033326035609789e-01	 1.145348144908337e+00	-1.314359343385362e+01
1	 8.241973300955530e-02	 1.147042713944167e+00	-4.387291620992416e+01
1	 6.162096505381248e-02	 1.148347881378508e+00	-7.815461479589892e+01
1	 4.094556700364869e-02	 1.149270838637658e+00	-1.158356593925524e+02
1	 2.040241677431206e-02	 1.149819003752230e+00	-1.567568704264405e+02
1	 0.000000000000000e+00	 1.150000000000000e+00	-2.007537679803164e+02
1	 2.115320484289314e-01	 1.143092490800359e+00	 7.624756247547879e+01
1	 1.899690820893766e-01	 1.146873139399917e+00	 6.424603120116714e+01
1	 1.684689059765799e-01	 1.150228011195196e+00	 4.901414436339375e+01
1	 1.470427672835328e-01	 1.153162900288774e+00	 3.064542751104235e+01
1	 1.257015537378434e-01	 1.155683940096093e+00	 9.241374069242712e+00
1	 1.044557840355105e-01	 1.157797581266385e+00	-1.508925777416620e+01
1	 8.331559967367232e-02	 1.159510569530738e+00	-4.223115048420932e+01
1	 6.229075815305083e-02	 1.160829923567528e+00	-7.206313061780662e+01
1	 4.139062751517519e-02	 1.161762912970730e+00	-1.044588662709361e+02
1	 2.062418217437382e-02	 1.162317036401724e+00	-1.392875548002913e+02
1	 0.000000000000000e+00	 1.162500000000000e+00	-1.764145973816746e+02
1	 2.138065865844276e-01	 1.155383807906674e+00	 7.067790469734864e+01
1	 1.920117603922285e-01	 1.159205108641528e+00	 5.765841269810349e+01
1	 1.702803995903987e-01	 1.162596054326918e+00	 4.235282941083594e+01
1	 1.486238723094905e-01	 1.165562501367597e+00	 2.483934422898725e+01
1	 1.270531833494540e-01	 1.168110649129712e+00	 5.201600491129579e+00
1	 1.055789645105481e-01	 1.170247017624314e+00	-1.647184035743263e+01
1	 8.421146633826952e-02	 1.171978425117234e+00	-4.008803365778680e+01
1	 6.296055125270505e-02	 1.173311965756507e+00	-6.555018237125415e+01
1	 4.183568802701556e-02	 1.174254987303784e+00	-9.275816095034304e+01
1	 2.084594757461052e-02	 1.174815069051214e+00	-1.216090295657008e+02
1	 0.000000000000000e+00	 1.175000000000000e+00	-1.519975362393384e+02
1	 2.160811247399532e-01	 1.167675125012503e+00	 6.567387982480223e+01
1	 1.940544386952883e-01	 1.171537077882749e+00	 5.167076833955932e+01
1	 1.720918932045614e-01	 1.174964097458333e+00	 3.630627846624625e+01
1	 1.502049773358868e-01	 1.177962102446187e+00	 1.964359427466210e+01
1	 1.284048129615569e-01	 1.180537358163162e+00	 1.748873631157625e+00
1	 1.067021449860916e-01	 1.182696453982126e+00	-1.730912271262110e+01
1	 8.510733300334690e-02	 1.184446280703655e+00	-3.745939787044534e+01
1	 6.363034435277519e-02	 1.185794007945443e+00	-5.862907944763959e+01
1	 4.228074853916980e-02	 1.186747061636820e+00	-8.074377223685768e+01
1	 2.106771297502218e-02	 1.187313101700699e+00	-1.037279013417776e+02
1	 0.000000000000000e+00	 1.187500000000000e+00	-1.275050442547403e+02
1	 2.183556628955082e-01	 1.179966442117847e+00	 6.121781182963245e+01
1	 1.960971169985559e-01	 1.183869047123579e+00	 4.626434893358394e+01
1	 1.739033868190682e-01	 1.187332140589441e+00	 3.085528015445113e+01
1	 1.517860823627217e-01	 1.190361703524544e+00	 1.503910473168507e+01
1	 1.297564425741521e-01	 1.192964067196440e+00	-1.135151720460790e+00
1	 1.078253254621411e-01	 1.195145890339820e+00	-1.761814547166212e+01
1	 8.600319966890443e-02	 1.196914136290001e+00	-3.436041558948844e+01
1	 6.430013745326123e-02	 1.198276050134339e+00	-5.131257668039566e+01
1	 4.272580905163788e-02	 1.199239135969837e+00	-6.842550273632226e+01
1	 2.128947837560878e-02	 1.199811134350180e+00	-8.565050147184192e+01
1	 0.000000000000000e+00	 1.200000000000000e+00	-1.029394786417572e+02
1	 2.206302010510924e-01	 1.192257759222705e+00	 5.729275359203551e+01
1	 1.981397953020312e-01	 1.196201016364018e+00	 4.142117845080062e+01
1	 1.757148804339190e-01	 1.199700183720243e+00	 2.598141532194832e+01
1	 1.533671873899952e-01	 1.202761304602666e+00	 1.100758919569938e+01
1	 1.311080721872396e-01	 1.205390776229548e+00	-3.468064270012739e+00
1	 1.089485059386964e-01	 1.207595326697396e+00	-1.741524656001558e+01
1	 8.689906633494215e-02	 1.209381991876273e+00	-3.080563361347022e+01
1	 6.496993055416314e-02	 1.210758092323192e+00	-4.361290293045101e+01
1	 4.317086956441985e-02	 1.211731210302836e+00	-5.581275082341816e+01
1	 2.151124377637034e-02	 1.212309166999656e+00	-6.738290021290059e+01
1	 0.000000000000000e+00	 1.212500000000000e+00	-7.830309940957424e+01
1	 2.229047392067060e-01	 1.204549076327078e+00	 5.388244971140485e+01
1	 2.001824736057144e-01	 1.208532985604066e+00	 3.712401457733591e+01
1	 1.775263740491137e-01	 1.212068226850737e+00	 2.166701661743332e+01
1	 1.549482924177072e-01	 1.215160905680556e+00	 7.531507646207661e+00
1	 1.324597018008195e-01	 1.217817485262486e+00	-5.266734817402778e+00
1	 1.100716864157577e-01	 1.220044763054856e+00	-1.671609704904224e+01
1	 8.779493300146010e-02	 1.221849847462470e+00	-2.680900499407007e+01
1	 6.563972365548093e-02	 1.223240134512003e+00	-3.554178792156031e+01
1	 4.361593007751567e-02	 1.224223284635816e+00	-4.291453126570668e+01
1	 2.173300917730685e-02	 1.224807199649127e+00	-4.893092005637384e+01
1	 0.000000000000000e+00	 1.225000000000000e+00	-5.359807432210613e+01
1	 2.251792773623489e-01	 1.216840393430966e+00	 5.097130157101676e+01
1	 2.022251519096053e-01	 1.220864954843724e+00	 3.335631165848004e+01
1	 1.793378676646525e-01	 1.224436269980924e+00	 1.789513052199061e+01
1	 1.565293974458579e-01	 1.227560506758212e+00	 4.594028750418353e+00
1	 1.338113314148917e-01	 1.230244194295253e+00	-6.547352514051166e+00
1	 1.111948668933249e-01	 1.232494199412197e+00	-1.553573483550344e+01
1	 8.869079966845822e-02	 1.234317703048592e+00	-2.238391902330902e+01
1	 6.630951675721461e-02	 1.235722176700773e+00	-2.711048744925416e+01
1	 4.406099059092536e-02	 1.236715358968778e+00	-2.973949459772389e+01
1	 2.195477457841831e-02	 1.237305232298594e+00	-3.030014824151205e+01
1	 0.000000000000000e+00	 1.237500000000000e+00	-2.882648355685056e+01
1	 2.274538155180211e-01	 1.229131710534368e+00	 4.854433449883655e+01
1	 2.042678302137041e-01	 1.233196924082991e+00	 3.010218586572766e+01
1	 1.811493612805352e-01	 1.236804313110804e+00	 1.464948165747319e+01
1	 1.581105024744471e-01	 1.239960107835634e+00	 2.178994428858946e+00
1	 1.351629610294562e-01	 1.242670903327850e+00	-7.325458945318083e+00
1	 1.123180473713980e-01	 1.244943635769421e+00	-1.388859630029200e+01
1	 8.958666633593650e-02	 1.246785558634639e+00	-1.754322942153149e+01
1	 6.697930985936418e-02	 1.248204218889501e+00	-1.832980707724785e+01
1	 4.450605110464890e-02	 1.249207433301722e+00	-1.629594533263228e+01
1	 2.217653997970472e-02	 1.249803264948056e+00	-1.149594851800053e+01
1	 0.000000000000000e+00	 1.250000000000000e+00	-3.990324084208363e+00
1	 1.250000000000000e+00	 0.000000000000000e+00	 1.129885357818937e+02
1	 1.249803264948056e+00	 2.217653997970400e-02	 1.053851900284781e+02
1	 1.249207433301722e+00	 4.450605110464827e-02	 9.735188409942933e+01
1	 1.248204218889501e+00	 6.697930985936361e-02	 8.877388640946444e+01
1	 1.246785558634639e+00	 8.958666633593600e-02	 7.953324731575987e+01
1	 1.244943635769421e+00	 1.123180473713976e-01	 6.950910098219600e+01
1	 1.242670903327850e+00	 1.351629610294558e-01	 5.857799763128762e+01
1	 1.239960107835634e+00	 1.581105024744469e-01	 4.661426596721618e+01
1	 1.236804313110804e+00	 1.811493612805350e-01	 3.349040530877241e+01
1	 1.233196924082991e+00	 2.042678302137040e-01	 1.907750671321002e+01
1	 1.229131710534368e+00	 2.274538155180211e-01	 3.245702102896992e+00
1	 1.262500000000000e+00	 0.000000000000000e+00	 1.181089806019141e+02
1	 1.262301297597516e+00	 2.239830538099040e-02	 1.090877310944424e+02
1	 1.261699507634656e+00	 4.495111161837182e-02	 9.965587061020473e+01
1	 1.260686261078208e+00	 6.764910296151318e-02	 8.971250849798554e+01
1	 1.259253414220649e+00	 9.048253300341427e-02	 7.915397339583461e+01
1	 1.257393072126586e+00	 1.134412278494708e-01	 6.787408195455012e+01
1	 1.255097612360361e+00	 1.365145906440204e-01	 5.576443430028398e+01
1	 1.252359708912939e+00	 1.596916075030361e-01	 4.271473602804836e+01
1	 1.249172356240532e+00	 1.829608548964178e-01	 2.861314630139922e+01
1	 1.245528893322062e+00	 2.063105085178028e-01	 1.334665140550538e+01
1	 1.241423027637528e+00	 2.297283536736933e-01	-3.198537137099471e+00
1	 1.275000000000000e+00	 0.000000000000000e+00	 1.224140993035244e+02
1	 1.274799330246976e+00	 2.262007078210185e-02	 1.121133094337512e+02
1	 1.274191581967590e+00	 4.539617213178149e-02	 1.014213321449280e+02
1	 1.273168303266915e+00	 6.831889606324687e-02	 9.025090764247132e+01
1	 1.271721269806660e+00	 9.137839967041235e-02	 7.851242608717916e+01
1	 1.269842508483751e+00	 1.145644083270380e-01	 6.611416358108551e+01
1	 1.267524321392873e+00	 1.378662202580925e-01	 5.296254129043012e+01
1	 1.264759309990245e+00	 1.612727125311867e-01	 3.896240750594541e+01
1	 1.261540399370259e+00	 1.847723485119565e-01	 2.401734225191740e+01
1	 1.257860862561133e+00	 2.083531868216938e-01	 8.029983856810059e+00
1	 1.253714344740687e+00	 2.320028918293363e-01	-9.097623308846249e+00
1	 1.287500000000000e+00	 0.000000000000000e+00	 1.259276392497027e+02
1	 1.287297362896436e+00	 2.284183618303835e-02	 1.144816424075753e+02
1	 1.286683656300524e+00	 4.584123264487731e-02	 1.026639538971923e+02
1	 1.285650345455622e+00	 6.898868916456465e-02	 9.040074082192795e+01
1	 1.284189125392670e+00	 9.227426633693030e-02	 7.761624442054678e+01
1	 1.282291944840916e+00	 1.156875888040993e-01	 6.423298370682060e+01
1	 1.279951030425384e+00	 1.392178498716724e-01	 5.017197868945607e+01
1	 1.277158911067551e+00	 1.628538175588988e-01	 3.535299298101008e+01
1	 1.273908442499985e+00	 1.865838421271512e-01	 1.969479544316114e+01
1	 1.270192831800205e+00	 2.103958651253769e-01	 3.115440346092914e+00
1	 1.266005661843847e+00	 2.342774299849499e-01	-1.446743465688402e+01
1	 1.300000000000000e+00	 0.000000000000000e+00	 1.286724344432672e+02
1	 1.299795395545896e+00	 2.306360158379989e-02	 1.162116890170102e+02
1	 1.299175730633459e+00	 4.628629315765927e-02	 1.033988177838958e+02
1	 1.298132387644330e+00	 6.965848226546656e-02	 9.017321667000569e+01
1	 1.296656980978680e+00	 9.317013300296803e-02	 7.647277361781200e+01
1	 1.294741381198081e+00	 1.168107692806546e-01	 6.223404025965745e+01
1	 1.292377739457895e+00	 1.405694794847599e-01	 4.739241965864046e+01
1	 1.289558512144857e+00	 1.644349225861723e-01	 3.188236993410726e+01
1	 1.286276485629712e+00	 1.883953357420020e-01	 1.563762345477029e+01
1	 1.282524801039276e+00	 2.124385434288523e-01	-1.408578858423741e+00
1	 1.278296978947007e+00	 2.365519681405341e-01	-1.932323872406891e+01
1	 1.312500000000000e+00	 0.000000000000000e+00	 1.306704490202197e+02
1	 1.312293428195356e+00	 2.328536698438650e-02	 1.173216860154619e+02
1	 1.311667804966393e+00	 4.673135367012735e-02	 1.036404311727043e+02
1	 1.310614429833036e+00	 7.032827536595254e-02	 8.957911682477838e+01
1	 1.309124836564690e+00	 9.406599966852559e-02	 7.508907908286989e+01
1	 1.307190817555246e+00	 1.179339497567040e-01	 6.012069791310159e+01
1	 1.304804448490407e+00	 1.419211090973551e-01	 4.462354981026078e+01
1	 1.301958113222162e+00	 1.660160276130072e-01	 2.854657289444745e+01
1	 1.298644528759440e+00	 1.902068293565088e-01	 1.183824414905677e+01
1	 1.294856770278347e+00	 2.144812217321199e-01	-5.553231593990070e+00
1	 1.290588296050166e+00	 2.388265062960890e-01	-2.367972143260384e+01
1	 1.325000000000000e+00	 0.000000000000000e+00	 1.319428182812008e+02
1	 1.324791460844817e+00	 2.350713238479816e-02	 1.178291819769356e+02
1	 1.324159879299327e+00	 4.717641418228159e-02	 1.034027539834304e+02
1	 1.323096472021744e+00	 7.099806846602269e-02	 8.862881607004445e+01
1	 1.321592692150699e+00	 9.496186633360294e-02	 7.347195960059787e+01
1	 1.319640253912411e+00	 1.190571302322476e-01	 5.789619437184704e+01
1	 1.317231157522919e+00	 1.432727387094580e-01	 4.186506662028216e+01
1	 1.314357714299468e+00	 1.675971326394035e-01	 2.534178603164530e+01
1	 1.311012571889166e+00	 1.920183229706716e-01	 8.289361506728277e+00
1	 1.307188739517419e+00	 2.165239000351796e-01	-9.329254647409273e+00
1	 1.302879613153326e+00	 2.411010444516146e-01	-2.755101451897327e+01
1	 1.337500000000000e+00	 0.000000000000000e+00	 1.325098874221162e+02
1	 1.337289493494276e+00	 2.372889778503485e-02	 1.177510694539530e+02
1	 1.336651953632262e+00	 4.762147469412194e-02	 1.026992242697102e+02
1	 1.335578514210450e+00	 7.166786156567692e-02	 8.733230134720957e+01
1	 1.334060547736709e+00	 9.585773299820013e-02	 7.162795979568816e+01
1	 1.332089690269576e+00	 1.201803107072851e-01	 5.556364630489789e+01
1	 1.329657866555430e+00	 1.446243683210686e-01	 3.911667887397926e+01
1	 1.326757315376773e+00	 1.691782376653612e-01	 2.226433616317818e+01
1	 1.323380615018894e+00	 1.938298165844904e-01	 4.983952256869857e+00
1	 1.319520708756490e+00	 2.185665783380315e-01	-1.274698343029123e+01
1	 1.315170930256486e+00	 2.433755826071108e-01	-3.095072143047156e+01
1	 1.350000000000000e+00	 0.000000000000000e+00	 1.323912481130616e+02
1	 1.349787526143736e+00	 2.395066318509660e-02	 1.171036153489180e+02
1	 1.349144027965196e+00	 4.806653520564843e-02	 1.015427823794749e+02
1	 1.348060556399157e+00	 7.233765466491528e-02	 8.569918971095306e+01
1	 1.346528403322719e+00	 9.675359966231714e-02	 6.956338189932316e+01
1	 1.344539126626741e+00	 1.213034911818168e-01	 5.312605494907277e+01
1	 1.342084575587941e+00	 1.459759979321868e-01	 3.637810614235723e+01
1	 1.339156916454079e+00	 1.707593426908803e-01	 1.931068615031813e+01
1	 1.335748658148621e+00	 1.956413101979651e-01	 1.915253249704770e+00
1	 1.331852677995562e+00	 2.206092566406757e-01	-1.581637056123721e+01
1	 1.327462247359646e+00	 2.456501207625777e-01	-3.389194178303436e+01
1	 1.362500000000000e+00	 0.000000000000000e+00	 1.316057730637282e+02
1	 1.362285558793196e+00	 2.417242858498341e-02	 1.159024896136649e+02
1	 1.361636102298130e+00	 4.851159571686106e-02	 9.994589378548838e+01
1	 1.360542598587865e+00	 7.300744776373773e-02	 8.373874529650948e+01
1	 1.358996258908729e+00	 9.764946632595396e-02	 6.728429686814395e+01
1	 1.356988562983906e+00	 1.224266716558425e-01	 5.058631140405923e+01
1	 1.354511284620453e+00	 1.473276275428128e-01	 3.364907828739344e+01
1	 1.351556517531384e+00	 1.723404477159608e-01	 1.647742865759120e+01
1	 1.348116701278348e+00	 1.974528038110959e-01	-9.232504755675377e-01
1	 1.344184647234633e+00	 2.226519349431120e-01	-1.854700342515095e+01
1	 1.339753564462805e+00	 2.479246589180152e-01	-3.638729447276785e+01
1	 1.375000000000000e+00	 0.000000000000000e+00	 1.301716487034227e+02
1	 1.374783591442656e+00	 2.439419398469526e-02	 1.141627923835760e+02
1	 1.374128176631064e+00	 4.895665622775984e-02	 9.792057067058278e+01
1	 1.373024640776572e+00	 7.367724086214431e-02	 8.145989536146185e+01
1	 1.371464114494739e+00	 9.854533298911061e-02	 6.479655489672967e+01
1	 1.369437999341071e+00	 1.235498521293624e-01	 4.794720163864689e+01
1	 1.366937993652964e+00	 1.486792571529464e-01	 3.092933499426610e+01
1	 1.363956118608690e+00	 1.739215527406027e-01	 1.376128025262940e+01
1	 1.360484744408075e+00	 1.992642974238827e-01	-3.537836972088324e+00
1	 1.356516616473704e+00	 2.246946132453406e-01	-2.094812077477015e+01
1	 1.352044881565965e+00	 2.501991970734234e-01	-3.844893952684910e+01
1	 1.229131710534368e+00	 2.274538155180211e-01	 3.245702102896992e+00
1	 1.224602830660197e+00	 2.506948487310240e-01	 8.720888740552937e-01
1	 1.219604854344699e+00	 2.739781000458331e-01	-1.326604506260789e+00
1	 1.214132786041956e+00	 2.972903932297759e-01	-3.292932668545550e+00
1	 1.208182087148427e+00	 3.206182221012702e-01	-4.968607447561396e+00
1	 1.201748697753769e+00	 3.439477685578606e-01	-6.294703959056271e+00
1	 1.194829057653032e+00	 3.672649221392482e-01	-7.211878192371149e+00
1	 1.187420126502869e+00	 3.905553010997262e-01	-7.660595237573492e+00
1	 1.179519403004286e+00	 4.138042749547273e-01	-7.581367136994039e+00
1	 1.171124942995283e+00	 4.369969884562962e-01	-6.914999225342452e+00
1	 1.162235376338345e+00	 4.601183869422883e-01	-5.602843701611409e+00
1	 1.241423027637528e+00	 2.297283536736933e-01	-3.198537137099471e+00
1	 1.236848858964224e+00	 2.532017972172809e-01	-4.774837811850166e+00
1	 1.231800902885296e+00	 2.767178810439017e-01	-6.196833897975761e+00
1	 1.226274113899371e+00	 3.002632971585613e-01	-7.414994492724141e+00
1	 1.220263908016873e+00	 3.238244043178657e-01	-8.379071066958833e+00
1	 1.213766184728358e+00	 3.473872462383388e-01	-9.038275961333671e+00
1	 1.206777348226831e+00	 3.709375713550829e-01	-9.341470810802928e+00
1	 1.199294327765508e+00	 3.944608541049375e-01	-9.237364131626542e+00
1	 1.191314597032411e+00	 4.179423176984929e-01	-8.674717193698768e+00
1	 1.182836192423920e+00	 4.413669583353181e-01	-7.602557192375279e+00
1	 1.173857730101146e+00	 4.647195708066494e-01	-5.970396629456118e+00
1	 1.253714344740687e+00	 2.320028918293363e-01	-9.097623308846249e+00
1	 1.249094887268250e+00	 2.557087457036991e-01	-9.944860676165057e+00
1	 1.243996951425893e+00	 2.794576620423040e-01	-1.065798511424984e+01
1	 1.238415441756786e+00	 3.032362010878337e-01	-1.119525805716023e+01
1	 1.232345728885320e+00	 3.270305865350823e-01	-1.151434659169365e+01
1	 1.225783671702949e+00	 3.508267239195527e-01	-1.157247472615953e+01
1	 1.218725638800629e+00	 3.746102205717475e-01	-1.132658302022354e+01
1	 1.211168529028148e+00	 3.983664071110527e-01	-1.073349592414293e+01
1	 1.203109791060537e+00	 4.220803604432159e-01	-9.750096081598517e+00
1	 1.194547441852557e+00	 4.457369282153292e-01	-8.333504758521062e+00
1	 1.185480083863948e+00	 4.693207546720106e-01	-6.441267472043993e+00
1	 1.266005661843847e+00	 2.342774299849499e-01	-1.446743465688402e+01
1	 1.261340915572276e+00	 2.582156941902787e-01	-1.465187012134314e+01
1	 1.256192999966490e+00	 2.821974430410401e-01	-1.472197305332009e+01
1	 1.250556769614201e+00	 3.062091050175934e-01	-1.464367865092817e+01
1	 1.244427549753766e+00	 3.302367687529200e-01	-1.438244920896875e+01
1	 1.237801158677538e+00	 3.542662016015020e-01	-1.390339850316401e+01
1	 1.230673929374427e+00	 3.782828697892420e-01	-1.317142298788991e+01
1	 1.223042730290788e+00	 4.022719601180717e-01	-1.215133926857140e+01
1	 1.214904985088662e+00	 4.262184031888958e-01	-1.080802723279533e+01
1	 1.206258691281194e+00	 4.501068980963296e-01	-9.106578149039152e+00
1	 1.197102437626749e+00	 4.739219385383718e-01	-7.012446969698345e+00
1	 1.278296978947007e+00	 2.365519681405341e-01	-1.932323872406891e+01
1	 1.273586943876303e+00	 2.607226426770197e-01	-1.890922230361205e+01
1	 1.268389048507087e+00	 2.849372240401096e-01	-1.840025434812394e+01
1	 1.262698097471615e+00	 3.091820089478399e-01	-1.776982866738071e+01
1	 1.256509370622212e+00	 3.334429509713790e-01	-1.699108582956438e+01
1	 1.249818645652128e+00	 3.577056792841868e-01	-1.603691099391985e+01
1	 1.242622219948226e+00	 3.819555190075664e-01	-1.488003702847520e+01
1	 1.234916931553427e+00	 4.061775131259946e-01	-1.349315248553667e+01
1	 1.226700179116788e+00	 4.303564459355328e-01	-1.184901394738775e+01
1	 1.217969940709831e+00	 4.544768679783192e-01	-9.920562195909509e+00
1	 1.208724791389550e+00	 4.785231224057330e-01	-7.681041603499525e+00
1	 1.290588296050166e+00	 2.388265062960890e-01	-2.367972143260384e+01
1	 1.285832972180329e+00	 2.632295911639221e-01	-2.272976457326886e+01
1	 1.280585097047684e+00	 2.876770050395130e-01	-2.170384918845490e+01
1	 1.274839425329030e+00	 3.121549128785735e-01	-2.058291583727858e+01
1	 1.268591191490658e+00	 3.366491331904589e-01	-1.934766976766752e+01
1	 1.261836132626718e+00	 3.611451569676073e-01	-1.797865252089738e+01
1	 1.254570510522024e+00	 3.856281682267207e-01	-1.645631731133424e+01
1	 1.246791132816067e+00	 4.100830661348213e-01	-1.476110786440279e+01
1	 1.238495373144913e+00	 4.344944886831269e-01	-1.287354035213710e+01
1	 1.229681190138469e+00	 4.588468378612980e-01	-1.077428802322694e+01
1	 1.220347145152352e+00	 4.831243062740942e-01	-8.444268083820134e+00
1	 1.302879613153326e+00	 2.411010444516146e-01	-2.755101451897327e+01
1	 1.298079000484355e+00	 2.657365396509859e-01	-2.612585947495918e+01
1	 1.292781145588281e+00	 2.904167860392501e-01	-2.464336190790330e+01
1	 1.286980753186445e+00	 3.151278168097941e-01	-2.309180042985506e+01
1	 1.280673012359105e+00	 3.398553154101601e-01	-2.145933458976770e+01
1	 1.273853619601308e+00	 3.645846346517633e-01	-1.973405056421406e+01
1	 1.266518801095822e+00	 3.893008174467049e-01	-1.790400913150917e+01
1	 1.258665334078706e+00	 4.139886191445518e-01	-1.595729572135135e+01
1	 1.250290567173038e+00	 4.386325314316781e-01	-1.388207230487066e+01
1	 1.241392439567106e+00	 4.632168077452660e-01	-1.166663086361090e+01
1	 1.231969498915152e+00	 4.877254901434555e-01	-9.299448150830059e+00
1	 1.315170930256486e+00	 2.433755826071108e-01	-3.095072143047156e+01
1	 1.310325028788382e+00	 2.682434881382111e-01	-2.910940740214545e+01
1	 1.304977194128878e+00	 2.931565670393207e-01	-2.722900041638790e+01
1	 1.299122081043860e+00	 3.181007207415019e-01	-2.530501148933585e+01
1	 1.292754833227551e+00	 3.430614976304824e-01	-2.333294718697845e+01
1	 1.285871106575899e+00	 3.680241123366550e-01	-2.130832970753883e+01
1	 1.278467091669621e+00	 3.929734666675191e-01	-1.922671777301498e+01
1	 1.270539535341346e+00	 4.178941721551863e-01	-1.708372822990377e+01
1	 1.262085761201164e+00	 4.427705741811864e-01	-1.487505824816983e+01
1	 1.253103688995743e+00	 4.675867776302233e-01	-1.259650799705934e+01
1	 1.243591852677954e+00	 4.923266740138165e-01	-1.024400366656229e+01
1	 1.327462247359646e+00	 2.456501207625777e-01	-3.389194178303436e+01
1	 1.322571057092408e+00	 2.707504366255978e-01	-3.169186799299470e+01
1	 1.317173242669475e+00	 2.958963480397251e-01	-2.947059455310322e+01
1	 1.311263408901274e+00	 3.210736246736966e-01	-2.723076216942950e+01
1	 1.304836654095997e+00	 3.462676798514259e-01	-2.497512012111968e+01
1	 1.297888593550488e+00	 3.714635900222821e-01	-2.270652103144605e+01
1	 1.290415382243419e+00	 3.966461158891632e-01	-2.042791499083122e+01
1	 1.282413736603985e+00	 4.217997251667246e-01	-1.814234303863738e+01
1	 1.273880955229289e+00	 4.469086169316517e-01	-1.585293001563179e+01
1	 1.264814938424380e+00	 4.719567475161698e-01	-1.356287680431092e+01
1	 1.255214206440755e+00	 4.969278578851778e-01	-1.127545197964105e+01
1	 1.339753564462805e+00	 2.479246589180152e-01	-3.638729447276785e+01
1	 1.334817085396434e+00	 2.732573851131458e-01	-3.388428034851009e+01
1	 1.329369291210072e+00	 2.986361290404630e-01	-3.137761342921260e+01
1	 1.323404736758689e+00	 3.240465286063783e-01	-2.887696422371767e+01
1	 1.316918474964443e+00	 3.494738620729904e-01	-2.639222329119840e+01
1	 1.309906080525078e+00	 3.749030677086448e-01	-2.393347098970385e+01
1	 1.302363672817217e+00	 4.003187651116372e-01	-2.151094513608722e+01
1	 1.294287937866625e+00	 4.257052781791670e-01	-1.913500668976028e+01
1	 1.285676149257414e+00	 4.510466596830741e-01	-1.681610359374915e+01
1	 1.276526187853017e+00	 4.763267174031054e-01	-1.456473292736148e+01
1	 1.266836560203556e+00	 5.015290417575390e-01	-1.239140154516335e+01
1	 1.352044881565965e+00	 2.501991970734234e-01	-3.844893952684910e+01
1	 1.347063113700461e+00	 2.757643336008552e-01	-3.569728214785607e+01
1	 1.341565339750669e+00	 3.013759100415347e-01	-3.295918182457649e+01
1	 1.335546064616104e+00	 3.270194325395472e-01	-3.025124170566055e+01
1	 1.329000295832889e+00	 3.526800442951761e-01	-2.759039496353654e+01
1	 1.321923567499668e+00	 3.783425453957430e-01	-2.499384980140173e+01
1	 1.314311963391016e+00	 4.039914143349411e-01	-2.247903094714596e+01
1	 1.306162139129264e+00	 4.296108311925129e-01	-2.006351785121954e+01
1	 1.297471343285539e+00	 4.551847024354536e-01	-1.776497984223324e+01
1	 1.288237437281654e+00	 4.806966872910303e-01	-1.560110853031597e+01
1	 1.278458913966357e+00	 5.061302256309002e-01	-1.358954778349530e+01
1	 1.162235376338345e+00	 4.601183869422883e-01	-5.602843701611409e+00
1	 1.152849922490885e+00	 4.831532429944503e-01	-8.015408592503629e+00
1	 1.142968404648257e+00	 5.060861843290319e-01	-1.041854186155536e+01
1	 1.132591262356013e+00	 5.289017228355558e-01	-1.281211059764334e+01
1	 1.121719562493458e+00	 5.515842846700590e-01	-1.519593061238220e+01
1	 1.110355008534519e+00	 5.741182412978676e-01	-1.756976177785807e+01
1	 1.098499948001281e+00	 5.964879413737912e-01	-1.993330355964632e+01
1	 1.086157378033213e+00	 6.186777433390787e-01	-2.228619079027877e+01
1	 1.073330949004241e+00	 6.406720486069893e-01	-2.462798972785486e+01
1	 1.060024966129602e+00	 6.624553352020790e-01	-2.695819444350683e+01
1	 1.046244389015035e+00	 6.840121917124017e-01	-2.927622357990549e+01
1	 1.173857730101146e+00	 4.647195708066494e-01	-5.970396629456118e+00
1	 1.164378421715943e+00	 4.879847754199314e-01	-8.497130551905002e+00
1	 1.154398088695481e+00	 5.111470461684536e-01	-1.099487357252410e+01
1	 1.143917174980766e+00	 5.341907400606339e-01	-1.346205065730005e+01
1	 1.132936758119894e+00	 5.571001275140689e-01	-1.589708827883434e+01
1	 1.121458558621532e+00	 5.798594237087382e-01	-1.829841685452088e+01
1	 1.109484947482980e+00	 6.024528207859984e-01	-2.066447324986484e+01
1	 1.097018951815104e+00	 6.248645207715108e-01	-2.299370334189427e+01
1	 1.084064258495567e+00	 6.470787690926668e-01	-2.528456463707144e+01
1	 1.070625215791757e+00	 6.690798885542671e-01	-2.753552893754843e+01
1	 1.056706832905469e+00	 6.908523136302467e-01	-2.974508504905627e+01
1	 1.185480083863948e+00	 4.693207546720106e-01	-6.441267472043993e+00
1	 1.175906920941005e+00	 4.928163078464028e-01	-9.072265666220609e+00
1	 1.165827772742723e+00	 5.162079080088365e-01	-1.165511938722916e+01
1	 1.155243087605563e+00	 5.394797572866247e-01	-1.418683352333506e+01
1	 1.144153953746409e+00	 5.626159703589233e-01	-1.666446657315176e+01
1	 1.132562108708666e+00	 5.856006061203647e-01	-1.908514009520855e+01
1	 1.120469946964856e+00	 6.084177001988529e-01	-2.144604809395689e+01
1	 1.107880525597237e+00	 6.310512982044613e-01	-2.374446628753776e+01
1	 1.094797567987208e+00	 6.534854895787139e-01	-2.597776120200767e+01
1	 1.081225465454313e+00	 6.757044419066560e-01	-2.814339903659305e+01
1	 1.067169276796399e+00	 6.976924355481020e-01	-3.023895424492353e+01
1	 1.197102437626749e+00	 4.739219385383718e-01	-7.012446969698345e+00
1	 1.187435420166073e+00	 4.976478402738645e-01	-9.738093163925647e+00
1	 1.177257456789986e+00	 5.212687698501810e-01	-1.239683520554044e+01
1	 1.166569000230403e+00	 5.447687745135282e-01	-1.498427930816380e+01
1	 1.155371149373001e+00	 5.681318132046219e-01	-1.749613673916396e+01
1	 1.143665658795923e+00	 5.913417885327469e-01	-1.992824019415396e+01
1	 1.131454946446909e+00	 6.143825796123552e-01	-2.227655998062576e+01
1	 1.118742099379610e+00	 6.372380756379310e-01	-2.453721990697445e+01
1	 1.105530877479165e+00	 6.598922100651305e-01	-2.670651277247498e+01
1	 1.091825715117267e+00	 6.823289952592448e-01	-2.878091535406159e+01
1	 1.077631720687823e+00	 7.045325574659680e-01	-3.075710278708656e+01
1	 1.208724791389550e+00	 4.785231224057330e-01	-7.681041603499525e+00
1	 1.198963919391144e+00	 5.024793727023167e-01	-1.049199691855430e+01
1	 1.188687140837268e+00	 5.263296316924868e-01	-1.321767093117995e+01
1	 1.177894912855287e+00	 5.500577917413444e-01	-1.585229196603332e+01
1	 1.166588344999672e+00	 5.736476560511649e-01	-1.839024420363118e+01
1	 1.154769208883302e+00	 5.970829709458854e-01	-2.082609089581343e+01
1	 1.142439945929137e+00	 6.203474590265043e-01	-2.315459726439523e+01
1	 1.129603673162223e+00	 6.434248530719191e-01	-2.537075293075011e+01
1	 1.116264186971437e+00	 6.662989305519170e-01	-2.746979372329314e+01
1	 1.102425964780622e+00	 6.889535486120343e-01	-2.944722271055244e+01
1	 1.088094164579742e+00	 7.113726793838446e-01	-3.129883030975778e+01
1	 1.220347145152352e+00	 4.831243062740942e-01	-8.444268083820134e+00
1	 1.210492418616221e+00	 5.073109051317592e-01	-1.133146046560201e+01
1	 1.200116824884569e+00	 5.313904935357540e-01	-1.411536599534779e+01
1	 1.189220825480215e+00	 5.553468089700732e-01	-1.678885530055355e+01
1	 1.177805540626420e+00	 5.791634988985520e-01	-1.934500504372450e+01
1	 1.165872758970802e+00	 6.028241533597791e-01	-2.177712789723671e+01
1	 1.153424945411542e+00	 6.263123384413013e-01	-2.407880207676113e+01
1	 1.140465246945077e+00	 6.496116305064259e-01	-2.624390023300948e+01
1	 1.126997496464023e+00	 6.727056510390734e-01	-2.826661750071919e+01
1	 1.113026214444376e+00	 6.955781019650239e-01	-3.014149850492825e+01
1	 1.098556608472156e+00	 7.182128013017320e-01	-3.186346312775211e+01
1	 1.231969498915152e+00	 4.877254901434555e-01	-9.299448150830059e+00
1	 1.222020917841303e+00	 5.121424375621921e-01	-1.225406230148939e+01
1	 1.211546508931890e+00	 5.364513553799823e-01	-1.508774513372787e+01
1	 1.200546738105186e+00	 5.606358261997149e-01	-1.779202919821808e+01
1	 1.189022736253246e+00	 5.846793417467834e-01	-2.035870265445832e+01
1	 1.176976309058426e+00	 6.085653357744293e-01	-2.277984592577492e+01
1	 1.164409944894123e+00	 6.322772178567456e-01	-2.504786778954164e+01
1	 1.151326820728172e+00	 6.557984079414517e-01	-2.715554065491274e+01
1	 1.137730805956926e+00	 6.791123715265995e-01	-2.909603477945436e+01
1	 1.123626464108531e+00	 7.022026553182141e-01	-3.086295117760518e+01
1	 1.109019052365064e+00	 7.250529232196299e-01	-3.245035297796805e+01
1	 1.243591852677954e+00	 4.923266740138165e-01	-1.024400366656229e+01
1	 1.233549417066389e+00	 5.169739699936152e-01	-1.325747144613582e+01
1	 1.222976192979229e+00	 5.415122172251722e-01	-1.613271440029711e+01
1	 1.211872650730201e+00	 5.659248434302693e-01	-1.885994607312942e+01
1	 1.200239931880150e+00	 5.901951845958592e-01	-2.142968460299756e+01
1	 1.188079859146171e+00	 6.143065181898351e-01	-2.383279598065523e+01
1	 1.175394944376881e+00	 6.382420972728371e-01	-2.606053662046945e+01
1	 1.162188394511508e+00	 6.619851853769962e-01	-2.810459495010091e+01
1	 1.148464115450142e+00	 6.855190920144951e-01	-2.995713172299745e+01
1	 1.134226713773085e+00	 7.088272086716045e-01	-3.161081876001318e+01
1	 1.119481496258467e+00	 7.318930451375384e-01	-3.305887583143985e+01
1	 1.255214206440755e+00	 4.969278578851778e-01	-1.127545197964105e+01
1	 1.245077916291481e+00	 5.218055024260289e-01	-1.433944325205672e+01
1	 1.234405877026588e+00	 5.465730790713230e-01	-1.724825740258951e+01
1	 1.223198563355260e+00	 5.712138606617362e-01	-1.999080750923888e+01
1	 1.211457127507132e+00	 5.957110274457791e-01	-2.255635965772421e+01
1	 1.199183409234037e+00	 6.200477006059969e-01	-2.493458272780122e+01
1	 1.186379943859815e+00	 6.442069766895762e-01	-2.711559737180694e+01
1	 1.173049968295084e+00	 6.681719628130592e-01	-2.909002384430396e+01
1	 1.159197424943675e+00	 6.919258125027606e-01	-3.084902834064477e+01
1	 1.144826963438039e+00	 7.154517620251954e-01	-3.238436750464133e+01
1	 1.129943940152365e+00	 7.387331670554576e-01	-3.368843077138665e+01
1	 1.266836560203556e+00	 5.015290417575390e-01	-1.239140154516335e+01
1	 1.256606415516577e+00	 5.266370348594331e-01	-1.549781544415258e+01
1	 1.245835561073966e+00	 5.516339409184358e-01	-1.843243174419359e+01
1	 1.234524475980362e+00	 5.765028778941159e-01	-2.118288108741793e+01
1	 1.222674323134192e+00	 6.012268702965434e-01	-2.373719498084215e+01
1	 1.210286959322027e+00	 6.257888830229146e-01	-2.608386203805787e+01
1	 1.197364943342925e+00	 6.501718561069625e-01	-2.821188329344110e+01
1	 1.183911542078901e+00	 6.743587402496409e-01	-3.011082620175787e+01
1	 1.169930734437522e+00	 6.983325329913959e-01	-3.177087693493051e+01
1	 1.155427213103392e+00	 7.220763153789866e-01	-3.318289059049410e+01
1	 1.140406384046757e+00	 7.455732889733871e-01	-3.433843893302049e+01
1	 1.278458913966357e+00	 5.061302256309002e-01	-1.358954778349530e+01
1	 1.268134914741677e+00	 5.314685672938273e-01	-1.673050437550988e+01
1	 1.257265245121364e+00	 5.566948027665093e-01	-1.968336566129526e+01
1	 1.245850388605507e+00	 5.817918951274083e-01	-2.243449738559819e+01
1	 1.233891518761329e+00	 6.067427131481519e-01	-2.497071347411242e+01
1	 1.221390509410137e+00	 6.315300654405880e-01	-2.727933865969495e+01
1	 1.208349942826211e+00	 6.561367355249965e-01	-2.934827006253677e+01
1	 1.194773115862958e+00	 6.805455176867415e-01	-3.116603729163704e+01
1	 1.180664043931685e+00	 7.047392534804008e-01	-3.272186063375250e+01
1	 1.166027462769146e+00	 7.287008687329783e-01	-3.400570689915828e+01
1	 1.150868827941644e+00	 7.524134108913275e-01	-3.500834250118301e+01
1	 1.046244389015035e+00	 6.840121917124017e-01	-2.927622357990549e+01
1	 1.031994829112001e+00	 7.053273514082546e-01	-2.916527460615680e+01
1	 1.017282545054521e+00	 7.263857263794559e-01	-2.893264316213407e+01
1	 1.002114435865165e+00	 7.471724415374245e-01	-2.858363562378024e+01
1	 9.864980320304253e-01	 7.676728683263137e-01	-2.812404592793345e+01
1	 9.704414844585151e-01	 7.878726579898537e-01	-2.756013638995602e+01
1	 9.539535513453987e-01	 8.077577742387658e-01	-2.689861581048282e+01
1	 9.370435829877606e-01	 8.273145251659155e-01	-2.614661498615941e+01
1	 9.197215045943361e-01	 8.465295942593203e-01	-2.531165976241246e+01
1	 9.019977971594894e-01	 8.653900703672559e-01	-2.440164178831865e+01
1	 8.838834764750000e-01	 8.838834764750000e-01	-2.342478715425799e+01
1	 1.056706832905469e+00	 6.908523136302467e-01	-2.974508504905627e+01
1	 1.042314777402819e+00	 7.123806249235496e-01	-2.954994166185538e+01
1	 1.027455370504306e+00	 7.336495836448358e-01	-2.924669673370714e+01
1	 1.012135580222726e+00	 7.546441659546386e-01	-2.883918485083129e+01
1	 9.963630123494379e-01	 7.753495970115514e-01	-2.833166618013980e+01
1	 9.801458993017382e-01	 7.957513845717418e-01	-2.772881326749827e+01
1	 9.634930868575512e-01	 8.158353519830368e-01	-2.703569549436021e+01
1	 9.464140188165280e-01	 8.355876704192311e-01	-2.625776126897916e+01
1	 9.289187196394912e-01	 8.549948902032221e-01	-2.540081804831468e+01
1	 9.110177751307498e-01	 8.740439710717682e-01	-2.447101030591040e+01
1	 8.927223112400001e-01	 8.927223112400001e-01	-2.347479557921076e+01
1	 1.067169276796399e+00	 6.976924355481020e-01	-3.023895424492353e+01
1	 1.052634725694217e+00	 7.194338984386744e-01	-2.994725271672819e+01
1	 1.037628195954726e+00	 7.409134409099047e-01	-2.956072769958034e+01
1	 1.022156724580948e+00	 7.621158903714401e-01	-2.908176453616678e+01
1	 1.006227992669108e+00	 7.830263256963153e-01	-2.851311306766560e+01
1	 9.898503141455847e-01	 8.036301111531332e-01	-2.785788033746238e+01
1	 9.730326223702622e-01	 8.239129297268302e-01	-2.711952131775404e+01
1	 9.557844546457592e-01	 8.438608156721282e-01	-2.630182769702654e+01
1	 9.381159346849866e-01	 8.634601861468045e-01	-2.540891478308573e+01
1	 9.200377531021950e-01	 8.826978717761008e-01	-2.444520659266053e+01
1	 9.015611460049998e-01	 9.015611460049998e-01	-2.341541921438041e+01
1	 1.077631720687823e+00	 7.045325574659680e-01	-3.075710278708656e+01
1	 1.062954673986195e+00	 7.264871719536292e-01	-3.035683949892663e+01
1	 1.047801021405781e+00	 7.481772981746628e-01	-2.987473671814751e+01
1	 1.032177868939832e+00	 7.695876147878290e-01	-2.931175243340878e+01
1	 1.016092972989436e+00	 7.907030543806040e-01	-2.866914892150468e+01
1	 9.995547289900544e-01	 8.115088377340292e-01	-2.794849128355157e+01
1	 9.825721578835327e-01	 8.319905074701464e-01	-2.715164436397066e+01
1	 9.651548904754556e-01	 8.521339609246066e-01	-2.628076805247411e+01
1	 9.473131497308213e-01	 8.719254820900676e-01	-2.533831098277583e+01
1	 9.290577310738252e-01	 8.913517724802531e-01	-2.432700265529394e+01
1	 9.103999807700000e-01	 9.103999807700000e-01	-2.324984402452217e+01
1	 1.088094164579742e+00	 7.113726793838446e-01	-3.129883030975778e+01
1	 1.073274622278753e+00	 7.335404454684142e-01	-3.077834790090455e+01
1	 1.057973846857473e+00	 7.554411554391099e-01	-3.018872442248018e+01
1	 1.042199013299377e+00	 7.770593392038053e-01	-2.952951176719353e+01
1	 1.025957953310421e+00	 7.983797830644190e-01	-2.880050675222787e+01
1	 1.009259143835148e+00	 8.193875643144291e-01	-2.800175541701956e+01
1	 9.921116933973619e-01	 8.400680852129850e-01	-2.713355605926712e+01
1	 9.745253263056164e-01	 8.604071061766666e-01	-2.619646097202826e+01
1	 9.565103647769959e-01	 8.803907780330110e-01	-2.519127685512905e+01
1	 9.380777090456406e-01	 9.000056731842258e-01	-2.411906388489669e+01
1	 9.192388155350000e-01	 9.192388155350000e-01	-2.298113343729222e+01
1	 1.098556608472156e+00	 7.182128013017320e-01	-3.186346312775211e+01
1	 1.083594570571891e+00	 7.405937189830295e-01	-3.121143730492759e+01
1	 1.068146672309800e+00	 7.627050127032456e-01	-3.050269142153259e+01
1	 1.052220157659584e+00	 7.845310636193691e-01	-2.973539192502778e+01
1	 1.035822933632064e+00	 8.060565117477595e-01	-2.890789164619373e+01
1	 1.018963558680864e+00	 8.272662908943328e-01	-2.801873978964399e+01
1	 1.001651228911751e+00	 8.481456629553464e-01	-2.706669101366302e+01
1	 9.838957621362415e-01	 8.686802514283076e-01	-2.605071352528453e+01
1	 9.657075798235105e-01	 8.888560739756349e-01	-2.496999612378794e+01
1	 9.470976870176407e-01	 9.086595738880187e-01	-2.382395413385178e+01
1	 9.280776503000001e-01	 9.280776503000001e-01	-2.261223417834788e+01
1	 1.109019052365064e+00	 7.250529232196299e-01	-3.245035297796805e+01
1	 1.093914518865609e+00	 7.476469924974751e-01	-3.165577994676150e+01
1	 1.078319497762762e+00	 7.699688699670706e-01	-3.081663830127980e+01
1	 1.062241302020453e+00	 7.920027880345202e-01	-2.992972910998431e+01
1	 1.045687913954364e+00	 8.137332404306257e-01	-2.899198208272813e+01
1	 1.028667973527204e+00	 8.351450174737410e-01	-2.800047118709764e+01
1	 1.011190764426698e+00	 8.562232406972299e-01	-2.695242970095178e+01
1	 9.932661979673315e-01	 8.769533966795300e-01	-2.584526459053482e+01
1	 9.749047948703654e-01	 8.973213699179398e-01	-2.467657010773241e+01
1	 9.561176649898260e-01	 9.173134745916315e-01	-2.344414050540020e+01
1	 9.369164850650002e-01	 9.369164850650001e-01	-2.214598177615719e+01
1	 1.119481496258467e+00	 7.318930451375384e-01	-3.305887583143985e+01
1	 1.104234467159906e+00	 7.547002660117507e-01	-3.211106031504058e+01
1	 1.088492323216361e+00	 7.772327272305846e-01	-3.113056562579096e+01
1	 1.072262446381982e+00	 7.994745124492590e-01	-3.011284695679643e+01
1	 1.055552894277321e+00	 8.214099691130178e-01	-2.905343117744403e+01
1	 1.038372388374167e+00	 8.430237440526529e-01	-2.794793801054251e+01
1	 1.020730299942205e+00	 8.643008184386362e-01	-2.679210098843024e+01
1	 1.002636633798886e+00	 8.852265419303337e-01	-2.558178804127666e+01
1	 9.841020099175596e-01	 9.057866658599246e-01	-2.431302157196419e+01
1	 9.651376429621962e-01	 9.259673752950645e-01	-2.298199787462831e+01
1	 9.457553198299999e-01	 9.457553198299999e-01	-2.158510575813037e+01
1	 1.129943940152365e+00	 7.387331670554576e-01	-3.368843077138665e+01
1	 1.114554415454784e+00	 7.617535395258563e-01	-3.257697458400597e+01
1	 1.098665148670595e+00	 7.844965844937873e-01	-3.144447393824404e+01
1	 1.082283590744174e+00	 8.069462368635849e-01	-3.028505711372540e+01
1	 1.065417874600936e+00	 8.290866977949353e-01	-2.909286785648674e+01
1	 1.048076803221754e+00	 8.509024706310688e-01	-2.786209205369060e+01
1	 1.030269835458270e+00	 8.723783961795647e-01	-2.658698452608946e+01
1	 1.012007069630905e+00	 8.934996871807190e-01	-2.526189575569449e+01
1	 9.932992249650937e-01	 9.142519618015905e-01	-2.388129836426597e+01
1	 9.741576209347511e-01	 9.346212759983175e-01	-2.243981315829009e+01
1	 9.545941545949999e-01	 9.545941545949999e-01	-2.093223455807507e+01
1	 1.140406384046757e+00	 7.455732889733871e-01	-3.433843893302049e+01
1	 1.124874363750242e+00	 7.688068130397925e-01	-3.305323007746824e+01
1	 1.108837974125464e+00	 7.917604417566795e-01	-3.175836376188375e+01
1	 1.092304735107027e+00	 8.144179612774985e-01	-3.044665979239924e+01
1	 1.075282854925209e+00	 8.367634264763789e-01	-2.911089796614316e+01
1	 1.057781218069964e+00	 8.587811972089886e-01	-2.774385018204420e+01
1	 1.039809370974894e+00	 8.804559739200161e-01	-2.633831300428767e+01
1	 1.021377505463388e+00	 9.017728324306855e-01	-2.488714046048110e+01
1	 1.002496440012967e+00	 9.227172577429366e-01	-2.338327685176959e+01
1	 9.831775989074915e-01	 9.432751767013908e-01	-2.181978934959241e+01
1	 9.634329893600002e-01	 9.634329893600002e-01	-2.018990015351772e+01
1	 1.150868827941644e+00	 7.524134108913275e-01	-3.500834250118301e+01
1	 1.135194312046280e+00	 7.758600865535584e-01	-3.353954476200868e+01
1	 1.119010799580969e+00	 7.990242990192602e-01	-3.207223560092766e+01
1	 1.102325879470541e+00	 8.218896856909992e-01	-3.059794428765911e+01
1	 1.085147835250138e+00	 8.444401551573477e-01	-2.910810532192607e+01
1	 1.067485632918797e+00	 8.666599237864125e-01	-2.759409592054181e+01
1	 1.049348906492078e+00	 8.885335516599897e-01	-2.604727428828059e+01
1	 1.030747941296336e+00	 9.100459776802332e-01	-2.445901841954209e+01
1	 1.011693655061181e+00	 9.311825536839639e-01	-2.282076517007792e+01
1	 9.921975768804164e-01	 9.519290774042841e-01	-2.112404933290195e+01
1	 9.722718241249999e-01	 9.722718241249999e-01	-1.936054245007969e+01
1	 8.838834764750000e-01	 8.838834764750000e-01	-2.342478715425799e+01
1	 8.653900703672558e-01	 9.019977971594894e-01	-1.971775590867597e+01
1	 8.465295942593203e-01	 9.197215045943362e-01	-1.634360124958073e+01
1	 8.273145251659157e-01	 9.370435829877607e-01	-1.330981988267795e+01
1	 8.077577742387659e-01	 9.539535513453987e-01	-1.062278745776757e+01
1	 7.878726579898540e-01	 9.704414844585149e-01	-8.287739093284738e+00
1	 7.676728683263140e-01	 9.864980320304252e-01	-6.308755838550100e+00
1	 7.471724415374250e-01	 1.002114435865165e+00	-4.688757121426487e+00
1	 7.263857263794565e-01	 1.017282545054521e+00	-3.429499179703166e+00
1	 7.053273514082554e-01	 1.031994829112000e+00	-2.531579425653399e+00
1	 6.840121917124017e-01	 1.046244389015035e+00	-1.994446645461734e+00
1	 8.927223112400001e-01	 8.927223112400001e-01	-2.347479557921076e+01
1	 8.740439710717682e-01	 9.110177751307497e-01	-1.973949975517444e+01
1	 8.549948902032222e-01	 9.289187196394916e-01	-1.631298709966590e+01
1	 8.355876704192313e-01	 9.464140188165279e-01	-1.320492506694807e+01
1	 8.158353519830368e-01	 9.634930868575508e-01	-1.042392329454703e+01
1	 7.957513845717418e-01	 9.801458993017379e-01	-7.977504480187591e+00
1	 7.753495970115517e-01	 9.963630123494376e-01	-5.872080970835889e+00
1	 7.546441659546392e-01	 1.012135580222726e+00	-4.112937178847400e+00
1	 7.336495836448365e-01	 1.027455370504305e+00	-2.704217891585877e+00
1	 7.123806249235501e-01	 1.042314777402819e+00	-1.648922492056946e+00
1	 6.908523136302465e-01	 1.056706832905469e+00	-9.489050597023976e-01
1	 9.015611460049998e-01	 9.015611460049998e-01	-2.341541921438041e+01
1	 8.826978717761006e-01	 9.200377531021950e-01	-1.966709442401952e+01
1	 8.634601861468045e-01	 9.381159346849864e-01	-1.620384245059109e+01
1	 8.438608156721283e-01	 9.557844546457592e-01	-1.303747101823766e+01
1	 8.239129297268304e-01	 9.730326223702622e-01	-1.017879242889616e+01
1	 8.036301111531335e-01	 9.898503141455844e-01	-7.637584905872433e+00
1	 7.830263256963154e-01	 1.006227992669108e+00	-5.422559426926226e+00
1	 7.621158903714405e-01	 1.022156724580948e+00	-3.541332228411674e+00
1	 7.409134409099053e-01	 1.037628195954725e+00	-2.000403114117726e+00
1	 7.194338984386750e-01	 1.052634725694217e+00	-8.051396536819295e-01
1	 6.976924355481020e-01	 1.067169276796399e+00	 4.023269359325710e-02
1	 9.103999807700000e-01	 9.103999807700000e-01	-2.324984402452217e+01
1	 8.913517724802530e-01	 9.290577310738252e-01	-1.950328212427728e+01
1	 8.719254820900674e-01	 9.473131497308210e-01	-1.601845459846109e+01
1	 8.521339609246068e-01	 9.651548904754556e-01	-1.280927985014629e+01
1	 8.319905074701465e-01	 9.825721578835326e-01	-9.888742434693814e+00
1	 8.115088377340296e-01	 9.995547289900545e-01	-7.268844980884661e+00
1	 7.907030543806044e-01	 1.016092972989435e+00	-4.960565381882307e+00
1	 7.695876147878296e-01	 1.032177868939832e+00	-2.973819503384446e+00
1	 7.481772981746633e-01	 1.047801021405781e+00	-1.317429609149665e+00
1	 7.264871719536298e-01	 1.062954673986194e+00	 9.013446506669354e-04
1	 7.045325574659680e-01	 1.077631720687823e+00	 9.746094444810387e-01
1	 9.192388155350000e-01	 9.192388155350000e-01	-2.298113343729222e+01
1	 9.000056731842259e-01	 9.380777090456406e-01	-1.925069959543931e+01
1	 8.803907780330109e-01	 9.565103647769959e-01	-1.575902286645681e+01
1	 8.604071061766667e-01	 9.745253263056164e-01	-1.252210359498277e+01
1	 8.400680852129850e-01	 9.921116933973620e-01	-9.555069056054879e+00
1	 8.193875643144292e-01	 1.009259143835148e+00	-6.872116061518618e+00
1	 7.983797830644193e-01	 1.025957953310421e+00	-4.486458619417278e+00
1	 7.770593392038057e-01	 1.042199013299377e+00	-2.410280958828799e+00
1	 7.554411554391103e-01	 1.057973846857472e+00	-6.546961861538181e-01
1	 7.335404454684151e-01	 1.073274622278753e+00	 7.702892098423075e-01
1	 7.113726793838446e-01	 1.088094164579742e+00	 1.855804837242275e+00
1	 9.280776503000001e-01	 9.280776503000001e-01	-2.261223417834788e+01
1	 9.086595738880183e-01	 9.470976870176407e-01	-1.891188312978311e+01
1	 8.888560739756349e-01	 9.657075798235105e-01	-1.542766279402226e+01
1	 8.686802514283077e-01	 9.838957621362414e-01	-1.217762754097025e+01
1	 8.481456629553463e-01	 1.001651228911750e+00	-9.179018675414946e+00
1	 8.272662908943332e-01	 1.018963558680864e+00	-6.448197833352859e+00
1	 8.060565117477597e-01	 1.035822933632063e+00	-4.000585217197571e+00
1	 7.845310636193695e-01	 1.052220157659584e+00	-1.850603046757608e+00
1	 7.627050127032463e-01	 1.068146672309799e+00	-1.162455710019716e-02
1	 7.405937189830302e-01	 1.083594570571890e+00	 1.504071174244796e+00
1	 7.182128013017320e-01	 1.098556608472156e+00	 2.685338339230641e+00
1	 9.369164850650002e-01	 9.369164850650001e-01	-2.214598177615719e+01
1	 9.173134745916314e-01	 9.561176649898259e-01	-1.848927331044790e+01
1	 8.973213699179396e-01	 9.749047948703653e-01	-1.502641008892671e+01
1	 8.769533966795300e-01	 9.932661979673313e-01	-1.177747338055085e+01
1	 8.562232406972300e-01	 1.011190764426698e+00	-8.761790641910700e+00
1	 8.351450174737411e-01	 1.028667973527204e+00	-5.997859805151468e+00
1	 8.137332404306261e-01	 1.045687913954363e+00	-3.503278193355124e+00
1	 7.920027880345210e-01	 1.062241302020452e+00	-1.294676504013452e+00
1	 7.699688699670710e-01	 1.078319497762762e+00	 6.123417438518912e-01
1	 7.476469924974758e-01	 1.093914518865608e+00	 2.203254952005902e+00
1	 7.250529232196300e-01	 1.109019052365064e+00	 3.464672079406843e+00
1	 9.457553198299999e-01	 9.457553198299999e-01	-2.158510575813037e+01
1	 9.259673752950643e-01	 9.651376429621963e-01	-1.798521948382431e+01
1	 9.057866658599246e-01	 9.841020099175595e-01	-1.455722435771768e+01
1	 8.852265419303337e-01	 1.002636633798885e+00	-1.132320218215228e+01
1	 8.643008184386362e-01	 1.020730299942204e+00	-8.304539469197534e+00
1	 8.430237440526532e-01	 1.038372388374167e+00	-5.521842718996208e+00
1	 8.214099691130180e-01	 1.055552894277321e+00	-2.994858116745968e+00
1	 7.994745124492595e-01	 1.072262446381982e+00	-7.423961520430375e-01
1	 7.772327272305850e-01	 1.088492323216360e+00	 1.217738380080754e+00
1	 7.547002660117512e-01	 1.104234467159906e+00	 2.868810585715782e+00
1	 7.318930451375383e-01	 1.119481496258467e+00	 4.195213527702506e+00
1	 9.545941545949999e-01	 9.545941545949999e-01	-2.093223455807507e+01
1	 9.346212759983176e-01	 9.741576209347513e-01	-1.740198398347736e+01
1	 9.142519618015904e-01	 9.932992249650935e-01	-1.402199262892424e+01
1	 8.934996871807190e-01	 1.012007069630904e+00	-1.081631719685421e+01
1	 8.723783961795650e-01	 1.030269835458270e+00	-7.808376911166640e+00
1	 8.509024706310692e-01	 1.048076803221754e+00	-5.020859882076968e+00
1	 8.290866977949357e-01	 1.065417874600936e+00	-2.475633683305213e+00
1	 8.069462368635854e-01	 1.082283590744173e+00	-1.936607077952162e-01
1	 7.844965844937880e-01	 1.098665148670594e+00	 1.805081175579975e+00
1	 7.617535395258571e-01	 1.114554415454784e+00	 3.501672190459381e+00
1	 7.387331670554576e-01	 1.129943940152365e+00	 4.878318025530656e+00
1	 9.634329893600002e-01	 9.634329893600002e-01	-2.018990015351772e+01
1	 9.432751767013909e-01	 9.831775989074915e-01	-1.674174612156069e+01
1	 9.227172577429366e-01	 1.002496440012967e+00	-1.342253268232521e+01
1	 9.017728324306855e-01	 1.021377505463388e+00	-1.025826651056034e+01
1	 8.804559739200162e-01	 1.039809370974894e+00	-7.274373923402253e+00
1	 8.587811972089889e-01	 1.057781218069964e+00	-4.495598425173310e+00
1	 8.367634264763789e-01	 1.075282854925208e+00	-1.945902260677116e+00
1	 8.144179612774990e-01	 1.092304735107027e+00	 3.516273949718256e-01
1	 7.917604417566800e-01	 1.108837974125464e+00	 2.374867025021776e+00
1	 7.688068130397931e-01	 1.124874363750241e+00	 4.102739601868737e+00
1	 7.455732889733871e-01	 1.140406384046757e+00	 5.515291177003220e+00
1	 9.722718241249999e-01	 9.722718241249999e-01	-1.936054245007969e+01
1	 9.519290774042841e-01	 9.921975768804165e-01	-1.600660596251674e+01
1	 9.311825536839636e-01	 1.011693655061181e+00	-1.276059619661802e+01
1	 9.100459776802337e-01	 1.030747941296336e+00	-9.650445551506838e+00
1	 8.885335516599900e-01	 1.049348906492078e+00	-6.703562517649231e+00
1	 8.666599237864129e-01	 1.067485632918797e+00	-3.946720492490493e+00
1	 8.444401551573482e-01	 1.085147835250138e+00	-1.405950403136601e+00
1	 8.218896856909996e-01	 1.102325879470541e+00	 8.935621746370863e-01
1	 7.990242990192610e-01	 1.119010799580969e+00	 2.927574754180897e+00
1	 7.758600865535591e-01	 1.135194312046279e+00	 4.672879934278237e+00
1	 7.524134108913274e-01	 1.150868827941644e+00	 6.107391109716392e+00
1	 6.840121917124017e-01	 1.046244389015035e+00	-1.994446645461734e+00
1	 6.624553352020789e-01	 1.060024966129602e+00	-2.261685484757692e-01
1	 6.406720486069893e-01	 1.073330949004241e+00	 9.965377865561500e-01
1	 6.186777433390788e-01	 1.086157378033213e+00	 1.654653876508534e+00
1	 5.964879413737916e-01	 1.098499948001280e+00	 1.731077306279741e+00
1	 5.741182412978680e-01	 1.110355008534519e+00	 1.210663375341030e+00
1	 5.515842846700593e-01	 1.121719562493458e+00	 8.025618731753337e-02
1	 5.289017228355563e-01	 1.132591262356013e+00	-1.671290790040077e+00
1	 5.060861843290325e-01	 1.142968404648257e+00	-4.053104583776648e+00
1	 4.831532429944511e-01	 1.152849922490885e+00	-7.072292802994435e+00
1	 4.601183869422882e-01	 1.162235376338345e+00	-1.073395368841628e+01
1	 6.908523136302465e-01	 1.056706832905469e+00	-9.489050597023976e-01
1	 6.690798885542670e-01	 1.070625215791757e+00	 7.928544192752502e-01
1	 6.470787690926667e-01	 1.084064258495567e+00	 1.949949635990646e+00
1	 6.248645207715108e-01	 1.097018951815105e+00	 2.506346525550169e+00
1	 6.024528207859987e-01	 1.109484947482980e+00	 2.448024955889883e+00
1	 5.798594237087384e-01	 1.121458558621532e+00	 1.763005855406906e+00
1	 5.571001275140695e-01	 1.132936758119894e+00	 4.413676337752488e-01
1	 5.341907400606344e-01	 1.143917174980766e+00	-1.524747977234730e+00
1	 5.111470461684543e-01	 1.154398088695481e+00	-4.141140454990611e+00
1	 4.879847754199321e-01	 1.164378421715942e+00	-7.411565104631750e+00
1	 4.647195708066494e-01	 1.173857730101146e+00	-1.133775740891709e+01
1	 6.976924355481020e-01	 1.067169276796399e+00	 4.023269359325710e-02
1	 6.757044419066557e-01	 1.081225465454312e+00	 1.777356305419047e+00
1	 6.534854895787137e-01	 1.094797567987208e+00	 2.891396890003790e+00
1	 6.310512982044615e-01	 1.107880525597236e+00	 3.369257545711697e+00
1	 6.084177001988532e-01	 1.120469946964856e+00	 3.199952149937809e+00
1	 5.856006061203651e-01	 1.132562108708666e+00	 2.374618151430638e+00
1	 5.626159703589236e-01	 1.144153953746409e+00	 8.865185064361647e-01
1	 5.394797572866252e-01	 1.155243087605563e+00	-1.268967016197129e+00
1	 5.162079080088372e-01	 1.165827772742723e+00	-4.094360856878156e+00
1	 4.928163078464036e-01	 1.175906920941005e+00	-7.590116636402853e+00
1	 4.693207546720107e-01	 1.185480083863948e+00	-1.175465763102268e+01
1	 7.045325574659680e-01	 1.077631720687823e+00	 9.746094444810387e-01
1	 6.823289952592447e-01	 1.091825715117267e+00	 2.728342578336366e+00
1	 6.598922100651304e-01	 1.105530877479165e+00	 3.821228031940378e+00
1	 6.372380756379310e-01	 1.118742099379610e+00	 4.243060188300991e+00
1	 6.143825796123554e-01	 1.131454946446909e+00	 3.985840066719301e+00
1	 5.913417885327474e-01	 1.143665658795923e+00	 3.043773958068728e+00
1	 5.681318132046224e-01	 1.155371149373001e+00	 1.413261054994825e+00
1	 5.447687745135287e-01	 1.166569000230403e+00	-9.071296005955052e-01
1	 5.212687698501816e-01	 1.177257456789986e+00	-3.916692453627341e+00
1	 4.976478402738654e-01	 1.187435420166072e+00	-7.612628585814655e+00
1	 4.739219385383718e-01	 1.197102437626749e+00	-1.199009814598462e+01
1	 7.113726793838446e-01	 1.088094164579742e+00	 1.855804837242275e+00
1	 6.889535486120340e-01	 1.102425964780622e+00	 3.646780034546014e+00
1	 6.662989305519171e-01	 1.116264186971437e+00	 4.739778141939947e+00
1	 6.434248530719193e-01	 1.129603673162223e+00	 5.127440271883764e+00
1	 6.203474590265048e-01	 1.142439945929137e+00	 4.804709069981843e+00
1	 5.970829709458856e-01	 1.154769208883302e+00	 3.768813366338422e+00
1	 5.736476560511651e-01	 1.166588344999672e+00	 2.019241673390116e+00
1	 5.500577917413448e-01	 1.177894912855286e+00	-4.422950512632173e-01
1	 5.263296316924875e-01	 1.188687140837267e+00	-3.611910883878981e+00
1	 5.024793727023174e-01	 1.198963919391144e+00	-7.483602094699712e+00
1	 4.785231224057330e-01	 1.208724791389550e+00	-1.204931336846825e+01
1	 7.182128013017320e-01	 1.098556608472156e+00	 2.685338339230641e+00
1	 6.955781019650238e-01	 1.113026214444376e+00	 4.533598640220854e+00
1	 6.727056510390736e-01	 1.126997496464024e+00	 5.647369535183483e+00
1	 6.496116305064261e-01	 1.140465246945077e+00	 6.022095583842900e+00
1	 6.263123384413014e-01	 1.153424945411542e+00	 5.655616842949789e+00
1	 6.028241533597797e-01	 1.165872758970803e+00	 4.548139701886059e+00
1	 5.791634988985525e-01	 1.177805540626420e+00	 2.702196416745942e+00
1	 5.553468089700738e-01	 1.189220825480215e+00	 1.225938565237978e-01
1	 5.313904935357544e-01	 1.200116824884568e+00	-3.183647952420021e+00
1	 5.073109051317600e-01	 1.210492418616221e+00	-7.207366832819854e+00
1	 4.831243062740943e-01	 1.220347145152352e+00	-1.193733830686523e+01
1	 7.250529232196300e-01	 1.109019052365064e+00	 3.464672079406843e+00
1	 7.022026553182140e-01	 1.123626464108531e+00	 5.389693268470067e+00
1	 6.791123715265995e-01	 1.137730805956926e+00	 6.544312364014313e+00
1	 6.557984079414519e-01	 1.151326820728172e+00	 6.926735315810926e+00
1	 6.322772178567455e-01	 1.164409944894123e+00	 6.537656627971925e+00
1	 6.085653357744295e-01	 1.176976309058425e+00	 5.380216542222229e+00
1	 5.846793417467839e-01	 1.189022736253246e+00	 3.459946772069731e+00
1	 5.606358261997154e-01	 1.200546738105186e+00	 7.847053956148056e-01
1	 5.364513553799830e-01	 1.211546508931889e+00	-2.635398414798299e+00
1	 5.121424375621928e-01	 1.222020917841302e+00	-6.788089086171414e+00
1	 4.877254901434555e-01	 1.231969498915153e+00	-1.165901796925063e+01
1	 7.318930451375383e-01	 1.119481496258467e+00	 4.195213527702506e+00
1	 7.088272086716046e-01	 1.134226713773085e+00	 6.215925339200587e+00
1	 6.855190920144951e-01	 1.148464115450143e+00	 7.430905186295744e+00
1	 6.619851853769962e-01	 1.162188394511507e+00	 7.841079530761846e+00
1	 6.382420972728374e-01	 1.175394944376881e+00	 7.449955564880698e+00
1	 6.143065181898355e-01	 1.188079859146170e+00	 6.263564901213197e+00
1	 5.901951845958594e-01	 1.200239931880150e+00	 4.290395666108456e+00
1	 5.659248434302697e-01	 1.211872650730201e+00	 1.541313697818982e+00
1	 5.415122172251726e-01	 1.222976192979229e+00	-1.970526381493404e+00
1	 5.169739699936161e-01	 1.233549417066389e+00	-6.229779391740612e+00
1	 4.923266740138165e-01	 1.243591852677954e+00	-1.121901624190219e+01
1	 7.387331670554576e-01	 1.129943940152365e+00	 4.878318025530656e+00
1	 7.154517620251952e-01	 1.144826963438039e+00	 7.013124367877760e+00
1	 6.919258125027606e-01	 1.159197424943675e+00	 8.307435502191819e+00
1	 6.681719628130595e-01	 1.173049968295084e+00	 8.764858659707798e+00
1	 6.442069766895764e-01	 1.186379943859815e+00	 8.391673121663503e+00
1	 6.200477006059973e-01	 1.199183409234037e+00	 7.196760569990582e+00
1	 5.957110274457796e-01	 1.211457127507132e+00	 5.191523694990277e+00
1	 5.712138606617366e-01	 1.223198563355260e+00	 2.389793853028568e+00
1	 5.465730790713239e-01	 1.234405877026588e+00	-1.192271366299448e+00
1	 5.218055024260299e-01	 1.245077916291480e+00	-5.536299748106149e+00
1	 4.969278578851778e-01	 1.255214206440755e+00	-1.062182427456854e+01
1	 7.455732889733871e-01	 1.140406384046757e+00	 5.515291177003220e+00
1	 7.220763153789865e-01	 1.155427213103392e+00	 7.782089429030249e+00
1	 6.983325329913959e-01	 1.169930734437522e+00	 9.174180261401307e+00
1	 6.743587402496412e-01	 1.183911542078901e+00	 9.697813026101111e+00
1	 6.501718561069627e-01	 1.197364943342925e+00	 9.361999611519829e+00
1	 6.257888830229149e-01	 1.210286959322026e+00	 8.178431604233104e+00
1	 6.012268702965438e-01	 1.222674323134191e+00	 6.161385561408554e+00
1	 5.765028778941165e-01	 1.234524475980362e+00	 3.327617278113070e+00
1	 5.516339409184363e-01	 1.245835561073966e+00	-3.037540017692706e-01
1	 5.266370348594338e-01	 1.256606415516577e+00	-4.711370429127616e+00
1	 5.015290417575390e-01	 1.266836560203556e+00	-9.871768404163358e+00
1	 7.524134108913274e-01	 1.150868827941644e+00	 6.107391109716392e+00
1	 7.287008687329781e-01	 1.166027462769146e+00	 8.523590539930977e+00
1	 7.047392534804007e-01	 1.180664043931685e+00	 1.003140634272464e+01
1	 6.805455176867415e-01	 1.194773115862958e+00	 1.063969239617832e+01
1	 6.561367355249966e-01	 1.208349942826211e+00	 1.036015479080669e+01
1	 6.315300654405884e-01	 1.221390509410137e+00	 9.207255948504754e+00
1	 6.067427131481523e-01	 1.233891518761329e+00	 7.198106706142081e+00
1	 5.817918951274087e-01	 1.245850388605507e+00	 4.352347338421232e+00
1	 5.566948027665101e-01	 1.257265245121364e+00	 6.920185570929647e-01
1	 5.314685672938282e-01	 1.268134914741677e+00	-3.758576425977996e+00
1	 5.061302256309000e-01	 1.278458913966357e+00	-8.973017646257841e+00
1	 4.601183869422882e-01	 1.162235376338345e+00	-1.073395368841628e+01
1	 4.369969884562961e-01	 1.171124942995283e+00	 2.703013466514705e+00
1	 4.138042749547273e-01	 1.179519403004286e+00	 1.437524128381949e+01
1	 3.905553010997264e-01	 1.187420126502869e+00	 2.431261703364063e+01
1	 3.672649221392484e-01	 1.194829057653032e+00	 3.254881980689529e+01
1	 3.439477685578608e-01	 1.201748697753768e+00	 3.912108502246245e+01
1	 3.206182221012706e-01	 1.208182087148427e+00	 4.406996066941343e+01
1	 2.972903932297764e-01	 1.214132786041956e+00	 4.743905706254775e+01
1	 2.739781000458337e-01	 1.219604854344699e+00	 4.927479185913854e+01
1	 2.506948487310247e-01	 1.224602830660197e+00	 4.962613203987671e+01
1	 2.274538155180211e-01	 1.229131710534368e+00	 4.854433449883655e+01
1	 4.647195708066494e-01	 1.173857730101146e+00	-1.133775740891709e+01
1	 4.413669583353180e-01	 1.182836192423920e+00	 2.029058651050596e+00
1	 4.179423176984929e-01	 1.191314597032411e+00	 1.369791954105509e+01
1	 3.944608541049377e-01	 1.199294327765508e+00	 2.369385612028768e+01
1	 3.709375713550830e-01	 1.206777348226831e+00	 3.204562619455955e+01
1	 3.473872462383391e-01	 1.213766184728358e+00	 3.878550017841077e+01
1	 3.238244043178661e-01	 1.220263908016873e+00	 4.394903796752951e+01
1	 3.002632971585618e-01	 1.226274113899371e+00	 4.757485869288472e+01
1	 2.767178810439023e-01	 1.231800902885296e+00	 4.970440500720508e+01
1	 2.532017972172816e-01	 1.236848858964223e+00	 5.038170351955456e+01
1	 2.297283536736934e-01	 1.241423027637528e+00	 4.965312294590819e+01
1	 4.693207546720107e-01	 1.185480083863948e+00	-1.175465763102268e+01
1	 4.457369282153291e-01	 1.194547441852557e+00	 1.508397184233552e+00
1	 4.220803604432159e-01	 1.203109791060537e+00	 1.313921521886849e+01
1	 3.983664071110528e-01	 1.211168529028148e+00	 2.315804620741322e+01
1	 3.746102205717478e-01	 1.218725638800630e+00	 3.158880277847746e+01
1	 3.508267239195530e-01	 1.225783671702948e+00	 3.845886699665731e+01
1	 3.270305865350828e-01	 1.232345728885319e+00	 4.379888759627835e+01
1	 3.032362010878344e-01	 1.238415441756786e+00	 4.764256947285048e+01
1	 2.794576620423047e-01	 1.243996951425893e+00	 5.002645698682224e+01
1	 2.557087457036998e-01	 1.249094887268250e+00	 5.098971260924763e+01
1	 2.320028918293363e-01	 1.253714344740687e+00	 5.057389240133580e+01
1	 4.739219385383718e-01	 1.197102437626749e+00	-1.199009814598462e+01
1	 4.501068980963295e-01	 1.206258691281194e+00	 1.136564211227821e+00
1	 4.262184031888958e-01	 1.214904985088661e+00	 1.269567344092606e+01
1	 4.022719601180718e-01	 1.223042730290787e+00	 2.270277124646583e+01
1	 3.782828697892422e-01	 1.230673929374427e+00	 3.117699897042408e+01
1	 3.542662016015024e-01	 1.237801158677538e+00	 3.814092474919561e+01
1	 3.302367687529205e-01	 1.244427549753766e+00	 4.362036084702483e+01
1	 3.062091050175939e-01	 1.250556769614200e+00	 4.764417263111884e+01
1	 2.821974430410407e-01	 1.256192999966490e+00	 5.024408064757216e+01
1	 2.582156941902795e-01	 1.261340915572276e+00	 5.145445724264936e+01
1	 2.342774299849499e-01	 1.266005661843847e+00	 5.131211914641812e+01
1	 4.785231224057330e-01	 1.208724791389550e+00	-1.204931336846825e+01
1	 4.544768679783190e-01	 1.217969940709831e+00	 9.092666023834575e-01
1	 4.303564459355328e-01	 1.226700179116788e+00	 1.236397221075166e+01
1	 4.061775131259946e-01	 1.234916931553427e+00	 2.232570811383689e+01
1	 3.819555190075666e-01	 1.242622219948226e+00	 3.080891612787479e+01
1	 3.577056792841872e-01	 1.249818645652129e+00	 3.783142273601956e+01
1	 3.334429509713793e-01	 1.256509370622212e+00	 4.341427626915902e+01
1	 3.091820089478404e-01	 1.262698097471615e+00	 4.758157511834001e+01
1	 2.849372240401104e-01	 1.268389048507087e+00	 5.036028834482681e+01
1	 2.607226426770205e-01	 1.273586943876302e+00	 5.178007004831781e+01
1	 2.365519681405341e-01	 1.278296978947007e+00	 5.187306883625961e+01
1	 4.831243062740943e-01	 1.220347145152352e+00	-1.193733830686523e+01
1	 4.588468378612978e-01	 1.229681190138469e+00	 8.223747758455549e-01
1	 4.344944886831269e-01	 1.238495373144913e+00	 1.214091608411541e+01
1	 4.100830661348214e-01	 1.246791132816067e+00	 2.202462218586388e+01
1	 3.856281682267209e-01	 1.254570510522024e+00	 3.048330508039997e+01
1	 3.611451569676077e-01	 1.261836132626718e+00	 3.753011980759878e+01
1	 3.366491331904594e-01	 1.268591191490658e+00	 4.318142122923812e+01
1	 3.121549128785740e-01	 1.274839425329030e+00	 4.745661123942732e+01
1	 2.876770050395138e-01	 1.280585097047684e+00	 5.037797767756699e+01
1	 2.632295911639229e-01	 1.285832972180329e+00	 5.197052622134910e+01
1	 2.388265062960890e-01	 1.290588296050166e+00	 5.226180652958965e+01
1	 4.877254901434555e-01	 1.231969498915153e+00	-1.165901796925063e+01
1	 4.632168077452659e-01	 1.241392439567105e+00	 8.719149830364685e-01
1	 4.386325314316782e-01	 1.250290567173038e+00	 1.202343019958698e+01
1	 4.139886191445520e-01	 1.258665334078706e+00	 2.179736316430420e+01
1	 3.893008174467052e-01	 1.266518801095822e+00	 3.019896379607618e+01
1	 3.645846346517638e-01	 1.273853619601308e+00	 3.723678391438522e+01
1	 3.398553154101606e-01	 1.280673012359104e+00	 4.292255338187413e+01
1	 3.151278168097947e-01	 1.286980753186445e+00	 4.727104608024339e+01
1	 2.904167860392506e-01	 1.292781145588281e+00	 5.029993690141984e+01
1	 2.657365396509867e-01	 1.298079000484355e+00	 5.202965094948318e+01
1	 2.411010444516146e-01	 1.302879613153326e+00	 5.248320615085429e+01
1	 4.923266740138165e-01	 1.243591852677954e+00	-1.121901624190219e+01
1	 4.675867776302232e-01	 1.253103688995743e+00	 1.054062026726761e+00
1	 4.427705741811864e-01	 1.262085761201164e+00	 1.200855464382656e+01
1	 4.178941721551864e-01	 1.270539535341346e+00	 2.164186113589568e+01
1	 3.929734666675194e-01	 1.278467091669621e+00	 2.995473517875190e+01
1	 3.680241123366553e-01	 1.285871106575899e+00	 3.695119168158016e+01
1	 3.430614976304829e-01	 1.292754833227551e+00	 4.263840205814365e+01
1	 3.181007207415024e-01	 1.299122081043860e+00	 4.702657874213424e+01
1	 2.931565670393215e-01	 1.304977194128878e+00	 5.012885003816154e+01
1	 2.682434881382119e-01	 1.310325028788381e+00	 5.196112642279340e+01
1	 2.433755826071108e-01	 1.315170930256486e+00	 5.254195942172480e+01
1	 4.969278578851778e-01	 1.255214206440755e+00	-1.062182427456854e+01
1	 4.719567475161696e-01	 1.264814938424380e+00	 1.365132383657905e+00
1	 4.469086169316517e-01	 1.273880955229289e+00	 1.209343912991305e+01
1	 4.217997251667246e-01	 1.282413736603985e+00	 2.155612285082880e+01
1	 3.966461158891635e-01	 1.290415382243419e+00	 2.974950498768807e+01
1	 3.714635900222824e-01	 1.297888593550488e+00	 3.667312800752529e+01
1	 3.462676798514263e-01	 1.304836654095997e+00	 4.232966957686121e+01
1	 3.210736246736973e-01	 1.311263408901275e+00	 4.672484539676837e+01
1	 2.958963480397257e-01	 1.317173242669475e+00	 4.986730170135714e+01
1	 2.707504366255986e-01	 1.322571057092408e+00	 5.176849845394803e+01
1	 2.456501207625777e-01	 1.327462247359646e+00	 5.244258429641099e+01
1	 5.015290417575390e-01	 1.266836560203556e+00	-9.871768404163358e+00
1	 4.763267174031054e-01	 1.276526187853017e+00	 1.801577705736445e+00
1	 4.510466596830741e-01	 1.285676149257414e+00	 1.227533796860974e+01
1	 4.257052781791671e-01	 1.294287937866625e+00	 2.153822820607532e+01
1	 4.003187651116374e-01	 1.302363672817217e+00	 2.958219987171320e+01
1	 3.749030677086451e-01	 1.309906080525078e+00	 3.640238568420097e+01
1	 3.494738620729909e-01	 1.316918474964443e+00	 4.199703248367480e+01
1	 3.240465286063789e-01	 1.323404736758689e+00	 4.636742217281942e+01
1	 2.986361290404637e-01	 1.329369291210072e+00	 4.951778165637076e+01
1	 2.732573851131466e-01	 1.334817085396434e+00	 5.145518273405547e+01
1	 2.479246589180153e-01	 1.339753564462806e+00	 5.218943293264548e+01
1	 5.061302256309000e-01	 1.278458913966357e+00	-8.973017646257841e+00
1	 4.806966872910303e-01	 1.288237437281654e+00	 2.359978675708209e+00
1	 4.551847024354536e-01	 1.297471343285539e+00	 1.255160531392447e+01
1	 4.296108311925131e-01	 1.306162139129264e+00	 2.158632692053487e+01
1	 4.039914143349413e-01	 1.314311963391015e+00	 2.945178551060682e+01
1	 3.783425453957433e-01	 1.321923567499668e+00	 3.613876503842451e+01
1	 3.526800442951766e-01	 1.329000295832889e+00	 4.164114272257294e+01
1	 3.270194325395477e-01	 1.335546064616104e+00	 4.595582788519256e+01
1	 3.013759100415353e-01	 1.341565339750669e+00	 4.908268913164830e+01
1	 2.757643336008559e-01	 1.347063113700460e+00	 5.102447074727901e+01
1	 2.501991970734234e-01	 1.352044881565965e+00	 5.178669922788661e+01
1	 2.274538155180211e-01	 1.229131710534368e+00	 4.854433449883655e+01
1	 2.042678302137041e-01	 1.233196924082991e+00	 3.010218586572766e+01
1	 1.811493612805352e-01	 1.236804313110804e+00	 1.464948165747319e+01
1	 1.581105024744471e-01	 1.239960107835634e+00	 2.178994428858946e+00
1	 1.351629610294562e-01	 1.242670903327850e+00	-7.325458945318083e+00
1	 1.123180473713980e-01	 1.244943635769421e+00	-1.388859630029200e+01
1	 8.958666633593650e-02	 1.246785558634639e+00	-1.754322942153149e+01
1	 6.697930985936418e-02	 1.248204218889501e+00	-1.832980707724785e+01
1	 4.450605110464890e-02	 1.249207433301722e+00	-1.629594533263228e+01
1	 2.217653997970472e-02	 1.249803264948056e+00	-1.149594851800053e+01
1	 0.000000000000000e+00	 1.250000000000000e+00	-3.990324084208363e+00
1	 2.297283536736934e-01	 1.241423027637528e+00	 4.965312294590819e+01
1	 2.063105085178029e-01	 1.245528893322062e+00	 3.166627904922748e+01
1	 1.829608548964180e-01	 1.249172356240531e+00	 1.648387339887816e+01
1	 1.596916075030363e-01	 1.252359708912939e+00	 4.099798088971326e+00
1	 1.365145906440207e-01	 1.255097612360361e+00	-5.500494392707211e+00
1	 1.134412278494712e-01	 1.257393072126586e+00	-1.233959611061445e+01
1	 9.048253300341476e-02	 1.259253414220649e+00	-1.644772990797144e+01
1	 6.764910296151375e-02	 1.260686261078208e+00	-1.786232028535916e+01
1	 4.495111161837246e-02	 1.261699507634656e+00	-1.662755221614353e+01
1	 2.239830538099112e-02	 1.262301297597516e+00	-1.279392107368012e+01
1	 0.000000000000000e+00	 1.262500000000000e+00	-6.417776715066879e+00
1	 2.320028918293363e-01	 1.253714344740687e+00	 5.057389240133580e+01
1	 2.083531868216939e-01	 1.257860862561134e+00	 3.301570027562002e+01
1	 1.847723485119567e-01	 1.261540399370259e+00	 1.808052570654282e+01
1	 1.612727125311870e-01	 1.264759309990245e+00	 5.763352579397829e+00
1	 1.378662202580929e-01	 1.267524321392872e+00	-3.948765953813759e+00
1	 1.145644083270384e-01	 1.269842508483751e+00	-1.107633796946559e+01
1	 9.137839967041286e-02	 1.271721269806659e+00	-1.564704560534011e+01
1	 6.831889606324743e-02	 1.273168303266915e+00	-1.769534339511594e+01
1	 4.539617213178213e-02	 1.274191581967590e+00	-1.726204518706393e+01
1	 2.262007078210258e-02	 1.274799330246976e+00	-1.439390262719795e+01
1	 0.000000000000000e+00	 1.275000000000000e+00	-9.143178065498379e+00
1	 2.342774299849499e-01	 1.266005661843847e+00	 5.131211914641812e+01
1	 2.103958651253771e-01	 1.270192831800205e+00	 3.415670212616034e+01
1	 1.865838421271515e-01	 1.273908442499986e+00	 1.944636302997806e+01
1	 1.628538175588991e-01	 1.277158911067550e+00	 7.177150594399148e+00
1	 1.392178498716727e-01	 1.279951030425384e+00	-2.662315295209748e+00
1	 1.156875888040997e-01	 1.282291944840916e+00	-1.009049929286703e+01
1	 9.227426633693080e-02	 1.284189125392670e+00	-1.513258966276932e+01
1	 6.898868916456520e-02	 1.285650345455622e+00	-1.782012369085110e+01
1	 4.584123264487796e-02	 1.286683656300524e+00	-1.819060232041747e+01
1	 2.284183618303908e-02	 1.287297362896436e+00	-1.628709679987180e+01
1	 0.000000000000000e+00	 1.287500000000000e+00	-1.215785001735855e+01
1	 2.365519681405341e-01	 1.278296978947007e+00	 5.187306883625961e+01
1	 2.124385434288524e-01	 1.282524801039276e+00	 3.509529669821840e+01
1	 1.883953357420022e-01	 1.286276485629713e+00	 2.058804349372023e+01
1	 1.644349225861726e-01	 1.289558512144856e+00	 8.348396647692550e+00
1	 1.405694794847602e-01	 1.292377739457896e+00	-1.633490173213154e+00
1	 1.168107692806550e-01	 1.294741381198081e+00	-9.374077596224012e+00
1	 9.317013300296850e-02	 1.296656980978679e+00	-1.489610549288903e+01
1	 6.965848226546710e-02	 1.298132387644329e+00	-1.822824509981533e+01
1	 4.628629315765993e-02	 1.299175730633459e+00	-1.940474099604671e+01
1	 2.306360158380064e-02	 1.299795395545896e+00	-1.846504553528935e+01
1	 0.000000000000000e+00	 1.300000000000000e+00	-1.545344822629440e+01
1	 2.388265062960890e-01	 1.290588296050166e+00	 5.226180652958965e+01
1	 2.144812217321199e-01	 1.294856770278347e+00	 3.583726705689100e+01
1	 1.902068293565090e-01	 1.298644528759439e+00	 2.151197157947399e+01
1	 1.660160276130074e-01	 1.301958113222162e+00	 9.284020795334595e+00
1	 1.419211090973555e-01	 1.304804448490407e+00	-8.549298581838016e-01
1	 1.179339497567045e-01	 1.307190817555246e+00	-8.919375251497758e+00
1	 9.406599966852608e-02	 1.309124836564689e+00	-1.492965104499477e+01
1	 7.032827536595314e-02	 1.310614429833036e+00	-1.891161216156029e+01
1	 4.673135367012803e-02	 1.311667804966393e+00	-2.089630174123667e+01
1	 2.328536698438725e-02	 1.312293428195356e+00	-2.091961298872406e+01
1	 0.000000000000000e+00	 1.312500000000000e+00	-1.902194622775348e+01
1	 2.411010444516146e-01	 1.302879613153326e+00	 5.248320615085429e+01
1	 2.165239000351797e-01	 1.307188739517419e+00	 3.638817803841189e+01
1	 1.920183229706717e-01	 1.311012571889167e+00	 2.222431009039475e+01
1	 1.675971326394038e-01	 1.314357714299468e+00	 9.990691581837464e+00
1	 1.432727387094584e-01	 1.317231157522919e+00	-3.195513838623150e-01
1	 1.190571302322480e-01	 1.319640253912411e+00	-8.718985107180441e+00
1	 9.496186633360344e-02	 1.321592692150699e+00	-1.522558396841197e+01
1	 7.099806846602327e-02	 1.323096472021744e+00	-1.986243490471838e+01
1	 4.717641418228224e-02	 1.324159879299327e+00	-2.265743298791424e+01
1	 2.350713238479890e-02	 1.324791460844816e+00	-2.364297032847037e+01
1	 0.000000000000000e+00	 1.325000000000000e+00	-2.285562044265273e+01
1	 2.433755826071108e-01	 1.315170930256486e+00	 5.254195942172480e+01
1	 2.185665783380317e-01	 1.319520708756490e+00	 3.675338644776102e+01
1	 1.938298165844906e-01	 1.323380615018894e+00	 2.273099144448010e+01
1	 1.691782376653614e-01	 1.326757315376773e+00	 1.047482826033376e+01
1	 1.446243683210689e-01	 1.329657866555430e+00	-2.053656777284729e-02
1	 1.201803107072856e-01	 1.332089690269576e+00	-8.765776914624784e+00
1	 9.585773299820063e-02	 1.334060547736709e+00	-1.577654760782130e+01
1	 7.166786156567753e-02	 1.335578514210451e+00	-2.107321457181058e+01
1	 4.762147469412262e-02	 1.336651953632262e+00	-2.468057668457713e+01
1	 2.372889778503561e-02	 1.337289493494276e+00	-2.662758138943969e+01
1	 0.000000000000000e+00	 1.337500000000000e+00	-2.694703602385132e+01
1	 2.456501207625777e-01	 1.327462247359646e+00	 5.244258429641099e+01
1	 2.206092566406758e-01	 1.331852677995562e+00	 3.693805068974110e+01
1	 1.956413101979653e-01	 1.335748658148621e+00	 2.303772834054798e+01
1	 1.707593426908806e-01	 1.339156916454079e+00	 1.074261233384373e+01
1	 1.459759979321872e-01	 1.342084575587941e+00	 4.868024728571640e-02
1	 1.213034911818173e-01	 1.344539126626741e+00	-9.052884508466967e+00
1	 9.675359966231767e-02	 1.346528403322719e+00	-1.657545777662213e+01
1	 7.233765466491589e-02	 1.348060556399157e+00	-2.253673013712125e+01
1	 4.806653520564912e-02	 1.349144027965196e+00	-2.695845470756541e+01
1	 2.395066318509738e-02	 1.349787526143736e+00	-2.986618912377918e+01
1	 0.000000000000000e+00	 1.350000000000000e+00	-3.128903348893051e+01
1	 2.479246589180153e-01	 1.339753564462806e+00	 5.218943293264548e+01
1	 2.226519349431121e-01	 1.344184647234633e+00	 3.694713986990282e+01
1	 1.974528038110961e-01	 1.348116701278348e+00	 2.315002383709792e+01
1	 1.723404477159611e-01	 1.351556517531384e+00	 1.079999846124451e+01
1	 1.473276275428132e-01	 1.354511284620453e+00	-1.055762230322941e-01
1	 1.224266716558430e-01	 1.356988562983906e+00	-9.573693692714425e+00
1	 9.764946632595450e-02	 1.358996258908729e+00	-1.761549025836723e+01
1	 7.300744776373835e-02	 1.360542598587865e+00	-2.424602556671053e+01
1	 4.851159571686176e-02	 1.361636102298130e+00	-2.948405602033376e+01
1	 2.417242858498419e-02	 1.362285558793196e+00	-3.335180279733028e+01
1	 0.000000000000000e+00	 1.362500000000000e+00	-3.587471608878371e+01
1	 2.501991970734234e-01	 1.352044881565965e+00	 5.178669922788661e+01
1	 2.246946132453406e-01	 1.356516616473704e+00	 3.678544239905531e+01
1	 1.992642974238829e-01	 1.360484744408075e+00	 2.307318088141714e+01
1	 1.739215527406030e-01	 1.363956118608690e+00	 1.065272476836669e+01
1	 1.486792571529468e-01	 1.366937993652964e+00	-4.772112527312871e-01
1	 1.235498521293628e-01	 1.369437999341071e+00	-1.032183078759346e+01
1	 9.854533298911115e-02	 1.371464114494739e+00	-1.889006898993725e+01
1	 7.367724086214492e-02	 1.373024640776572e+00	-2.619439777333150e+01
1	 4.895665622776053e-02	 1.374128176631064e+00	-3.225062453312710e+01
1	 2.439419398469604e-02	 1.374783591442656e+00	-3.707768588445697e+01
1	 0.000000000000000e+00	 1.375000000000000e+00	-4.069743786519257e+01
1	 1.375000000000000e+00	 0.000000000000000e+00	 1.301716487034227e+02
1	 1.374783591442656e+00	 2.439419398469526e-02	 1.141627923835760e+02
1	 1.374128176631064e+00	 4.895665622775984e-02	 9.792057067058278e+01
1	 1.373024640776572e+00	 7.367724086214431e-02	 8.145989536146185e+01
1	 1.371464114494739e+00	 9.854533298911061e-02	 6.479655489672967e+01
1	 1.369437999341071e+00	 1.235498521293624e-01	 4.794720163864689e+01
1	 1.366937993652964e+00	 1.486792571529464e-01	 3.092933499426610e+01
1	 1.363956118608690e+00	 1.739215527406027e-01	 1.376128025262940e+01
1	 1.360484744408075e+00	 1.992642974238827e-01	-3.537836972088324e+00
1	 1.356516616473704e+00	 2.246946132453406e-01	-2.094812077477015e+01
1	 1.352044881565965e+00	 2.501991970734234e-01	-3.844893952684910e+01
1	 1.387500000000000e+00	 0.000000000000000e+00	 1.284079696203092e+02
1	 1.387281624092118e+00	 2.461595938431963e-02	 1.126531524900530e+02
1	 1.386620250964008e+00	 4.940171673850166e-02	 9.663913671069947e+01
1	 1.385506682965300e+00	 7.434703396034295e-02	 8.038347429657662e+01
1	 1.383931970080787e+00	 9.944119965202716e-02	 6.390477676091542e+01
1	 1.381887435698295e+00	 1.246730326026292e-01	 4.722269989711733e+01
1	 1.379364702685561e+00	 1.500308867628339e-01	 3.035792340273824e+01
1	 1.376355719686112e+00	 1.755026577650253e-01	 1.333212517814373e+01
1	 1.372852787537955e+00	 2.010757910364976e-01	-3.832049840253903e+00
1	 1.368848585712971e+00	 2.267372915474652e-01	-2.111102642114333e+01
1	 1.364336198669367e+00	 2.524737352288170e-01	-3.848034142862794e+01
1	 1.400000000000000e+00	 0.000000000000000e+00	 1.263480917496699e+02
1	 1.399779656741585e+00	 2.483772478394402e-02	 1.108764041465698e+02
1	 1.399112325296970e+00	 4.984677724924350e-02	 9.512022754708705e+01
1	 1.397988725154069e+00	 7.501682705854158e-02	 7.909972059594726e+01
1	 1.396399825666909e+00	 1.003370663149437e-01	 6.283628205116189e+01
1	 1.394336872055636e+00	 1.257962130758961e-01	 4.635253308784752e+01
1	 1.391791411718328e+00	 1.513825163727214e-01	 2.967229345314871e+01
1	 1.388755320763768e+00	 1.770837627894480e-01	 1.282055126723957e+01
1	 1.385220830668143e+00	 2.028872846491123e-01	-4.176573701210430e+00
1	 1.381180554952629e+00	 2.287799698495898e-01	-2.129187341945761e+01
1	 1.376627515773255e+00	 2.547482733842105e-01	-3.849710172835290e+01
1	 1.412500000000000e+00	 0.000000000000000e+00	 1.239998787761201e+02
1	 1.412277689391056e+00	 2.505949018356840e-02	 1.088396387278984e+02
1	 1.411604399629950e+00	 5.029183775998533e-02	 9.337014783117007e+01
1	 1.410470767342881e+00	 7.568662015674019e-02	 7.761413866583514e+01
1	 1.408867681253106e+00	 1.012329329778603e-01	 6.159576235793534e+01
1	 1.406786308413095e+00	 1.269193935491629e-01	 4.534056842503797e+01
1	 1.404218120751266e+00	 1.527341459826088e-01	 2.887547749130450e+01
1	 1.401154921841658e+00	 1.786648678138706e-01	 1.222874663064072e+01
1	 1.397588873798637e+00	 2.046987782617271e-01	-4.570072864857259e+00
1	 1.393512524192677e+00	 2.308226481517144e-01	-2.149018545060508e+01
1	 1.388918832877628e+00	 2.570228115396040e-01	-3.849960914109057e+01
1	 1.425000000000000e+00	 0.000000000000000e+00	 1.213709184655172e+02
1	 1.424775722040532e+00	 2.528125558319277e-02	 1.065496987886431e+02
1	 1.424096473962949e+00	 5.073689827072717e-02	 9.139498099853365e+01
1	 1.422952809531734e+00	 7.635641325493886e-02	 7.593203977543986e+01
1	 1.421335536839377e+00	 1.021287996407769e-01	 6.018774465449241e+01
1	 1.419235744770672e+00	 1.280425740224298e-01	 4.419053743116270e+01
1	 1.416644829784374e+00	 1.540857755924963e-01	 2.797040146491388e+01
1	 1.413554522919780e+00	 1.802459728382932e-01	 1.155882260325591e+01
1	 1.409956916929438e+00	 2.065102718743419e-01	-5.011258507413238e+00
1	 1.405844493433116e+00	 2.328653264538391e-01	-2.170550290842897e+01
1	 1.401210149982486e+00	 2.592973496949976e-01	-3.848823874278229e+01
1	 1.437500000000000e+00	 0.000000000000000e+00	 1.184685346614282e+02
1	 1.437273754690013e+00	 2.550302098281715e-02	 1.040131888815098e+02
1	 1.436588548295966e+00	 5.118195878146901e-02	 8.920059888700372e+01
1	 1.435434851720629e+00	 7.702620635313746e-02	 7.405855045416277e+01
1	 1.433803392425724e+00	 1.030246663036934e-01	 5.861659845415056e+01
1	 1.431685181128366e+00	 1.291657544956966e-01	 4.290604183660955e+01
1	 1.429071538817652e+00	 1.554374052023837e-01	 2.695988954959078e+01
1	 1.425954123998137e+00	 1.818270778627159e-01	 1.081281708225770e+01
1	 1.422324960060546e+00	 2.083217654869567e-01	-5.498886633750610e+00
1	 1.418176462673946e+00	 2.349080047559637e-01	-2.193738217307370e+01
1	 1.413501467087830e+00	 2.615718878503911e-01	-3.846335256324966e+01
1	 1.450000000000000e+00	 0.000000000000000e+00	 1.152997986610904e+02
1	 1.449771787339498e+00	 2.572478638244153e-02	 1.012364858160070e+02
1	 1.449080622629002e+00	 5.162701929221086e-02	 8.679267085723973e+01
1	 1.447916893909566e+00	 7.769599945133610e-02	 7.199862045452932e+01
1	 1.446271248012145e+00	 1.039205329666100e-01	 5.688654259735397e+01
1	 1.444134617486178e+00	 1.302889349689635e-01	 4.149055917416664e+01
1	 1.441498247851101e+00	 1.567890348122712e-01	 2.584666853558289e+01
1	 1.438353725076727e+00	 1.834081828871385e-01	 9.992697692502164e+00
1	 1.434693003191961e+00	 2.101332590995715e-01	-6.031756145125534e+00
1	 1.430508431915167e+00	 2.369506830580883e-01	-2.218539492192021e+01
1	 1.425792784193659e+00	 2.638464260057847e-01	-3.842530014852724e+01
1	 1.462500000000000e+00	 0.000000000000000e+00	 1.118715400079898e+02
1	 1.462269819988988e+00	 2.594655178206591e-02	 9.822574839106282e+01
1	 1.461572696962056e+00	 5.207207980295267e-02	 8.417667244560525e+01
1	 1.460398936098544e+00	 7.836579254953473e-02	 6.975703030675633e+01
1	 1.458739103598641e+00	 1.048163996295265e-01	 5.500165169068550e+01
1	 1.456584053844107e+00	 1.314121154422303e-01	 3.994744808661208e+01
1	 1.453924956884720e+00	 1.581406644221587e-01	 2.463337198953959e+01
1	 1.450753326155549e+00	 1.849892879115611e-01	 9.100364789619391e+00
1	 1.447061046323683e+00	 2.119447527121864e-01	-6.608707005999170e+00
1	 1.442840401156778e+00	 2.389933613602129e-01	-2.244912747585782e+01
1	 1.438084101299973e+00	 2.661209641611783e-01	-3.837441909435779e+01
1	 1.475000000000000e+00	 0.000000000000000e+00	 1.081903567356638e+02
1	 1.474767852638482e+00	 2.616831718169029e-02	 9.498692663275979e+01
1	 1.474064771295128e+00	 5.251714031369450e-02	 8.135789357706179e+01
1	 1.472880978287565e+00	 7.903558564773337e-02	 6.733839848918906e+01
1	 1.471206959185211e+00	 1.057122662924431e-01	 5.296586221847087e+01
1	 1.469033490202154e+00	 1.325352959154971e-01	 3.827995336442633e+01
1	 1.466351665918510e+00	 1.594922940320462e-01	 2.332254420466431e+01
1	 1.463152927234607e+00	 1.865703929359837e-01	 8.137654310404347e+00
1	 1.459429089455712e+00	 2.137562463248012e-01	-7.228618504071459e+00
1	 1.455172370398780e+00	 2.410360396623376e-01	-2.272818017879660e+01
1	 1.450375418406773e+00	 2.683955023165718e-01	-3.831103555256043e+01
1	 1.487500000000000e+00	 0.000000000000000e+00	 1.042626250950103e+02
1	 1.487265885287981e+00	 2.639008258131467e-02	 9.152577056630417e+01
1	 1.486556845628220e+00	 5.296220082443635e-02	 7.834144636396705e+01
1	 1.485363020476627e+00	 7.970537874593198e-02	 6.474718823720296e+01
1	 1.483674814771857e+00	 1.066081329553596e-01	 5.078297834623489e+01
1	 1.481482926560319e+00	 1.336584763887640e-01	 3.649121072950219e+01
1	 1.478778374952471e+00	 1.608439236419336e-01	 2.191664395169972e+01
1	 1.475552528313897e+00	 1.881514979604064e-01	 7.106340479490703e+00
1	 1.471797132588047e+00	 2.155677399374159e-01	-7.890407598044119e+00
1	 1.467504339641173e+00	 2.430787179644622e-01	-2.302216680846481e+01
1	 1.462666735514058e+00	 2.706700404719652e-01	-3.823546471186798e+01
1	 1.500000000000000e+00	 0.000000000000000e+00	 1.000945087952308e+02
1	 1.499763917937484e+00	 2.661184798093904e-02	 8.784783854939562e+01
1	 1.499048919961329e+00	 5.340726133517817e-02	 7.513227251493377e+01
1	 1.497845062665731e+00	 8.037517184413061e-02	 6.198771401166118e+01
1	 1.496142670358577e+00	 1.075039996182762e-01	 4.845667743398482e+01
1	 1.493932362918601e+00	 1.347816568620308e-01	 3.458425137966909e+01
1	 1.491205083986601e+00	 1.621955532518211e-01	 2.041804804236360e+01
1	 1.487952129393420e+00	 1.897326029848289e-01	 6.008138380690782e+00
1	 1.484165175720690e+00	 2.173792335500308e-01	-8.593027347995658e+00
1	 1.479836308883957e+00	 2.451213962665869e-01	-2.333071401666657e+01
1	 1.474958052621828e+00	 2.729445786273588e-01	-3.814801125472198e+01
1	 1.352044881565965e+00	 2.501991970734234e-01	-3.844893952684910e+01
1	 1.347063113700461e+00	 2.757643336008552e-01	-3.569728214785607e+01
1	 1.341565339750669e+00	 3.013759100415347e-01	-3.295918182457649e+01
1	 1.335546064616104e+00	 3.270194325395472e-01	-3.025124170566055e+01
1	 1.329000295832889e+00	 3.526800442951761e-01	-2.759039496353654e+01
1	 1.321923567499668e+00	 3.783425453957430e-01	-2.499384980140173e+01
1	 1.314311963391016e+00	 4.039914143349411e-01	-2.247903094714596e+01
1	 1.306162139129264e+00	 4.296108311925129e-01	-2.006351785121954e+01
1	 1.297471343285539e+00	 4.551847024354536e-01	-1.776497984223324e+01
1	 1.288237437281654e+00	 4.806966872910303e-01	-1.560110853031597e+01
1	 1.278458913966357e+00	 5.061302256309002e-01	-1.358954778349530e+01
1	 1.364336198669367e+00	 2.524737352288170e-01	-3.848034142862794e+01
1	 1.359309142004773e+00	 2.782712820886430e-01	-3.583944849433141e+01
1	 1.353761388291581e+00	 3.041156910427638e-01	-3.319909487868487e+01
1	 1.347687392473848e+00	 3.299923364729382e-01	-3.057678531109319e+01
1	 1.341082116701665e+00	 3.558862265176344e-01	-2.799042707739272e+01
1	 1.333941054474572e+00	 3.817820230831492e-01	-2.545827364804492e+01
1	 1.326260253965098e+00	 4.076640635585734e-01	-2.299886437432971e+01
1	 1.318036340392143e+00	 4.335163842061925e-01	-2.063096046226907e+01
1	 1.309266537313843e+00	 4.593227451881562e-01	-1.837347747385019e+01
1	 1.299948686710394e+00	 4.850666571792523e-01	-1.624541464463146e+01
1	 1.290081267729169e+00	 5.107314095045163e-01	-1.426578134550470e+01
1	 1.376627515773255e+00	 2.547482733842105e-01	-3.849710172835290e+01
1	 1.371555170309656e+00	 2.807782305764259e-01	-3.597518647168683e+01
1	 1.365957436833121e+00	 3.068554720439740e-01	-3.344105906875058e+01
1	 1.359828720332250e+00	 3.329652404062867e-01	-3.091311598938692e+01
1	 1.353163937571098e+00	 3.590924087400163e-01	-2.841022792800506e+01
1	 1.345958541450105e+00	 3.852215007704358e-01	-2.595168206083860e+01
1	 1.338208544539750e+00	 4.113367127820325e-01	-2.355711995646082e+01
1	 1.329910541655500e+00	 4.374219372196355e-01	-2.124647134210908e+01
1	 1.321061731342504e+00	 4.634607879405481e-01	-1.903988397125261e+01
1	 1.311659936139337e+00	 4.894366270670794e-01	-1.695764988059065e+01
1	 1.301703621492001e+00	 5.153325933776431e-01	-1.502012836678327e+01
1	 1.388918832877628e+00	 2.570228115396040e-01	-3.849960914109057e+01
1	 1.383801198615110e+00	 2.832851790642043e-01	-3.610466674456482e+01
1	 1.378153485375291e+00	 3.095952530451653e-01	-3.368501993981963e+01
1	 1.371970048191311e+00	 3.359381443395925e-01	-3.125994735806692e+01
1	 1.365245758441190e+00	 3.622985909623221e-01	-2.884927268165231e+01
1	 1.357976028426266e+00	 3.886609784576026e-01	-2.647330553803245e+01
1	 1.350156835114969e+00	 4.150093620053185e-01	-2.415277763634256e+01
1	 1.341784742919335e+00	 4.413274902328413e-01	-2.190877434203433e+01
1	 1.332856925371522e+00	 4.675988306926294e-01	-1.976266193095804e+01
1	 1.323371185568486e+00	 4.938065969545113e-01	-1.773601081023097e+01
1	 1.313325975254853e+00	 5.199337772502799e-01	-1.585051503873660e+01
1	 1.401210149982486e+00	 2.592973496949976e-01	-3.848823874278229e+01
1	 1.396047226921136e+00	 2.857921275519781e-01	-3.622805398937466e+01
1	 1.390349533918090e+00	 3.123350340463378e-01	-3.393092494763835e+01
1	 1.384111376051029e+00	 3.389110482728556e-01	-3.161700308316627e+01
1	 1.377327579311940e+00	 3.655047731845517e-01	-2.930705491983177e+01
1	 1.369993515403056e+00	 3.921004561446497e-01	-2.702240157793785e+01
1	 1.362105125690758e+00	 4.186820112284312e-01	-2.478485314825930e+01
1	 1.353658944183649e+00	 4.452330432458106e-01	-2.261663809048733e+01
1	 1.344652119400897e+00	 4.717368734443999e-01	-2.054032789346627e+01
1	 1.335082434997839e+00	 4.981765668415484e-01	-1.857875728376423e+01
1	 1.324948329017727e+00	 5.245349611224271e-01	-1.675494031798461e+01
1	 1.413501467087830e+00	 2.615718878503911e-01	-3.846335256324966e+01
1	 1.408293255227734e+00	 2.882990760397471e-01	-3.634550715465056e+01
1	 1.402545582461518e+00	 3.150748150474914e-01	-3.417872337557920e+01
1	 1.396252703911406e+00	 3.418839522060762e-01	-3.198401644233438e+01
1	 1.389409400183348e+00	 3.687109554067051e-01	-2.978308583859748e+01
1	 1.382011002380474e+00	 3.955399338315773e-01	-2.759825350501209e+01
1	 1.374053416267115e+00	 4.223546604513709e-01	-2.545239646182479e+01
1	 1.365533145448441e+00	 4.491385962585428e-01	-2.336887404622619e+01
1	 1.356447313430629e+00	 4.758749161958595e-01	-2.137144999786874e+01
1	 1.346793684427397e+00	 5.025465367281904e-01	-1.948420967835186e+01
1	 1.336570682780620e+00	 5.291361449940847e-01	-1.773147276265637e+01
1	 1.425792784193659e+00	 2.638464260057847e-01	-3.842530014852724e+01
1	 1.420539283534902e+00	 2.908060245275114e-01	-3.645717970794269e+01
1	 1.414741631005576e+00	 3.178145960486264e-01	-3.442836625586389e+01
1	 1.408394031772441e+00	 3.448568561392540e-01	-3.236072991054316e+01
1	 1.401491221055414e+00	 3.719171376287824e-01	-3.027689348931217e+01
1	 1.394028489358520e+00	 3.989794115183852e-01	-2.820016935666240e+01
1	 1.386001706844041e+00	 4.260273096741372e-01	-2.615449030632166e+01
1	 1.377407346713711e+00	 4.530441492710384e-01	-2.416433465218991e+01
1	 1.368242507460718e+00	 4.800129589470085e-01	-2.225464575777141e+01
1	 1.358504933857160e+00	 5.069165066144373e-01	-2.045074628918457e+01
1	 1.348193036543535e+00	 5.337373288652523e-01	-1.877824753232510e+01
1	 1.438084101299973e+00	 2.661209641611783e-01	-3.837441909435779e+01
1	 1.432785311842642e+00	 2.933129730152711e-01	-3.656321987004740e+01
1	 1.426937679550262e+00	 3.205543770497423e-01	-3.467980629482628e+01
1	 1.420535359634135e+00	 3.478297600723892e-01	-3.274689476703905e+01
1	 1.413573041928139e+00	 3.751233198507835e-01	-3.078802205833472e+01
1	 1.406045976337195e+00	 4.024188892050735e-01	-2.882748082713701e+01
1	 1.397949997421535e+00	 4.296999588967306e-01	-2.689024877071542e+01
1	 1.389281547979460e+00	 4.569497022832971e-01	-2.500191158403799e+01
1	 1.380037701491165e+00	 4.841510016978469e-01	-2.318857995127261e+01
1	 1.370216183287127e+00	 5.112864765002894e-01	-2.147680085435291e+01
1	 1.359815390306469e+00	 5.383385127359304e-01	-1.989346354179262e+01
1	 1.450375418406773e+00	 2.683955023165718e-01	-3.831103555256043e+01
1	 1.445031340150954e+00	 2.958199215030261e-01	-3.666377083732716e+01
1	 1.439133728095578e+00	 3.232941580508395e-01	-3.493299780197528e+01
1	 1.432676687496486e+00	 3.508026640054819e-01	-3.314227072228061e+01
1	 1.425654862801522e+00	 3.783295020727082e-01	-3.131603118333415e+01
1	 1.418063463316499e+00	 4.058583668916420e-01	-2.947954226511665e+01
1	 1.409898287999598e+00	 4.333726081191508e-01	-2.765881597485433e+01
1	 1.401155749245687e+00	 4.608552552953189e-01	-2.588053408774680e+01
1	 1.391832895521968e+00	 4.882890444483744e-01	-2.417196261823048e+01
1	 1.381927432717298e+00	 5.156564463857464e-01	-2.256086020557176e+01
1	 1.371437744069425e+00	 5.429396966061187e-01	-2.107538075959656e+01
1	 1.462666735514058e+00	 2.706700404719652e-01	-3.823546471186798e+01
1	 1.457277368459836e+00	 2.983268699907763e-01	-3.675897099282135e+01
1	 1.451329776641522e+00	 3.260339390519178e-01	-3.518789662263473e+01
1	 1.444818015359496e+00	 3.537755679385318e-01	-3.354662556368579e+01
1	 1.437736683675562e+00	 3.815356842945568e-01	-3.186049530407468e+01
1	 1.430080950296430e+00	 4.092978445780909e-01	-3.015572972184750e+01
1	 1.421846578578230e+00	 4.370452573413978e-01	-2.845936480766769e+01
1	 1.413029950512391e+00	 4.647608083071040e-01	-2.679916740102490e+01
1	 1.403628089553128e+00	 4.924270871985911e-01	-2.520354715850815e+01
1	 1.393638682147674e+00	 5.200264162708083e-01	-2.370146203735582e+01
1	 1.383060097832401e+00	 5.475408804758173e-01	-2.232231764272741e+01
1	 1.474958052621828e+00	 2.729445786273588e-01	-3.814801125472198e+01
1	 1.469523396769290e+00	 3.008338184785218e-01	-3.684895410680133e+01
1	 1.463525825188096e+00	 3.287737200529772e-01	-3.544446007395092e+01
1	 1.456959343223164e+00	 3.567484718715391e-01	-3.395973481909196e+01
1	 1.449818504550261e+00	 3.847418665163292e-01	-3.242100304566186e+01
1	 1.442098437276991e+00	 4.127373222644202e-01	-3.085544004686779e+01
1	 1.433794869157430e+00	 4.407179065634715e-01	-2.929109572845399e+01
1	 1.424904151779575e+00	 4.686663613186522e-01	-2.775681125365743e+01
1	 1.415423283584646e+00	 4.965651299484973e-01	-2.628212852530694e+01
1	 1.405349931578255e+00	 5.243963861554752e-01	-2.489719278773630e+01
1	 1.394682451595397e+00	 5.521420643450261e-01	-2.363264869960945e+01
1	 1.278458913966357e+00	 5.061302256309002e-01	-1.358954778349530e+01
1	 1.268134914741677e+00	 5.314685672938273e-01	-1.673050437550988e+01
1	 1.257265245121364e+00	 5.566948027665093e-01	-1.968336566129526e+01
1	 1.245850388605507e+00	 5.817918951274083e-01	-2.243449738559819e+01
1	 1.233891518761329e+00	 6.067427131481519e-01	-2.497071347411242e+01
1	 1.221390509410137e+00	 6.315300654405880e-01	-2.727933865969495e+01
1	 1.208349942826211e+00	 6.561367355249965e-01	-2.934827006253677e+01
1	 1.194773115862958e+00	 6.805455176867415e-01	-3.116603729163704e+01
1	 1.180664043931685e+00	 7.047392534804008e-01	-3.272186063375250e+01
1	 1.166027462769146e+00	 7.287008687329783e-01	-3.400570689915828e+01
1	 1.150868827941644e+00	 7.524134108913275e-01	-3.500834250118301e+01
1	 1.290081267729169e+00	 5.107314095045163e-01	-1.426578134550470e+01
1	 1.279663413966696e+00	 5.363000997284292e-01	-1.724839303128626e+01
1	 1.268694929168601e+00	 5.617556646147478e-01	-2.006612226238837e+01
1	 1.257176301230428e+00	 5.870809123608272e-01	-2.270286760698209e+01
1	 1.245108714388191e+00	 6.122585559998535e-01	-2.514284777776104e+01
1	 1.232494059497939e+00	 6.372712478583265e-01	-2.737067223282941e+01
1	 1.219334942309169e+00	 6.621016149430717e-01	-2.937141157526450e+01
1	 1.205634689646682e+00	 6.867322951238657e-01	-3.113066728439918e+01
1	 1.191397353425526e+00	 7.111459739694163e-01	-3.263464030288022e+01
1	 1.176627712434604e+00	 7.353254220869723e-01	-3.387019799907648e+01
1	 1.161331271836279e+00	 7.592535328092679e-01	-3.482493902465457e+01
1	 1.301703621492001e+00	 5.153325933776431e-01	-1.502012836678327e+01
1	 1.291191913191545e+00	 5.411316321624557e-01	-1.782468243777823e+01
1	 1.280124613215495e+00	 5.668165264623538e-01	-2.048710729874390e+01
1	 1.268502213854855e+00	 5.923699295935861e-01	-2.298886590668802e+01
1	 1.256325910014428e+00	 6.177743988508976e-01	-2.531161494706267e+01
1	 1.243597609585001e+00	 6.430124302754390e-01	-2.743728332825777e+01
1	 1.230319941791294e+00	 6.680664943605835e-01	-2.934815131021087e+01
1	 1.216496263429501e+00	 6.929190725605179e-01	-3.102692976618120e+01
1	 1.202130662918409e+00	 7.175526944580828e-01	-3.245683906001082e+01
1	 1.187227962099074e+00	 7.419499754407718e-01	-3.362168700914862e+01
1	 1.171793715729913e+00	 7.660936547271976e-01	-3.450594539664697e+01
1	 1.313325975254853e+00	 5.199337772502799e-01	-1.585051503873660e+01
1	 1.302720412416223e+00	 5.459631645959069e-01	-1.845782213263279e+01
1	 1.291554297262048e+00	 5.718773883093278e-01	-2.094530585620128e+01
1	 1.279828126478787e+00	 5.976589468256857e-01	-2.329202428267912e+01
1	 1.267543105640037e+00	 6.232902417012837e-01	-2.547710437499848e+01
1	 1.254701159671323e+00	 6.487536126919254e-01	-2.747982829496987e+01
1	 1.241304941272585e+00	 6.740313737775310e-01	-2.927972117299470e+01
1	 1.227357837211414e+00	 6.991058499966986e-01	-3.085663980364980e+01
1	 1.212863972410334e+00	 7.239594149464007e-01	-3.219086170811178e+01
1	 1.197828211762553e+00	 7.485745287943757e-01	-3.326317398484304e+01
1	 1.182256159622547e+00	 7.729337766451166e-01	-3.405496135567444e+01
1	 1.324948329017727e+00	 5.245349611224271e-01	-1.675494031798461e+01
1	 1.314248911640731e+00	 5.507946970287825e-01	-1.914631605568462e+01
1	 1.302983981308260e+00	 5.769382501556699e-01	-2.143973863162267e+01
1	 1.291154039102225e+00	 6.029479640571251e-01	-2.361189115404259e+01
1	 1.278760301265018e+00	 6.288060845510121e-01	-2.563940231795377e+01
1	 1.265804709756905e+00	 6.544947951077862e-01	-2.749894045216694e+01
1	 1.252289940753044e+00	 6.799962531939144e-01	-2.916730984447710e+01
1	 1.238219410992422e+00	 7.052926274324078e-01	-3.062154877692419e+01
1	 1.223597281901301e+00	 7.303661354343699e-01	-3.183902867110166e+01
1	 1.208428461425044e+00	 7.551990821477844e-01	-3.279755371652784e+01
1	 1.192718603514182e+00	 7.797738985630251e-01	-3.347546033364172e+01
1	 1.336570682780620e+00	 5.291361449940847e-01	-1.773147276265637e+01
1	 1.325777410865070e+00	 5.556262294610830e-01	-1.988872018364372e+01
1	 1.314413665354130e+00	 5.819991120013793e-01	-2.196946038458804e+01
1	 1.302479951725169e+00	 6.082369812879048e-01	-2.394803064702754e+01
1	 1.289977496889373e+00	 6.343219274000825e-01	-2.579859203209195e+01
1	 1.276908259841745e+00	 6.602359775230207e-01	-2.749523109055658e+01
1	 1.263274940232669e+00	 6.859611326097342e-01	-2.901206466009918e+01
1	 1.249080984772522e+00	 7.114794048676448e-01	-3.032334714855552e+01
1	 1.234330591391309e+00	 7.367728559219902e-01	-3.140357966250466e+01
1	 1.219028711086545e+00	 7.618236355009983e-01	-3.222762030621387e+01
1	 1.203181047404816e+00	 7.866140204809229e-01	-3.277079494743533e+01
1	 1.348193036543535e+00	 5.337373288652523e-01	-1.877824753232510e+01
1	 1.337305910089237e+00	 5.604577618928078e-01	-2.068364028712656e+01
1	 1.325843349399657e+00	 5.870599738464568e-01	-2.253355846917426e+01
1	 1.313805864347619e+00	 6.135259985180249e-01	-2.430002191801217e+01
1	 1.301194692513100e+00	 6.398377702484953e-01	-2.595475390267412e+01
1	 1.288011809925847e+00	 6.659771599376293e-01	-2.746929042185707e+01
1	 1.274259939711461e+00	 6.919260120249896e-01	-2.881509339201195e+01
1	 1.259942558551717e+00	 7.176661823024106e-01	-2.996366708928498e+01
1	 1.245063900880360e+00	 7.431795764092617e-01	-3.088667716434672e+01
1	 1.229628960747055e+00	 7.684481888540168e-01	-3.155607150757060e+01
1	 1.213643491294451e+00	 7.934541423988104e-01	-3.194420220646756e+01
1	 1.359815390306469e+00	 5.383385127359304e-01	-1.989346354179262e+01
1	 1.348834409313236e+00	 5.652892943239575e-01	-2.152972980271153e+01
1	 1.337273033444844e+00	 5.921208356909020e-01	-2.313115144102808e+01
1	 1.325131776969575e+00	 6.188150157474851e-01	-2.466745851119087e+01
1	 1.312411888136201e+00	 6.453536130962503e-01	-2.610796556674741e+01
1	 1.299115360009208e+00	 6.717183423516120e-01	-2.742168847960855e+01
1	 1.285244939189419e+00	 6.978908914396811e-01	-2.857746593981505e+01
1	 1.270804132330007e+00	 7.238529597367049e-01	-2.954408496914595e+01
1	 1.255797210368453e+00	 7.495862968961844e-01	-3.029040972764657e+01
1	 1.240229210406577e+00	 7.750727422068403e-01	-3.078551284337561e+01
1	 1.224105935183085e+00	 8.002942643166867e-01	-3.099880845316649e+01
1	 1.371437744069425e+00	 5.429396966061187e-01	-2.107538075959656e+01
1	 1.360362908537064e+00	 5.701208267545316e-01	-2.242568781319457e+01
1	 1.348702717489688e+00	 5.971816975347151e-01	-2.376138773526576e+01
1	 1.336457689591036e+00	 6.241040329762855e-01	-2.504994774892059e+01
1	 1.323629083758674e+00	 6.508694559433473e-01	-2.625830202959481e+01
1	 1.310218910091828e+00	 6.774595247649685e-01	-2.735297597418079e+01
1	 1.296229938666545e+00	 7.038557708538085e-01	-2.830021593532606e+01
1	 1.281665706107390e+00	 7.300397371705269e-01	-2.906612372190110e+01
1	 1.266530519855588e+00	 7.559930173827586e-01	-2.961679510508556e+01
1	 1.250829460065109e+00	 7.816972955594688e-01	-2.991846151360401e+01
1	 1.234568379070720e+00	 8.071343862345530e-01	-2.993763405225473e+01
1	 1.383060097832401e+00	 5.475408804758173e-01	-2.232231764272741e+01
1	 1.371891407760723e+00	 5.749523591845306e-01	-2.337025712968099e+01
1	 1.360132401534192e+00	 6.022425593778959e-01	-2.442344441103300e+01
1	 1.347783602212004e+00	 6.293930502044260e-01	-2.544711015280677e+01
1	 1.334846279380521e+00	 6.563852987897866e-01	-2.640583577531316e+01
1	 1.321322460173709e+00	 6.832007071776993e-01	-2.726368510467098e+01
1	 1.307214938142837e+00	 7.098206502673718e-01	-2.798434226643680e+01
1	 1.292527279883867e+00	 7.362265146038777e-01	-2.853125509026376e+01
1	 1.277263829341764e+00	 7.623997378689840e-01	-2.886778322572776e+01
1	 1.261429709722652e+00	 7.883218489119022e-01	-2.895735010646979e+01
1	 1.245030822957354e+00	 8.139745081524086e-01	-2.876359784359427e+01
1	 1.394682451595397e+00	 5.521420643450261e-01	-2.363264869960945e+01
1	 1.383419906984210e+00	 5.797838916139538e-01	-2.436222246957256e+01
1	 1.371562085578352e+00	 6.073034212204445e-01	-2.511652595883719e+01
1	 1.359109514832477e+00	 6.346820674319068e-01	-2.585857889373439e+01
1	 1.346063475001740e+00	 6.619011416355681e-01	-2.655063687186293e+01
1	 1.332426010254849e+00	 6.889418895898038e-01	-2.715433033020675e+01
1	 1.318199937618296e+00	 7.157855296803712e-01	-2.763081052477666e+01
1	 1.303388853659439e+00	 7.424132920367565e-01	-2.794090175885800e+01
1	 1.287997138826982e+00	 7.688064583548604e-01	-2.804525902100379e+01
1	 1.272029959379205e+00	 7.949464022641402e-01	-2.790453012391589e+01
1	 1.255493266842989e+00	 8.208146300702533e-01	-2.747952137238855e+01
1	 1.150868827941644e+00	 7.524134108913275e-01	-3.500834250118301e+01
1	 1.135194312046280e+00	 7.758600865535584e-01	-3.353954476200868e+01
1	 1.119010799580969e+00	 7.990242990192602e-01	-3.207223560092766e+01
1	 1.102325879470541e+00	 8.218896856909992e-01	-3.059794428765911e+01
1	 1.085147835250138e+00	 8.444401551573477e-01	-2.910810532192607e+01
1	 1.067485632918797e+00	 8.666599237864125e-01	-2.759409592054181e+01
1	 1.049348906492078e+00	 8.885335516599897e-01	-2.604727428828059e+01
1	 1.030747941296336e+00	 9.100459776802332e-01	-2.445901841954209e+01
1	 1.011693655061181e+00	 9.311825536839639e-01	-2.282076517007792e+01
1	 9.921975768804164e-01	 9.519290774042841e-01	-2.112404933290195e+01
1	 9.722718241249999e-01	 9.722718241249999e-01	-1.936054245007969e+01
1	 1.161331271836279e+00	 7.592535328092679e-01	-3.482493902465457e+01
1	 1.145514260342112e+00	 7.829133600673248e-01	-3.329541535737587e+01
1	 1.129183625036312e+00	 8.062881562818414e-01	-3.175293605522496e+01
1	 1.112347023833931e+00	 8.293614101044999e-01	-3.019219337327625e+01
1	 1.095012815574977e+00	 8.521168838383165e-01	-2.860784737483894e+01
1	 1.077190047767566e+00	 8.745386503638365e-01	-2.699455032916011e+01
1	 1.058888442009220e+00	 8.966111293999636e-01	-2.534697149228839e+01
1	 1.040118377129261e+00	 9.183191229297812e-01	-2.365982210441387e+01
1	 1.020890870109385e+00	 9.396478496249905e-01	-2.192788043289878e+01
1	 1.001217554853339e+00	 9.605829781071776e-01	-2.014601668783797e+01
1	 9.811106588900002e-01	 9.811106588899999e-01	-1.830921763639650e+01
1	 1.171793715729913e+00	 7.660936547271976e-01	-3.450594539664697e+01
1	 1.155834208636955e+00	 7.899666335812606e-01	-3.293845298468138e+01
1	 1.139356450490695e+00	 8.135520135447331e-01	-3.134375226334154e+01
1	 1.122368168196411e+00	 8.368331345184133e-01	-2.971965568213853e+01
1	 1.104877795898975e+00	 8.597936125197603e-01	-2.806400535465507e+01
1	 1.086894462615585e+00	 8.824173769417563e-01	-2.637468451523199e+01
1	 1.068427977525723e+00	 9.046887071404149e-01	-2.464962896249467e+01
1	 1.049488812961676e+00	 9.265922681797479e-01	-2.288683840842305e+01
1	 1.030088085157229e+00	 9.481131455663370e-01	-2.108438765117612e+01
1	 1.010237532826072e+00	 9.692368788102509e-01	-1.924043749024574e+01
1	 9.899494936549997e-01	 9.899494936549997e-01	-1.735324530374063e+01
1	 1.182256159622547e+00	 7.729337766451166e-01	-3.405496135567444e+01
1	 1.166154156930807e+00	 7.970199070953664e-01	-3.247165320943545e+01
1	 1.149529275944117e+00	 8.208158708079358e-01	-3.084707053268954e+01
1	 1.132389312557980e+00	 8.443048589327393e-01	-2.918210431450821e+01
1	 1.114742776222132e+00	 8.674703412016775e-01	-2.747773636065508e+01
1	 1.096598877462853e+00	 8.902961035201722e-01	-2.573503795368537e+01
1	 1.077967513041584e+00	 9.127662848813437e-01	-2.395516810775054e+01
1	 1.058859248793580e+00	 9.348654134301332e-01	-2.213937142130991e+01
1	 1.039285300204712e+00	 9.565784415080028e-01	-2.028897553403212e+01
1	 1.019257510798614e+00	 9.778907795135040e-01	-1.840538819723853e+01
1	 9.987883284199998e-01	 9.987883284199998e-01	-1.649009397027197e+01
1	 1.192718603514182e+00	 7.797738985630251e-01	-3.347546033364172e+01
1	 1.176474105223669e+00	 8.040731806096418e-01	-3.189790648958957e+01
1	 1.159702101396579e+00	 8.280797280714499e-01	-3.026519344059829e+01
1	 1.142410456918639e+00	 8.517765833474782e-01	-2.858125015660380e+01
1	 1.124607756544448e+00	 8.751470698840697e-01	-2.685015689214486e+01
1	 1.106303292309371e+00	 8.981748300990842e-01	-2.507613119050326e+01
1	 1.087507048556805e+00	 9.208438626227500e-01	-2.326351309449112e+01
1	 1.068229684624973e+00	 9.431385586809372e-01	-2.141674965071963e+01
1	 1.048482515251834e+00	 9.650437374499877e-01	-1.954037880079759e+01
1	 1.028277488770966e+00	 9.865446802169371e-01	-1.763901275866612e+01
1	 1.007627163185000e+00	 1.007627163185000e+00	-1.571732097808048e+01
1	 1.203181047404816e+00	 7.866140204809229e-01	-3.277079494743533e+01
1	 1.186794053515542e+00	 8.111264541240873e-01	-3.122000274543030e+01
1	 1.169874926848081e+00	 8.353435853352749e-01	-2.960034347475214e+01
1	 1.152431601278387e+00	 8.592483077626292e-01	-2.791874458555846e+01
1	 1.134472736865924e+00	 8.828237985669359e-01	-2.618234461367179e+01
1	 1.116007707155137e+00	 9.060535566784921e-01	-2.439846666572106e+01
1	 1.097046584071386e+00	 9.289214403646335e-01	-2.257459072684121e+01
1	 1.077600120455857e+00	 9.514117039321597e-01	-2.071832496055376e+01
1	 1.057679730298597e+00	 9.735090333922922e-01	-1.883737618056763e+01
1	 1.037297466743129e+00	 9.951985809205499e-01	-1.693951968264778e+01
1	 1.016465997950000e+00	 1.016465997950000e+00	-1.503256863127582e+01
1	 1.213643491294451e+00	 7.934541423988104e-01	-3.194420220646756e+01
1	 1.197114001806424e+00	 8.181797276387025e-01	-3.044063569309888e+01
1	 1.180047752298623e+00	 8.426074425994110e-01	-2.885466648533057e+01
1	 1.162452745637224e+00	 8.667200321781930e-01	-2.719618203446640e+01
1	 1.144337717186559e+00	 8.905005272502764e-01	-2.547534002893656e+01
1	 1.125712122000154e+00	 9.139322832583960e-01	-2.370252949385574e+01
1	 1.106586119585325e+00	 9.369990181069947e-01	-2.188833033292109e+01
1	 1.086970556286230e+00	 9.596848491838008e-01	-2.004347156423547e+01
1	 1.066876945345000e+00	 9.819743293349166e-01	-1.817878851522888e+01
1	 1.046317444715101e+00	 1.003852481624343e+00	-1.630517925288830e+01
1	 1.025304832715000e+00	 1.025304832715000e+00	-1.443356053383099e+01
1	 1.224105935183085e+00	 8.002942643166867e-01	-3.099880845316649e+01
1	 1.207433950096316e+00	 8.252330011534879e-01	-2.956240695587990e+01
1	 1.190220577748204e+00	 8.498712998638577e-01	-2.803023496011497e+01
1	 1.172473889995152e+00	 8.741917565941695e-01	-2.641510242588965e+01
1	 1.154202697506354e+00	 8.981772559340911e-01	-2.473014806886378e+01
1	 1.135416536844419e+00	 9.218110098387959e-01	-2.298878820431192e+01
1	 1.116125655098625e+00	 9.450765958498334e-01	-2.120466365698355e+01
1	 1.096340992116092e+00	 9.679579944358603e-01	-1.939158506960137e+01
1	 1.076074160391042e+00	 9.904396252778599e-01	-1.756347695976789e+01
1	 1.055337422686883e+00	 1.012506382328315e+00	-1.573432088869554e+01
1	 1.034143667480000e+00	 1.034143667480000e+00	-1.391809811522917e+01
1	 1.234568379070720e+00	 8.071343862345530e-01	-2.993763405225473e+01
1	 1.217753898385218e+00	 8.322862746684426e-01	-2.858782996644049e+01
1	 1.200393403196825e+00	 8.571351571286158e-01	-2.712905113306488e+01
1	 1.182495034352168e+00	 8.816634810105580e-01	-2.557699348162519e+01
1	 1.164067677825308e+00	 9.058539846183804e-01	-2.394773959892273e+01
1	 1.145120951687934e+00	 9.296897364196918e-01	-2.225769544414162e+01
1	 1.125665190611283e+00	 9.531541735931494e-01	-2.052352475703614e+01
1	 1.105711427945443e+00	 9.762311396883390e-01	-1.876208157235894e+01
1	 1.085271375436723e+00	 9.989049212211228e-01	-1.699034127408832e+01
1	 1.064357400658475e+00	 1.021160283032468e+00	-1.522533063923406e+01
1	 1.042982502245000e+00	 1.042982502245000e+00	-1.348405733277227e+01
1	 1.245030822957354e+00	 8.139745081524086e-01	-2.876359784359427e+01
1	 1.228073846673131e+00	 8.393395481835675e-01	-2.751933367231830e+01
1	 1.210566228644485e+00	 8.643990143936846e-01	-2.615304993615925e+01
1	 1.192516178708275e+00	 8.891352054273600e-01	-2.468329291601543e+01
1	 1.173932658143422e+00	 9.135307133031441e-01	-2.312905285044924e+01
1	 1.154825366530698e+00	 9.375684630010837e-01	-2.150968864536973e+01
1	 1.135204726123301e+00	 9.612317513369427e-01	-1.984484990762351e+01
1	 1.115081863774285e+00	 9.845042849412358e-01	-1.815439679525103e+01
1	 1.094468590482045e+00	 1.007370217164705e+00	-1.645831820095587e+01
1	 1.073377378629877e+00	 1.029814183736800e+00	-1.477664880411973e+01
1	 1.051821337010000e+00	 1.051821337010000e+00	-1.312938554015988e+01
1	 1.255493266842989e+00	 8.208146300702533e-01	-2.747952137238855e+01
1	 1.238393794960052e+00	 8.463928216988620e-01	-2.635926605613538e+01
1	 1.220739054091186e+00	 8.716628716590645e-01	-2.510410180364543e+01
1	 1.202537323063470e+00	 8.966069298445739e-01	-2.373539051959152e+01
1	 1.183797638460694e+00	 9.212074419883817e-01	-2.227499478040136e+01
1	 1.164529781372711e+00	 9.454471895829715e-01	-2.074519065895323e+01
1	 1.144744261634678e+00	 9.693093290812137e-01	-1.916857750747259e+01
1	 1.124452299602615e+00	 9.927774301945512e-01	-1.756798527026321e+01
1	 1.103665805527006e+00	 1.015835513108607e+00	-1.596637992504568e+01
1	 1.082397356601088e+00	 1.038468084441313e+00	-1.438676767298392e+01
1	 1.060660171775000e+00	 1.060660171775000e+00	-1.285209851263897e+01
1	 9.722718241249999e-01	 9.722718241249999e-01	-1.936054245007969e+01
1	 9.519290774042841e-01	 9.921975768804165e-01	-1.600660596251674e+01
1	 9.311825536839636e-01	 1.011693655061181e+00	-1.276059619661802e+01
1	 9.100459776802337e-01	 1.030747941296336e+00	-9.650445551506838e+00
1	 8.885335516599900e-01	 1.049348906492078e+00	-6.703562517649231e+00
1	 8.666599237864129e-01	 1.067485632918797e+00	-3.946720492490493e+00
1	 8.444401551573482e-01	 1.085147835250138e+00	-1.405950403136601e+00
1	 8.218896856909996e-01	 1.102325879470541e+00	 8.935621746370863e-01
1	 7.990242990192610e-01	 1.119010799580969e+00	 2.927574754180897e+00
1	 7.758600865535591e-01	 1.135194312046279e+00	 4.672879934278237e+00
1	 7.524134108913274e-01	 1.150868827941644e+00	 6.107391109716392e+00
1	 9.811106588900002e-01	 9.811106588899999e-01	-1.830921763639650e+01
1	 9.605829781071776e-01	 1.001217554853339e+00	-1.510832405310782e+01
1	 9.396478496249905e-01	 1.020890870109385e+00	-1.200441527994187e+01
1	 9.183191229297815e-01	 1.040118377129261e+00	-9.021024012000719e+00
1	 8.966111293999636e-01	 1.058888442009220e+00	-6.181228980178180e+00
1	 8.745386503638366e-01	 1.077190047767566e+00	-3.507561857558071e+00
1	 8.521168838383170e-01	 1.095012815574976e+00	-1.021917421126152e+00
1	 8.293614101045006e-01	 1.112347023833931e+00	 1.254532455970494e+00
1	 8.062881562818418e-01	 1.129183625036312e+00	 3.301420442373871e+00
1	 7.829133600673254e-01	 1.145514260342112e+00	 5.099260518540666e+00
1	 7.592535328092677e-01	 1.161331271836278e+00	 6.629519426371832e+00
1	 9.899494936549997e-01	 9.899494936549997e-01	-1.735324530374063e+01
1	 9.692368788102508e-01	 1.010237532826071e+00	-1.427364896411178e+01
1	 9.481131455663370e-01	 1.030088085157229e+00	-1.128033624796836e+01
1	 9.265922681797482e-01	 1.049488812961676e+00	-8.392500649020601e+00
1	 9.046887071404153e-01	 1.068427977525723e+00	-5.628950746735842e+00
1	 8.824173769417565e-01	 1.086894462615585e+00	-3.008034993891192e+00
1	 8.597936125197605e-01	 1.104877795898974e+00	-5.475692139385657e-01
1	 8.368331345184140e-01	 1.122368168196410e+00	 1.735232729393283e+00
1	 8.135520135447336e-01	 1.139356450490694e+00	 3.823824657475162e+00
1	 7.899666335812616e-01	 1.155834208636955e+00	 5.702389798065713e+00
1	 7.660936547271977e-01	 1.171793715729913e+00	 7.355898140812126e+00
1	 9.987883284199998e-01	 9.987883284199998e-01	-1.649009397027197e+01
1	 9.778907795135039e-01	 1.019257510798614e+00	-1.350089201885233e+01
1	 9.565784415080025e-01	 1.039285300204712e+00	-1.058750683825595e+01
1	 9.348654134301334e-01	 1.058859248793580e+00	-7.764851617164418e+00
1	 9.127662848813437e-01	 1.077967513041584e+00	-5.047522809247617e+00
1	 8.902961035201726e-01	 1.096598877462853e+00	-2.449742597825375e+00
1	 8.674703412016779e-01	 1.114742776222131e+00	 1.469646909015232e-02
1	 8.443048589327401e-01	 1.132389312557980e+00	 2.332484322560381e+00
1	 8.208158708079366e-01	 1.149529275944116e+00	 4.490843367817916e+00
1	 7.970199070953669e-01	 1.166154156930806e+00	 6.477575329649053e+00
1	 7.729337766451166e-01	 1.182256159622547e+00	 8.281104676151395e+00
1	 1.007627163185000e+00	 1.007627163185000e+00	-1.571732097808048e+01
1	 9.865446802169368e-01	 1.028277488770966e+00	-1.278842379246992e+01
1	 9.650437374499879e-01	 1.048482515251834e+00	-9.925104692309086e+00
1	 9.431385586809371e-01	 1.068229684624974e+00	-7.138053907710715e+00
1	 9.208438626227501e-01	 1.087507048556805e+00	-4.437712265184489e+00
1	 8.981748300990846e-01	 1.106303292309370e+00	-1.834231130736721e+00
1	 8.751470698840700e-01	 1.124607756544448e+00	 6.625660101802886e-01
1	 8.517765833474784e-01	 1.142410456918638e+00	 3.043220095488950e+00
1	 8.280797280714506e-01	 1.159702101396579e+00	 5.298670928808910e+00
1	 8.040731806096427e-01	 1.176474105223669e+00	 7.420289317211532e+00
1	 7.797738985630250e-01	 1.192718603514182e+00	 9.399906721351689e+00
1	 1.016465997950000e+00	 1.016465997950000e+00	-1.503256863127582e+01
1	 9.951985809205498e-01	 1.037297466743129e+00	-1.213467153575515e+01
1	 9.735090333922922e-01	 1.057679730298597e+00	-9.292336055407949e+00
1	 9.514117039321597e-01	 1.077600120455857e+00	-6.512085312241528e+00
1	 9.289214403646335e-01	 1.097046584071385e+00	-3.800259530366056e+00
1	 9.060535566784923e-01	 1.116007707155137e+00	-1.162993264039920e+00
1	 8.828237985669360e-01	 1.134472736865924e+00	 1.393806265213684e+00
1	 8.592483077626301e-01	 1.152431601278386e+00	 3.864479591325462e+00
1	 8.353435853352754e-01	 1.169874926848081e+00	 6.243634066098716e+00
1	 8.111264541240881e-01	 1.186794053515541e+00	 8.526161453229090e+00
1	 7.866140204809230e-01	 1.203181047404816e+00	 1.070725395879523e+01
1	 1.025304832715000e+00	 1.025304832715000e+00	-1.443356053383099e+01
1	 1.003852481624343e+00	 1.046317444715101e+00	-1.153811673223303e+01
1	 9.819743293349165e-01	 1.066876945345000e+00	-8.688434543685821e+00
1	 9.596848491838006e-01	 1.086970556286229e+00	-5.886924388146372e+00
1	 9.369990181069949e-01	 1.106586119585325e+00	-3.135879489031212e+00
1	 9.139322832583963e-01	 1.125712122000153e+00	-4.374701977201627e-01
1	 8.905005272502765e-01	 1.144337717186559e+00	 2.206261095042530e+00
1	 8.667200321781937e-01	 1.162452745637224e+00	 4.793404437934485e+00
1	 8.426074425994116e-01	 1.180047752298622e+00	 7.322186169968864e+00
1	 8.181797276387035e-01	 1.197114001806424e+00	 9.790972130432346e+00
1	 7.934541423988104e-01	 1.213643491294451e+00	 1.219827021974128e+01
1	 1.034143667480000e+00	 1.034143667480000e+00	-1.391809811522917e+01
1	 1.012506382328315e+00	 1.055337422686883e+00	-1.099729278052453e+01
1	 9.904396252778600e-01	 1.076074160391042e+00	-8.112659974435157e+00
1	 9.679579944358603e-01	 1.096340992116092e+00	-5.262550425895470e+00
1	 9.450765958498334e-01	 1.116125655098624e+00	-2.445262584931330e+00
1	 9.218110098387960e-01	 1.135416536844419e+00	 3.409461400319311e-01
1	 8.981772559340918e-01	 1.154202697506354e+00	 3.097848074677806e+00
1	 8.741917565941700e-01	 1.172473889995151e+00	 5.827233985304174e+00
1	 8.498712998638585e-01	 1.190220577748203e+00	 8.530901882312966e+00
1	 8.252330011534884e-01	 1.207433950096316e+00	 1.121064600162586e+01
1	 8.002942643166867e-01	 1.224105935183085e+00	 1.386824604206593e+01
1	 1.042982502245000e+00	 1.042982502245000e+00	-1.348405733277227e+01
1	 1.021160283032468e+00	 1.064357400658475e+00	-1.051078279455406e+01
1	 9.989049212211227e-01	 1.085271375436723e+00	-7.564297255888724e+00
1	 9.762311396883389e-01	 1.105711427945443e+00	-4.638943417977124e+00
1	 9.531541735931496e-01	 1.125665190611283e+00	-1.729075856944243e+00
1	 9.296897364196920e-01	 1.145120951687934e+00	 1.170911005032760e+00
1	 9.058539846183808e-01	 1.164067677825307e+00	 4.066555369808594e+00
1	 8.816634810105588e-01	 1.182495034352168e+00	 6.963301164778345e+00
1	 8.571351571286164e-01	 1.200393403196824e+00	 9.866471958856422e+00
1	 8.322862746684434e-01	 1.217753898385218e+00	 1.278124586697255e+01
1	 8.071343862345530e-01	 1.234568379070720e+00	 1.571263160642317e+01
1	 1.051821337010000e+00	 1.051821337010000e+00	-1.312938554015988e+01
1	 1.029814183736800e+00	 1.073377378629877e+00	-1.007721751467138e+01
1	 1.007370217164705e+00	 1.094468590482045e+00	-7.042655332978341e+00
1	 9.845042849412359e-01	 1.115081863774285e+00	-4.016084029400798e+00
1	 9.612317513369429e-01	 1.135204726123301e+00	-9.879639224727418e-01
1	 9.375684630010840e-01	 1.154825366530698e+00	 2.051124854584509e+00
1	 9.135307133031443e-01	 1.173932658143421e+00	 5.110438770806508e+00
1	 8.891352054273607e-01	 1.192516178708274e+00	 8.199028557066775e+00
1	 8.643990143936855e-01	 1.210566228644485e+00	 1.132569839042481e+01
1	 8.393395481835683e-01	 1.228073846673130e+00	 1.449896686948395e+01
1	 8.139745081524083e-01	 1.245030822957354e+00	 1.772703002856518e+01
1	 1.060660171775000e+00	 1.060660171775000e+00	-1.285209851263897e+01
1	 1.038468084441312e+00	 1.082397356601088e+00	-9.695273323216790e+00
1	 1.015835513108607e+00	 1.103665805527006e+00	-6.547066185805530e+00
1	 9.927774301945514e-01	 1.124452299602615e+00	-3.393953569676170e+00
1	 9.693093290812139e-01	 1.144744261634678e+00	-2.225499116722528e-01
1	 9.454471895829717e-01	 1.164529781372711e+00	 2.980331464080371e+00
1	 9.212074419883821e-01	 1.183797638460694e+00	 6.227618875031391e+00
1	 8.966069298445744e-01	 1.202537323063470e+00	 9.531924656855081e+00
1	 8.716628716590653e-01	 1.220739054091185e+00	 1.290548976814736e+01
1	 8.463928216988629e-01	 1.238393794960052e+00	 1.636013098073348e+01
1	 8.208146300702533e-01	 1.255493266842989e+00	 1.990719098704712e+01
1	 7.524134108913274e-01	 1.150868827941644e+00	 6.107391109716392e+00
1	 7.287008687329781e-01	 1.166027462769146e+00	 8.523590539930977e+00
1	 7.047392534804007e-01	 1.180664043931685e+00	 1.003140634272464e+01
1	 6.805455176867415e-01	 1.194773115862958e+00	 1.063969239617832e+01
1	 6.561367355249966e-01	 1.208349942826211e+00	 1.036015479080669e+01
1	 6.315300654405884e-01	 1.221390509410137e+00	 9.207255948504754e+00
1	 6.067427131481523e-01	 1.233891518761329e+00	 7.198106706142081e+00
1	 5.817918951274087e-01	 1.245850388605507e+00	 4.352347338421232e+00
1	 5.566948027665101e-01	 1.257265245121364e+00	 6.920185570929647e-01
1	 5.314685672938282e-01	 1.268134914741677e+00	-3.758576425977996e+00
1	 5.061302256309000e-01	 1.278458913966357e+00	-8.973017646257841e+00
1	 7.592535328092677e-01	 1.161331271836278e+00	 6.629519426371832e+00
1	 7.353254220869722e-01	 1.176627712434605e+00	 9.269379977702181e+00
1	 7.111459739694163e-01	 1.191397353425526e+00	 1.095600095794934e+01
1	 6.867322951238658e-01	 1.205634689646682e+00	 1.169342551069248e+01
1	 6.621016149430722e-01	 1.219334942309169e+00	 1.148883738441442e+01
1	 6.372712478583268e-01	 1.232494059497939e+00	 1.035247852235659e+01
1	 6.122585559998541e-01	 1.245108714388192e+00	 8.297552750468938e+00
1	 5.870809123608277e-01	 1.257176301230428e+00	 5.340116507142437e+00
1	 5.617556646147485e-01	 1.268694929168600e+00	 1.498957637155623e+00
1	 5.363000997284300e-01	 1.279663413966696e+00	-3.204536661431629e+00
1	 5.107314095045163e-01	 1.290081267729169e+00	-8.746521595184086e+00
1	 7.660936547271977e-01	 1.171793715729913e+00	 7.355898140812126e+00
1	 7.419499754407716e-01	 1.187227962099074e+00	 1.018237492470806e+01
1	 7.175526944580827e-01	 1.202130662918409e+00	 1.201175819340614e+01
1	 6.929190725605181e-01	 1.216496263429501e+00	 1.284334076192176e+01
1	 6.680664943605837e-01	 1.230319941791294e+00	 1.267984106491038e+01
1	 6.430124302754393e-01	 1.243597609585001e+00	 1.152733407035742e+01
1	 6.177743988508980e-01	 1.256325910014428e+00	 9.395166444079926e+00
1	 5.923699295935869e-01	 1.268502213854855e+00	 6.295856878154243e+00
1	 5.668165264623545e-01	 1.280124613215495e+00	 2.244982591222833e+00
1	 5.411316321624565e-01	 1.291191913191544e+00	-2.738946909305877e+00
1	 5.153325933776431e-01	 1.301703621492001e+00	-8.634627644424587e+00
1	 7.729337766451166e-01	 1.182256159622547e+00	 8.281104676151395e+00
1	 7.485745287943755e-01	 1.197828211762553e+00	 1.125813629667007e+01
1	 7.239594149464007e-01	 1.212863972410334e+00	 1.319519585566400e+01
1	 6.991058499966988e-01	 1.227357837211414e+00	 1.408688464182873e+01
1	 6.740313737775313e-01	 1.241304941272586e+00	 1.393151129017388e+01
1	 6.487536126919259e-01	 1.254701159671323e+00	 1.273103587638167e+01
1	 6.232902417012843e-01	 1.267543105640036e+00	 1.049099643345230e+01
1	 5.976589468256861e-01	 1.279828126478787e+00	 7.220418773515707e+00
1	 5.718773883093287e-01	 1.291554297262048e+00	 2.931710608477633e+00
1	 5.459631645959077e-01	 1.302720412416223e+00	-2.359458939180723e+00
1	 5.199337772502799e-01	 1.313325975254853e+00	-8.634293260333335e+00
1	 7.797738985630250e-01	 1.192718603514182e+00	 9.399906721351689e+00
1	 7.551990821477842e-01	 1.208428461425044e+00	 1.249238076664664e+01
1	 7.303661354343698e-01	 1.223597281901301e+00	 1.450295393351471e+01
1	 7.052926274324078e-01	 1.238219410992421e+00	 1.542159323914748e+01
1	 6.799962531939148e-01	 1.252289940753043e+00	 1.524225157219220e+01
1	 6.544947951077865e-01	 1.265804709756905e+00	 1.396282482837772e+01
1	 6.288060845510125e-01	 1.278760301265018e+00	 1.158508965816898e+01
1	 6.029479640571257e-01	 1.291154039102225e+00	 8.114622679424983e+00
1	 5.769382501556705e-01	 1.302983981308259e+00	 3.560702134623774e+00
1	 5.507946970287833e-01	 1.314248911640731e+00	-2.063806914685738e+00
1	 5.245349611224271e-01	 1.324948329017727e+00	-8.742582664831509e+00
1	 7.866140204809230e-01	 1.203181047404816e+00	 1.070725395879523e+01
1	 7.618236355009980e-01	 1.219028711086544e+00	 1.388097399297541e+01
1	 7.367728559219902e-01	 1.234330591391309e+00	 1.593178928570052e+01
1	 7.114794048676450e-01	 1.249080984772522e+00	 1.684508834387058e+01
1	 6.859611326097343e-01	 1.263274940232669e+00	 1.661052095296893e+01
1	 6.602359775230212e-01	 1.276908259841746e+00	 1.522196821819087e+01
1	 6.343219274000830e-01	 1.289977496889372e+00	 1.267749142513222e+01
1	 6.082369812879054e-01	 1.302479951725169e+00	 8.979260543429525e+00
1	 5.819991120013801e-01	 1.314413665354129e+00	 4.133463338992474e+00
1	 5.556262294610839e-01	 1.325777410865069e+00	-1.849803811150547e+00
1	 5.291361449940846e-01	 1.336570682780620e+00	-8.956662193860891e+00
1	 7.934541423988104e-01	 1.213643491294451e+00	 1.219827021974128e+01
1	 7.684481888540168e-01	 1.229628960747055e+00	 1.541992419749542e+01
1	 7.431795764092617e-01	 1.245063900880360e+00	 1.747857060341713e+01
1	 7.176661823024110e-01	 1.259942558551717e+00	 1.835507375322988e+01
1	 6.919260120249895e-01	 1.274259939711460e+00	 1.803483161098884e+01
1	 6.659771599376296e-01	 1.288011809925846e+00	 1.650775860346445e+01
1	 6.398377702484958e-01	 1.301194692513100e+00	 1.376824547893669e+01
1	 6.135259985180255e-01	 1.313805864347619e+00	 9.815097004541744e+00
1	 5.870599738464576e-01	 1.325843349399657e+00	 4.651448454041937e+00
1	 5.604577618928086e-01	 1.337305910089237e+00	-1.715338018548326e+00
1	 5.337373288652524e-01	 1.348193036543535e+00	-9.273795895917347e+00
1	 8.002942643166867e-01	 1.224105935183085e+00	 1.386824604206593e+01
1	 7.750727422068404e-01	 1.240229210406577e+00	 1.710537607308817e+01
1	 7.495862968961846e-01	 1.255797210368453e+00	 1.914027363115007e+01
1	 7.238529597367048e-01	 1.270804132330007e+00	 1.994933176711381e+01
1	 6.978908914396812e-01	 1.285244939189419e+00	 1.951374659042880e+01
1	 6.717183423516123e-01	 1.299115360009208e+00	 1.781951272790434e+01
1	 6.453536130962506e-01	 1.312411888136201e+00	 1.485739406863611e+01
1	 6.188150157474855e-01	 1.325131776969574e+00	 1.062287056026889e+01
1	 5.921208356909027e-01	 1.337273033444843e+00	 5.116061994882028e+00
1	 5.652892943239584e-01	 1.348834409313236e+00	-1.658370118647930e+00
1	 5.383385127359304e-01	 1.359815390306469e+00	-9.691341356301024e+00
1	 8.071343862345530e-01	 1.234568379070720e+00	 1.571263160642317e+01
1	 7.816972955594687e-01	 1.250829460065110e+00	 1.893360500100832e+01
1	 7.559930173827586e-01	 1.266530519855587e+00	 2.091397663051679e+01
1	 7.300397371705273e-01	 1.281665706107390e+00	 2.162571986168368e+01
1	 7.038557708538088e-01	 1.296229938666545e+00	 2.104587764583101e+01
1	 6.774595247649688e-01	 1.310218910091828e+00	 1.915657049644702e+01
1	 6.508694559433478e-01	 1.323629083758674e+00	 1.594497801111257e+01
1	 6.241040329762860e-01	 1.336457689591036e+00	 1.140329467430520e+01
1	 5.971816975347158e-01	 1.348702717489688e+00	 5.528660865940626e+00
1	 5.701208267545327e-01	 1.360362908537064e+00	-1.676929826039849e+00
1	 5.429396966061187e-01	 1.371437744069425e+00	-1.020674573369183e+01
1	 8.139745081524083e-01	 1.245030822957354e+00	 1.772703002856518e+01
1	 7.883218489119019e-01	 1.261429709722652e+00	 2.090101155977406e+01
1	 7.623997378689837e-01	 1.277263829341764e+00	 2.279685607282566e+01
1	 7.362265146038778e-01	 1.292527279883868e+00	 2.338216753070656e+01
1	 7.098206502673721e-01	 1.307214938142837e+00	 2.262988319544930e+01
1	 6.832007071776995e-01	 1.321322460173709e+00	 2.051829400209722e+01
1	 6.563852987897871e-01	 1.334846279380521e+00	 1.703103675125180e+01
1	 6.293930502044267e-01	 1.347783602212004e+00	 1.215705882837182e+01
1	 6.022425593778966e-01	 1.360132401534191e+00	 5.890556361413221e+00
1	 5.749523591845315e-01	 1.371891407760722e+00	-1.769113083395284e+00
1	 5.475408804758173e-01	 1.383060097832401e+00	-1.081754199656277e+01
1	 8.208146300702533e-01	 1.255493266842989e+00	 1.990719098704712e+01
1	 7.949464022641402e-01	 1.272029959379205e+00	 2.300411630861610e+01
1	 7.688064583548604e-01	 1.287997138826982e+00	 2.478618254700491e+01
1	 7.424132920367567e-01	 1.303388853659439e+00	 2.521667328482240e+01
1	 7.157855296803717e-01	 1.318199937618296e+00	 2.426446637692818e+01
1	 6.889418895898042e-01	 1.332426010254849e+00	 2.190406660142600e+01
1	 6.619011416355685e-01	 1.346063475001740e+00	 1.811560841911070e+01
1	 6.346820674319077e-01	 1.359109514832477e+00	 1.288482952146664e+01
1	 6.073034212204453e-01	 1.371562085578352e+00	 6.203016065689393e+00
1	 5.797838916139548e-01	 1.383419906984210e+00	-1.933079301963220e+00
1	 5.521420643450261e-01	 1.394682451595397e+00	-1.152134534777102e+01
1	 5.061302256309000e-01	 1.278458913966357e+00	-8.973017646257841e+00
1	 4.806966872910303e-01	 1.288237437281654e+00	 2.359978675708209e+00
1	 4.551847024354536e-01	 1.297471343285539e+00	 1.255160531392447e+01
1	 4.296108311925131e-01	 1.306162139129264e+00	 2.158632692053487e+01
1	 4.039914143349413e-01	 1.314311963391015e+00	 2.945178551060682e+01
1	 3.783425453957433e-01	 1.321923567499668e+00	 3.613876503842451e+01
1	 3.526800442951766e-01	 1.329000295832889e+00	 4.164114272257294e+01
1	 3.270194325395477e-01	 1.335546064616104e+00	 4.595582788519256e+01
1	 3.013759100415353e-01	 1.341565339750669e+00	 4.908268913164830e+01
1	 2.757643336008559e-01	 1.347063113700460e+00	 5.102447074727901e+01
1	 2.501991970734234e-01	 1.352044881565965e+00	 5.178669922788661e+01
1	 5.107314095045163e-01	 1.290081267729169e+00	-8.746521595184086e+00
1	 4.850666571792522e-01	 1.299948686710393e+00	 1.976394569083702e+00
1	 4.593227451881562e-01	 1.309266537313843e+00	 1.169364786672265e+01
1	 4.335163842061927e-01	 1.318036340392143e+00	 2.039018761426433e+01
1	 4.076640635585735e-01	 1.326260253965098e+00	 2.805364350650138e+01
1	 3.817820230831497e-01	 1.333941054474572e+00	 3.467430545075361e+01
1	 3.558862265176348e-01	 1.341082116701665e+00	 4.024509201231580e+01
1	 3.299923364729388e-01	 1.347687392473848e+00	 4.476150805671989e+01
1	 3.041156910427644e-01	 1.353761388291580e+00	 4.822159223026043e+01
1	 2.782712820886437e-01	 1.359309142004772e+00	 5.062585496760747e+01
1	 2.524737352288170e-01	 1.364336198669367e+00	 5.197720775417580e+01
1	 5.153325933776431e-01	 1.301703621492001e+00	-8.634627644424587e+00
1	 4.894366270670793e-01	 1.311659936139338e+00	 1.497539301853394e+00
1	 4.634607879405481e-01	 1.321061731342504e+00	 1.075721637464685e+01
1	 4.374219372196355e-01	 1.329910541655500e+00	 1.912984100541941e+01
1	 4.113367127820329e-01	 1.338208544539750e+00	 2.660304001936260e+01
1	 3.852215007704361e-01	 1.345958541450105e+00	 3.316662453838968e+01
1	 3.590924087400167e-01	 1.353163937571098e+00	 3.881257533765444e+01
1	 3.329652404062873e-01	 1.359828720332250e+00	 4.353501906343678e+01
1	 3.068554720439746e-01	 1.365957436833121e+00	 4.733019577106771e+01
1	 2.807782305764268e-01	 1.371555170309656e+00	 5.019641828591031e+01
1	 2.547482733842105e-01	 1.376627515773255e+00	 5.213402392813001e+01
1	 5.199337772502799e-01	 1.313325975254853e+00	-8.634293260333335e+00
1	 4.938065969545112e-01	 1.323371185568486e+00	 9.259421968738444e-01
1	 4.675988306926293e-01	 1.332856925371522e+00	 9.744394219426304e+00
1	 4.413274902328415e-01	 1.341784742919335e+00	 1.780699171265599e+01
1	 4.150093620053187e-01	 1.350156835114969e+00	 2.510136783192514e+01
1	 3.886609784576029e-01	 1.357976028426266e+00	 3.161686977012558e+01
1	 3.622985909623225e-01	 1.365245758441190e+00	 3.734456082152973e+01
1	 3.359381443395930e-01	 1.371970048191310e+00	 4.227721495395542e+01
1	 3.095952530451660e-01	 1.378153485375291e+00	 4.640930416709504e+01
1	 2.832851790642052e-01	 1.383801198615110e+00	 4.973697895620674e+01
1	 2.570228115396040e-01	 1.388918832877628e+00	 5.225804223695965e+01
1	 5.245349611224271e-01	 1.324948329017727e+00	-8.742582664831509e+00
1	 4.981765668415482e-01	 1.335082434997839e+00	 2.640438288308111e-01
1	 4.717368734443999e-01	 1.344652119400897e+00	 8.657191681675817e+00
1	 4.452330432458106e-01	 1.353658944183649e+00	 1.642328454344858e+01
1	 4.186820112284315e-01	 1.362105125690758e+00	 2.354997085735425e+01
1	 3.921004561446502e-01	 1.369993515403056e+00	 3.002614835269119e+01
1	 3.655047731845522e-01	 1.377327579311940e+00	 3.584198261765636e+01
1	 3.389110482728562e-01	 1.384111376051029e+00	 4.098891981026966e+01
1	 3.123350340463384e-01	 1.390349533918090e+00	 4.545969360634846e+01
1	 2.857921275519789e-01	 1.396047226921136e+00	 4.924832652184811e+01
1	 2.592973496949976e-01	 1.401210149982486e+00	 5.235012578235865e+01
1	 5.291361449940846e-01	 1.336570682780620e+00	-8.956662193860891e+00
1	 5.025465367281904e-01	 1.346793684427397e+00	-4.858001171448763e-01
1	 4.758749161958596e-01	 1.356447313430629e+00	 7.497549119206168e+00
1	 4.491385962585430e-01	 1.365533145448441e+00	 1.498030709457602e+01
1	 4.223546604513710e-01	 1.374053416267115e+00	 2.195014626400873e+01
1	 3.955399338315778e-01	 1.382011002380474e+00	 2.839552898127744e+01
1	 3.687109554067056e-01	 1.389409400183348e+00	 3.430574238744563e+01
1	 3.418839522060768e-01	 1.396252703911406e+00	 3.967092905065140e+01
1	 3.150748150474922e-01	 1.402545582461518e+00	 4.448211327899027e+01
1	 2.882990760397479e-01	 1.408293255227734e+00	 4.873122306380849e+01
1	 2.615718878503911e-01	 1.413501467087830e+00	 5.241110764509241e+01
1	 5.337373288652524e-01	 1.348193036543535e+00	-9.273795895917347e+00
1	 5.069165066144372e-01	 1.358504933857160e+00	-1.321315186444393e+00
1	 4.800129589470085e-01	 1.368242507460719e+00	 6.267339980937177e+00
1	 4.530441492710384e-01	 1.377407346713711e+00	 1.347959221810081e+01
1	 4.260273096741375e-01	 1.386001706844041e+00	 2.030314649030361e+01
1	 3.989794115183856e-01	 1.394028489358520e+00	 2.672604349951671e+01
1	 3.719171376287828e-01	 1.401491221055414e+00	 3.273671070053569e+01
1	 3.448568561392546e-01	 1.408394031772441e+00	 3.832401066515641e+01
1	 3.178145960486270e-01	 1.414741631005575e+00	 4.347728654103901e+01
1	 2.908060245275123e-01	 1.420539283534902e+00	 4.818640438440714e+01
1	 2.638464260057847e-01	 1.425792784193659e+00	 5.244179217900336e+01
1	 5.383385127359304e-01	 1.359815390306469e+00	-9.691341356301024e+00
1	 5.112864765002892e-01	 1.370216183287127e+00	-2.240304683591695e+00
1	 4.841510016978469e-01	 1.380037701491165e+00	 4.968373666252806e+00
1	 4.569497022832972e-01	 1.389281547979459e+00	 1.192262036088586e+01
1	 4.296999588967309e-01	 1.397949997421536e+00	 1.861018115624621e+01
1	 4.024188892050738e-01	 1.406045976337196e+00	 2.501868847433557e+01
1	 3.751233198507839e-01	 1.413573041928139e+00	 3.113572836349987e+01
1	 3.478297600723899e-01	 1.420535359634134e+00	 3.694890638776977e+01
1	 3.205543770497430e-01	 1.426937679550262e+00	 4.244591201839290e+01
1	 2.933129730152719e-01	 1.432785311842642e+00	 4.761458113032865e+01
1	 2.661209641611783e-01	 1.438084101299974e+00	 5.244295623865685e+01
1	 5.429396966061187e-01	 1.371437744069425e+00	-1.020674573369183e+01
1	 5.156564463857463e-01	 1.381927432717298e+00	-3.240646377364408e+00
1	 4.882890444483744e-01	 1.391832895521968e+00	 3.602398238963920e+00
1	 4.608552552953190e-01	 1.401155749245686e+00	 1.031082178515449e+01
1	 4.333726081191510e-01	 1.409898287999599e+00	 1.687241887777550e+01
1	 4.058583668916424e-01	 1.418063463316499e+00	 2.327442669073069e+01
1	 3.783295020727088e-01	 1.425654862801521e+00	 2.950360768099364e+01
1	 3.508026640054825e-01	 1.432676687496486e+00	 3.554633280895156e+01
1	 3.232941580508401e-01	 1.439133728095577e+00	 4.138866465471607e+01
1	 2.958199215030269e-01	 1.445031340150954e+00	 4.701643985853916e+01
1	 2.683955023165718e-01	 1.450375418406773e+00	 5.241535034456524e+01
1	 5.475408804758173e-01	 1.383060097832401e+00	-1.081754199656277e+01
1	 5.200264162708083e-01	 1.393638682147674e+00	-4.320289372043845e+00
1	 4.924270871985911e-01	 1.403628089553128e+00	 2.171103004433812e+00
1	 4.647608083071041e-01	 1.413029950512392e+00	 8.645578677088306e+00
1	 4.370452573413979e-01	 1.421846578578230e+00	 1.509098898962213e+01
1	 4.092978445780913e-01	 1.430080950296430e+00	 2.149418857117747e+01
1	 3.815356842945573e-01	 1.437736683675562e+00	 2.784113365331417e+01
1	 3.537755679385325e-01	 1.444818015359496e+00	 3.411698243208717e+01
1	 3.260339390519186e-01	 1.451329776641522e+00	 4.030619670649033e+01
1	 2.983268699907771e-01	 1.457277368459836e+00	 4.639264404845939e+01
1	 2.706700404719653e-01	 1.462666735514058e+00	 5.235969978966023e+01
1	 5.521420643450261e-01	 1.394682451595397e+00	-1.152134534777102e+01
1	 5.243963861554752e-01	 1.405349931578255e+00	-5.477251135102531e+00
1	 4.965651299484972e-01	 1.415423283584646e+00	 6.761209578464573e-01
1	 4.686663613186524e-01	 1.424904151779574e+00	 6.928227149996085e+00
1	 4.407179065634718e-01	 1.433794869157430e+00	 1.326698318202526e+01
1	 4.127373222644204e-01	 1.442098437276991e+00	 1.967887352406888e+01
1	 3.847418665163297e-01	 1.449818504550261e+00	 2.614906511408129e+01
1	 3.567484718715399e-01	 1.456959343223164e+00	 3.266152467711567e+01
1	 3.287737200529779e-01	 1.463525825188096e+00	 3.919913868831478e+01
1	 3.008338184785227e-01	 1.469523396769290e+00	 4.574383506352960e+01
1	 2.729445786273588e-01	 1.474958052621828e+00	 5.227670569044277e+01
1	 2.501991970734234e-01	 1.352044881565965e+00	 5.178669922788661e+01
1	 2.246946132453406e-01	 1.356516616473704e+00	 3.678544239905531e+01
1	 1.992642974238829e-01	 1.360484744408075e+00	 2.307318088141714e+01
1	 1.739215527406030e-01	 1.363956118608690e+00	 1.065272476836669e+01
1	 1.486792571529468e-01	 1.366937993652964e+00	-4.772112527312871e-01
1	 1.235498521293628e-01	 1.369437999341071e+00	-1.032183078759346e+01
1	 9.854533298911115e-02	 1.371464114494739e+00	-1.889006898993725e+01
1	 7.367724086214492e-02	 1.373024640776572e+00	-2.619439777333150e+01
1	 4.895665622776053e-02	 1.374128176631064e+00	-3.225062453312710e+01
1	 2.439419398469604e-02	 1.374783591442656e+00	-3.707768588445697e+01
1	 0.000000000000000e+00	 1.375000000000000e+00	-4.069743786519257e+01
1	 2.524737352288170e-01	 1.364336198669367e+00	 5.197720775417580e+01
1	 2.267372915474652e-01	 1.368848585712971e+00	 3.780137242719415e+01
1	 2.010757910364978e-01	 1.372852787537955e+00	 2.468310432836418e+01
1	 1.755026577650256e-01	 1.376355719686112e+00	 1.263076018543975e+01
1	 1.500308867628343e-01	 1.379364702685561e+00	 1.649137481179341e+00
1	 1.246730326026296e-01	 1.381887435698295e+00	-8.260393058537641e+00
1	 9.944119965202770e-02	 1.383931970080786e+00	-1.709974555979030e+01
1	 7.434703396034356e-02	 1.385506682965300e+00	-2.487396899490029e+01
1	 4.940171673850238e-02	 1.386620250964008e+00	-3.159109037241766e+01
1	 2.461595938432043e-02	 1.387281624092119e+00	-3.726195238977511e+01
1	 0.000000000000000e+00	 1.387500000000000e+00	-4.190004677697834e+01
1	 2.547482733842105e-01	 1.376627515773255e+00	 5.213402392813001e+01
1	 2.287799698495900e-01	 1.381180554952629e+00	 3.879267464349217e+01
1	 2.028872846491126e-01	 1.385220830668143e+00	 2.628140811802117e+01
1	 1.770837627894483e-01	 1.388755320763768e+00	 1.461403511895139e+01
1	 1.513825163727218e-01	 1.391791411718328e+00	 3.801337305247039e+00
1	 1.257962130758965e-01	 1.394336872055636e+00	-6.148844385323013e+00
1	 1.003370663149443e-01	 1.396399825666909e+00	-1.523151214685340e+01
1	 7.501682705854221e-02	 1.397988725154069e+00	-2.344440555955499e+01
1	 4.984677724924420e-02	 1.399112325296969e+00	-3.078788873019690e+01
1	 2.483772478394482e-02	 1.399779656741585e+00	-3.726483134919076e+01
1	 0.000000000000000e+00	 1.400000000000000e+00	-4.288048467453030e+01
1	 2.570228115396040e-01	 1.388918832877628e+00	 5.225804223695965e+01
1	 2.308226481517145e-01	 1.393512524192677e+00	 3.976000288364516e+01
1	 2.046987782617274e-01	 1.397588873798637e+00	 2.786840073685018e+01
1	 1.786648678138709e-01	 1.401154921841657e+00	 1.660241046668274e+01
1	 1.527341459826092e-01	 1.404218120751266e+00	 5.978701907334422e+00
1	 1.269193935491633e-01	 1.406786308413095e+00	-3.988515147006257e+00
1	 1.012329329778609e-01	 1.408867681253106e+00	-1.328743715775413e+01
1	 7.568662015674081e-02	 1.410470767342880e+00	-2.190860484756994e+01
1	 5.029183775998605e-02	 1.411604399629950e+00	-2.984483378738834e+01
1	 2.505949018356920e-02	 1.412277689391056e+00	-3.709113836126410e+01
1	 0.000000000000000e+00	 1.412500000000000e+00	-4.364464990335236e+01
1	 2.592973496949976e-01	 1.401210149982486e+00	 5.235012578235865e+01
1	 2.328653264538391e-01	 1.405844493433116e+00	 4.070398804174532e+01
1	 2.065102718743421e-01	 1.409956916929438e+00	 2.944437984722676e+01
1	 1.802459728382935e-01	 1.413554522919780e+00	 1.859575200719505e+01
1	 1.540857755924967e-01	 1.416644829784374e+00	 8.180569056430564e+00
1	 1.280425740224302e-01	 1.419235744770672e+00	-1.780689042676215e+00
1	 1.021287996407774e-01	 1.421335536839377e+00	-1.126951642344872e+01
1	 7.635641325493947e-02	 1.422952809531733e+00	-2.026936257675347e+01
1	 5.073689827072789e-02	 1.424096473962949e+00	-2.876560589400752e+01
1	 2.528125558319359e-02	 1.424775722040532e+00	-3.674552005618404e+01
1	 0.000000000000000e+00	 1.425000000000000e+00	-4.419823384945725e+01
1	 2.615718878503911e-01	 1.413501467087830e+00	 5.241110764509241e+01
1	 2.349080047559638e-01	 1.418176462673946e+00	 4.162523906774219e+01
1	 2.083217654869569e-01	 1.422324960060546e+00	 3.100963275805284e+01
1	 1.818270778627161e-01	 1.425954123998136e+00	 2.059393018762091e+01
1	 1.554374052023842e-01	 1.429071538817652e+00	 1.040629955564768e+01
1	 1.291657544956971e-01	 1.431685181128366e+00	 4.733948789814164e-01
1	 1.030246663036940e-01	 1.433803392425723e+00	-9.179676354686574e+00
1	 7.702620635313809e-02	 1.435434851720629e+00	-1.852937722255525e+01
1	 5.118195878146975e-02	 1.436588548295966e+00	-2.755375738789374e+01
1	 2.550302098281797e-02	 1.437273754690013e+00	-3.623246144222096e+01
1	 0.000000000000000e+00	 1.437500000000000e+00	-4.454672993760524e+01
1	 2.638464260057847e-01	 1.425792784193659e+00	 5.244179217900336e+01
1	 2.369506830580884e-01	 1.430508431915166e+00	 4.252434391331136e+01
1	 2.101332590995718e-01	 1.434693003191961e+00	 3.256443687102640e+01
1	 1.834081828871388e-01	 1.438353725076726e+00	 2.259681992243343e+01
1	 1.567890348122716e-01	 1.441498247851101e+00	 1.265527624936921e+01
1	 1.302889349689639e-01	 1.444134617486177e+00	 2.772540295097471e+00
1	 1.039205329666105e-01	 1.446271248012144e+00	-7.019776934260200e+00
1	 7.769599945133675e-02	 1.447916893909566e+00	-1.669125420954733e+01
1	 5.162701929221158e-02	 1.449080622629002e+00	-2.621271811247941e+01
1	 2.572478638244236e-02	 1.449771787339498e+00	-3.555629287218723e+01
1	 0.000000000000000e+00	 1.450000000000000e+00	-4.469544216411670e+01
1	 2.661209641611783e-01	 1.438084101299974e+00	 5.244295623865685e+01
1	 2.389933613602131e-01	 1.442840401156778e+00	 4.340187042921616e+01
1	 2.119447527121866e-01	 1.447061046323683e+00	 3.410906010402702e+01
1	 1.849892879115614e-01	 1.450753326155550e+00	 2.460430040253394e+01
1	 1.581406644221591e-01	 1.453924956884721e+00	 1.492690308131661e+01
1	 1.314121154422308e-01	 1.456584053844107e+00	 5.115591782729897e+00
1	 1.048163996295271e-01	 1.458739103598640e+00	-4.791614555806174e+00
1	 7.836579254953538e-02	 1.460398936098545e+00	-1.475750988795773e+01
1	 5.207207980295342e-02	 1.461572696962056e+00	-2.474580065159154e+01
1	 2.594655178206674e-02	 1.462269819988988e+00	-3.472119665264525e+01
1	 0.000000000000000e+00	 1.462500000000000e+00	-4.464949319210494e+01
1	 2.683955023165718e-01	 1.450375418406773e+00	 5.241535034456524e+01
1	 2.410360396623377e-01	 1.455172370398780e+00	 4.425836721704167e+01
1	 2.137562463248014e-01	 1.459429089455712e+00	 3.564376129297217e+01
1	 1.865703929359840e-01	 1.463152927234606e+00	 2.661625491404733e+01
1	 1.594922940320465e-01	 1.466351665918511e+00	 1.722060420050834e+01
1	 1.325352959154976e-01	 1.469033490202154e+00	 7.501433085816380e+00
1	 1.057122662924437e-01	 1.471206959185211e+00	-2.496924718262061e+00
1	 7.903558564773400e-02	 1.472880978287564e+00	-1.273057530800645e+01
1	 5.251714031369526e-02	 1.474064771295128e+00	-2.315620529808123e+01
1	 2.616831718169113e-02	 1.474767852638482e+00	-3.373121331705393e+01
1	 0.000000000000000e+00	 1.475000000000000e+00	-4.441383203508613e+01
1	 2.706700404719653e-01	 1.462666735514058e+00	 5.235969978966023e+01
1	 2.430787179644623e-01	 1.467504339641174e+00	 4.509436443798300e+01
1	 2.155677399374162e-01	 1.471797132588047e+00	 3.716879057341199e+01
1	 1.881514979604067e-01	 1.475552528313897e+00	 2.863257066625426e+01
1	 1.608439236419340e-01	 1.478778374952471e+00	 1.953582311229911e+01
1	 1.336584763887645e-01	 1.481482926560319e+00	 9.928985469506657e+00
1	 1.066081329553602e-01	 1.483674814771857e+00	-1.373845844664423e-01
1	 7.970537874593264e-02	 1.485363020476627e+00	-1.061279980393991e+01
1	 5.296220082443710e-02	 1.486556845628219e+00	-2.144702477192950e+01
1	 2.639008258131552e-02	 1.487265885287981e+00	-3.259024758262217e+01
1	 0.000000000000000e+00	 1.487500000000000e+00	-4.399324135318132e+01
1	 2.729445786273588e-01	 1.474958052621828e+00	 5.227670569044277e+01
1	 2.451213962665869e-01	 1.479836308883957e+00	 4.591037458119590e+01
1	 2.173792335500309e-01	 1.484165175720690e+00	 3.868438974304550e+01
1	 1.897326029848293e-01	 1.487952129393421e+00	 3.065313862812570e+01
1	 1.621955532518215e-01	 1.491205083986602e+00	 2.187202187186440e+01
1	 1.347816568620313e-01	 1.493932362918601e+00	 1.239720615677864e+01
1	 1.075039996182768e-01	 1.496142670358577e+00	 2.285384588169741e+00
1	 8.037517184413129e-02	 1.497845062665731e+00	-8.406454398862888e+00
1	 5.340726133517893e-02	 1.499048919961328e+00	-1.962124870245183e+01
1	 2.661184798093990e-02	 1.499763917937484e+00	-3.130207400931713e+01
1	 0.000000000000000e+00	 1.500000000000000e+00	-4.339234438450767e+01
1	 1.500000000000000e+00	 0.000000000000000e+00	 1.000945087952308e+02
1	 1.499763917937484e+00	 2.661184798093904e-02	 8.784783854939562e+01
1	 1.499048919961329e+00	 5.340726133517817e-02	 7.513227251493377e+01
1	 1.497845062665731e+00	 8.037517184413061e-02	 6.198771401166118e+01
1	 1.496142670358577e+00	 1.075039996182762e-01	 4.845667743398482e+01
1	 1.493932362918601e+00	 1.347816568620308e-01	 3.458425137966909e+01
1	 1.491205083986601e+00	 1.621955532518211e-01	 2.041804804236360e+01
1	 1.487952129393420e+00	 1.897326029848289e-01	 6.008138380690782e+00
1	 1.484165175720690e+00	 2.173792335500308e-01	-8.593027347995658e+00
1	 1.479836308883957e+00	 2.451213962665869e-01	-2.333071401666657e+01
1	 1.474958052621828e+00	 2.729445786273588e-01	-3.814801125472198e+01
1	 1.512500000000000e+00	 0.000000000000000e+00	 9.918614109339548e+01
1	 1.512261950586988e+00	 2.683361338056342e-02	 8.691606656762158e+01
1	 1.511540994294438e+00	 5.385232184592000e-02	 7.432373050879347e+01
1	 1.510327104854835e+00	 8.104496494232924e-02	 6.142529223850200e+01
1	 1.508610525945297e+00	 1.083998662811928e-01	 4.823815774480282e+01
1	 1.506381799276883e+00	 1.359048373352977e-01	 3.478097499490444e+01
1	 1.503631793020732e+00	 1.635471828617086e-01	 2.107362358693141e+01
1	 1.500351730472945e+00	 1.913137080092516e-01	 7.137198483650771e+00
1	 1.496533218853332e+00	 2.191907271626456e-01	-7.006012401842955e+00
1	 1.492168278126741e+00	 2.471640745687115e-01	-2.133255696742975e+01
1	 1.487249369729599e+00	 2.752191167827523e-01	-3.581785419421456e+01
1	 1.525000000000000e+00	 0.000000000000000e+00	 9.973264739706670e+01
1	 1.524759983236486e+00	 2.705537878018779e-02	 8.721310716814554e+01
1	 1.524033068627529e+00	 5.429738235666183e-02	 7.451466240337390e+01
1	 1.522809147043897e+00	 8.171475804052787e-02	 6.163000832775332e+01
1	 1.521078381531942e+00	 1.092957329441093e-01	 4.855173834580591e+01
1	 1.518831235635048e+00	 1.370280178085645e-01	 3.527237126991879e+01
1	 1.516058502054693e+00	 1.648988124715960e-01	 2.178438088291634e+01
1	 1.512751331552235e+00	 1.928948130336742e-01	 8.080227805348809e+00
1	 1.508901261985667e+00	 2.210022207752603e-01	-5.847606382685231e+00
1	 1.504500247369134e+00	 2.492067528708361e-01	-2.000658283715291e+01
1	 1.499540686836884e+00	 2.774936549381459e-01	-3.440406705785662e+01
1	 1.537500000000000e+00	 0.000000000000000e+00	 1.016985429744405e+02
1	 1.537258015885981e+00	 2.727714417981218e-02	 8.870898931240302e+01
1	 1.536525142960601e+00	 5.474244286740368e-02	 7.568069078648880e+01
1	 1.535291189232917e+00	 8.238455113872650e-02	 6.258315159987376e+01
1	 1.533546237118513e+00	 1.101915996070258e-01	 4.938444118117355e+01
1	 1.531280671993095e+00	 1.381511982818314e-01	 3.605125306671686e+01
1	 1.528485211088482e+00	 1.662504420814835e-01	 2.254897403400215e+01
1	 1.525150932631292e+00	 1.944759180580968e-01	 8.841763681983910e+00
1	 1.521269305117696e+00	 2.228137143878751e-01	-5.107355414175258e+00
1	 1.516832216611136e+00	 2.512494311729607e-01	-1.933639692041238e+01
1	 1.511832003943683e+00	 2.797681930935394e-01	-3.388429935961201e+01
1	 1.550000000000000e+00	 0.000000000000000e+00	 1.050494877624797e+02
1	 1.549756048535470e+00	 2.749890957943656e-02	 9.137470876952443e+01
1	 1.549017217293655e+00	 5.518750337814550e-02	 7.779822461408563e+01
1	 1.547773231421895e+00	 8.305434423692513e-02	 6.426661494562917e+01
1	 1.546014092705009e+00	 1.110874662699424e-01	 5.072370684204664e+01
1	 1.543730108351024e+00	 1.392743787550982e-01	 3.711066509046427e+01
1	 1.540911920122102e+00	 1.676020716913709e-01	 2.336610055988270e+01
1	 1.537550533710115e+00	 1.960570230825194e-01	 9.426197084071429e+00
1	 1.533637348249418e+00	 2.246252080004899e-01	-4.775142841782671e+00
1	 1.529164185852748e+00	 2.532921094750853e-01	-1.930613337324816e+01
1	 1.524123321049998e+00	 2.820427312489329e-01	-3.423692159686240e+01
1	 1.562500000000000e+00	 0.000000000000000e+00	 1.097522405801630e+02
1	 1.562254081184955e+00	 2.772067497906093e-02	 9.518218944402719e+01
1	 1.561509291626691e+00	 5.563256388888735e-02	 8.084442775552131e+01
1	 1.560255273610832e+00	 8.372413733512374e-02	 6.666287068328059e+01
1	 1.558481948291430e+00	 1.119833329328590e-01	 5.255737782064919e+01
1	 1.556179544708835e+00	 1.403975592283651e-01	 3.844387461576115e+01
1	 1.553338629155550e+00	 1.689537013012584e-01	 2.423449965962156e+01
1	 1.549950134788705e+00	 1.976381281069421e-01	 9.837778471070617e+00
1	 1.546005391380833e+00	 2.264367016131047e-01	-4.841175743921311e+00
1	 1.541496155093968e+00	 2.553347877772099e-01	-1.990043405870550e+01
1	 1.536414638155826e+00	 2.843172694043264e-01	-3.544099641107072e+01
1	 1.575000000000000e+00	 0.000000000000000e+00	 1.157746155220562e+02
1	 1.574752113834436e+00	 2.794244037868531e-02	 1.001042465450464e+02
1	 1.574001365959708e+00	 5.607762439962918e-02	 8.479718903668045e+01
1	 1.572737315799726e+00	 8.439393043332238e-02	 6.975494756542950e+01
1	 1.570949803877776e+00	 1.128791995957756e-01	 5.487368256183272e+01
1	 1.568628981066530e+00	 1.415207397016319e-01	 4.004436265452155e+01
1	 1.565765338188829e+00	 1.703053309111458e-01	 2.515295055770882e+01
1	 1.562349735867061e+00	 1.992192331313647e-01	 1.008062336721994e+01
1	 1.558373434511941e+00	 2.282481952257195e-01	-5.295972085403870e+00
1	 1.553828124334798e+00	 2.573774660793345e-01	-2.110442839973150e+01
1	 1.548705955261170e+00	 2.865918075597200e-01	-3.747625112174624e+01
1	 1.587500000000000e+00	 0.000000000000000e+00	 1.230854404120291e+02
1	 1.587250146483912e+00	 2.816420577830969e-02	 1.061145514956020e+02
1	 1.586493440292707e+00	 5.652268491037100e-02	 8.963509369837985e+01
1	 1.585219357988580e+00	 8.506372353152102e-02	 7.352640887215395e+01
1	 1.583417659464048e+00	 1.137750662586921e-01	 5.766122026809091e+01
1	 1.581078417424106e+00	 1.426439201748988e-01	 4.190581554111876e+01
1	 1.578192047221937e+00	 1.716569605210333e-01	 2.612027092825689e+01
1	 1.574749336945184e+00	 2.008003381557873e-01	 1.015871767394746e+01
1	 1.570741477642742e+00	 2.300596888383343e-01	-6.130348477819826e+00
1	 1.566160093575237e+00	 2.594201443814592e-01	-2.290371418390347e+01
1	 1.560997272366028e+00	 2.888663457151135e-01	-4.032305155801755e+01
1	 1.600000000000000e+00	 0.000000000000000e+00	 1.316545172044541e+02
1	 1.599748179133383e+00	 2.838597117793407e-02	 1.131875984867437e+02
1	 1.598985514625687e+00	 5.696774542111284e-02	 9.533739619266038e+01
1	 1.597701400177391e+00	 8.573351662971965e-02	 7.796133153102924e+01
1	 1.595885515050245e+00	 1.146709329216086e-01	 6.090894641683921e+01
1	 1.593527853781565e+00	 1.437671006481656e-01	 4.402211691197670e+01
1	 1.590618756254874e+00	 1.730085901309208e-01	 2.713531539306211e+01
1	 1.587148938023073e+00	 2.023814431802099e-01	 1.007592273326194e+01
1	 1.583109520773236e+00	 2.318711824509491e-01	-7.335408513645950e+00
1	 1.578492062815286e+00	 2.614628226835838e-01	-2.528433926793565e+01
1	 1.573288589470401e+00	 2.911408838705071e-01	-4.396237711685090e+01
1	 1.612500000000000e+00	 0.000000000000000e+00	 1.414525842272110e+02
1	 1.612246211782850e+00	 2.860773657755843e-02	 1.212986725873176e+02
1	 1.611477588958649e+00	 5.741280593185468e-02	 1.018839942443669e+02
1	 1.610183442366161e+00	 8.640330972791826e-02	 8.304428620831004e+01
1	 1.608353370636367e+00	 1.155667995845252e-01	 6.460615895130911e+01
1	 1.605977290138907e+00	 1.448902811214324e-01	 4.638734005820365e+01
1	 1.603045465287642e+00	 1.743602197408082e-01	 2.819697408952396e+01
1	 1.599548539100729e+00	 2.039625482046325e-01	 9.835980155636976e+00
1	 1.595477563903424e+00	 2.336826760635639e-01	-8.902531642955857e+00
1	 1.590824032054943e+00	 2.635055009857084e-01	-2.823278413313896e+01
1	 1.585579906574289e+00	 2.934154220259006e-01	-4.837579698135101e+01
1	 1.625000000000000e+00	 0.000000000000000e+00	 1.524512801673212e+02
1	 1.624744244432312e+00	 2.882950197718282e-02	 1.304238193255896e+02
1	 1.623969663291593e+00	 5.785786644259652e-02	 1.092554041098880e+02
1	 1.622665484554890e+00	 8.707310282611692e-02	 8.876031831898167e+01
1	 1.620821226222414e+00	 1.164626662474418e-01	 6.874248510878671e+01
1	 1.618426726496131e+00	 1.460134615946994e-01	 4.899574063118115e+01
1	 1.615472174320238e+00	 1.757118493506957e-01	 2.930417130466048e+01
1	 1.611948140178151e+00	 2.055436532290552e-01	 9.442516425070465e+00
1	 1.607845607033305e+00	 2.354941696761788e-01	-1.082336256351271e+01
1	 1.603156001294210e+00	 2.655481792878331e-01	-3.173594524601381e+01
1	 1.597871223677692e+00	 2.956899601812942e-01	-5.354544743667902e+01
1	 1.474958052621828e+00	 2.729445786273588e-01	-3.814801125472198e+01
1	 1.469523396769290e+00	 3.008338184785218e-01	-3.684895410680133e+01
1	 1.463525825188096e+00	 3.287737200529772e-01	-3.544446007395092e+01
1	 1.456959343223164e+00	 3.567484718715391e-01	-3.395973481909196e+01
1	 1.449818504550261e+00	 3.847418665163292e-01	-3.242100304566186e+01
1	 1.442098437276991e+00	 4.127373222644202e-01	-3.085544004686779e+01
1	 1.433794869157430e+00	 4.407179065634715e-01	-2.929109572845399e+01
1	 1.424904151779575e+00	 4.686663613186522e-01	-2.775681125365743e+01
1	 1.415423283584646e+00	 4.965651299484973e-01	-2.628212852530694e+01
1	 1.405349931578255e+00	 5.243963861554752e-01	-2.489719278773630e+01
1	 1.394682451595397e+00	 5.521420643450261e-01	-2.363264869960945e+01
1	 1.487249369729599e+00	 2.752191167827523e-01	-3.581785419421456e+01
1	 1.481769425078744e+00	 3.033407669662652e-01	-3.467807642641063e+01
1	 1.475721873734670e+00	 3.315135010540273e-01	-3.350303410009683e+01
1	 1.469100671086833e+00	 3.597213758045253e-01	-3.229942031813300e+01
1	 1.461900325424960e+00	 3.879480487380636e-01	-3.107420219497489e+01
1	 1.454115924257551e+00	 4.161767999506894e-01	-2.983460335233844e+01
1	 1.445743159736630e+00	 4.443905557854587e-01	-2.858808445955963e+01
1	 1.436778353046758e+00	 4.725719143300821e-01	-2.734232185532385e+01
1	 1.427218477616163e+00	 5.007031726982478e-01	-2.610518430444303e+01
1	 1.417061181008836e+00	 5.287663560399447e-01	-2.488470796074280e+01
1	 1.406304805358394e+00	 5.567432482139901e-01	-2.368906962470013e+01
1	 1.499540686836884e+00	 2.774936549381459e-01	-3.440406705785662e+01
1	 1.494015453387626e+00	 3.058477154540085e-01	-3.327784188886326e+01
1	 1.487917922280615e+00	 3.342532820550773e-01	-3.218511438500799e+01
1	 1.481241998949843e+00	 3.626942797375113e-01	-3.111429042696991e+01
1	 1.473982146299001e+00	 3.911542309597980e-01	-3.005331356188579e+01
1	 1.466133411237483e+00	 4.196162776369589e-01	-2.898969794407889e+01
1	 1.457691450315262e+00	 4.480632050074460e-01	-2.791056483560336e+01
1	 1.448652554313463e+00	 4.764774673415118e-01	-2.680268259220869e+01
1	 1.439013671647323e+00	 5.048412154479985e-01	-2.565251002852362e+01
1	 1.428772430439212e+00	 5.331363259244142e-01	-2.444624302378545e+01
1	 1.417927159121370e+00	 5.613444320829541e-01	-2.316986419665150e+01
1	 1.511832003943683e+00	 2.797681930935394e-01	-3.388429935961201e+01
1	 1.506261481695937e+00	 3.083546639417515e-01	-3.262945431989902e+01
1	 1.500113970825930e+00	 3.369930630561272e-01	-3.147549345893639e+01
1	 1.493383326812194e+00	 3.656671836704973e-01	-3.039275527706051e+01
1	 1.486063967172383e+00	 3.943604131815324e-01	-2.935038806790946e+01
1	 1.478150898216786e+00	 4.230557553232283e-01	-2.831643281509868e+01
1	 1.469639740893325e+00	 4.517358542294331e-01	-2.725791510913664e+01
1	 1.460526755579689e+00	 4.803830203529415e-01	-2.614094590002628e+01
1	 1.450808865678127e+00	 5.089792581977491e-01	-2.493083082083436e+01
1	 1.440483679869384e+00	 5.375062958088838e-01	-2.359218773564672e+01
1	 1.429549512884325e+00	 5.659456159519182e-01	-2.208907208263800e+01
1	 1.524123321049998e+00	 2.820427312489329e-01	-3.423692159686240e+01
1	 1.518507510003678e+00	 3.108616124294948e-01	-3.271472387345783e+01
1	 1.512310019370616e+00	 3.397328440571772e-01	-3.135945441567335e+01
1	 1.505524654673888e+00	 3.686400876034834e-01	-3.012359886658952e+01
1	 1.498145788045108e+00	 3.975665954032666e-01	-2.895773305644771e+01
1	 1.490168385195461e+00	 4.264952330094976e-01	-2.781065537798803e+01
1	 1.481588031470819e+00	 4.554085034514203e-01	-2.662953358908041e+01
1	 1.472400956845438e+00	 4.842885733643713e-01	-2.536006574882197e+01
1	 1.462604059708573e+00	 5.131173009474997e-01	-2.394665486519782e+01
1	 1.452194929299351e+00	 5.418762656933532e-01	-2.233259670159550e+01
1	 1.441171866647260e+00	 5.705467998208821e-01	-2.046028005733661e+01
1	 1.536414638155826e+00	 2.843172694043264e-01	-3.544099641107072e+01
1	 1.530753538310847e+00	 3.133685609172381e-01	-3.351604277855180e+01
1	 1.524506067914674e+00	 3.424726250582273e-01	-3.182275129000798e+01
1	 1.517665982534923e+00	 3.716129915364694e-01	-3.029596410579959e+01
1	 1.510227608917174e+00	 4.007727776250010e-01	-2.886790203591371e+01
1	 1.502185872173508e+00	 4.299347106957671e-01	-2.746834592813477e+01
1	 1.493536322047746e+00	 4.590811526734075e-01	-2.602483783847019e+01
1	 1.484275158110709e+00	 4.881941263758013e-01	-2.446290158159898e+01
1	 1.474399253738662e+00	 5.172553436972505e-01	-2.270628208355195e+01
1	 1.463906178729113e+00	 5.462462355778226e-01	-2.067720277952748e+01
1	 1.452794220410174e+00	 5.751479836898462e-01	-1.829664011862727e+01
1	 1.548705955261170e+00	 2.865918075597200e-01	-3.747625112174624e+01
1	 1.542999566617443e+00	 3.158755094049813e-01	-3.501636224104817e+01
1	 1.536702116458102e+00	 3.452124060592773e-01	-3.285159036959236e+01
1	 1.529807310395300e+00	 3.745858954694554e-01	-3.089933857444927e+01
1	 1.522309429788582e+00	 4.039789598467353e-01	-2.907368491127919e+01
1	 1.514203359150925e+00	 4.333741883820365e-01	-2.728561237059721e+01
1	 1.505484612624103e+00	 4.627538018953948e-01	-2.544326391040393e+01
1	 1.496149359375500e+00	 4.920996793872311e-01	-2.345222206539137e+01
1	 1.486194447768395e+00	 5.213933864470012e-01	-2.121581240031079e+01
1	 1.475617428158671e+00	 5.506162054622920e-01	-1.863542984771855e+01
1	 1.464416574173068e+00	 5.797491675588102e-01	-1.561088674064052e+01
1	 1.560997272366028e+00	 2.888663457151135e-01	-4.032305155801755e+01
1	 1.555245594923469e+00	 3.183824578927246e-01	-3.719917043670655e+01
1	 1.548898165000901e+00	 3.479521870603273e-01	-3.443261238971073e+01
1	 1.541948638255018e+00	 3.775587994024414e-01	-3.192354095214699e+01
1	 1.534391250659332e+00	 4.071851420684697e-01	-2.956809867712339e+01
1	 1.526220846127715e+00	 4.368136660683060e-01	-2.725868519610159e+01
1	 1.517432903199891e+00	 4.664264511173821e-01	-2.488426562008691e+01
1	 1.508023560639813e+00	 4.960052323986609e-01	-2.233070866512134e+01
1	 1.497989641797769e+00	 5.255314291967518e-01	-1.948115361628281e+01
1	 1.487328677588024e+00	 5.549861753467614e-01	-1.621640496937662e+01
1	 1.476038927935941e+00	 5.843503514277741e-01	-1.241535331170075e+01
1	 1.573288589470401e+00	 2.911408838705071e-01	-4.396237711685090e+01
1	 1.567491623228924e+00	 3.208894063804678e-01	-4.004847153579264e+01
1	 1.561094213543070e+00	 3.506919680613774e-01	-3.655287556266892e+01
1	 1.554089966114079e+00	 3.805317033354274e-01	-3.335870808476329e+01
1	 1.546473071529424e+00	 4.103913242902040e-01	-3.034437854694506e+01
1	 1.538238333103876e+00	 4.402531437545753e-01	-2.738391269253924e+01
1	 1.529381193775111e+00	 4.700991003393692e-01	-2.434731385099924e+01
1	 1.519897761903649e+00	 4.999107854100907e-01	-2.110095904993155e+01
1	 1.509784835826787e+00	 5.296694719465024e-01	-1.750802891349924e+01
1	 1.499039927017173e+00	 5.593561452312309e-01	-1.342896998698060e+01
1	 1.487661281698794e+00	 5.889515352967382e-01	-8.721987801740703e+00
1	 1.585579906574289e+00	 2.934154220259006e-01	-4.837579698135101e+01
1	 1.579737651533808e+00	 3.233963548682111e-01	-4.354876570329097e+01
1	 1.573290262084611e+00	 3.534317490624274e-01	-3.919983939651451e+01
1	 1.566231293972480e+00	 3.835046072684134e-01	-3.519528265240508e+01
1	 1.558554892398857e+00	 4.135975065119385e-01	-3.139596949506497e+01
1	 1.550255820079409e+00	 4.436926214408446e-01	-2.765775637918504e+01
1	 1.541329484349762e+00	 4.737717495613564e-01	-2.383189589333497e+01
1	 1.531771963167006e+00	 5.038163384215205e-01	-1.976549034108369e+01
1	 1.521580029855448e+00	 5.338075146962531e-01	-1.530198401098086e+01
1	 1.510751176446117e+00	 5.637261151157004e-01	-1.028169257734755e+01
1	 1.499283635461626e+00	 5.935527191657022e-01	-4.542367700999105e+00
1	 1.597871223677692e+00	 2.956899601812942e-01	-5.354544743667902e+01
1	 1.591983679838119e+00	 3.259033033559543e-01	-4.768503002218560e+01
1	 1.585486310625523e+00	 3.561715300634776e-01	-4.236134926058529e+01
1	 1.578372621830225e+00	 3.864775112013996e-01	-3.742400140656053e+01
1	 1.570636713267633e+00	 4.168036887336729e-01	-3.271651818890194e+01
1	 1.562273307054313e+00	 4.471320991271141e-01	-2.807678665164423e+01
1	 1.553277774923845e+00	 4.774443987833438e-01	-2.333751481297451e+01
1	 1.543646164429884e+00	 5.077218914329503e-01	-1.832674220995383e+01
1	 1.533375223883753e+00	 5.379455574460040e-01	-1.286839399023819e+01
1	 1.522462425874856e+00	 5.680960850001699e-01	-6.782876796465635e+00
1	 1.510905989224438e+00	 5.981539030346663e-01	 1.122857307602123e-01
1	 1.394682451595397e+00	 5.521420643450261e-01	-2.363264869960945e+01
1	 1.383419906984210e+00	 5.797838916139538e-01	-2.436222246957256e+01
1	 1.371562085578352e+00	 6.073034212204445e-01	-2.511652595883719e+01
1	 1.359109514832477e+00	 6.346820674319068e-01	-2.585857889373439e+01
1	 1.346063475001740e+00	 6.619011416355681e-01	-2.655063687186293e+01
1	 1.332426010254849e+00	 6.889418895898038e-01	-2.715433033020675e+01
1	 1.318199937618296e+00	 7.157855296803712e-01	-2.763081052477666e+01
1	 1.303388853659439e+00	 7.424132920367565e-01	-2.794090175885800e+01
1	 1.287997138826982e+00	 7.688064583548604e-01	-2.804525902100379e+01
1	 1.272029959379205e+00	 7.949464022641402e-01	-2.790453012391589e+01
1	 1.255493266842989e+00	 8.208146300702533e-01	-2.747952137238855e+01
1	 1.406304805358394e+00	 5.567432482139901e-01	-2.368906962470013e+01
1	 1.394948406207697e+00	 5.846154240430896e-01	-2.408741906693500e+01
1	 1.382991769622504e+00	 6.123642830626772e-01	-2.448414407215925e+01
1	 1.370435427452928e+00	 6.399710846590581e-01	-2.485700024659790e+01
1	 1.357280670622920e+00	 6.674169844810206e-01	-2.518330849564633e+01
1	 1.343529560335928e+00	 6.946830720015954e-01	-2.544003876377189e+01
1	 1.329184937093667e+00	 7.217504090930887e-01	-2.560389789785431e+01
1	 1.314250427434890e+00	 7.486000694693998e-01	-2.565142117330761e+01
1	 1.298730448312043e+00	 7.752131788405625e-01	-2.555906697728581e+01
1	 1.282630209035559e+00	 8.015709556162806e-01	-2.530331410184365e+01
1	 1.265955710728375e+00	 8.276547519880928e-01	-2.486076106273046e+01
1	 1.417927159121370e+00	 5.613444320829541e-01	-2.316986419665150e+01
1	 1.406476905431348e+00	 5.894469564722256e-01	-2.333910276903972e+01
1	 1.394421453666978e+00	 6.174251449049096e-01	-2.348080518129877e+01
1	 1.381761340073830e+00	 6.452601018862087e-01	-2.358728057689567e+01
1	 1.368497866244649e+00	 6.729328273264731e-01	-2.365072898249321e+01
1	 1.354633110417626e+00	 7.004242544133872e-01	-2.366327038669181e+01
1	 1.340169936569694e+00	 7.277152885058061e-01	-2.361697508360394e+01
1	 1.325112001211006e+00	 7.547868469020427e-01	-2.350389511997773e+01
1	 1.309463757797747e+00	 7.816198993262644e-01	-2.331609667015922e+01
1	 1.293230458692502e+00	 8.081955089684213e-01	-2.304569315003167e+01
1	 1.276418154614268e+00	 8.344948739059324e-01	-2.268487886940967e+01
1	 1.429549512884325e+00	 5.659456159519182e-01	-2.208907208263800e+01
1	 1.418005404655163e+00	 5.942784889013609e-01	-2.212882267093627e+01
1	 1.405851137711774e+00	 6.224860067471424e-01	-2.211555701811550e+01
1	 1.393087252695183e+00	 6.505491191133597e-01	-2.205595990961689e+01
1	 1.379715061866928e+00	 6.784486701719254e-01	-2.195692884797877e+01
1	 1.365736660499942e+00	 7.061654368251790e-01	-2.182554902364394e+01
1	 1.351154936046379e+00	 7.336801679185235e-01	-2.166906672075319e+01
1	 1.335973574987789e+00	 7.609736243346858e-01	-2.149486129320176e+01
1	 1.320197067284093e+00	 7.880266198119669e-01	-2.131041586213026e+01
1	 1.303830708350034e+00	 8.148200623205618e-01	-2.112328690088678e+01
1	 1.286880598500666e+00	 8.413349958237717e-01	-2.094107288711883e+01
1	 1.441171866647260e+00	 5.705467998208821e-01	-2.046028005733661e+01
1	 1.429533903879145e+00	 5.991100213304970e-01	-2.046775531621500e+01
1	 1.417280821756893e+00	 6.275468685893746e-01	-2.039715545214704e+01
1	 1.404413165316985e+00	 6.558381363405106e-01	-2.026936730120040e+01
1	 1.390932257489756e+00	 6.839645130173780e-01	-2.010580859104552e+01
1	 1.376840210582875e+00	 7.119066192369704e-01	-1.992834934367037e+01
1	 1.362139935523721e+00	 7.396450473312408e-01	-1.975922891129693e+01
1	 1.346835148765235e+00	 7.671604017673291e-01	-1.962096907459279e+01
1	 1.330930376771083e+00	 7.944333402976689e-01	-1.953628367820427e+01
1	 1.314430958008157e+00	 8.214446156727025e-01	-1.952798532125243e+01
1	 1.297343042387568e+00	 8.481751177416111e-01	-1.961888965910502e+01
1	 1.452794220410174e+00	 5.751479836898462e-01	-1.829664011862727e+01
1	 1.441062403103291e+00	 6.039415537596327e-01	-1.836671959906582e+01
1	 1.428710505802334e+00	 6.326077304316072e-01	-1.833407616510182e+01
1	 1.415739077939239e+00	 6.611271535676618e-01	-1.823362927827629e+01
1	 1.402149453113134e+00	 6.894803558628307e-01	-1.810114389466871e+01
1	 1.387943760666427e+00	 7.176478016487620e-01	-1.797309882640378e+01
1	 1.373124935001719e+00	 7.456099267439583e-01	-1.788654796196608e+01
1	 1.357696722543348e+00	 7.733471791999721e-01	-1.787897506555235e+01
1	 1.341663686258716e+00	 8.008400607833710e-01	-1.798814295138598e+01
1	 1.325031207666869e+00	 8.280691690248431e-01	-1.825193789903126e+01
1	 1.307805486274977e+00	 8.550152396594507e-01	-1.870821023922799e+01
1	 1.464416574173068e+00	 5.797491675588102e-01	-1.561088674064052e+01
1	 1.452590902327603e+00	 6.087730861887682e-01	-1.583619095671482e+01
1	 1.440140189848097e+00	 6.376685922738400e-01	-1.593452576942407e+01
1	 1.427064990561943e+00	 6.664161707948125e-01	-1.595467787456372e+01
1	 1.413366648737060e+00	 6.949961987082831e-01	-1.594659057887073e+01
1	 1.399047310750597e+00	 7.233889840605537e-01	-1.596117963466258e+01
1	 1.384109934480375e+00	 7.515748061566756e-01	-1.605013918562733e+01
1	 1.368558296322125e+00	 7.795339566326149e-01	-1.626573883251697e+01
1	 1.352396995746991e+00	 8.072467812690729e-01	-1.666061293267939e+01
1	 1.335631457326171e+00	 8.346937223769836e-01	-1.728754334473068e+01
1	 1.318267930162891e+00	 8.618553615772905e-01	-1.819923691772942e+01
1	 1.476038927935941e+00	 5.843503514277741e-01	-1.241535331170075e+01
1	 1.464119401552080e+00	 6.136046186179041e-01	-1.288631489135225e+01
1	 1.451569873894183e+00	 6.427294541160723e-01	-1.320645240157179e+01
1	 1.438390903185097e+00	 6.717051880219633e-01	-1.343825828807184e+01
1	 1.424583844361535e+00	 7.005120415537357e-01	-1.364568931973533e+01
1	 1.410150860835385e+00	 7.291301664723454e-01	-1.389393039857773e+01
1	 1.395094933959687e+00	 7.575396855693931e-01	-1.424914575930930e+01
1	 1.379419870101568e+00	 7.857207340652584e-01	-1.477821885321645e+01
1	 1.363130305235910e+00	 8.136535017547750e-01	-1.554848234549754e+01
1	 1.346231706986062e+00	 8.413182757291240e-01	-1.662743977954932e+01
1	 1.328730374051309e+00	 8.686954834951300e-01	-1.808248057413150e+01
1	 1.487661281698794e+00	 5.889515352967382e-01	-8.721987801740703e+00
1	 1.475647900776722e+00	 6.184361510470401e-01	-9.526919858220047e+00
1	 1.462999557940591e+00	 6.477903159583051e-01	-1.015755581873561e+01
1	 1.449716815808702e+00	 6.769942052491146e-01	-1.068993617936996e+01
1	 1.435801039986560e+00	 7.060278843991882e-01	-1.120187014721743e+01
1	 1.421254410920791e+00	 7.348713488841370e-01	-1.177264791608850e+01
1	 1.406079933439656e+00	 7.635045649821103e-01	-1.248273763575816e+01
1	 1.390281443881676e+00	 7.919075114979012e-01	-1.341346865295163e+01
1	 1.373863614725471e+00	 8.200602222404771e-01	-1.464670276564622e+01
1	 1.356831956646543e+00	 8.479428290812646e-01	-1.626449538339654e+01
1	 1.339192817940233e+00	 8.755356054129694e-01	-1.834874862296818e+01
1	 1.499283635461626e+00	 5.935527191657022e-01	-4.542367700999105e+00
1	 1.487176400001530e+00	 6.232676834761757e-01	-5.767529554253382e+00
1	 1.474429241987322e+00	 6.528511778005376e-01	-6.795297025941498e+00
1	 1.461042728432757e+00	 6.822832224762654e-01	-7.715104630403082e+00
1	 1.447018235612134e+00	 7.115437272446408e-01	-8.618456733753195e+00
1	 1.432357961006815e+00	 7.406125312959287e-01	-9.598588774344901e+00
1	 1.417064932920283e+00	 7.694694443948278e-01	-1.075011050561990e+01
1	 1.401143017662449e+00	 7.980942889305445e-01	-1.216863312058016e+01
1	 1.384596924215675e+00	 8.264669427261790e-01	-1.395038230921591e+01
1	 1.367432206307614e+00	 8.545673824334052e-01	-1.619179947788873e+01
1	 1.349655261829663e+00	 8.823757273308089e-01	-1.898913352018034e+01
1	 1.510905989224438e+00	 5.981539030346663e-01	 1.122857307602123e-01
1	 1.498704899226502e+00	 6.280992159053116e-01	-1.617374639554131e+00
1	 1.485858926034374e+00	 6.579120396427700e-01	-3.126907458827207e+00
1	 1.472368641057263e+00	 6.875722397034166e-01	-4.518990782131285e+00
1	 1.458235431238258e+00	 7.170595700900936e-01	-5.898670484933362e+00
1	 1.443461511093458e+00	 7.463537137077204e-01	-7.372970896276581e+00
1	 1.428049932401566e+00	 7.754343238075454e-01	-9.050484807520599e+00
1	 1.412004591443889e+00	 8.042810663631879e-01	-1.104094499453310e+01
1	 1.395330233706523e+00	 8.328736632118814e-01	-1.345477961180150e+01
1	 1.378032455969274e+00	 8.611919357855460e-01	-1.640265402089914e+01
1	 1.360117705719598e+00	 8.892158492486488e-01	-1.999500179998480e+01
1	 1.255493266842989e+00	 8.208146300702533e-01	-2.747952137238855e+01
1	 1.238393794960052e+00	 8.463928216988620e-01	-2.635926605613538e+01
1	 1.220739054091186e+00	 8.716628716590645e-01	-2.510410180364543e+01
1	 1.202537323063470e+00	 8.966069298445739e-01	-2.373539051959152e+01
1	 1.183797638460694e+00	 9.212074419883817e-01	-2.227499478040136e+01
1	 1.164529781372711e+00	 9.454471895829715e-01	-2.074519065895323e+01
1	 1.144744261634678e+00	 9.693093290812137e-01	-1.916857750747259e+01
1	 1.124452299602615e+00	 9.927774301945512e-01	-1.756798527026321e+01
1	 1.103665805527006e+00	 1.015835513108607e+00	-1.596637992504568e+01
1	 1.082397356601088e+00	 1.038468084441313e+00	-1.438676767298392e+01
1	 1.060660171775000e+00	 1.060660171775000e+00	-1.285209851263897e+01
1	 1.265955710728375e+00	 8.276547519880928e-01	-2.486076106273046e+01
1	 1.248713743246684e+00	 8.534460952142418e-01	-2.406733746358655e+01
1	 1.230911879537568e+00	 8.789267289246001e-01	-2.313079597849120e+01
1	 1.212558467418335e+00	 9.040786542619943e-01	-2.205970926516230e+01
1	 1.193662618777638e+00	 9.288841706738568e-01	-2.086313826696853e+01
1	 1.174234196214413e+00	 9.533259161651070e-01	-1.955059949587518e+01
1	 1.154283797145776e+00	 9.773869068257236e-01	-1.813202963051489e+01
1	 1.133822735430714e+00	 1.001050575448077e+00	-1.661774763538595e+01
1	 1.112863020571797e+00	 1.024300809052669e+00	-1.501841463006806e+01
1	 1.091417334572207e+00	 1.047121985145915e+00	-1.334499175816276e+01
1	 1.069499006540000e+00	 1.069499006540000e+00	-1.160869632413231e+01
1	 1.276418154614268e+00	 8.344948739059324e-01	-2.268487886940967e+01
1	 1.259033691533726e+00	 8.604993687296211e-01	-2.213626431345898e+01
1	 1.241084704984276e+00	 8.861905861901355e-01	-2.143660153973749e+01
1	 1.222579611773449e+00	 9.115503786794145e-01	-2.058183160797546e+01
1	 1.203527599094765e+00	 9.365608993593316e-01	-1.956837161733100e+01
1	 1.183938611056242e+00	 9.612046427472428e-01	-1.839313588635991e+01
1	 1.163823332656955e+00	 9.854644845702333e-01	-1.705355480125603e+01
1	 1.143193171258858e+00	 1.009323720701601e+00	-1.554759117625685e+01
1	 1.122060235616609e+00	 1.032766104996730e+00	-1.387375398877900e+01
1	 1.100437312543332e+00	 1.055775885850517e+00	-1.203110937218846e+01
1	 1.078337841305000e+00	 1.078337841305000e+00	-1.001928877085176e+01
1	 1.286880598500666e+00	 8.413349958237717e-01	-2.094107288711883e+01
1	 1.269353639821178e+00	 8.675526422450008e-01	-2.055724525348381e+01
1	 1.251257530431308e+00	 8.934544434556709e-01	-2.001471089259038e+01
1	 1.232600756128812e+00	 9.190221030968349e-01	-1.929693307005181e+01
1	 1.213392579412076e+00	 9.442376280448065e-01	-1.838783898115724e+01
1	 1.193643025898199e+00	 9.690833693293788e-01	-1.727189428032409e+01
1	 1.173362868168216e+00	 9.935420623147427e-01	-1.593417562828837e+01
1	 1.152563607087049e+00	 1.017596865955126e+00	-1.436044074224095e+01
1	 1.131257450661441e+00	 1.041231400940791e+00	-1.253719544863453e+01
1	 1.109457290514461e+00	 1.064429786555119e+00	-1.045175725823497e+01
1	 1.087176676070000e+00	 1.087176676070000e+00	-8.092315007999936e+00
1	 1.297343042387568e+00	 8.481751177416111e-01	-1.961888965910502e+01
1	 1.279673588109040e+00	 8.746059157603802e-01	-1.932176284597869e+01
1	 1.261430355878664e+00	 9.007183007212065e-01	-1.885853604208568e+01
1	 1.242621900484424e+00	 9.264938275142550e-01	-1.820034480173297e+01
1	 1.223257559729569e+00	 9.519143567302811e-01	-1.731877663231890e+01
1	 1.203347440740282e+00	 9.769620959115145e-01	-1.618599833897749e+01
1	 1.182902403679558e+00	 1.001619640059252e+00	-1.477488173283049e+01
1	 1.161934042915285e+00	 1.025870011208651e+00	-1.305912683272480e+01
1	 1.140454665706294e+00	 1.049696696884853e+00	-1.101338170072201e+01
1	 1.118477268485596e+00	 1.073083687259721e+00	-8.613358070988111e+00
1	 1.096015510835000e+00	 1.096015510835000e+00	-5.835941959967851e+00
1	 1.307805486274977e+00	 8.550152396594507e-01	-1.870821023922799e+01
1	 1.289993536397313e+00	 8.816591892757599e-01	-1.842157221126420e+01
1	 1.271603181326345e+00	 9.079821579867418e-01	-1.796169980909611e+01
1	 1.252643044840285e+00	 9.339655519316756e-01	-1.728754735654801e+01
1	 1.233122540047246e+00	 9.595910854157564e-01	-1.635850928392307e+01
1	 1.213051855582494e+00	 9.848408224936503e-01	-1.513459976637049e+01
1	 1.192441939190983e+00	 1.009697217803762e+00	-1.357663106822241e+01
1	 1.171304478743568e+00	 1.034143156462176e+00	-1.164638937111493e+01
1	 1.149651880751167e+00	 1.058161992828914e+00	-9.306806870014755e+00
1	 1.127497246456736e+00	 1.081737587964323e+00	-6.522128940184563e+00
1	 1.104854345600000e+00	 1.104854345600000e+00	-3.258075209567045e+00
1	 1.318267930162891e+00	 8.618553615772905e-01	-1.819923691772942e+01
1	 1.300313484685995e+00	 8.887124627911391e-01	-1.784869021187010e+01
1	 1.281776006774351e+00	 9.152460152522772e-01	-1.731802746462328e+01
1	 1.262664189196394e+00	 9.414372763490958e-01	-1.655416476251591e+01
1	 1.242987520365106e+00	 9.672678141012309e-01	-1.550444657881870e+01
1	 1.222756270424832e+00	 9.927195490757862e-01	-1.411687719658363e+01
1	 1.201981474702488e+00	 1.017774795548272e+00	-1.234035117658676e+01
1	 1.180674914571895e+00	 1.042416301715701e+00	-1.012488129912312e+01
1	 1.158849095796060e+00	 1.066627288772976e+00	-7.421822410853171e+00
1	 1.136517224427881e+00	 1.090391488668925e+00	-4.184089626364115e+00
1	 1.113693180365000e+00	 1.113693180365000e+00	-3.663693687270495e-01
1	 1.328730374051309e+00	 8.686954834951300e-01	-1.808248057413150e+01
1	 1.310633432975088e+00	 8.957657363065190e-01	-1.759538514772441e+01
1	 1.291948832222681e+00	 9.225098725178128e-01	-1.692153875932038e+01
1	 1.272685333552753e+00	 9.489090007665163e-01	-1.599595887354326e+01
1	 1.252852500683149e+00	 9.749445427867061e-01	-1.475407974590605e+01
1	 1.232460685267298e+00	 1.000598275657922e+00	-1.313203513348996e+01
1	 1.211521010214075e+00	 1.025852373292782e+00	-1.106694038612201e+01
1	 1.190045350400269e+00	 1.050689446969226e+00	-8.497172001242447e+00
1	 1.168046310840973e+00	 1.075092584717037e+00	-5.362642723898368e+00
1	 1.145537202399030e+00	 1.099045389373528e+00	-1.605070291310731e+00
1	 1.122532015130000e+00	 1.122532015130000e+00	 2.831762040760926e+00
1	 1.339192817940233e+00	 8.755356054129694e-01	-1.834874862296818e+01
1	 1.320953381264590e+00	 9.028190098218986e-01	-1.765416693437992e+01
1	 1.302121657671336e+00	 9.297737297833478e-01	-1.676644032663091e+01
1	 1.282706477909361e+00	 9.563807251839367e-01	-1.560882398560105e+01
1	 1.262717481001375e+00	 9.826212714721810e-01	-1.410497841318146e+01
1	 1.242165100109891e+00	 1.008477002240058e+00	-1.217930294021615e+01
1	 1.221060545725744e+00	 1.033929951037291e+00	-9.757268952270000e+00
1	 1.199415786228689e+00	 1.058962592222751e+00	-6.765750568701046e+00
1	 1.177243525885908e+00	 1.083557880661099e+00	-3.133350509791526e+00
1	 1.154557180370186e+00	 1.107699290078130e+00	 1.209281095746852e+00
1	 1.131370849895000e+00	 1.131370849895000e+00	 6.329137169660854e+00
1	 1.349655261829663e+00	 8.823757273308089e-01	-1.898913352018034e+01
1	 1.331273329554503e+00	 9.098722833372782e-01	-1.801777773806745e+01
1	 1.312294483120316e+00	 9.370375870488835e-01	-1.684711843926951e+01
1	 1.292727622266217e+00	 9.638524496013569e-01	-1.538878170331102e+01
1	 1.272582461319784e+00	 9.902980001576561e-01	-1.355478756901288e+01
1	 1.251869514952611e+00	 1.016355728822194e+00	-1.125793387560589e+01
1	 1.230600081237495e+00	 1.042007528781801e+00	-8.412180145808207e+00
1	 1.208786222057155e+00	 1.067235737476276e+00	-4.933028911604604e+00
1	 1.186440740930863e+00	 1.092023176605160e+00	-7.379018738058282e-01
1	 1.163577158341345e+00	 1.116353190782732e+00	 4.253491696407872e+00
1	 1.140209684660000e+00	 1.140209684660000e+00	 1.011879686173540e+01
1	 1.360117705719598e+00	 8.892158492486488e-01	-1.999500179998480e+01
1	 1.341593277844827e+00	 9.169255568526578e-01	-1.867918304297778e+01
1	 1.322467308569620e+00	 9.443014443144191e-01	-1.715813210001978e+01
1	 1.302748766623323e+00	 9.713241740187775e-01	-1.533197604345929e+01
1	 1.282447441638377e+00	 9.979747288431313e-01	-1.310122466366380e+01
1	 1.261573929795459e+00	 1.024234455404330e+00	-1.036720417515351e+01
1	 1.240139616749326e+00	 1.050085106526311e+00	-7.032491290721142e+00
1	 1.218156657885667e+00	 1.075508882729801e+00	-3.001344727440032e+00
1	 1.195637955975838e+00	 1.100488472549222e+00	 1.819868805100778e+00
1	 1.172597136312511e+00	 1.125007091487334e+00	 7.522257067298272e+00
1	 1.149048519425000e+00	 1.149048519425000e+00	 1.419399608863041e+01
1	 1.060660171775000e+00	 1.060660171775000e+00	-1.285209851263897e+01
1	 1.038468084441312e+00	 1.082397356601088e+00	-9.695273323216790e+00
1	 1.015835513108607e+00	 1.103665805527006e+00	-6.547066185805530e+00
1	 9.927774301945514e-01	 1.124452299602615e+00	-3.393953569676170e+00
1	 9.693093290812139e-01	 1.144744261634678e+00	-2.225499116722528e-01
1	 9.454471895829717e-01	 1.164529781372711e+00	 2.980331464080371e+00
1	 9.212074419883821e-01	 1.183797638460694e+00	 6.227618875031391e+00
1	 8.966069298445744e-01	 1.202537323063470e+00	 9.531924656855081e+00
1	 8.716628716590653e-01	 1.220739054091185e+00	 1.290548976814736e+01
1	 8.463928216988629e-01	 1.238393794960052e+00	 1.636013098073348e+01
1	 8.208146300702533e-01	 1.255493266842989e+00	 1.990719098704712e+01
1	 1.069499006540000e+00	 1.069499006540000e+00	-1.160869632413231e+01
1	 1.047121985145914e+00	 1.091417334572208e+00	-8.039625642420624e+00
1	 1.024300809052668e+00	 1.112863020571797e+00	-4.519168141382190e+00
1	 1.001050575448077e+00	 1.133822735430714e+00	-1.044746200436732e+00
1	 9.773869068257237e-01	 1.154283797145776e+00	 2.386331072641930e+00
1	 9.533259161651076e-01	 1.174234196214413e+00	 5.776851266088369e+00
1	 9.288841706738570e-01	 1.193662618777638e+00	 9.129681729210558e+00
1	 9.040786542619949e-01	 1.212558467418335e+00	 1.244775240400020e+01
1	 8.789267289246008e-01	 1.230911879537568e+00	 1.573403854973211e+01
1	 8.534460952142426e-01	 1.248713743246684e+00	 1.899154348624246e+01
1	 8.276547519880928e-01	 1.265955710728375e+00	 2.222328147952465e+01
1	 1.078337841305000e+00	 1.078337841305000e+00	-1.001928877085176e+01
1	 1.055775885850517e+00	 1.100437312543332e+00	-6.107957901725072e+00
1	 1.032766104996730e+00	 1.122060235616609e+00	-2.284328942356097e+00
1	 1.009323720701601e+00	 1.143193171258858e+00	 1.443362113083562e+00
1	 9.854644845702336e-01	 1.163823332656955e+00	 5.067240849409354e+00
1	 9.612046427472433e-01	 1.183938611056242e+00	 8.579821747050767e+00
1	 9.365608993593318e-01	 1.203527599094765e+00	 1.197403334976590e+01
1	 9.115503786794150e-01	 1.222579611773449e+00	 1.524324113852110e+01
1	 8.861905861901361e-01	 1.241084704984275e+00	 1.838126798658389e+01
1	 8.604993687296220e-01	 1.259033691533725e+00	 2.138241209187127e+01
1	 8.344948739059326e-01	 1.276418154614268e+00	 2.424146230434832e+01
1	 1.087176676070000e+00	 1.087176676070000e+00	-8.092315007999936e+00
1	 1.064429786555119e+00	 1.109457290514461e+00	-3.907002297691569e+00
1	 1.041231400940791e+00	 1.131257450661441e+00	 1.524040660472208e-01
1	 1.017596865955126e+00	 1.152563607087049e+00	 4.066983542972372e+00
1	 9.935420623147430e-01	 1.173362868168216e+00	 7.818422618801196e+00
1	 9.690833693293790e-01	 1.193643025898198e+00	 1.138908557331462e+01
1	 9.442376280448070e-01	 1.213392579412075e+00	 1.476208132773742e+01
1	 9.190221030968353e-01	 1.232600756128811e+00	 1.792132595826111e+01
1	 8.934544434556715e-01	 1.251257530431307e+00	 2.085160050172317e+01
1	 8.675526422450017e-01	 1.269353639821178e+00	 2.353860372199335e+01
1	 8.413349958237718e-01	 1.286880598500666e+00	 2.596899955097167e+01
1	 1.096015510835000e+00	 1.096015510835000e+00	-5.835941959967851e+00
1	 1.073083687259721e+00	 1.118477268485596e+00	-1.443273859251585e+00
1	 1.049696696884853e+00	 1.140454665706294e+00	 2.786146356188805e+00
1	 1.025870011208651e+00	 1.161934042915285e+00	 6.822839546087559e+00
1	 1.001619640059253e+00	 1.182902403679558e+00	 1.063817625195068e+01
1	 9.769620959115149e-01	 1.203347440740282e+00	 1.420449048650535e+01
1	 9.519143567302818e-01	 1.223257559729569e+00	 1.749518784800178e+01
1	 9.264938275142555e-01	 1.242621900484423e+00	 2.048484728048934e+01
1	 9.007183007212070e-01	 1.261430355878663e+00	 2.314931585936445e+01
1	 8.746059157603812e-01	 1.279673588109040e+00	 2.546579604535872e+01
1	 8.481751177416113e-01	 1.297343042387569e+00	 2.741292491886907e+01
1	 1.104854345600000e+00	 1.104854345600000e+00	-3.258075209567045e+00
1	 1.081737587964323e+00	 1.127497246456736e+00	 1.276920865588383e+00
1	 1.058161992828914e+00	 1.149651880751166e+00	 5.612169705313449e+00
1	 1.034143156462176e+00	 1.171304478743567e+00	 9.707756492667464e+00
1	 1.009697217803762e+00	 1.192441939190982e+00	 1.352485602411359e+01
1	 9.848408224936508e-01	 1.213051855582493e+00	 1.702588910051696e+01
1	 9.595910854157568e-01	 1.233122540047245e+00	 2.017467150552103e+01
1	 9.339655519316761e-01	 1.252643044840284e+00	 2.293655462912284e+01
1	 9.079821579867426e-01	 1.271603181326344e+00	 2.527855687126855e+01
1	 8.816591892757606e-01	 1.289993536397312e+00	 2.716948504531931e+01
1	 8.550152396594509e-01	 1.307805486274977e+00	 2.858004509313333e+01
1	 1.113693180365000e+00	 1.113693180365000e+00	-3.663693687270495e-01
1	 1.090391488668925e+00	 1.136517224427881e+00	 4.247475536693563e+00
1	 1.066627288772976e+00	 1.158849095796060e+00	 8.625895992974732e+00
1	 1.042416301715701e+00	 1.180674914571895e+00	 1.271866150310017e+01
1	 1.017774795548272e+00	 1.201981474702488e+00	 1.647686845577615e+01
1	 9.927195490757867e-01	 1.222756270424832e+00	 1.985313870816716e+01
1	 9.672678141012316e-01	 1.242987520365105e+00	 2.280180903509944e+01
1	 9.414372763490964e-01	 1.262664189196394e+00	 2.527911024160590e+01
1	 9.152460152522779e-01	 1.281776006774350e+00	 2.724333483136452e+01
1	 8.887124627911401e-01	 1.300313484685995e+00	 2.865499222956712e+01
1	 8.618553615772904e-01	 1.318267930162891e+00	 2.947695067361918e+01
1	 1.122532015130000e+00	 1.122532015130000e+00	 2.831762040760926e+00
1	 1.099045389373527e+00	 1.145537202399030e+00	 7.462476139602032e+00
1	 1.075092584717037e+00	 1.168046310840974e+00	 1.182289129149500e+01
1	 1.050689446969226e+00	 1.190045350400269e+00	 1.585257848138354e+01
1	 1.025852373292782e+00	 1.211521010214075e+00	 1.949267025575466e+01
1	 1.000598275657922e+00	 1.232460685267297e+00	 2.268610109698792e+01
1	 9.749445427867065e-01	 1.252852500683148e+00	 2.537783695942186e+01
1	 9.489090007665166e-01	 1.272685333552752e+00	 2.751509250538554e+01
1	 9.225098725178134e-01	 1.291948832222681e+00	 2.904753469361553e+01
1	 8.957657363065197e-01	 1.310633432975087e+00	 2.992747149925471e+01
1	 8.686954834951300e-01	 1.328730374051309e+00	 3.011002468223492e+01
1	 1.131370849895000e+00	 1.131370849895000e+00	 6.329137169660854e+00
1	 1.107699290078130e+00	 1.154557180370186e+00	 1.091619347280303e+01
1	 1.083557880661099e+00	 1.177243525885908e+00	 1.519886023343607e+01
1	 1.058962592222751e+00	 1.199415786228689e+00	 1.910662433451428e+01
1	 1.033929951037292e+00	 1.221060545725744e+00	 2.257076636071518e+01
1	 1.008477002240058e+00	 1.242165100109890e+00	 2.552464237365092e+01
1	 9.826212714721815e-01	 1.262717481001375e+00	 2.790395315984003e+01
1	 9.563807251839371e-01	 1.282706477909361e+00	 2.964699923330179e+01
1	 9.297737297833488e-01	 1.302121657671336e+00	 3.069492000717562e+01
1	 9.028190098218994e-01	 1.320953381264590e+00	 3.099191569612419e+01
1	 8.755356054129694e-01	 1.339192817940233e+00	 3.048545067145650e+01
1	 1.140209684660000e+00	 1.140209684660000e+00	 1.011879686173540e+01
1	 1.116353190782732e+00	 1.163577158341346e+00	 1.460307598444366e+01
1	 1.092023176605160e+00	 1.186440740930862e+00	 1.874964064104672e+01
1	 1.067235737476276e+00	 1.208786222057155e+00	 2.247800536772158e+01
1	 1.042007528781801e+00	 1.230600081237494e+00	 2.570970806587552e+01
1	 1.016355728822194e+00	 1.251869514952611e+00	 2.836863279655907e+01
1	 9.902980001576563e-01	 1.272582461319784e+00	 3.038131837409816e+01
1	 9.638524496013575e-01	 1.292727622266217e+00	 3.167725078663424e+01
1	 9.370375870488843e-01	 1.312294483120315e+00	 3.218913762200067e+01
1	 9.098722833372790e-01	 1.331273329554503e+00	 3.185316284512205e+01
1	 8.823757273308089e-01	 1.349655261829663e+00	 3.060922045570049e+01
1	 1.149048519425000e+00	 1.149048519425000e+00	 1.419399608863041e+01
1	 1.125007091487334e+00	 1.172597136312511e+00	 1.851774293965091e+01
1	 1.100488472549222e+00	 1.195637955975838e+00	 2.247119840358314e+01
1	 1.075508882729801e+00	 1.218156657885667e+00	 2.596401384607332e+01
1	 1.050085106526311e+00	 1.240139616749326e+00	 2.890809124198582e+01
1	 1.024234455404330e+00	 1.261573929795459e+00	 3.121794661616443e+01
1	 9.979747288431317e-01	 1.282447441638376e+00	 3.281105762493246e+01
1	 9.713241740187781e-01	 1.302748766623323e+00	 3.360819305400897e+01
1	 9.443014443144199e-01	 1.322467308569620e+00	 3.353372217727993e+01
1	 9.169255568526588e-01	 1.341593277844826e+00	 3.251590210889002e+01
1	 8.892158492486486e-01	 1.360117705719598e+00	 3.048714148586499e+01
1	 8.208146300702533e-01	 1.255493266842989e+00	 1.990719098704712e+01
1	 7.949464022641402e-01	 1.272029959379205e+00	 2.300411630861610e+01
1	 7.688064583548604e-01	 1.287997138826982e+00	 2.478618254700491e+01
1	 7.424132920367567e-01	 1.303388853659439e+00	 2.521667328482240e+01
1	 7.157855296803717e-01	 1.318199937618296e+00	 2.426446637692818e+01
1	 6.889418895898042e-01	 1.332426010254849e+00	 2.190406660142600e+01
1	 6.619011416355685e-01	 1.346063475001740e+00	 1.811560841911070e+01
1	 6.346820674319077e-01	 1.359109514832477e+00	 1.288482952146664e+01
1	 6.073034212204453e-01	 1.371562085578352e+00	 6.203016065689393e+00
1	 5.797838916139548e-01	 1.383419906984210e+00	-1.933079301963220e+00
1	 5.521420643450261e-01	 1.394682451595397e+00	-1.152134534777102e+01
1	 8.276547519880928e-01	 1.265955710728375e+00	 2.222328147952465e+01
1	 8.015709556162803e-01	 1.282630209035559e+00	 2.463993508115270e+01
1	 7.752131788405626e-01	 1.298730448312043e+00	 2.588293427334751e+01
1	 7.486000694693997e-01	 1.314250427434890e+00	 2.592123076450781e+01
1	 7.217504090930887e-01	 1.329184937093667e+00	 2.472873604324387e+01
1	 6.946830720015958e-01	 1.343529560335928e+00	 2.228434450239125e+01
1	 6.674169844810209e-01	 1.357280670622919e+00	 1.857193020452900e+01
1	 6.399710846590586e-01	 1.370435427452928e+00	 1.358031792486429e+01
1	 6.123642830626780e-01	 1.382991769622504e+00	 7.303229298689766e+00
1	 5.846154240430909e-01	 1.394948406207696e+00	-2.607949220556254e-01
1	 5.567432482139901e-01	 1.406304805358394e+00	-9.108495336905207e+00
1	 8.344948739059326e-01	 1.276418154614268e+00	 2.424146230434832e+01
1	 8.081955089684212e-01	 1.293230458692502e+00	 2.602453085858139e+01
1	 7.816198993262644e-01	 1.309463757797747e+00	 2.677254834539432e+01
1	 7.547868469020430e-01	 1.325112001211007e+00	 2.646007071031134e+01
1	 7.277152885058064e-01	 1.340169936569694e+00	 2.506598663140195e+01
1	 7.004242544133874e-01	 1.354633110417626e+00	 2.257353119935839e+01
1	 6.729328273264735e-01	 1.368497866244649e+00	 1.897027673529588e+01
1	 6.452601018862094e-01	 1.381761340073830e+00	 1.424810133844198e+01
1	 6.174251449049104e-01	 1.394421453666977e+00	 8.403135920453963e+00
1	 5.894469564722263e-01	 1.406476905431347e+00	 1.435690635173453e+00
1	 5.613444320829541e-01	 1.417927159121370e+00	-6.649838249173483e+00
1	 8.413349958237718e-01	 1.286880598500666e+00	 2.596899955097167e+01
1	 8.148200623205618e-01	 1.303830708350034e+00	 2.716403103103359e+01
1	 7.880266198119669e-01	 1.320197067284093e+00	 2.746007690106388e+01
1	 7.609736243346860e-01	 1.335973574987789e+00	 2.683723501331097e+01
1	 7.336801679185236e-01	 1.351154936046379e+00	 2.527931616770262e+01
1	 7.061654368251792e-01	 1.365736660499941e+00	 2.277384842900794e+01
1	 6.784486701719261e-01	 1.379715061866928e+00	 1.931206204200453e+01
1	 6.505491191133607e-01	 1.393087252695183e+00	 1.488885549364708e+01
1	 6.224860067471428e-01	 1.405851137711774e+00	 9.502743409291805e+00
1	 5.942784889013624e-01	 1.418005404655163e+00	 3.155787097095393e+00
1	 5.659456159519182e-01	 1.429549512884325e+00	-4.146491330358291e+00
1	 8.481751177416113e-01	 1.297343042387569e+00	 2.741292491886907e+01
1	 8.214446156727022e-01	 1.314430958008157e+00	 2.806436533089593e+01
1	 7.944333402976689e-01	 1.330930376771083e+00	 2.795040910608462e+01
1	 7.671604017673291e-01	 1.346835148765235e+00	 2.705663518100123e+01
1	 7.396450473312413e-01	 1.362139935523721e+00	 2.537172274211291e+01
1	 7.119066192369707e-01	 1.376840210582875e+00	 2.288744625909483e+01
1	 6.839645130173785e-01	 1.390932257489756e+00	 1.959865454135831e+01
1	 6.558381363405112e-01	 1.404413165316985e+00	 1.550323432413824e+01
1	 6.275468685893755e-01	 1.417280821756893e+00	 1.060205900227695e+01
1	 5.991100213304978e-01	 1.429533903879145e+00	 4.898923232133816e+00
1	 5.705467998208821e-01	 1.441171866647260e+00	-1.599535786054739e+00
1	 8.550152396594509e-01	 1.307805486274977e+00	 2.858004509313333e+01
1	 8.280691690248427e-01	 1.325031207666869e+00	 2.873127373911976e+01
1	 8.008400607833710e-01	 1.341663686258716e+00	 2.824827767288213e+01
1	 7.733471791999721e-01	 1.357696722543348e+00	 2.712205755263647e+01
1	 7.456099267439583e-01	 1.373124935001719e+00	 2.534610850572023e+01
1	 7.176478016487626e-01	 1.387943760666427e+00	 2.291640595520531e+01
1	 6.894803558628312e-01	 1.402149453113133e+00	 1.983137886072509e+01
1	 6.611271535676622e-01	 1.415739077939239e+00	 1.609187083769617e+01
1	 6.326077304316081e-01	 1.428710505802333e+00	 1.170108970489651e+01
1	 6.039415537596337e-01	 1.441062403103291e+00	 6.664546088123199e+00
1	 5.751479836898462e-01	 1.452794220410174e+00	 9.899817767216099e-01
1	 8.618553615772904e-01	 1.318267930162891e+00	 2.947695067361918e+01
1	 8.346937223769834e-01	 1.335631457326171e+00	 2.917031401504033e+01
1	 8.072467812690728e-01	 1.352396995746991e+00	 2.835826506904354e+01
1	 7.795339566326152e-01	 1.368558296322125e+00	 2.703716826622554e+01
1	 7.515748061566757e-01	 1.384109934480375e+00	 2.520528347783202e+01
1	 7.233889840605542e-01	 1.399047310750597e+00	 2.286274271100178e+01
1	 6.949961987082838e-01	 1.413366648737060e+00	 2.001151757581035e+01
1	 6.664161707948132e-01	 1.427064990561942e+00	 1.665537794661707e+01
1	 6.376685922738407e-01	 1.440140189848097e+00	 1.279984230024152e+01
1	 6.087730861887695e-01	 1.452590902327603e+00	 8.452120266935404e+00
1	 5.797491675588102e-01	 1.464416574173068e+00	 3.621047976575214e+00
1	 8.686954834951300e-01	 1.328730374051309e+00	 3.011002468223492e+01
1	 8.413182757291239e-01	 1.346231706986062e+00	 2.938686887045545e+01
1	 8.136535017547751e-01	 1.363130305235910e+00	 2.828480943246868e+01
1	 7.857207340652586e-01	 1.379419870101568e+00	 2.680551799086294e+01
1	 7.575396855693932e-01	 1.395094933959687e+00	 2.495196917320955e+01
1	 7.291301664723457e-01	 1.410150860835385e+00	 2.272840824948027e+01
1	 7.005120415537363e-01	 1.424583844361535e+00	 2.014031286623356e+01
1	 6.717051880219642e-01	 1.438390903185097e+00	 1.719434925887157e+01
1	 6.427294541160733e-01	 1.451569873894183e+00	 1.389832335776243e+01
1	 6.136046186179049e-01	 1.464119401552080e+00	 1.026112723337576e+01
1	 5.843503514277741e-01	 1.476038927935941e+00	 6.292681349635499e+00
1	 8.755356054129694e-01	 1.339192817940233e+00	 3.048545067145650e+01
1	 8.479428290812644e-01	 1.356831956646543e+00	 2.938615280742105e+01
1	 8.200602222404771e-01	 1.373863614725471e+00	 2.803221020924788e+01
1	 7.919075114979014e-01	 1.390281443881676e+00	 2.643054643723414e+01
1	 7.635045649821107e-01	 1.406079933439657e+00	 2.458880205927727e+01
1	 7.348713488841375e-01	 1.421254410920791e+00	 2.251529330229165e+01
1	 7.060278843991887e-01	 1.435801039986560e+00	 2.021896809350115e+01
1	 6.769942052491154e-01	 1.449716815808702e+00	 1.770935983218241e+01
1	 6.477903159583056e-01	 1.462999557940591e+00	 1.499653924161389e+01
1	 6.184361510470409e-01	 1.475647900776722e+00	 1.209106465647462e+01
1	 5.889515352967382e-01	 1.487661281698794e+00	 9.003931102778113e+00
1	 8.823757273308089e-01	 1.349655261829663e+00	 3.060922045570049e+01
1	 8.545673824334050e-01	 1.367432206307614e+00	 2.917321863800745e+01
1	 8.264669427261790e-01	 1.384596924215675e+00	 2.760463352931463e+01
1	 7.980942889305445e-01	 1.401143017662449e+00	 2.591558665832856e+01
1	 7.694694443948279e-01	 1.417064932920282e+00	 2.411833685253225e+01
1	 7.406125312959290e-01	 1.432357961006815e+00	 2.222522997374947e+01
1	 7.115437272446413e-01	 1.447018235612134e+00	 2.024864930558390e+01
1	 6.822832224762662e-01	 1.461042728432757e+00	 1.820096689302348e+01
1	 6.528511778005384e-01	 1.474429241987322e+00	 1.609449611861288e+01
1	 6.232676834761766e-01	 1.487176400001529e+00	 1.394144578141647e+01
1	 5.935527191657022e-01	 1.499283635461626e+00	 1.175387592483709e+01
1	 8.892158492486486e-01	 1.360117705719598e+00	 3.048714148586499e+01
1	 8.611919357855461e-01	 1.378032455969275e+00	 2.875296370314523e+01
1	 8.328736632118816e-01	 1.395330233706523e+00	 2.700611733398914e+01
1	 8.042810663631879e-01	 1.412004591443889e+00	 2.526386915165968e+01
1	 7.754343238075456e-01	 1.428049932401566e+00	 2.354304966280937e+01
1	 7.463537137077207e-01	 1.443461511093458e+00	 2.185999399572597e+01
1	 7.170595700900940e-01	 1.458235431238257e+00	 2.023048667205287e+01
1	 6.875722397034173e-01	 1.472368641057263e+00	 1.866971052243934e+01
1	 6.579120396427711e-01	 1.485858926034374e+00	 1.719219996582808e+01
1	 6.280992159053126e-01	 1.498704899226502e+00	 1.581179883045765e+01
1	 5.981539030346663e-01	 1.510905989224438e+00	 1.454162285268215e+01
1	 5.521420643450261e-01	 1.394682451595397e+00	-1.152134534777102e+01
1	 5.243963861554752e-01	 1.405349931578255e+00	-5.477251135102531e+00
1	 4.965651299484972e-01	 1.415423283584646e+00	 6.761209578464573e-01
1	 4.686663613186524e-01	 1.424904151779574e+00	 6.928227149996085e+00
1	 4.407179065634718e-01	 1.433794869157430e+00	 1.326698318202526e+01
1	 4.127373222644204e-01	 1.442098437276991e+00	 1.967887352406888e+01
1	 3.847418665163297e-01	 1.449818504550261e+00	 2.614906511408129e+01
1	 3.567484718715399e-01	 1.456959343223164e+00	 3.266152467711567e+01
1	 3.287737200529779e-01	 1.463525825188096e+00	 3.919913868831478e+01
1	 3.008338184785227e-01	 1.469523396769290e+00	 4.574383506352960e+01
1	 2.729445786273588e-01	 1.474958052621828e+00	 5.227670569044277e+01
1	 5.567432482139901e-01	 1.406304805358394e+00	-9.108495336905207e+00
1	 5.287663560399445e-01	 1.417061181008836e+00	-2.331114864859904e+00
1	 5.007031726982477e-01	 1.427218477616163e+00	 4.234522578296113e+00
1	 4.725719143300822e-01	 1.436778353046758e+00	 1.058296847090403e+01
1	 4.443905557854591e-01	 1.445743159736631e+00	 1.670822773339100e+01
1	 4.161767999506898e-01	 1.454115924257551e+00	 2.260381375558223e+01
1	 3.879480487380641e-01	 1.461900325424960e+00	 2.826280514013115e+01
1	 3.597213758045257e-01	 1.469100671086833e+00	 3.367790367769763e+01
1	 3.315135010540280e-01	 1.475721873734670e+00	 3.884149307970051e+01
1	 3.033407669662659e-01	 1.481769425078743e+00	 4.374569800900662e+01
1	 2.752191167827523e-01	 1.487249369729599e+00	 4.838244296735708e+01
1	 5.613444320829541e-01	 1.417927159121370e+00	-6.649838249173483e+00
1	 5.331363259244141e-01	 1.428772430439212e+00	 8.640054389562568e-01
1	 5.048412154479984e-01	 1.439013671647323e+00	 7.850283943890657e+00
1	 4.764774673415119e-01	 1.448652554313463e+00	 1.430856114669017e+01
1	 4.480632050074462e-01	 1.457691450315262e+00	 2.023883772706112e+01
1	 4.196162776369592e-01	 1.466133411237483e+00	 2.564155259922859e+01
1	 3.911542309597985e-01	 1.473982146299001e+00	 3.051758327544211e+01
1	 3.626942797375119e-01	 1.481241998949842e+00	 3.486824513356838e+01
1	 3.342532820550780e-01	 1.487917922280614e+00	 3.869528957312195e+01
1	 3.058477154540093e-01	 1.494015453387626e+00	 4.200090105209764e+01
1	 2.774936549381459e-01	 1.499540686836884e+00	 4.478769300500115e+01
1	 5.659456159519182e-01	 1.429549512884325e+00	-4.146491330358291e+00
1	 5.375062958088834e-01	 1.440483679869384e+00	 4.106915043822134e+00
1	 5.089792581977491e-01	 1.450808865678127e+00	 1.152200603646133e+01
1	 4.803830203529417e-01	 1.460526755579689e+00	 1.810327709553416e+01
1	 4.517358542294334e-01	 1.469639740893325e+00	 2.385663351810440e+01
1	 4.230557553232287e-01	 1.478150898216786e+00	 2.878933886934470e+01
1	 3.943604131815328e-01	 1.486063967172383e+00	 3.290995956612196e+01
1	 3.656671836704979e-01	 1.493383326812194e+00	 3.622830605799851e+01
1	 3.369930630561280e-01	 1.500113970825930e+00	 3.875537104411563e+01
1	 3.083546639417524e-01	 1.506261481695937e+00	 4.050326516599712e+01
1	 2.797681930935394e-01	 1.511832003943683e+00	 4.148515061404138e+01
1	 5.705467998208821e-01	 1.441171866647260e+00	-1.599535786054739e+00
1	 5.418762656933529e-01	 1.452194929299350e+00	 7.396457756973339e+00
1	 5.131173009474997e-01	 1.462604059708573e+00	 1.524833496745837e+01
1	 4.842885733643716e-01	 1.472400956845438e+00	 2.196544398019011e+01
1	 4.554085034514207e-01	 1.481588031470819e+00	 2.755950577271669e+01
1	 4.264952330094980e-01	 1.490168385195461e+00	 3.204451012819241e+01
1	 3.975665954032672e-01	 1.498145788045108e+00	 3.543660502453397e+01
1	 3.686400876034840e-01	 1.505524654673887e+00	 3.775398033479883e+01
1	 3.397328440571781e-01	 1.512310019370616e+00	 3.901674672707146e+01
1	 3.108616124294957e-01	 1.518507510003677e+00	 3.924681064734450e+01
1	 2.820427312489330e-01	 1.524123321049998e+00	 3.846774625641201e+01
1	 5.751479836898462e-01	 1.452794220410174e+00	 9.899817767216099e-01
1	 5.462462355778224e-01	 1.463906178729113e+00	 1.073151438381456e+01
1	 5.172553436972506e-01	 1.474399253738663e+00	 1.902796017276600e+01
1	 4.881941263758014e-01	 1.484275158110708e+00	 2.589344297820517e+01
1	 4.590811526734078e-01	 1.493536322047745e+00	 3.134541265577606e+01
1	 4.299347106957674e-01	 1.502185872173508e+00	 3.540448913604122e+01
1	 4.007727776250016e-01	 1.510227608917174e+00	 3.809429719064559e+01
1	 3.716129915364700e-01	 1.517665982534923e+00	 3.944129324349798e+01
1	 3.424726250582280e-01	 1.524506067914673e+00	 3.947458556087872e+01
1	 3.133685609172390e-01	 1.530753538310846e+00	 3.822574914328601e+01
1	 2.843172694043264e-01	 1.536414638155826e+00	 3.572863661926459e+01
1	 5.797491675588102e-01	 1.464416574173068e+00	 3.621047976575214e+00
1	 5.506162054622918e-01	 1.475617428158671e+00	 1.411100125973791e+01
1	 5.213933864470012e-01	 1.486194447768394e+00	 2.285961269347886e+01
1	 4.920996793872311e-01	 1.496149359375500e+00	 2.988570665831518e+01
1	 4.627538018953951e-01	 1.505484612624103e+00	 3.521237715232348e+01
1	 4.333741883820368e-01	 1.514203359150925e+00	 3.886678047029527e+01
1	 4.039789598467358e-01	 1.522309429788582e+00	 4.087991590474294e+01
1	 3.745858954694560e-01	 1.529807310395299e+00	 4.128639624522653e+01
1	 3.452124060592781e-01	 1.536702116458102e+00	 4.012420985144526e+01
1	 3.158755094049823e-01	 1.542999566617443e+00	 3.743447605820085e+01
1	 2.865918075597200e-01	 1.548705955261170e+00	 3.326119563777686e+01
1	 5.843503514277741e-01	 1.476038927935941e+00	 6.292681349635499e+00
1	 5.549861753467613e-01	 1.487328677588024e+00	 1.753386885130475e+01
1	 5.255314291967518e-01	 1.497989641797769e+00	 2.674206353790185e+01
1	 4.960052323986610e-01	 1.508023560639814e+00	 3.394071695717084e+01
1	 4.664264511173823e-01	 1.517432903199891e+00	 3.915848451558788e+01
1	 4.368136660683061e-01	 1.526220846127715e+00	 4.242896730434635e+01
1	 4.071851420684702e-01	 1.534391250659332e+00	 4.379043927985900e+01
1	 3.775587994024420e-01	 1.541948638255018e+00	 4.328556201493790e+01
1	 3.479521870603281e-01	 1.548898165000901e+00	 4.096108923362721e+01
1	 3.183824578927254e-01	 1.555245594923469e+00	 3.686756331916450e+01
1	 2.888663457151135e-01	 1.560997272366028e+00	 3.105900594208063e+01
1	 5.889515352967382e-01	 1.487661281698794e+00	 9.003931102778113e+00
1	 5.593561452312308e-01	 1.499039927017173e+00	 2.099910042299705e+01
1	 5.296694719465024e-01	 1.509784835826787e+00	 3.067412212033053e+01
1	 4.999107854100908e-01	 1.519897761903649e+00	 3.805700325090235e+01
1	 4.700991003393695e-01	 1.529381193775111e+00	 4.318187983463535e+01
1	 4.402531437545756e-01	 1.538238333103876e+00	 4.608870833741765e+01
1	 4.103913242902046e-01	 1.546473071529423e+00	 4.682293986299474e+01
1	 3.805317033354282e-01	 1.554089966114078e+00	 4.543517970649314e+01
1	 3.506919680613781e-01	 1.561094213543070e+00	 4.198083491619042e+01
1	 3.208894063804688e-01	 1.567491623228924e+00	 3.651975248053086e+01
1	 2.911408838705071e-01	 1.573288589470401e+00	 2.911585070511559e+01
1	 5.935527191657022e-01	 1.499283635461626e+00	 1.175387592483709e+01
1	 5.637261151157001e-01	 1.510751176446117e+00	 2.450571076597951e+01
1	 5.338075146962531e-01	 1.521580029855448e+00	 3.465463477244671e+01
1	 5.038163384215206e-01	 1.531771963167005e+00	 4.223314051638077e+01
1	 4.737717495613566e-01	 1.541329484349762e+00	 4.728076571514983e+01
1	 4.436926214408450e-01	 1.550255820079409e+00	 4.984373486720655e+01
1	 4.135975065119389e-01	 1.558554892398857e+00	 4.997458097488747e+01
1	 3.835046072684140e-01	 1.566231293972480e+00	 4.773175043797444e+01
1	 3.534317490624282e-01	 1.573290262084611e+00	 4.317919419445109e+01
1	 3.233963548682120e-01	 1.579737651533807e+00	 3.638594814923130e+01
1	 2.934154220259006e-01	 1.585579906574289e+00	 2.742570586965203e+01
1	 5.981539030346663e-01	 1.510905989224438e+00	 1.454162285268215e+01
1	 5.680960850001699e-01	 1.522462425874857e+00	 2.805274498553599e+01
1	 5.379455574460040e-01	 1.533375223883753e+00	 3.868248332342027e+01
1	 5.077218914329504e-01	 1.543646164429884e+00	 4.646774757734304e+01
1	 4.774443987833440e-01	 1.553277774923845e+00	 5.145340006725672e+01
1	 4.471320991271144e-01	 1.562273307054313e+00	 5.369184799763554e+01
1	 4.168036887336734e-01	 1.570636713267633e+00	 5.324261321871389e+01
1	 3.864775112014002e-01	 1.578372621830225e+00	 5.017188298536928e+01
1	 3.561715300634782e-01	 1.585486310625523e+00	 4.455204521617650e+01
1	 3.259033033559552e-01	 1.591983679838119e+00	 3.646121171352206e+01
1	 2.956899601812942e-01	 1.597871223677692e+00	 2.598273273406640e+01
1	 2.729445786273588e-01	 1.474958052621828e+00	 5.227670569044277e+01
1	 2.451213962665869e-01	 1.479836308883957e+00	 4.591037458119590e+01
1	 2.173792335500309e-01	 1.484165175720690e+00	 3.868438974304550e+01
1	 1.897326029848293e-01	 1.487952129393421e+00	 3.065313862812570e+01
1	 1.621955532518215e-01	 1.491205083986602e+00	 2.187202187186440e+01
1	 1.347816568620313e-01	 1.493932362918601e+00	 1.239720615677864e+01
1	 1.075039996182768e-01	 1.496142670358577e+00	 2.285384588169741e+00
1	 8.037517184413129e-02	 1.497845062665731e+00	-8.406454398862888e+00
1	 5.340726133517893e-02	 1.499048919961328e+00	-1.962124870245183e+01
1	 2.661184798093990e-02	 1.499763917937484e+00	-3.130207400931713e+01
1	 0.000000000000000e+00	 1.500000000000000e+00	-4.339234438450767e+01
1	 2.752191167827523e-01	 1.487249369729599e+00	 4.838244296735708e+01
1	 2.471640745687116e-01	 1.492168278126741e+00	 4.065718521671630e+01
1	 2.191907271626458e-01	 1.496533218853332e+00	 3.271189536873067e+01
1	 1.913137080092519e-01	 1.500351730472944e+00	 2.458165770238451e+01
1	 1.635471828617090e-01	 1.503631793020732e+00	 1.630119097705045e+01
1	 1.359048373352982e-01	 1.506381799276883e+00	 7.904735180382719e+00
1	 1.083998662811933e-01	 1.508610525945297e+00	-5.740545901089718e-01
1	 8.104496494232989e-02	 1.510327104854834e+00	-9.102206854463116e+00
1	 5.385232184592077e-02	 1.511540994294438e+00	-1.764752489722128e+01
1	 2.683361338056428e-02	 1.512261950586988e+00	-2.617867020975169e+01
1	 0.000000000000000e+00	 1.512500000000000e+00	-3.466523816583390e+01
1	 2.774936549381459e-01	 1.499540686836884e+00	 4.478769300500115e+01
1	 2.492067528708362e-01	 1.504500247369135e+00	 3.564747950462952e+01
1	 2.210022207752605e-01	 1.508901261985668e+00	 2.691701881370227e+01
1	 1.928948130336745e-01	 1.512751331552235e+00	 1.861237705320687e+01
1	 1.648988124715964e-01	 1.516058502054692e+00	 1.074788949779037e+01
1	 1.370280178085651e-01	 1.518831235635048e+00	 3.336179796352486e+00
1	 1.092957329441099e-01	 1.521078381531942e+00	-3.611814041997668e+00
1	 8.171475804052857e-02	 1.522809147043897e+00	-1.008680739418259e+01
1	 5.429738235666262e-02	 1.524033068627529e+00	-1.608113101473452e+01
1	 2.705537878018867e-02	 1.524759983236486e+00	-2.158868779594838e+01
1	 0.000000000000000e+00	 1.525000000000000e+00	-2.660490482479386e+01
1	 2.797681930935394e-01	 1.511832003943683e+00	 4.148515061404138e+01
1	 2.512494311729608e-01	 1.516832216611136e+00	 3.087531881922531e+01
1	 2.228137143878753e-01	 1.521269305117696e+00	 2.129542793598938e+01
1	 1.944759180580971e-01	 1.525150932631291e+00	 1.274280399088914e+01
1	 1.662504420814838e-01	 1.528485211088482e+00	 5.211689887337915e+00
1	 1.381511982818319e-01	 1.531280671993094e+00	-1.306604278073060e+00
1	 1.101915996070264e-01	 1.533546237118513e+00	-6.823544492545437e+00
1	 8.238455113872716e-02	 1.535291189232917e+00	-1.135321094281109e+01
1	 5.474244286740446e-02	 1.536525142960601e+00	-1.491213217883793e+01
1	 2.727714417981305e-02	 1.537258015885981e+00	-1.751911649021717e+01
1	 0.000000000000000e+00	 1.537500000000000e+00	-1.919508160829169e+01
1	 2.820427312489330e-01	 1.524123321049998e+00	 3.846774625641201e+01
1	 2.532921094750855e-01	 1.529164185852748e+00	 2.633495610336363e+01
1	 2.246252080004902e-01	 1.533637348249418e+00	 1.584293034013623e+01
1	 1.960570230825197e-01	 1.537550533710115e+00	 6.970526235072974e+00
1	 1.676020716913713e-01	 1.540911920122102e+00	-3.078216092231223e-01
1	 1.392743787550988e-01	 1.543730108351024e+00	-6.021821187501111e+00
1	 1.110874662699430e-01	 1.546014092705009e+00	-1.020503696599406e+01
1	 8.305434423692580e-02	 1.547773231421895e+00	-1.289459968562891e+01
1	 5.518750337814630e-02	 1.549017217293655e+00	-1.413091399325338e+01
1	 2.749890957943743e-02	 1.549756048535470e+00	-1.395736570124576e+01
1	 0.000000000000000e+00	 1.550000000000000e+00	-1.242003036816999e+01
1	 2.843172694043264e-01	 1.536414638155826e+00	 3.572863661926459e+01
1	 2.553347877772101e-01	 1.541496155093969e+00	 2.202082820573273e+01
1	 2.264367016131050e-01	 1.546005391380833e+00	 1.055546778734102e+01
1	 1.976381281069424e-01	 1.549950134788705e+00	 1.293208698371540e+00
1	 1.689537013012588e-01	 1.553338629155550e+00	-5.811045506651155e+00
1	 1.403975592283656e-01	 1.556179544708835e+00	-1.080773254391145e+01
1	 1.119833329328596e-01	 1.558481948291430e+00	-1.375221717380864e+01
1	 8.372413733512445e-02	 1.560255273610832e+00	-1.470437397798730e+01
1	 5.563256388888813e-02	 1.561509291626691e+00	-1.372816972238384e+01
1	 2.772067497906182e-02	 1.562254081184955e+00	-1.089124773664373e+01
1	 0.000000000000000e+00	 1.562500000000000e+00	-6.264516577011406e+00
1	 2.865918075597200e-01	 1.548705955261170e+00	 3.326119563777686e+01
1	 2.573774660793346e-01	 1.553828124334798e+00	 1.792754858299858e+01
1	 2.282481952257197e-01	 1.558373434511941e+00	 5.429110871779891e+00
1	 1.992192331313650e-01	 1.562349735867061e+00	-4.291409576844380e+00
1	 1.703053309111463e-01	 1.565765338188829e+00	-1.129836960495069e+01
1	 1.415207397016324e-01	 1.568628981066530e+00	-1.566265514620491e+01
1	 1.128791995957761e-01	 1.570949803877776e+00	-1.746114016994800e+01
1	 8.439393043332308e-02	 1.572737315799727e+00	-1.677614368776553e+01
1	 5.607762439962997e-02	 1.574001365959708e+00	-1.369488808255518e+01
1	 2.794244037868620e-02	 1.574752113834436e+00	-8.308961814889070e+00
1	 0.000000000000000e+00	 1.575000000000000e+00	-7.137893431891982e-01
1	 2.888663457151135e-01	 1.560997272366028e+00	 3.105900594208063e+01
1	 2.594201443814593e-01	 1.566160093575237e+00	 1.404990034673468e+01
1	 2.300596888383345e-01	 1.570741477642742e+00	 4.600539484414874e-01
1	 2.008003381557876e-01	 1.574749336945183e+00	-9.785518336940225e+00
1	 1.716569605210337e-01	 1.578192047221936e+00	-1.677016948995324e+01
1	 1.426439201748993e-01	 1.581078417424107e+00	-2.058495880749013e+01
1	 1.137750662586927e-01	 1.583417659464048e+00	-2.132798525863964e+01
1	 8.506372353152170e-02	 1.585219357988580e+00	-1.910371994684715e+01
1	 5.652268491037181e-02	 1.586493440292707e+00	-1.402234161005218e+01
1	 2.816420577831059e-02	 1.587250146483912e+00	-6.199078832617850e+00
1	 0.000000000000000e+00	 1.587500000000000e+00	 4.246437629911812e+00
1	 2.911408838705071e-01	 1.573288589470401e+00	 2.911585070511559e+01
1	 2.614628226835839e-01	 1.578492062815286e+00	 1.038282963627712e+01
1	 2.318711824509493e-01	 1.583109520773236e+00	-4.355389701278465e+00
1	 2.023814431802102e-01	 1.587148938023073e+00	-1.519123889870712e+01
1	 1.730085901309212e-01	 1.590618756254874e+00	-2.222680901043198e+01
1	 1.437671006481662e-01	 1.593527853781566e+00	-2.557306428421705e+01
1	 1.146709329216093e-01	 1.595885515050245e+00	-2.534905114085345e+01
1	 8.573351662972034e-02	 1.597701400177391e+00	-2.168110728924349e+01
1	 5.696774542111365e-02	 1.598985514625687e+00	-1.470207557439959e+01
1	 2.838597117793497e-02	 1.599748179133383e+00	-4.550526845946584e+00
1	 0.000000000000000e+00	 1.600000000000000e+00	 8.630004192138156e+00
1	 2.934154220259006e-01	 1.585579906574289e+00	 2.742570586965203e+01
1	 2.635055009857086e-01	 1.590824032054943e+00	 6.921439299819703e+00
1	 2.336826760635642e-01	 1.595477563903424e+00	-9.020792479129522e+00
1	 2.039625482046329e-01	 1.599548539100729e+00	-2.051062680167153e+01
1	 1.743602197408086e-01	 1.603045465287642e+00	-2.766864073302884e+01
1	 1.448902811214330e-01	 1.605977290138907e+00	-3.062544130162560e+01
1	 1.155667995845258e-01	 1.608353370636367e+00	-2.952075128652186e+01
1	 8.640330972791899e-02	 1.610183442366161e+00	-2.450249615488834e+01
1	 5.741280593185549e-02	 1.611477588958649e+00	-1.572589740730779e+01
1	 2.860773657755936e-02	 1.612246211782850e+00	-3.352577227079966e+00
1	 0.000000000000000e+00	 1.612500000000000e+00	 1.245032105070596e+01
1	 2.956899601812942e-01	 1.597871223677692e+00	 2.598273273406640e+01
1	 2.655481792878332e-01	 1.603156001294210e+00	 3.660982867149492e+00
1	 2.354941696761790e-01	 1.607845607033304e+00	-1.353961686680667e+01
1	 2.055436532290555e-01	 1.611948140178152e+00	-2.574567433799075e+01
1	 1.757118493506961e-01	 1.615472174320239e+00	-3.309600637618109e+01
1	 1.460134615946999e-01	 1.618426726496131e+00	-3.574060667033525e+01
1	 1.164626662474424e-01	 1.620821226222415e+00	-3.383960952034870e+01
1	 8.707310282611763e-02	 1.622665484554889e+00	-2.756225573940954e+01
1	 5.785786644259734e-02	 1.623969663291593e+00	-1.708586661951097e+01
1	 2.882950197718375e-02	 1.624744244432313e+00	-2.594831459847312e+00
1	 0.000000000000000e+00	 1.625000000000000e+00	 1.572038627568650e+01
1	 1.625000000000000e+00	 0.000000000000000e+00	 1.524512801673212e+02
1	 1.624744244432312e+00	 2.882950197718282e-02	 1.304238193255896e+02
1	 1.623969663291593e+00	 5.785786644259652e-02	 1.092554041098880e+02
1	 1.622665484554890e+00	 8.707310282611692e-02	 8.876031831898167e+01
1	 1.620821226222414e+00	 1.164626662474418e-01	 6.874248510878671e+01
1	 1.618426726496131e+00	 1.460134615946994e-01	 4.899574063118115e+01
1	 1.615472174320238e+00	 1.757118493506957e-01	 2.930417130466048e+01
1	 1.611948140178151e+00	 2.055436532290552e-01	 9.442516425070465e+00
1	 1.607845607033305e+00	 2.354941696761788e-01	-1.082336256351271e+01
1	 1.603156001294210e+00	 2.655481792878331e-01	-3.173594524601381e+01
1	 1.597871223677692e+00	 2.956899601812942e-01	-5.354544743667902e+01
1	 1.637500000000000e+00	 0.000000000000000e+00	 1.408458148238168e+02
1	 1.637242277081775e+00	 2.905126737680721e-02	 1.216302221982803e+02
1	 1.636461737624536e+00	 5.830292695333835e-02	 1.024182100324511e+02
1	 1.635147526743617e+00	 8.774289592431556e-02	 8.309001702538166e+01
1	 1.633289081808462e+00	 1.173585329103583e-01	 6.352081265460482e+01
1	 1.630876162853355e+00	 1.471366420679662e-01	 4.358094456637757e+01
1	 1.627898883352835e+00	 1.770634789605832e-01	 2.313622297939579e+01
1	 1.624347741255574e+00	 2.071247582534779e-01	 2.048242568175214e+00
1	 1.620213650163185e+00	 2.373056632887935e-01	-1.982525796459525e+01
1	 1.615487970533477e+00	 2.675908575899578e-01	-4.262999869473573e+01
1	 1.610162540781094e+00	 2.979644983366877e-01	-6.651472402646070e+01
1	 1.650000000000000e+00	 0.000000000000000e+00	 1.243167180017278e+02
1	 1.649740309731242e+00	 2.927303277643158e-02	 1.085771854123474e+02
1	 1.648953811957498e+00	 5.874798746408018e-02	 9.200126183793063e+01
1	 1.647629568932387e+00	 8.841268902251417e-02	 7.453443618885578e+01
1	 1.645756937394584e+00	 1.182543995732749e-01	 5.612236349371032e+01
1	 1.643325599210696e+00	 1.482598225412330e-01	 3.671108610367122e+01
1	 1.640325592385603e+00	 1.784151085704706e-01	 1.624726553508205e+01
1	 1.636747342333229e+00	 2.087058632779004e-01	-5.321575813797437e+00
1	 1.632581693293372e+00	 2.391171569014083e-01	-2.804680396261394e+01
1	 1.627819939773135e+00	 2.696335358920823e-01	-5.197841468363524e+01
1	 1.622453857884982e+00	 3.002390364920812e-01	-7.716476801672447e+01
1	 1.662500000000000e+00	 0.000000000000000e+00	 1.029750490576045e+02
1	 1.662238342380713e+00	 2.949479817605596e-02	 9.136078655401060e+01
1	 1.661445886290478e+00	 5.919304797482201e-02	 7.808530585978545e+01
1	 1.660111611121198e+00	 8.908248212071281e-02	 6.315865730290660e+01
1	 1.658224792980781e+00	 1.191502662361914e-01	 4.659623785268765e+01
1	 1.655775035568156e+00	 1.493830030144999e-01	 2.841898619958346e+01
1	 1.652752301418540e+00	 1.797667381803581e-01	 8.653562335535849e+00
1	 1.649146943411119e+00	 2.102869683023231e-01	-1.266749034783605e+01
1	 1.644949736423866e+00	 2.409286505140231e-01	-3.550560242352235e+01
1	 1.640151909013183e+00	 2.716762141942070e-01	-5.981605721529515e+01
1	 1.634745174989355e+00	 3.025135746474747e-01	-8.554789292452541e+01
1	 1.675000000000000e+00	 0.000000000000000e+00	 7.692855214332792e+01
1	 1.674736375030189e+00	 2.971656357568033e-02	 7.007423522184342e+01
1	 1.673937960623477e+00	 5.963810848556386e-02	 6.074867809316286e+01
1	 1.672593653310052e+00	 8.975227521891144e-02	 4.902581912988737e+01
1	 1.670692648567052e+00	 1.200461328991080e-01	 3.499007027971480e+01
1	 1.668224471925732e+00	 1.505061834877667e-01	 1.873648608058894e+01
1	 1.665179010451648e+00	 1.811183677902456e-01	 3.708912710258545e-01
1	 1.661546544489242e+00	 2.118680733267457e-01	-1.999003619445185e+01
1	 1.657317779554668e+00	 2.427401441266379e-01	-4.221872978443734e+01
1	 1.652483878253622e+00	 2.737188924963316e-01	-6.617674957579794e+01
1	 1.647036492094213e+00	 3.047881128028683e-01	-9.171485066938502e+01
1	 1.687500000000000e+00	 0.000000000000000e+00	 4.628177899146671e+01
1	 1.687234407679670e+00	 2.993832897530471e-02	 4.480797924853805e+01
1	 1.686430034956494e+00	 6.008316899630568e-02	 4.006739346668837e+01
1	 1.685075695498947e+00	 9.042206831711005e-02	 3.219718965400698e+01
1	 1.683160504153399e+00	 1.209419995620246e-01	 2.135008392894878e+01
1	 1.680673908283426e+00	 1.516293639610336e-01	 7.694483529413741e+00
1	 1.677605719484926e+00	 1.824699974001330e-01	-8.585437261225099e+00
1	 1.673946145567598e+00	 2.134491783511683e-01	-2.728973265754825e+01
1	 1.669685822685775e+00	 2.445516377392527e-01	-4.820275651396684e+01
1	 1.664815847494452e+00	 2.757615707984562e-01	-7.109331287978192e+01
1	 1.659327809199556e+00	 3.070626509582619e-01	-9.571488941023692e+01
1	 1.700000000000000e+00	 0.000000000000000e+00	 1.113620628363461e+01
1	 1.699732440329154e+00	 3.016009437492909e-02	 1.564980623641419e+01
1	 1.698922109289530e+00	 6.052822950704752e-02	 1.611523117579343e+01
1	 1.697557737687883e+00	 9.109186141530867e-02	 1.273223485993908e+01
1	 1.695628359739820e+00	 1.218378662249411e-01	 5.721142450011513e+00
1	 1.693123344641237e+00	 1.527525444343004e-01	-4.677032429533096e+00
1	 1.690032428518375e+00	 1.838216270100204e-01	-1.820056316979594e+01
1	 1.686345746646188e+00	 2.150302833755909e-01	-3.456708376738449e+01
1	 1.682053865817190e+00	 2.463631313518675e-01	-5.347376571399253e+01
1	 1.677147816735672e+00	 2.778042491005809e-01	-7.459760291497886e+01
1	 1.671619126305386e+00	 3.093371891136554e-01	-9.759580883074294e+01
1	 1.712500000000000e+00	 0.000000000000000e+00	-2.840965212137253e+01
1	 1.712230472978644e+00	 3.038185977455347e-02	-1.731505935387874e+01
1	 1.711414183622584e+00	 6.097329001778935e-02	-1.103618372118237e+01
1	 1.710039779876862e+00	 9.176165451350732e-02	-9.311315500772388e+00
1	 1.708096215326316e+00	 1.227337328878577e-01	-1.185320039505567e+01
1	 1.705572780999167e+00	 1.538757249075673e-01	-1.834894836379636e+01
1	 1.702459137551995e+00	 1.851732566199080e-01	-2.846006023454878e+01
1	 1.698745347725011e+00	 2.166113884000136e-01	-4.182257883800794e+01
1	 1.694421908948913e+00	 2.481746249644823e-01	-5.804737090677832e+01
1	 1.689479785977284e+00	 2.798469274027054e-01	-7.672054537312441e+01
1	 1.683910443411700e+00	 3.116117272690490e-01	-9.740401300335499e+01
1	 1.725000000000000e+00	 0.000000000000000e+00	-7.226013783892408e+01
1	 1.724728505628139e+00	 3.060362517417785e-02	-5.400386333591237e+01
1	 1.723906257955657e+00	 6.141835052853120e-02	-4.131730225454686e+01
1	 1.722521822065882e+00	 9.243144761170595e-02	-3.387740500271482e+01
1	 1.720564070912886e+00	 1.236295995507742e-01	-3.133065327209785e+01
1	 1.718022217357214e+00	 1.549989053808341e-01	-3.329299470853024e+01
1	 1.714885846585785e+00	 1.865248862297954e-01	-3.934992038665469e+01
1	 1.711144948804068e+00	 2.181924934244362e-01	-4.905669300044946e+01
1	 1.706789952080941e+00	 2.499861185770972e-01	-6.193873304872260e+01
1	 1.701811755219286e+00	 2.818896057048301e-01	-7.749216954908758e+01
1	 1.696201760518499e+00	 3.138862654244425e-01	-9.518456095493804e+01
1	 1.737499999999999e+00	 0.000000000000000e+00	-1.203223452436570e+02
1	 1.737226538277637e+00	 3.082539057380222e-02	-9.433623293869348e+01
1	 1.736398332288748e+00	 6.186341103927302e-02	-7.466057686380697e+01
1	 1.735003864254944e+00	 9.310124070990457e-02	-6.091159035502006e+01
1	 1.733031926499532e+00	 1.245254662136908e-01	-5.267014186377108e+01
1	 1.730471653715378e+00	 1.561220858541010e-01	-4.948171541154687e+01
1	 1.727312555619745e+00	 1.878765158396829e-01	-5.085653866718057e+01
1	 1.723544549883358e+00	 2.197735984488587e-01	-5.626988771290537e+01
1	 1.719157995213276e+00	 2.517976121897119e-01	-6.516257680970801e+01
1	 1.714143724461679e+00	 2.839322840069546e-01	-7.694164058536286e+01
1	 1.708493077625785e+00	 3.161608035798360e-01	-9.098121504970568e+01
1	 1.750000000000000e+00	 0.000000000000000e+00	-1.725060231566463e+02
1	 1.749724570927141e+00	 3.104715597342660e-02	-1.382340917561138e+02
1	 1.748890406621857e+00	 6.230847155001488e-02	-1.110003899187695e+02
1	 1.747485906444049e+00	 9.377103380810323e-02	-9.036098378941837e+01
1	 1.745499782086252e+00	 1.254213328766073e-01	-7.583176540465664e+01
1	 1.742921090073661e+00	 1.572452663273678e-01	-6.688843887929384e+01
1	 1.739739264653876e+00	 1.892281454495704e-01	-6.296669883030606e+01
1	 1.735944150962882e+00	 2.213547034732815e-01	-6.346261124905162e+01
1	 1.731526038345919e+00	 2.536091058023268e-01	-6.773320615476104e+01
1	 1.726475693704463e+00	 2.859749623090794e-01	-7.509729033465513e+01
1	 1.720784394733555e+00	 3.184353417352296e-01	-8.483648729860072e+01
1	 1.597871223677692e+00	 2.956899601812942e-01	-5.354544743667902e+01
1	 1.591983679838119e+00	 3.259033033559543e-01	-4.768503002218560e+01
1	 1.585486310625523e+00	 3.561715300634776e-01	-4.236134926058529e+01
1	 1.578372621830225e+00	 3.864775112013996e-01	-3.742400140656053e+01
1	 1.570636713267633e+00	 4.168036887336729e-01	-3.271651818890194e+01
1	 1.562273307054313e+00	 4.471320991271141e-01	-2.807678665164423e+01
1	 1.553277774923845e+00	 4.774443987833438e-01	-2.333751481297451e+01
1	 1.543646164429884e+00	 5.077218914329503e-01	-1.832674220995383e+01
1	 1.533375223883753e+00	 5.379455574460040e-01	-1.286839399023819e+01
1	 1.522462425874856e+00	 5.680960850001699e-01	-6.782876796465635e+00
1	 1.510905989224438e+00	 5.981539030346663e-01	 1.122857307602123e-01
1	 1.610162540781094e+00	 2.979644983366877e-01	-6.651472402646070e+01
1	 1.604229708142434e+00	 3.284102518436999e-01	-6.026061329709444e+01
1	 1.597682359166444e+00	 3.589113110645371e-01	-5.427287308870009e+01
1	 1.590513949687990e+00	 3.894504151344069e-01	-4.844665384186116e+01
1	 1.582718534136446e+00	 4.200098709554452e-01	-4.267320336538787e+01
1	 1.574290794029277e+00	 4.505715768134433e-01	-3.684017192418070e+01
1	 1.565226065498014e+00	 4.811170480054174e-01	-3.083194817373530e+01
1	 1.555520365692882e+00	 5.116274444444987e-01	-2.453002516863764e+01
1	 1.545170417912212e+00	 5.420836001959101e-01	-1.781339539201825e+01
1	 1.534173675303793e+00	 5.724660548848370e-01	-1.055897346785603e+01
1	 1.522528342987494e+00	 6.027550869038752e-01	-2.642044931376803e+00
1	 1.622453857884982e+00	 3.002390364920812e-01	-7.716476801672447e+01
1	 1.616475736447324e+00	 3.309172003314502e-01	-7.086300425113852e+01
1	 1.609878407708013e+00	 3.616510920656152e-01	-6.456187230411834e+01
1	 1.602655277546456e+00	 3.924233190674569e-01	-5.820156130026574e+01
1	 1.594800355005993e+00	 4.232160531772940e-01	-5.172049643783971e+01
1	 1.586308281004989e+00	 4.540110544998922e-01	-4.505553037420329e+01
1	 1.577174356072925e+00	 4.847896972276646e-01	-3.814215062694801e+01
1	 1.567394566956594e+00	 5.155329974562836e-01	-3.091470237623058e+01
1	 1.556965611941338e+00	 5.462216429461266e-01	-2.330662589883852e+01
1	 1.545884924733330e+00	 5.768360247698988e-01	-1.525070770871358e+01
1	 1.534150696751060e+00	 6.073562707735738e-01	-6.679344323935425e+00
1	 1.634745174989355e+00	 3.025135746474747e-01	-8.554789292452541e+01
1	 1.628721764752790e+00	 3.334241488192052e-01	-7.953671098161436e+01
1	 1.622074456250230e+00	 3.643908730667124e-01	-7.326494520625064e+01
1	 1.614796605405623e+00	 3.953962230005494e-01	-6.671731953303943e+01
1	 1.606882175876277e+00	 4.264222353992188e-01	-5.987891001003766e+01
1	 1.598325767981450e+00	 4.574505321864608e-01	-5.273522350893757e+01
1	 1.589122646648578e+00	 4.884623464500846e-01	-4.527227775696741e+01
1	 1.579268768221021e+00	 5.194385504683054e-01	-3.747668223313675e+01
1	 1.568760805971133e+00	 5.503596856966543e-01	-2.933571944070284e+01
1	 1.557596174163466e+00	 5.812059946553559e-01	-2.083742604012181e+01
1	 1.545773050515137e+00	 6.119574546437619e-01	-1.197067330278070e+01
1	 1.647036492094213e+00	 3.047881128028683e-01	-9.171485066938502e+01
1	 1.640967793058833e+00	 3.359310973069648e-01	-8.632491298589508e+01
1	 1.634270504793095e+00	 3.671306540678284e-01	-8.041759760795861e+01
1	 1.626937933265491e+00	 3.983691269336848e-01	-7.402167068693542e+01
1	 1.618963996747293e+00	 4.296284176212197e-01	-6.716834436923625e+01
1	 1.610343254958658e+00	 4.608900098731490e-01	-5.989124383539794e+01
1	 1.601070937224973e+00	 4.921349956726779e-01	-5.222636110085624e+01
1	 1.591142969486164e+00	 5.233441034805641e-01	-4.421199527705875e+01
1	 1.580556000001596e+00	 5.544977284474926e-01	-3.588867908402364e+01
1	 1.569307423594202e+00	 5.855759645412079e-01	-2.729909150490406e+01
1	 1.557395404279724e+00	 6.165586385144400e-01	-1.848795657879582e+01
1	 1.659327809199556e+00	 3.070626509582619e-01	-9.571488941023692e+01
1	 1.653213821365451e+00	 3.384380457947292e-01	-9.126951036883554e+01
1	 1.646466553336608e+00	 3.698704350689632e-01	-8.605428329801971e+01
1	 1.639079261126060e+00	 4.013420308668626e-01	-8.014153491917742e+01
1	 1.631045817619043e+00	 4.328345998432970e-01	-7.360811016455381e+01
1	 1.622360741936615e+00	 4.643294875599568e-01	-6.653522852706193e+01
1	 1.613019227802109e+00	 4.958076448954443e-01	-5.900831274272907e+01
1	 1.603017170752021e+00	 5.272496564930599e-01	-5.111678965939466e+01
1	 1.592351194032726e+00	 5.586357711986414e-01	-4.295386335990282e+01
1	 1.581018673025537e+00	 5.899459344274548e-01	-3.461626083348573e+01
1	 1.569017758044822e+00	 6.211598223856076e-01	-2.620395072325277e+01
1	 1.671619126305386e+00	 3.093371891136554e-01	-9.759580883074294e+01
1	 1.665459849672645e+00	 3.409449942824981e-01	-9.441117087926160e+01
1	 1.658662601880769e+00	 3.726102160701169e-01	-9.020844271848296e+01
1	 1.651220588987329e+00	 4.043149348000832e-01	-8.510304061766163e+01
1	 1.643127638491529e+00	 4.360407820654503e-01	-7.921695008484497e+01
1	 1.634378228915319e+00	 4.677689652468843e-01	-7.267847248760310e+01
1	 1.624967518379987e+00	 4.994802941183839e-01	-6.562192970540502e+01
1	 1.614891372018594e+00	 5.311552095057921e-01	-5.818732682120476e+01
1	 1.604146388064525e+00	 5.627738139501012e-01	-5.051997319557781e+01
1	 1.592729922457472e+00	 5.943159043140966e-01	-4.277006261714463e+01
1	 1.580640111810430e+00	 6.257610062572652e-01	-3.509221358471122e+01
1	 1.683910443411700e+00	 3.116117272690490e-01	-9.740401300335499e+01
1	 1.677705877980416e+00	 3.434519427702719e-01	-9.578937488646788e+01
1	 1.670858650425578e+00	 3.753499970712894e-01	-9.291253994812654e+01
1	 1.663361916849300e+00	 4.072878387333462e-01	-8.893155329764863e+01
1	 1.655209459364748e+00	 4.392469642876800e-01	-8.401305958717749e+01
1	 1.646395715894772e+00	 4.712084429339317e-01	-7.833194084248967e+01
1	 1.636915808958608e+00	 5.031529433414967e-01	-7.207089814972470e+01
1	 1.626765573285881e+00	 5.350607625187611e-01	-6.541997735855301e+01
1	 1.615941582096990e+00	 5.669118567018717e-01	-5.857603941821272e+01
1	 1.604441171890006e+00	 5.986858742011337e-01	-5.174217643717816e+01
1	 1.592262465576548e+00	 6.303621901294124e-01	-4.512707504532208e+01
1	 1.696201760518499e+00	 3.138862654244425e-01	-9.518456095493804e+01
1	 1.689951906288762e+00	 3.459588912580502e-01	-9.544245840121570e+01
1	 1.683054698971034e+00	 3.780897780724807e-01	-9.419809807793879e+01
1	 1.675503244711972e+00	 4.102607426666521e-01	-9.165170324207556e+01
1	 1.667291280238703e+00	 4.424531465099858e-01	-8.801410672407087e+01
1	 1.658413202874972e+00	 4.746479206210985e-01	-8.350628088746964e+01
1	 1.648864099537969e+00	 5.068255925647827e-01	-7.835879739128899e+01
1	 1.638639774553884e+00	 5.389663155319671e-01	-7.281121706761475e+01
1	 1.627736776130124e+00	 5.710498994539528e-01	-6.711141080200196e+01
1	 1.616152421323140e+00	 6.030558440885657e-01	-6.151481290149673e+01
1	 1.603884819343176e+00	 6.349633740020493e-01	-5.628360904859817e+01
1	 1.708493077625785e+00	 3.161608035798360e-01	-9.098121504970568e+01
1	 1.702197934597685e+00	 3.484658397458333e-01	-9.340765423970876e+01
1	 1.695250747517139e+00	 3.808295590736910e-01	-9.409573305959881e+01
1	 1.687644572575343e+00	 4.132336466000003e-01	-9.328741194876170e+01
1	 1.679373101113391e+00	 4.456593287323678e-01	-9.123725111488199e+01
1	 1.670430689855921e+00	 4.780873983083849e-01	-8.821183352129448e+01
1	 1.660812390118072e+00	 5.104982417882418e-01	-8.448910374381214e+01
1	 1.650513975822603e+00	 5.428718685454100e-01	-8.035762316050126e+01
1	 1.639531970163926e+00	 5.751879422063448e-01	-7.611574263122733e+01
1	 1.627863670756874e+00	 6.074258139763927e-01	-7.207069454294805e+01
1	 1.615507173110314e+00	 6.395645578751757e-01	-6.853760683461680e+01
1	 1.720784394733555e+00	 3.184353417352296e-01	-8.483648729860072e+01
1	 1.714443962907183e+00	 3.509727882336210e-01	-8.972113142339913e+01
1	 1.707446796063893e+00	 3.835693400749201e-01	-9.263518610330999e+01
1	 1.699785900439417e+00	 4.162065505333916e-01	-9.386191744416348e+01
1	 1.691454921988814e+00	 4.488655109548259e-01	-9.369916210413319e+01
1	 1.682448176837619e+00	 4.815268759957912e-01	-9.245864418847017e+01
1	 1.672760680698918e+00	 5.141708910118742e-01	-9.046519419776162e+01
1	 1.662388177092036e+00	 5.467774215590895e-01	-8.805587064326130e+01
1	 1.651327164198396e+00	 5.793259849590476e-01	-8.557898575347083e+01
1	 1.639574920191208e+00	 6.117957838646149e-01	-8.339303753628423e+01
1	 1.627129526877964e+00	 6.441657417487923e-01	-8.186555132228706e+01
1	 1.510905989224438e+00	 5.981539030346663e-01	 1.122857307602123e-01
1	 1.498704899226502e+00	 6.280992159053116e-01	-1.617374639554131e+00
1	 1.485858926034374e+00	 6.579120396427700e-01	-3.126907458827207e+00
1	 1.472368641057263e+00	 6.875722397034166e-01	-4.518990782131285e+00
1	 1.458235431238258e+00	 7.170595700900936e-01	-5.898670484933362e+00
1	 1.443461511093458e+00	 7.463537137077204e-01	-7.372970896276581e+00
1	 1.428049932401566e+00	 7.754343238075454e-01	-9.050484807520599e+00
1	 1.412004591443889e+00	 8.042810663631879e-01	-1.104094499453310e+01
1	 1.395330233706523e+00	 8.328736632118814e-01	-1.345477961180150e+01
1	 1.378032455969274e+00	 8.611919357855460e-01	-1.640265402089914e+01
1	 1.360117705719598e+00	 8.892158492486488e-01	-1.999500179998480e+01
1	 1.522528342987494e+00	 6.027550869038752e-01	-2.642044931376803e+00
1	 1.510233398451768e+00	 6.329307483347351e-01	-5.012239221049312e+00
1	 1.497288610081763e+00	 6.629729014853188e-01	-7.240444218406729e+00
1	 1.483694553682143e+00	 6.928612569308974e-01	-9.390565154416851e+00
1	 1.469452626864788e+00	 7.225754129358748e-01	-1.152794717245052e+01
1	 1.454565061180536e+00	 7.520948961198251e-01	-1.371912997564898e+01
1	 1.439034931883308e+00	 7.813992032205446e-01	-1.603158977093018e+01
1	 1.422866165225804e+00	 8.104678437960667e-01	-1.853346986882953e+01
1	 1.406063543197860e+00	 8.392803836977581e-01	-2.129330143525684e+01
1	 1.388632705631432e+00	 8.678164891377840e-01	-2.437971601746458e+01
1	 1.370580149610033e+00	 8.960559711664935e-01	-2.786115158013370e+01
1	 1.534150696751060e+00	 6.073562707735738e-01	-6.679344323935425e+00
1	 1.521761897677453e+00	 6.377622807647338e-01	-9.440408650033525e+00
1	 1.508718294129500e+00	 6.680337633284998e-01	-1.213623834424719e+01
1	 1.495020466307320e+00	 6.981502741590380e-01	-1.479240870229201e+01
1	 1.480669822491582e+00	 7.280912557823142e-01	-1.743501713096238e+01
1	 1.465668611267865e+00	 7.578360785325557e-01	-2.009058044616581e+01
1	 1.450019931365309e+00	 7.873640826341082e-01	-2.278592731370919e+01
1	 1.433727739008006e+00	 8.166546212294172e-01	-2.554808642018457e+01
1	 1.416796852689532e+00	 8.456871041839829e-01	-2.840417101523735e+01
1	 1.399232955293995e+00	 8.744410424902175e-01	-3.138126051566075e+01
1	 1.381042593500962e+00	 9.028960930843489e-01	-3.450627990537101e+01
1	 1.545773050515137e+00	 6.119574546437619e-01	-1.197067330278070e+01
1	 1.533290396903557e+00	 6.425938131953080e-01	-1.487857529849933e+01
1	 1.520147978177585e+00	 6.730946251723129e-01	-1.779664493345300e+01
1	 1.506346378932792e+00	 7.034392913878383e-01	-2.071256046698665e+01
1	 1.491887018118640e+00	 7.336070986294112e-01	-2.361361434689634e+01
1	 1.476772161355447e+00	 7.635772609459125e-01	-2.648675182536713e+01
1	 1.461004930847569e+00	 7.933289620482357e-01	-2.931861249050132e+01
1	 1.444589312790497e+00	 8.228413986632396e-01	-3.209557453562751e+01
1	 1.427530162181541e+00	 8.520938246705574e-01	-3.480380156029577e+01
1	 1.409833204956963e+00	 8.810655958428456e-01	-3.742929166964950e+01
1	 1.391505037392386e+00	 9.097362150022149e-01	-3.995792861309667e+01
1	 1.557395404279724e+00	 6.165586385144400e-01	-1.848795657879582e+01
1	 1.544818896130082e+00	 6.474253456264577e-01	-2.130412728851037e+01
1	 1.531577662226018e+00	 6.781554870167580e-01	-2.420454579663854e+01
1	 1.517672291558561e+00	 7.087283086172986e-01	-2.713941653327304e+01
1	 1.503104213745963e+00	 7.391229414771657e-01	-3.005765985186114e+01
1	 1.487875711443280e+00	 7.693184433598950e-01	-3.290709066012040e+01
1	 1.471989930330090e+00	 7.992938414629270e-01	-3.563460766774884e+01
1	 1.455450886573275e+00	 8.290281760975334e-01	-3.818639231450575e+01
1	 1.438263471673887e+00	 8.585005451574800e-01	-4.050811633244198e+01
1	 1.420433454620336e+00	 8.876901491956692e-01	-4.254515679313785e+01
1	 1.401967481284305e+00	 9.165763369200914e-01	-4.424281739626247e+01
1	 1.569017758044822e+00	 6.211598223856076e-01	-2.620395072325277e+01
1	 1.556347395357026e+00	 6.522568780581823e-01	-2.869512272368123e+01
1	 1.543007346274800e+00	 6.832163488618352e-01	-3.134332995002080e+01
1	 1.528998204184627e+00	 7.140173258474188e-01	-3.406171680563116e+01
1	 1.514321409373551e+00	 7.446387843255788e-01	-3.676125479504775e+01
1	 1.498979261531365e+00	 7.750596257745035e-01	-3.935105989590438e+01
1	 1.482974929812870e+00	 8.052587208781824e-01	-4.173872817881139e+01
1	 1.466312460356341e+00	 8.352149535322990e-01	-4.383068798654726e+01
1	 1.448996781166568e+00	 8.649072656447517e-01	-4.553256679331159e+01
1	 1.431033704284114e+00	 8.943147025486877e-01	-4.674957068680371e+01
1	 1.412429925176719e+00	 9.234164588379790e-01	-4.738687425316888e+01
1	 1.580640111810430e+00	 6.257610062572652e-01	-3.509221358471122e+01
1	 1.567875894584390e+00	 6.570884104904827e-01	-3.703026505750300e+01
1	 1.554437030323932e+00	 6.882772107075451e-01	-3.919687496815476e+01
1	 1.540324116810989e+00	 7.193063430781983e-01	-4.146853236781810e+01
1	 1.525538605001402e+00	 7.501546271746492e-01	-4.371867382125926e+01
1	 1.510082811619702e+00	 7.808008081897383e-01	-4.581813827391950e+01
1	 1.493959929295910e+00	 8.112236002940020e-01	-4.763564772959420e+01
1	 1.477174034139694e+00	 8.414017309675366e-01	-4.903831130412641e+01
1	 1.459730090659585e+00	 8.713139861323719e-01	-4.989214994976891e+01
1	 1.441633953948298e+00	 9.009392559019015e-01	-5.006263889245234e+01
1	 1.422892369069628e+00	 9.302565807558768e-01	-4.941526459388705e+01
1	 1.592262465576548e+00	 6.303621901294124e-01	-4.512707504532208e+01
1	 1.579404393812174e+00	 6.619199429233585e-01	-4.628887954042901e+01
1	 1.565866714373410e+00	 6.933380725538867e-01	-4.774952915333779e+01
1	 1.551650029437647e+00	 7.245953603096378e-01	-4.934925339603343e+01
1	 1.536755800629518e+00	 7.556704700243774e-01	-5.092435873895433e+01
1	 1.521186361708292e+00	 7.865419906055987e-01	-5.230781975460113e+01
1	 1.504944928779209e+00	 8.171884797103856e-01	-5.332990356743286e+01
1	 1.488035607923336e+00	 8.475885084032455e-01	-5.381882443559869e+01
1	 1.470463400152938e+00	 8.777207066203410e-01	-5.360142493984789e+01
1	 1.452234203612885e+00	 9.075638092553103e-01	-5.250387992874271e+01
1	 1.433354812963030e+00	 9.370967026737852e-01	-5.035241907194797e+01
1	 1.603884819343176e+00	 6.349633740020493e-01	-5.628360904859817e+01
1	 1.590932893040378e+00	 6.667514753568098e-01	-5.645089069100011e+01
1	 1.577296398423238e+00	 6.983989344008606e-01	-5.698609448025627e+01
1	 1.562975942064603e+00	 7.298843775417372e-01	-5.769357759759914e+01
1	 1.547972996257898e+00	 7.611863128747637e-01	-5.837291246359285e+01
1	 1.532289911797133e+00	 7.922831730220851e-01	-5.881961296619848e+01
1	 1.515929928262769e+00	 8.231533591273329e-01	-5.882590142524543e+01
1	 1.498897181707264e+00	 8.537752858394262e-01	-5.818151238501098e+01
1	 1.481196709646628e+00	 8.841274271086590e-01	-5.667452889756552e+01
1	 1.462834453277879e+00	 9.141883626089145e-01	-5.409224656014302e+01
1	 1.443817256856928e+00	 9.439368245917042e-01	-5.022206020595779e+01
1	 1.615507173110314e+00	 6.395645578751757e-01	-6.853760683461680e+01
1	 1.602461392269001e+00	 6.715830077908362e-01	-6.749680073943871e+01
1	 1.588726082473415e+00	 7.034597962484670e-01	-6.689181027683631e+01
1	 1.574301854691855e+00	 7.351733947744963e-01	-6.649149914868832e+01
1	 1.559190191886543e+00	 7.667021557258078e-01	-6.605909322242050e+01
1	 1.543393461886226e+00	 7.980243554391976e-01	-6.535304067715468e+01
1	 1.526914927746587e+00	 8.291182385448446e-01	-6.412792025226618e+01
1	 1.509758755491481e+00	 8.599620632760784e-01	-6.213539296204190e+01
1	 1.491930019140653e+00	 8.905341475973255e-01	-5.912519213292315e+01
1	 1.473434702943277e+00	 9.208129159627136e-01	-5.484614614780197e+01
1	 1.454279700751320e+00	 9.507769465096340e-01	-4.904722785207828e+01
1	 1.627129526877964e+00	 6.441657417487923e-01	-8.186555132228706e+01
1	 1.613989891498045e+00	 6.764145402254381e-01	-7.940766899508979e+01
1	 1.600155766523939e+00	 7.085206580967053e-01	-7.745233760448426e+01
1	 1.585627767319404e+00	 7.404624120079153e-01	-7.573329810615351e+01
1	 1.570407387515452e+00	 7.722179985775097e-01	-7.397780900761899e+01
1	 1.554497011975571e+00	 8.037655378569363e-01	-7.190763929110126e+01
1	 1.537899927230667e+00	 8.350831179629202e-01	-6.924011674203489e+01
1	 1.520620329275986e+00	 8.661488407132029e-01	-6.568922632465785e+01
1	 1.502663328635016e+00	 8.969408680863412e-01	-6.096675266133600e+01
1	 1.484034952609081e+00	 9.274374693167079e-01	-5.478346012823938e+01
1	 1.464742144646208e+00	 9.576170684275745e-01	-4.685030358482993e+01
1	 1.360117705719598e+00	 8.892158492486488e-01	-1.999500179998480e+01
1	 1.341593277844827e+00	 9.169255568526578e-01	-1.867918304297778e+01
1	 1.322467308569620e+00	 9.443014443144191e-01	-1.715813210001978e+01
1	 1.302748766623323e+00	 9.713241740187775e-01	-1.533197604345929e+01
1	 1.282447441638377e+00	 9.979747288431313e-01	-1.310122466366380e+01
1	 1.261573929795459e+00	 1.024234455404330e+00	-1.036720417515351e+01
1	 1.240139616749326e+00	 1.050085106526311e+00	-7.032491290721142e+00
1	 1.218156657885667e+00	 1.075508882729801e+00	-3.001344727440032e+00
1	 1.195637955975838e+00	 1.100488472549222e+00	 1.819868805100778e+00
1	 1.172597136312511e+00	 1.125007091487334e+00	 7.522257067298272e+00
1	 1.149048519425000e+00	 1.149048519425000e+00	 1.419399608863041e+01
1	 1.370580149610033e+00	 8.960559711664935e-01	-2.786115158013370e+01
1	 1.351913226135645e+00	 9.239788303679526e-01	-2.529273246814881e+01
1	 1.332640134019405e+00	 9.515653015797990e-01	-2.258859926378608e+01
1	 1.312769910980884e+00	 9.787958984359916e-01	-1.968653931519931e+01
1	 1.292312421957389e+00	 1.005651457528369e+00	-1.652458143409588e+01
1	 1.271278344638683e+00	 1.032113181986217e+00	-1.304126835491578e+01
1	 1.249679152261479e+00	 1.058162684270582e+00	-9.175929462473906e+00
1	 1.227527093714434e+00	 1.083782027983117e+00	-4.868951938914662e+00
1	 1.204835171020993e+00	 1.108953768493124e+00	-6.204847180014816e-02
1	 1.181617114283771e+00	 1.133660992191846e+00	 5.301480324796363e+00
1	 1.157887354190000e+00	 1.157887354190000e+00	 1.127649059508565e+01
1	 1.381042593500962e+00	 9.028960930843489e-01	-3.450627990537101e+01
1	 1.362233174427042e+00	 9.310321038830772e-01	-3.090838783914967e+01
1	 1.342812959469824e+00	 9.588291588448681e-01	-2.724277549005013e+01
1	 1.322791055339106e+00	 9.862676228527927e-01	-2.348445892281192e+01
1	 1.302177402277060e+00	 1.013328186213132e+00	-1.960855597936216e+01
1	 1.280982759482529e+00	 1.039991908567609e+00	-1.559039903869100e+01
1	 1.259218687774190e+00	 1.066240262014375e+00	-1.140564794666378e+01
1	 1.236897529543666e+00	 1.092055173236013e+00	-7.030402343822031e+00
1	 1.214032386066488e+00	 1.117419064436706e+00	-2.441312614684220e+00
1	 1.190637092255217e+00	 1.142314892896179e+00	 2.384311314480045e+00
1	 1.166726188955000e+00	 1.166726188955000e+00	 7.468394090917077e+00
1	 1.391505037392386e+00	 9.097362150022149e-01	-3.995792861309667e+01
1	 1.372553122719020e+00	 9.380853773980324e-01	-3.554865804445134e+01
1	 1.352985784920880e+00	 9.660930161096258e-01	-3.113817110071366e+01
1	 1.332812199697990e+00	 9.937393472691818e-01	-2.673829073840928e+01
1	 1.312042382597387e+00	 1.021004914897422e+00	-2.236080353761303e+01
1	 1.290687174326999e+00	 1.047870635148505e+00	-1.801741427526096e+01
1	 1.268758223287460e+00	 1.074317839757692e+00	-1.371970057085075e+01
1	 1.246267965373361e+00	 1.100328318488492e+00	-9.479067900252261e+00
1	 1.223229601112323e+00	 1.125884360379969e+00	-5.306705273264545e+00
1	 1.199657070226847e+00	 1.150968793600331e+00	-1.213541867477248e+00
1	 1.175565023720000e+00	 1.175565023720000e+00	 2.789795095062601e+00
1	 1.401967481284305e+00	 9.165763369200914e-01	-4.424281739626247e+01
1	 1.382873071011578e+00	 9.451386509128173e-01	-3.923538006537562e+01
1	 1.363158610372572e+00	 9.733568733740730e-01	-3.429177372148533e+01
1	 1.342833344057535e+00	 1.001211071685158e+00	-2.946021583194409e+01
1	 1.321907362918373e+00	 1.028681643581236e+00	-2.478875083242565e+01
1	 1.300391589172092e+00	 1.055749361728905e+00	-2.032504799254907e+01
1	 1.278297758801289e+00	 1.082395417500530e+00	-1.611619925729359e+01
1	 1.255638401203523e+00	 1.108601463740551e+00	-1.220851841828637e+01
1	 1.232426816158497e+00	 1.134349656322913e+00	-8.647342973366410e+00
1	 1.208677048198662e+00	 1.159622694304304e+00	-5.476840023267807e+00
1	 1.184403858485000e+00	 1.184403858485000e+00	-2.739817530778110e+00
1	 1.412429925176719e+00	 9.234164588379790e-01	-4.738687425316888e+01
1	 1.393193019304716e+00	 9.521919244274326e-01	-4.198974386154654e+01
1	 1.373331435824899e+00	 9.806207306382088e-01	-3.672006764099988e+01
1	 1.352854488417742e+00	 1.008682796100722e+00	-3.166205435277093e+01
1	 1.331772343240015e+00	 1.036358372264577e+00	-2.689960453630713e+01
1	 1.310096004017809e+00	 1.063628088308809e+00	-2.251595311320742e+01
1	 1.287837294315678e+00	 1.090472995242892e+00	-1.859331187129407e+01
1	 1.265008837034148e+00	 1.116874608992193e+00	-1.521251423214457e+01
1	 1.241624031205012e+00	 1.142814952265537e+00	-1.245266471410902e+01
1	 1.217697026170662e+00	 1.168276595008097e+00	-1.039079548684340e+01
1	 1.193242693250000e+00	 1.193242693250000e+00	-9.101532372617585e+00
1	 1.422892369069628e+00	 9.302565807558768e-01	-4.941526459388705e+01
1	 1.403512967598433e+00	 9.592451979418776e-01	-4.383231615845392e+01
1	 1.383504261277862e+00	 9.878845879020337e-01	-3.843905231585794e+01
1	 1.362875632778610e+00	 1.016154520515873e+00	-3.335527879878624e+01
1	 1.341637323562315e+00	 1.044035100947443e+00	-2.870035936080722e+01
1	 1.319800418864149e+00	 1.071506814888217e+00	-2.459270453275186e+01
1	 1.297376829830625e+00	 1.098550572984775e+00	-2.114926016446729e+01
1	 1.274379272865238e+00	 1.125147754243415e+00	-1.848499919562274e+01
1	 1.250821246251867e+00	 1.151280248207841e+00	-1.671242011227030e+01
1	 1.226717004142848e+00	 1.176930495711709e+00	-1.594105552348486e+01
1	 1.202081528015000e+00	 1.202081528015000e+00	-1.627699423448709e+01
1	 1.433354812963030e+00	 9.370967026737852e-01	-5.035241907194797e+01
1	 1.413832915892732e+00	 9.662984714561537e-01	-4.478306319322537e+01
1	 1.393677086731460e+00	 9.951484451655477e-01	-3.946426006522644e+01
1	 1.372896777140140e+00	 1.023626244930612e+00	-3.455102670443813e+01
1	 1.351502303885272e+00	 1.051711829629835e+00	-3.019780579231983e+01
1	 1.329504833711112e+00	 1.079385541467129e+00	-2.655780196726770e+01
1	 1.306916365346132e+00	 1.106628150726181e+00	-2.378231780808847e+01
1	 1.283749708696792e+00	 1.133420899494219e+00	-2.202009398429798e+01
1	 1.260018461299061e+00	 1.159745544149826e+00	-2.141665806587636e+01
1	 1.235736982115218e+00	 1.185584396415142e+00	-2.211368645639645e+01
1	 1.210920362780000e+00	 1.210920362780000e+00	-2.424838383851024e+01
1	 1.443817256856928e+00	 9.439368245917042e-01	-5.022206020595779e+01
1	 1.424152864187609e+00	 9.733517449702592e-01	-4.486137247145217e+01
1	 1.403849912185693e+00	 1.002412302428751e+00	-3.981077299610862e+01
1	 1.382917921502332e+00	 1.031097969344938e+00	-3.526011277708312e+01
1	 1.361367284208887e+00	 1.059388558311753e+00	-3.139853749154503e+01
1	 1.339209248558698e+00	 1.087264268045545e+00	-2.841367267730213e+01
1	 1.316455900862197e+00	 1.114705728467110e+00	-2.649080851194542e+01
1	 1.293120144528811e+00	 1.141694044744604e+00	-2.581208968894230e+01
1	 1.269215676346595e+00	 1.168210840091492e+00	-2.655571591067856e+01
1	 1.244756960087773e+00	 1.194238297118396e+00	-2.889515848344859e+01
1	 1.219759197545000e+00	 1.219759197545000e+00	-3.299839840758195e+01
1	 1.454279700751320e+00	 9.507769465096340e-01	-4.904722785207828e+01
1	 1.434472812483067e+00	 9.804050184841950e-01	-4.408607358487158e+01
1	 1.414022737640563e+00	 1.009676159691643e+00	-3.949323919802642e+01
1	 1.392939065865185e+00	 1.038569693758851e+00	-3.549304050947207e+01
1	 1.371232264533160e+00	 1.067065286993196e+00	-3.230895837355034e+01
1	 1.348913663406908e+00	 1.095142994623464e+00	-3.016267407417829e+01
1	 1.325995436378822e+00	 1.122783306207561e+00	-2.927310422439227e+01
1	 1.302490580361295e+00	 1.149967189994570e+00	-2.985544168548028e+01
1	 1.278412891394469e+00	 1.176676136032838e+00	-3.212020904469621e+01
1	 1.253776938060513e+00	 1.202892197821469e+00	-3.627233114931316e+01
1	 1.228598032310000e+00	 1.228598032310000e+00	-4.251023308620574e+01
1	 1.464742144646208e+00	 9.576170684275745e-01	-4.685030358482993e+01
1	 1.444792760779105e+00	 9.874582919979614e-01	-4.247545813686190e+01
1	 1.424195563096069e+00	 1.016940016954224e+00	-3.852588824364547e+01
1	 1.402960210228699e+00	 1.046041418172352e+00	-3.526001329455727e+01
1	 1.381097244858090e+00	 1.074742015674165e+00	-3.293528938440032e+01
1	 1.358618078255741e+00	 1.103021721200889e+00	-3.180709621461075e+01
1	 1.335534971896006e+00	 1.130860883947535e+00	-3.212762340954370e+01
1	 1.311861016194242e+00	 1.158240335244118e+00	-3.414476376766193e+01
1	 1.287610106442683e+00	 1.185141431973866e+00	-3.810102099742205e+01
1	 1.262796916033438e+00	 1.211546098524362e+00	-4.423243944022160e+01
1	 1.237436867075000e+00	 1.237436867075000e+00	-5.276756315758043e+01
1	 1.149048519425000e+00	 1.149048519425000e+00	 1.419399608863041e+01
1	 1.125007091487334e+00	 1.172597136312511e+00	 1.851774293965091e+01
1	 1.100488472549222e+00	 1.195637955975838e+00	 2.247119840358314e+01
1	 1.075508882729801e+00	 1.218156657885667e+00	 2.596401384607332e+01
1	 1.050085106526311e+00	 1.240139616749326e+00	 2.890809124198582e+01
1	 1.024234455404330e+00	 1.261573929795459e+00	 3.121794661616443e+01
1	 9.979747288431317e-01	 1.282447441638376e+00	 3.281105762493246e+01
1	 9.713241740187781e-01	 1.302748766623323e+00	 3.360819305400897e+01
1	 9.443014443144199e-01	 1.322467308569620e+00	 3.353372217727993e+01
1	 9.169255568526588e-01	 1.341593277844826e+00	 3.251590210889002e+01
1	 8.892158492486486e-01	 1.360117705719598e+00	 3.048714148586499e+01
1	 1.157887354190000e+00	 1.157887354190000e+00	 1.127649059508565e+01
1	 1.133660992191846e+00	 1.181617114283772e+00	 1.402135580353395e+01
1	 1.108953768493124e+00	 1.204835171020993e+00	 1.673121941949629e+01
1	 1.083782027983116e+00	 1.227527093714434e+00	 1.935412172833279e+01
1	 1.058162684270582e+00	 1.249679152261479e+00	 2.183877554113777e+01
1	 1.032113181986218e+00	 1.271278344638683e+00	 2.413477912831518e+01
1	 1.005651457528369e+00	 1.292312421957389e+00	 2.619282324835215e+01
1	 9.787958984359921e-01	 1.312769910980883e+00	 2.796489092754302e+01
1	 9.515653015798000e-01	 1.332640134019404e+00	 2.940444871789868e+01
1	 9.239788303679534e-01	 1.351913226135644e+00	 3.046662824417758e+01
1	 8.960559711664935e-01	 1.370580149610033e+00	 3.110839694574811e+01
1	 1.166726188955000e+00	 1.166726188955000e+00	 7.468394090917077e+00
1	 1.142314892896179e+00	 1.190637092255217e+00	 8.866628704074966e+00
1	 1.117419064436706e+00	 1.214032386066488e+00	 1.055954160828895e+01
1	 1.092055173236014e+00	 1.236897529543666e+00	 1.253313050145075e+01
1	 1.066240262014376e+00	 1.259218687774190e+00	 1.477250390139217e+01
1	 1.039991908567610e+00	 1.280982759482529e+00	 1.726194500040955e+01
1	 1.013328186213133e+00	 1.302177402277059e+00	 1.998497947758929e+01
1	 9.862676228527935e-01	 1.322791055339106e+00	 2.292444679693171e+01
1	 9.588291588448689e-01	 1.342812959469824e+00	 2.606257449431593e+01
1	 9.310321038830781e-01	 1.362233174427042e+00	 2.938105493665622e+01
1	 9.028960930843491e-01	 1.381042593500963e+00	 3.286112402234131e+01
1	 1.175565023720000e+00	 1.175565023720000e+00	 2.789795095062601e+00
1	 1.150968793600331e+00	 1.199657070226847e+00	 3.068411414846502e+00
1	 1.125884360379969e+00	 1.223229601112323e+00	 3.965902537490824e+00
1	 1.100328318488492e+00	 1.246267965373361e+00	 5.505801799483353e+00
1	 1.074317839757692e+00	 1.268758223287460e+00	 7.709207659726163e+00
1	 1.047870635148505e+00	 1.290687174326999e+00	 1.059469987093290e+01
1	 1.021004914897422e+00	 1.312042382597387e+00	 1.417826938164181e+01
1	 9.937393472691824e-01	 1.332812199697989e+00	 1.847326236143660e+01
1	 9.660930161096266e-01	 1.352985784920880e+00	 2.349033862140271e+01
1	 9.380853773980332e-01	 1.372553122719020e+00	 2.923744457964392e+01
1	 9.097362150022150e-01	 1.391505037392387e+00	 3.571980079935443e+01
1	 1.184403858485000e+00	 1.184403858485000e+00	-2.739817530778110e+00
1	 1.159622694304304e+00	 1.208677048198662e+00	-3.358889567375805e+00
1	 1.134349656322913e+00	 1.232426816158497e+00	-3.040250899012297e+00
1	 1.108601463740551e+00	 1.255638401203522e+00	-1.723244881838979e+00
1	 1.082395417500531e+00	 1.278297758801290e+00	 6.488202027592236e-01
1	 1.055749361728906e+00	 1.300391589172092e+00	 4.128441001100854e+00
1	 1.028681643581237e+00	 1.321907362918372e+00	 8.763712355806906e+00
1	 1.001211071685159e+00	 1.342833344057535e+00	 1.459814523975246e+01
1	 9.733568733740733e-01	 1.363158610372571e+00	 2.167051038972224e+01
1	 9.451386509128182e-01	 1.382873071011578e+00	 3.001470845026912e+01
1	 9.165763369200917e-01	 1.401967481284305e+00	 3.965966720878922e+01
1	 1.193242693250000e+00	 1.193242693250000e+00	-9.101532372617585e+00
1	 1.168276595008097e+00	 1.217697026170663e+00	-1.040129460495430e+01
1	 1.142814952265537e+00	 1.241624031205012e+00	-1.044975171528883e+01
1	 1.116874608992193e+00	 1.265008837034148e+00	-9.149526920728482e+00
1	 1.090472995242892e+00	 1.287837294315678e+00	-6.408723109159860e+00
1	 1.063628088308809e+00	 1.310096004017808e+00	-2.141297970426042e+00
1	 1.036358372264577e+00	 1.331772343240015e+00	 3.732593887374840e+00
1	 1.008682796100723e+00	 1.352854488417742e+00	 1.128629393595277e+01
1	 9.806207306382095e-01	 1.373331435824898e+00	 2.058636962939282e+01
1	 9.521919244274334e-01	 1.393193019304715e+00	 3.169238267673639e+01
1	 9.234164588379790e-01	 1.412429925176719e+00	 4.465669681433365e+01
1	 1.202081528015000e+00	 1.202081528015000e+00	-1.627699423448709e+01
1	 1.176930495711710e+00	 1.226717004142848e+00	-1.804523522604020e+01
1	 1.151280248207841e+00	 1.250821246251867e+00	-1.825370254262776e+01
1	 1.125147754243415e+00	 1.274379272865238e+00	-1.676869353721052e+01
1	 1.098550572984775e+00	 1.297376829830625e+00	-1.346348501451555e+01
1	 1.071506814888217e+00	 1.319800418864148e+00	-8.218852041419606e+00
1	 1.044035100947444e+00	 1.341637323562315e+00	-9.235442271653023e-01
1	 1.016154520515874e+00	 1.362875632778610e+00	 8.525283468704536e+00
1	 9.878845879020346e-01	 1.383504261277861e+00	 2.022168794025114e+01
1	 9.592451979418788e-01	 1.403512967598433e+00	 3.425060526585928e+01
1	 9.302565807558767e-01	 1.422892369069627e+00	 5.068756983960830e+01
1	 1.210920362780000e+00	 1.210920362780000e+00	-2.424838383851024e+01
1	 1.185584396415142e+00	 1.235736982115218e+00	-2.627753911852342e+01
1	 1.159745544149826e+00	 1.260018461299061e+00	-2.644346578949504e+01
1	 1.133420899494219e+00	 1.283749708696792e+00	-2.457652098137838e+01
1	 1.106628150726181e+00	 1.306916365346132e+00	-2.051552642001198e+01
1	 1.079385541467129e+00	 1.329504833711111e+00	-1.410842964037457e+01
1	 1.051711829629836e+00	 1.351502303885272e+00	-5.212913236476060e+00
1	 1.023626244930612e+00	 1.372896777140139e+00	 6.303051629858833e+00
1	 9.951484451655483e-01	 1.393677086731459e+00	 2.056071074405082e+01
1	 9.662984714561544e-01	 1.413832915892731e+00	 3.767009413668751e+01
1	 9.370967026737852e-01	 1.433354812963030e+00	 5.772964737765535e+01
1	 1.219759197545000e+00	 1.219759197545000e+00	-3.299839840758195e+01
1	 1.194238297118396e+00	 1.244756960087773e+00	-3.508541577641983e+01
1	 1.168210840091492e+00	 1.269215676346595e+00	-3.501065422931712e+01
1	 1.141694044744604e+00	 1.293120144528811e+00	-3.256890793085484e+01
1	 1.114705728467110e+00	 1.316455900862197e+00	-2.756490646694179e+01
1	 1.087264268045545e+00	 1.339209248558698e+00	-1.981411721235186e+01
1	 1.059388558311753e+00	 1.361367284208887e+00	-9.143486382010932e+00
1	 1.031097969344938e+00	 1.382917921502331e+00	 4.607885840495177e+00
1	 1.002412302428751e+00	 1.403849912185693e+00	 2.158814011700220e+01
1	 9.733517449702599e-01	 1.424152864187609e+00	 4.193212610919112e+01
1	 9.439368245917042e-01	 1.443817256856928e+00	 6.576094672175611e+01
1	 1.228598032310000e+00	 1.228598032310000e+00	-4.251023308620574e+01
1	 1.202892197821469e+00	 1.253776938060513e+00	-4.445644276583870e+01
1	 1.176676136032838e+00	 1.278412891394469e+00	-4.394712199454758e+01
1	 1.149967189994570e+00	 1.302490580361294e+00	-4.074187108692453e+01
1	 1.122783306207561e+00	 1.325995436378822e+00	-3.461168259468973e+01
1	 1.095142994623465e+00	 1.348913663406907e+00	-2.533988360687191e+01
1	 1.067065286993196e+00	 1.371232264533159e+00	-1.272300745942499e+01
1	 1.038569693758852e+00	 1.392939065865184e+00	 3.428410574329844e+00
1	 1.009676159691643e+00	 1.414022737640563e+00	 2.328911836335141e+01
1	 9.804050184841961e-01	 1.434472812483067e+00	 4.701851679991223e+01
1	 9.507769465096340e-01	 1.454279700751320e+00	 7.476011776110400e+01
1	 1.237436867075000e+00	 1.237436867075000e+00	-5.276756315758043e+01
1	 1.211546098524362e+00	 1.262796916033438e+00	-5.437855257955194e+01
1	 1.185141431973866e+00	 1.287610106442683e+00	-5.324495595670301e+01
1	 1.158240335244119e+00	 1.311861016194243e+00	-4.909154095940326e+01
1	 1.130860883947535e+00	 1.335534971896005e+00	-4.165591060151559e+01
1	 1.103021721200889e+00	 1.358618078255741e+00	-3.068958427775565e+01
1	 1.074742015674166e+00	 1.381097244858090e+00	-1.595899901306772e+01
1	 1.046041418172353e+00	 1.402960210228699e+00	 2.753575320121834e+00
1	 1.016940016954224e+00	 1.424195563096068e+00	 2.564921229295117e+01
1	 9.874582919979624e-01	 1.444792760779105e+00	 5.291160137922861e+01
1	 9.576170684275745e-01	 1.464742144646208e+00	 8.470642038809261e+01
1	 8.892158492486486e-01	 1.360117705719598e+00	 3.048714148586499e+01
1	 8.611919357855461e-01	 1.378032455969275e+00	 2.875296370314523e+01
1	 8.328736632118816e-01	 1.395330233706523e+00	 2.700611733398914e+01
1	 8.042810663631879e-01	 1.412004591443889e+00	 2.526386915165968e+01
1	 7.754343238075456e-01	 1.428049932401566e+00	 2.354304966280937e+01
1	 7.463537137077207e-01	 1.443461511093458e+00	 2.185999399572597e+01
1	 7.170595700900940e-01	 1.458235431238257e+00	 2.023048667205287e+01
1	 6.875722397034173e-01	 1.472368641057263e+00	 1.866971052243934e+01
1	 6.579120396427711e-01	 1.485858926034374e+00	 1.719219996582808e+01
1	 6.280992159053126e-01	 1.498704899226502e+00	 1.581179883045765e+01
1	 5.981539030346663e-01	 1.510905989224438e+00	 1.454162285268215e+01
1	 8.960559711664935e-01	 1.370580149610033e+00	 3.110839694574811e+01
1	 8.678164891377838e-01	 1.388632705631433e+00	 3.230583882380265e+01
1	 8.392803836977581e-01	 1.406063543197860e+00	 3.268505473178162e+01
1	 8.104678437960666e-01	 1.422866165225804e+00	 3.224237395191618e+01
1	 7.813992032205448e-01	 1.439034931883307e+00	 3.097721414907430e+01
1	 7.520948961198254e-01	 1.454565061180535e+00	 2.889203118307276e+01
1	 7.225754129358753e-01	 1.469452626864787e+00	 2.599225416678736e+01
1	 6.928612569308982e-01	 1.483694553682143e+00	 2.228620653652030e+01
1	 6.629729014853196e-01	 1.497288610081763e+00	 1.778501399381997e+01
1	 6.329307483347361e-01	 1.510233398451768e+00	 1.250250025935251e+01
1	 6.027550869038751e-01	 1.522528342987494e+00	 6.455071648950351e+00
1	 9.028960930843491e-01	 1.381042593500963e+00	 3.286112402234131e+01
1	 8.744410424902173e-01	 1.399232955293995e+00	 3.682205714693897e+01
1	 8.456871041839830e-01	 1.416796852689532e+00	 3.917246782428872e+01
1	 8.166546212294176e-01	 1.433727739008007e+00	 3.988794232532713e+01
1	 7.873640826341083e-01	 1.450019931365309e+00	 3.895064387372909e+01
1	 7.578360785325561e-01	 1.465668611267865e+00	 3.634927138077532e+01
1	 7.280912557823146e-01	 1.480669822491582e+00	 3.207898495747245e+01
1	 6.981502741590386e-01	 1.495020466307319e+00	 2.614129947161872e+01
1	 6.680337633285006e-01	 1.508718294129499e+00	 1.854394764254875e+01
1	 6.377622807647348e-01	 1.521761897677452e+00	 9.300714369706427e+00
1	 6.073562707735738e-01	 1.534150696751061e+00	-1.568755828748518e+00
1	 9.097362150022150e-01	 1.391505037392387e+00	 3.571980079935443e+01
1	 8.810655958428457e-01	 1.409833204956963e+00	 4.227988912658037e+01
1	 8.520938246705574e-01	 1.427530162181541e+00	 4.645012031762571e+01
1	 8.228413986632397e-01	 1.444589312790497e+00	 4.818552772511492e+01
1	 7.933289620482358e-01	 1.461004930847569e+00	 4.745117495918418e+01
1	 7.635772609459127e-01	 1.476772161355446e+00	 4.422212354342131e+01
1	 7.336070986294119e-01	 1.491887018118641e+00	 3.848334904484653e+01
1	 7.034392913878393e-01	 1.506346378932792e+00	 3.022960744215665e+01
1	 6.730946251723136e-01	 1.520147978177585e+00	 1.946525385273382e+01
1	 6.425938131953089e-01	 1.533290396903557e+00	 6.204016063270274e+00
1	 6.119574546437619e-01	 1.545773050515137e+00	-9.531274401451000e+00
1	 9.165763369200917e-01	 1.401967481284305e+00	 3.965966720878922e+01
1	 8.876901491956691e-01	 1.420433454620336e+00	 4.865825385994886e+01
1	 8.585005451574801e-01	 1.438263471673887e+00	 5.450032028491066e+01
1	 8.290281760975334e-01	 1.455450886573275e+00	 5.712053275516600e+01
1	 7.992938414629273e-01	 1.471989930330090e+00	 5.646700662867899e+01
1	 7.693184433598954e-01	 1.487875711443280e+00	 5.250128292546445e+01
1	 7.391229414771665e-01	 1.503104213745964e+00	 4.519823523559621e+01
1	 7.087283086172992e-01	 1.517672291558560e+00	 3.454590921585631e+01
1	 6.781554870167587e-01	 1.531577662226018e+00	 2.054529741760810e+01
1	 6.474253456264587e-01	 1.544818896130081e+00	 3.210052632784787e+00
1	 6.165586385144400e-01	 1.557395404279724e+00	-1.743385665673062e+01
1	 9.234164588379790e-01	 1.412429925176719e+00	 4.465669681433365e+01
1	 8.943147025486875e-01	 1.431033704284114e+00	 5.593669506363737e+01
1	 8.649072656447517e-01	 1.448996781166568e+00	 6.330590000452397e+01
1	 8.352149535322991e-01	 1.466312460356341e+00	 6.667879253481807e+01
1	 8.052587208781826e-01	 1.482974929812870e+00	 6.598668775810521e+01
1	 7.750596257745040e-01	 1.498979261531365e+00	 6.117772047752562e+01
1	 7.446387843255793e-01	 1.514321409373550e+00	 5.221674303843223e+01
1	 7.140173258474193e-01	 1.528998204184626e+00	 3.908513826361606e+01
1	 6.832163488618361e-01	 1.543007346274800e+00	 2.178055084023285e+01
1	 6.522568780581836e-01	 1.556347395357025e+00	 3.165410808337974e-01
1	 6.211598223856076e-01	 1.569017758044822e+00	-2.527783451290105e+01
1	 9.302565807558767e-01	 1.422892369069627e+00	 5.068756983960830e+01
1	 9.009392559019015e-01	 1.441633953948297e+00	 6.409535810966305e+01
1	 8.713139861323717e-01	 1.459730090659585e+00	 7.285019668785337e+01
1	 8.414017309675366e-01	 1.477174034139694e+00	 7.684655879756023e+01
1	 8.112236002940023e-01	 1.493959929295910e+00	 7.599910402112944e+01
1	 7.808008081897385e-01	 1.510082811619702e+00	 7.024267271050418e+01
1	 7.501546271746498e-01	 1.525538605001402e+00	 5.953217491769242e+01
1	 7.193063430781990e-01	 1.540324116810988e+00	 4.384237707189619e+01
1	 6.882772107075457e-01	 1.554437030323931e+00	 2.316759037357759e+01
1	 6.570884104904839e-01	 1.567875894584390e+00	-2.478734443017593e+00
1	 6.257610062572652e-01	 1.580640111810430e+00	-3.306450071420957e+01
1	 9.370967026737852e-01	 1.433354812963030e+00	 5.772964737765535e+01
1	 9.075638092553103e-01	 1.452234203612885e+00	 7.311496806723638e+01
1	 8.777207066203410e-01	 1.470463400152938e+00	 8.311703405108234e+01
1	 8.475885084032457e-01	 1.488035607923335e+00	 8.761048468613284e+01
1	 8.171884797103856e-01	 1.504944928779209e+00	 8.649346559730239e+01
1	 7.865419906055990e-01	 1.521186361708291e+00	 7.968763200359757e+01
1	 7.556704700243780e-01	 1.536755800629518e+00	 6.713802888619996e+01
1	 7.245953603096386e-01	 1.551650029437648e+00	 4.881285170419208e+01
1	 6.933380725538877e-01	 1.565866714373410e+00	 2.470309223402743e+01
1	 6.619199429233596e-01	 1.579404393812174e+00	-5.177925092842907e+00
1	 6.303621901294124e-01	 1.592262465576548e+00	-4.079511026054678e+01
1	 9.439368245917042e-01	 1.443817256856928e+00	 6.576094672175611e+01
1	 9.141883626089141e-01	 1.462834453277879e+00	 8.297680869924164e+01
1	 8.841274271086591e-01	 1.481196709646628e+00	 9.409070468820393e+01
1	 8.537752858394263e-01	 1.498897181707264e+00	 9.895761020871571e+01
1	 8.231533591273332e-01	 1.515929928262769e+00	 9.745929541459964e+01
1	 7.922831730220854e-01	 1.532289911797133e+00	 8.950433733370915e+01
1	 7.611863128747642e-01	 1.547972996257898e+00	 7.502799142017621e+01
1	 7.298843775417380e-01	 1.562975942064603e+00	 5.399192659897069e+01
1	 6.983989344008616e-01	 1.577296398423238e+00	 2.638382897951907e+01
1	 6.667514753568107e-01	 1.590932893040377e+00	-7.783119670425682e+00
1	 6.349633740020493e-01	 1.603884819343176e+00	-4.847088177499646e+01
1	 9.507769465096340e-01	 1.454279700751320e+00	 7.476011776110400e+01
1	 9.208129159627132e-01	 1.473434702943277e+00	 9.366270236533961e+01
1	 8.905341475973253e-01	 1.491930019140653e+00	 1.057559532049116e+02
1	 8.599620632760784e-01	 1.509758755491480e+00	 1.108753483229038e+02
1	 8.291182385448447e-01	 1.526914927746587e+00	 1.088864178994782e+02
1	 7.980243554391980e-01	 1.543393461886226e+00	 9.968476540502874e+01
1	 7.667021557258082e-01	 1.559190191886543e+00	 8.319593067997920e+01
1	 7.351733947744968e-01	 1.574301854691855e+00	 5.937509959215092e+01
1	 7.034597962484678e-01	 1.588726082473414e+00	 2.820666604401902e+01
1	 6.715830077908371e-01	 1.602461392269001e+00	-1.029634686814690e+01
1	 6.395645578751757e-01	 1.615507173110314e+00	-5.609299881235341e+01
1	 9.576170684275745e-01	 1.464742144646208e+00	 8.470642038809261e+01
1	 9.274374693167079e-01	 1.484034952609081e+00	 1.051549907863673e+02
1	 8.969408680863412e-01	 1.502663328635016e+00	 1.180979600753247e+02
1	 8.661488407132029e-01	 1.520620329275986e+00	 1.233514716160863e+02
1	 8.350831179629206e-01	 1.537899927230666e+00	 1.207649482090744e+02
1	 8.037655378569366e-01	 1.554497011975572e+00	 1.102211221587722e+02
1	 7.722179985775102e-01	 1.570407387515452e+00	 9.163589002138582e+01
1	 7.404624120079161e-01	 1.585627767319404e+00	 6.495799715290988e+01
1	 7.085206580967063e-01	 1.600155766523939e+00	 3.016855842052133e+01
1	 6.764145402254393e-01	 1.613989891498045e+00	-1.271957741574954e+01
1	 6.441657417487923e-01	 1.627129526877964e+00	-6.366261111156196e+01
1	 5.981539030346663e-01	 1.510905989224438e+00	 1.454162285268215e+01
1	 5.680960850001699e-01	 1.522462425874857e+00	 2.805274498553599e+01
1	 5.379455574460040e-01	 1.533375223883753e+00	 3.868248332342027e+01
1	 5.077218914329504e-01	 1.543646164429884e+00	 4.646774757734304e+01
1	 4.774443987833440e-01	 1.553277774923845e+00	 5.145340006725672e+01
1	 4.471320991271144e-01	 1.562273307054313e+00	 5.369184799763554e+01
1	 4.168036887336734e-01	 1.570636713267633e+00	 5.324261321871389e+01
1	 3.864775112014002e-01	 1.578372621830225e+00	 5.017188298536928e+01
1	 3.561715300634782e-01	 1.585486310625523e+00	 4.455204521617650e+01
1	 3.259033033559552e-01	 1.591983679838119e+00	 3.646121171352206e+01
1	 2.956899601812942e-01	 1.597871223677692e+00	 2.598273273406640e+01
1	 6.027550869038751e-01	 1.522528342987494e+00	 6.455071648950351e+00
1	 5.724660548848367e-01	 1.534173675303793e+00	 1.540571792168010e+01
1	 5.420836001959101e-01	 1.545170417912212e+00	 2.298439889472754e+01
1	 5.116274444444988e-01	 1.555520365692882e+00	 2.919498569859612e+01
1	 4.811170480054178e-01	 1.565226065498014e+00	 3.404489864354665e+01
1	 4.505715768134437e-01	 1.574290794029277e+00	 3.754498289029521e+01
1	 4.200098709554459e-01	 1.582718534136446e+00	 3.970937234613134e+01
1	 3.894504151344075e-01	 1.590513949687990e+00	 4.055534304187844e+01
1	 3.589113110645378e-01	 1.597682359166444e+00	 4.010315726967531e+01
1	 3.284102518437008e-01	 1.604229708142433e+00	 3.837589977317568e+01
1	 2.979644983366877e-01	 1.610162540781094e+00	 3.539930728100147e+01
1	 6.073562707735738e-01	 1.534150696751061e+00	-1.568755828748518e+00
1	 5.768360247698988e-01	 1.545884924733330e+00	 2.744795836552871e+00
1	 5.462216429461266e-01	 1.556965611941338e+00	 7.173609186207718e+00
1	 5.155329974562838e-01	 1.567394566956594e+00	 1.168898199478133e+01
1	 4.847896972276649e-01	 1.577174356072925e+00	 1.626140030876784e+01
1	 4.540110544998927e-01	 1.586308281004989e+00	 2.086069470304245e+01
1	 4.232160531772945e-01	 1.594800355005994e+00	 2.545619541345059e+01
1	 3.924233190674576e-01	 1.602655277546456e+00	 3.001688536457580e+01
1	 3.616510920656160e-01	 1.609878407708013e+00	 3.451155016995286e+01
1	 3.309172003314512e-01	 1.616475736447324e+00	 3.890892424635334e+01
1	 3.002390364920813e-01	 1.622453857884982e+00	 4.317783225319093e+01
1	 6.119574546437619e-01	 1.545773050515137e+00	-9.531274401451000e+00
1	 5.812059946553556e-01	 1.557596174163466e+00	-9.929707848368205e+00
1	 5.503596856966543e-01	 1.568760805971133e+00	-8.747343577777936e+00
1	 5.194385504683057e-01	 1.579268768221021e+00	-6.045002440266823e+00
1	 4.884623464500848e-01	 1.589122646648578e+00	-1.888636360091795e+00
1	 4.574505321864613e-01	 1.598325767981450e+00	 3.651105761029250e+00
1	 4.264222353992193e-01	 1.606882175876276e+00	 1.049932157994682e+01
1	 3.953962230005502e-01	 1.614796605405623e+00	 1.857730509031494e+01
1	 3.643908730667133e-01	 1.622074456250230e+00	 2.780299953697854e+01
1	 3.334241488192061e-01	 1.628721764752790e+00	 3.809145047705238e+01
1	 3.025135746474747e-01	 1.634745174989355e+00	 4.935525613719138e+01
1	 6.165586385144400e-01	 1.557395404279724e+00	-1.743385665673062e+01
1	 5.855759645412076e-01	 1.569307423594202e+00	-2.261748906746982e+01
1	 5.544977284474925e-01	 1.580556000001596e+00	-2.477599306016045e+01
1	 5.233441034805644e-01	 1.591142969486163e+00	-2.400186356028789e+01
1	 4.921349956726781e-01	 1.601070937224973e+00	-2.039700528087607e+01
1	 4.608900098731494e-01	 1.610343254958658e+00	-1.407202347104008e+01
1	 4.296284176212204e-01	 1.618963996747293e+00	-5.145494746124035e+00
1	 3.983691269336854e-01	 1.626937933265491e+00	 6.256776605598405e+00
1	 3.671306540678292e-01	 1.634270504793095e+00	 2.000251156923105e+01
1	 3.359310973069657e-01	 1.640967793058833e+00	 3.595371350049092e+01
1	 3.047881128028683e-01	 1.647036492094213e+00	 5.396742447965548e+01
1	 6.211598223856076e-01	 1.569017758044822e+00	-2.527783451290105e+01
1	 5.899459344274547e-01	 1.581018673025537e+00	-3.531825276449019e+01
1	 5.586357711986415e-01	 1.592351194032726e+00	-4.090994600052295e+01
1	 5.272496564930597e-01	 1.603017170752021e+00	-4.217664855001818e+01
1	 4.958076448954447e-01	 1.613019227802109e+00	-3.925574351459900e+01
1	 4.643294875599572e-01	 1.622360741936614e+00	-3.229728098667077e+01
1	 4.328345998432976e-01	 1.631045817619043e+00	-2.146296595378401e+01
1	 4.013420308668634e-01	 1.639079261126060e+00	-6.925123462668543e+00
1	 3.698704350689641e-01	 1.646466553336608e+00	 1.113435154079033e+01
1	 3.384380457947301e-01	 1.653213821365451e+00	 3.252505249898907e+01
1	 3.070626509582619e-01	 1.659327809199556e+00	 5.704912073695798e+01
1	 6.257610062572652e-01	 1.580640111810430e+00	-3.306450071420957e+01
1	 5.943159043140965e-01	 1.592729922457472e+00	-4.803171256129257e+01
1	 5.627738139501012e-01	 1.604146388064524e+00	-5.714687952845902e+01
1	 5.311552095057922e-01	 1.614891372018594e+00	-6.056455026522858e+01
1	 4.994802941183842e-01	 1.624967518379987e+00	-5.845712232635935e+01
1	 4.677689652468848e-01	 1.634378228915318e+00	-5.101359042661367e+01
1	 4.360407820654509e-01	 1.643127638491529e+00	-3.843825406766845e+01
1	 4.043149348000838e-01	 1.651220588987329e+00	-2.094939427072274e+01
1	 3.726102160701177e-01	 1.658662601880768e+00	 1.222071041204365e+00
1	 3.409449942824992e-01	 1.665459849672645e+00	 2.783394373773751e+01
1	 3.093371891136554e-01	 1.671619126305386e+00	 5.863410532263300e+01
1	 6.303621901294124e-01	 1.592262465576548e+00	-4.079511026054678e+01
1	 5.986858742011336e-01	 1.604441171890006e+00	-6.075759044114540e+01
1	 5.669118567018716e-01	 1.615941582096991e+00	-7.348453859459438e+01
1	 5.350607625187613e-01	 1.626765573285882e+00	-7.916090191626263e+01
1	 5.031529433414970e-01	 1.636915808958607e+00	-7.799363863774498e+01
1	 4.712084429339320e-01	 1.646395715894772e+00	-7.021019882896621e+01
1	 4.392469642876805e-01	 1.655209459364748e+00	-5.605695433796718e+01
1	 4.072878387333470e-01	 1.663361916849300e+00	-3.579758974395997e+01
1	 3.753499970712901e-01	 1.670858650425577e+00	-9.711465977629183e+00
1	 3.434519427702728e-01	 1.677705877980415e+00	 2.190803205812336e+01
1	 3.116117272690490e-01	 1.683910443411700e+00	 5.875515294470368e+01
1	 6.349633740020493e-01	 1.603884819343176e+00	-4.847088177499646e+01
1	 6.030558440885656e-01	 1.616152421323141e+00	-7.349561644577282e+01
1	 5.710498994539527e-01	 1.627736776130124e+00	-8.992073351330279e+01
1	 5.389663155319673e-01	 1.638639774553884e+00	-9.796117198272714e+01
1	 5.068255925647830e-01	 1.648864099537968e+00	-9.785800685087506e+01
1	 4.746479206210989e-01	 1.658413202874972e+00	-8.987666491187676e+01
1	 4.424531465099864e-01	 1.667291280238702e+00	-7.430507954384665e+01
1	 4.102607426666527e-01	 1.675503244711971e+00	-5.145179847660229e+01
1	 3.780897780724816e-01	 1.683054698971034e+00	-2.164405828705573e+01
1	 3.459588912580512e-01	 1.689951906288762e+00	 1.477416100178092e+01
1	 3.138862654244425e-01	 1.696201760518499e+00	 5.744408831965053e+01
1	 6.395645578751757e-01	 1.615507173110314e+00	-5.609299881235341e+01
1	 6.074258139763925e-01	 1.627863670756874e+00	-8.624552838548249e+01
1	 5.751879422063448e-01	 1.639531970163926e+00	-1.064533376114928e+02
1	 5.428718685454100e-01	 1.650513975822602e+00	-1.169609593476898e+02
1	 5.104982417882420e-01	 1.660812390118072e+00	-1.180431510253567e+02
1	 4.780873983083853e-01	 1.670430689855921e+00	-1.100028478620335e+02
1	 4.456593287323683e-01	 1.679373101113391e+00	-9.316904497442306e+01
1	 4.132336466000011e-01	 1.687644572575344e+00	-6.789462449900759e+01
1	 3.808295590736919e-01	 1.695250747517139e+00	-3.455414354269828e+01
1	 3.484658397458342e-01	 1.702197934597684e+00	 6.458401634323756e+00
1	 3.161608035798359e-01	 1.708493077625785e+00	 5.473182034476966e+01
1	 6.441657417487923e-01	 1.627129526877964e+00	-6.366261111156196e+01
1	 6.117957838646149e-01	 1.639574920191208e+00	-9.900707156171561e+01
1	 5.793259849590476e-01	 1.651327164198396e+00	-1.230802849781606e+02
1	 5.467774215590897e-01	 1.662388177092036e+00	-1.361559886404158e+02
1	 5.141708910118744e-01	 1.672760680698918e+00	-1.385421973905216e+02
1	 4.815268759957917e-01	 1.682448176837619e+00	-1.305788966036443e+02
1	 4.488655109548267e-01	 1.691454921988814e+00	-1.126356540534054e+02
1	 4.162065505333923e-01	 1.699785900439417e+00	-8.510916886923641e+01
1	 3.835693400749210e-01	 1.707446796063892e+00	-4.842077546716200e+01
1	 3.509727882336220e-01	 1.714443962907183e+00	-3.013919866225010e+00
1	 3.184353417352296e-01	 1.720784394733555e+00	 5.064837480599994e+01
1	 2.956899601812942e-01	 1.597871223677692e+00	 2.598273273406640e+01
1	 2.655481792878332e-01	 1.603156001294210e+00	 3.660982867149492e+00
1	 2.354941696761790e-01	 1.607845607033304e+00	-1.353961686680667e+01
1	 2.055436532290555e-01	 1.611948140178152e+00	-2.574567433799075e+01
1	 1.757118493506961e-01	 1.615472174320239e+00	-3.309600637618109e+01
1	 1.460134615946999e-01	 1.618426726496131e+00	-3.574060667033525e+01
1	 1.164626662474424e-01	 1.620821226222415e+00	-3.383960952034870e+01
1	 8.707310282611763e-02	 1.622665484554889e+00	-2.756225573940954e+01
1	 5.785786644259734e-02	 1.623969663291593e+00	-1.708586661951097e+01
1	 2.882950197718375e-02	 1.624744244432313e+00	-2.594831459847312e+00
1	 0.000000000000000e+00	 1.625000000000000e+00	 1.572038627568650e+01
1	 2.979644983366877e-01	 1.610162540781094e+00	 3.539930728100147e+01
1	 2.675908575899578e-01	 1.615487970533476e+00	 1.959598692868622e+01
1	 2.373056632887938e-01	 1.620213650163185e+00	 6.379402187128065e+00
1	 2.071247582534782e-01	 1.624347741255574e+00	-4.286686245574089e+00
1	 1.770634789605836e-01	 1.627898883352835e+00	-1.244589626512501e+01
1	 1.471366420679667e-01	 1.630876162853355e+00	-1.814874657068678e+01
1	 1.173585329103589e-01	 1.633289081808462e+00	-2.145216898832190e+01
1	 8.774289592431626e-02	 1.635147526743617e+00	-2.241901429672238e+01
1	 5.830292695333918e-02	 1.636461737624537e+00	-2.111755479092702e+01
1	 2.905126737680813e-02	 1.637242277081775e+00	-1.762098664837074e+01
1	 0.000000000000000e+00	 1.637500000000000e+00	-1.200693497483083e+01
1	 3.002390364920813e-01	 1.622453857884982e+00	 4.317783225319093e+01
1	 2.696335358920826e-01	 1.627819939773135e+00	 3.419876696931954e+01
1	 2.391171569014086e-01	 1.632581693293372e+00	 2.530697542497811e+01
1	 2.087058632779007e-01	 1.636747342333230e+00	 1.655540150894381e+01
1	 1.784151085704711e-01	 1.640325592385602e+00	 7.994398624420743e+00
1	 1.482598225412336e-01	 1.643325599210697e+00	-3.283414806030045e-01
1	 1.182543995732755e-01	 1.645756937394584e+00	-8.367844331470536e+00
1	 8.841268902251494e-02	 1.647629568932387e+00	-1.608189329726119e+01
1	 5.874798746408103e-02	 1.648953811957498e+00	-2.343105569546539e+01
1	 2.927303277643252e-02	 1.649740309731242e+00	-3.037869508086062e+01
1	 0.000000000000000e+00	 1.650000000000000e+00	-3.689097042628351e+01
1	 3.025135746474747e-01	 1.634745174989355e+00	 4.935525613719138e+01
1	 2.716762141942071e-01	 1.640151909013182e+00	 4.749937315482665e+01
1	 2.409286505140234e-01	 1.644949736423866e+00	 4.326546628608831e+01
1	 2.102869683023234e-01	 1.649146943411119e+00	 3.679450397066506e+01
1	 1.797667381803585e-01	 1.652752301418539e+00	 2.822961096652179e+01
1	 1.493830030145004e-01	 1.655775035568155e+00	 1.771545344967070e+01
1	 1.191502662361921e-01	 1.658224792980780e+00	 5.397645259360081e+00
1	 8.908248212071354e-02	 1.660111611121198e+00	-8.577822355118840e+00
1	 5.919304797482287e-02	 1.661445886290479e+00	-2.406512543688831e+01
1	 2.949479817605690e-02	 1.662238342380713e+00	-4.091912472922267e+01
1	 0.000000000000000e+00	 1.662500000000000e+00	-5.899585434475281e+01
1	 3.047881128028683e-01	 1.647036492094213e+00	 5.396742447965548e+01
1	 2.737188924963317e-01	 1.652483878253622e+00	 5.952695863110589e+01
1	 2.427401441266382e-01	 1.657317779554668e+00	 6.027657064444742e+01
1	 2.118680733267460e-01	 1.661546544489241e+00	 5.644412081020940e+01
1	 1.811183677902460e-01	 1.665179010451648e+00	 4.826433216139122e+01
1	 1.505061834877673e-01	 1.668224471925732e+00	 3.597763695497123e+01
1	 1.200461328991086e-01	 1.670692648567053e+00	 1.982904982290229e+01
1	 8.975227521891216e-02	 1.672593653310051e+00	 6.707278468909195e-02
1	 5.963810848556471e-02	 1.673937960623477e+00	-2.305736322033799e+01
1	 2.971656357568129e-02	 1.674736375030189e+00	-4.929191616321816e+01
1	 0.000000000000000e+00	 1.675000000000000e+00	-7.838380654061774e+01
1	 3.070626509582619e-01	 1.659327809199556e+00	 5.704912073695798e+01
1	 2.757615707984564e-01	 1.664815847494451e+00	 7.030981274713616e+01
1	 2.445516377392530e-01	 1.669685822685776e+00	 7.636134153333093e+01
1	 2.134491783511686e-01	 1.673946145567598e+00	 7.551735170795484e+01
1	 1.824699974001335e-01	 1.677605719484926e+00	 6.810301756775371e+01
1	 1.516293639610341e-01	 1.680673908283426e+00	 5.445335595577023e+01
1	 1.209419995620252e-01	 1.683160504153399e+00	 3.491157124859268e+01
1	 9.042206831711082e-02	 1.685075695498947e+00	 9.827440473296784e+00
1	 6.008316899630655e-02	 1.686430034956494e+00	-2.044425420043469e+01
1	 2.993832897530567e-02	 1.687234407679669e+00	-5.554523912091243e+01
1	 0.000000000000000e+00	 1.687500000000000e+00	-9.511520327432241e+01
1	 3.093371891136554e-01	 1.671619126305386e+00	 5.863410532263300e+01
1	 2.778042491005809e-01	 1.677147816735672e+00	 7.987539281221615e+01
1	 2.463631313518678e-01	 1.682053865817191e+00	 9.154021277915048e+01
1	 2.150302833755913e-01	 1.686345746646188e+00	 9.402691105956154e+01
1	 1.838216270100210e-01	 1.690032428518376e+00	 8.774999150437117e+01
1	 1.527525444343010e-01	 1.693123344641238e+00	 7.313790011017250e+01
1	 1.218378662249418e-01	 1.695628359739820e+00	 5.063084666441463e+01
1	 9.109186141530945e-02	 1.697557737687884e+00	 2.067867469856878e+01
1	 6.052822950704838e-02	 1.698922109289530e+00	-1.626121043901596e+01
1	 3.016009437493006e-02	 1.699732440329154e+00	-5.972584658337009e+01
1	 0.000000000000000e+00	 1.700000000000000e+00	-1.092486450339461e+02
1	 3.116117272690490e-01	 1.683910443411700e+00	 5.875515294470368e+01
1	 2.798469274027056e-01	 1.689479785977283e+00	 8.825035446237622e+01
1	 2.481746249644826e-01	 1.694421908948912e+00	 1.058330216002458e+02
1	 2.166113884000138e-01	 1.698745347725011e+00	 1.119851420374570e+02
1	 1.851732566199084e-01	 1.702459137551994e+00	 1.072094520325235e+02
1	 1.538757249075678e-01	 1.705572780999167e+00	 9.202669660451343e+01
1	 1.227337328878583e-01	 1.708096215326316e+00	 6.697293255227882e+01
1	 9.176165451350807e-02	 1.710039779876861e+00	 3.259688787208204e+01
1	 6.097329001779021e-02	 1.711414183622584e+00	-1.054261006910740e+01
1	 3.038185977455445e-02	 1.712230472978645e+00	-6.187912648111402e+01
1	 0.000000000000000e+00	 1.712500000000000e+00	-1.208410213444145e+02
1	 3.138862654244425e-01	 1.696201760518499e+00	 5.744408831965053e+01
1	 2.818896057048302e-01	 1.701811755219286e+00	 9.546058070651218e+01
1	 2.499861185770973e-01	 1.706789952080941e+00	 1.192590302231180e+02
1	 2.181924934244365e-01	 1.711144948804068e+00	 1.294040300409551e+02
1	 1.865248862297958e-01	 1.714885846585784e+00	 1.264854755305539e+02
1	 1.549989053808347e-01	 1.718022217357214e+00	 1.111153051704531e+02
1	 1.236295995507749e-01	 1.720564070912886e+00	 8.392428955404077e+01
1	 9.243144761170670e-02	 1.722521822065882e+00	 4.555888479928122e+01
1	 6.141835052853206e-02	 1.723906257955657e+00	-3.321834756110640e+00
1	 3.060362517417883e-02	 1.724728505628139e+00	-6.204915115248021e+01
1	 0.000000000000000e+00	 1.725000000000000e+00	-1.299475727589177e+02
1	 3.161608035798359e-01	 1.708493077625785e+00	 5.473182034476966e+01
1	 2.839322840069549e-01	 1.714143724461679e+00	 1.015312097187270e+02
1	 2.517976121897121e-01	 1.719157995213276e+00	 1.318369465655899e+02
1	 2.197735984488592e-01	 1.723544549883358e+00	 1.462952155657889e+02
1	 1.878765158396833e-01	 1.727312555619745e+00	 1.455820210709546e+02
1	 1.561220858541015e-01	 1.730471653715379e+00	 1.303994133171566e+02
1	 1.245254662136915e-01	 1.733031926499532e+00	 1.014717679333740e+02
1	 9.310124070990533e-02	 1.735003864254944e+00	 5.954213777322353e+01
1	 6.186341103927389e-02	 1.736398332288747e+00	 5.368694458037517e+00
1	 3.082539057380321e-02	 1.737226538277638e+00	-6.027872466707477e+01
1	 0.000000000000000e+00	 1.737499999999999e+00	-1.366219501744407e+02
1	 3.184353417352296e-01	 1.720784394733555e+00	 5.064837480599994e+01
1	 2.859749623090795e-01	 1.726475693704463e+00	 1.064866614395758e+02
1	 2.536091058023270e-01	 1.731526038345919e+00	 1.435849440335434e+02
1	 2.213547034732818e-01	 1.735944150962882e+00	 1.626700065221025e+02
1	 1.892281454495708e-01	 1.739739264653876e+00	 1.645029346098612e+02
1	 1.572452663273684e-01	 1.742921090073661e+00	 1.498748317678143e+02
1	 1.254213328766080e-01	 1.745499782086253e+00	 1.196025936607046e+02
1	 9.377103380810400e-02	 1.747485906444048e+00	 7.452476273573699e+01
1	 6.230847155001576e-02	 1.748890406621857e+00	 1.549748284688322e+01
1	 3.104715597342760e-02	 1.749724570927141e+00	-5.660942812108844e+01
1	 0.000000000000000e+00	 1.750000000000000e+00	-1.409162716051983e+02
1	 1.750000000000000e+00	 0.000000000000000e+00	-1.725060231566463e+02
1	 1.749724570927141e+00	 3.104715597342660e-02	-1.382340917561138e+02
1	 1.748890406621857e+00	 6.230847155001488e-02	-1.110003899187695e+02
1	 1.747485906444049e+00	 9.377103380810323e-02	-9.036098378941837e+01
1	 1.745499782086252e+00	 1.254213328766073e-01	-7.583176540465664e+01
1	 1.742921090073661e+00	 1.572452663273678e-01	-6.688843887929384e+01
1	 1.739739264653876e+00	 1.892281454495704e-01	-6.296669883030606e+01
1	 1.735944150962882e+00	 2.213547034732815e-01	-6.346261124905162e+01
1	 1.731526038345919e+00	 2.536091058023268e-01	-6.773320615476104e+01
1	 1.726475693704463e+00	 2.859749623090794e-01	-7.509729033465513e+01
1	 1.720784394733555e+00	 3.184353417352296e-01	-8.483648729860072e+01
1	 1.762500000000000e+00	 0.000000000000000e+00	-1.336267300075802e+02
1	 1.762222603576645e+00	 3.126892137305098e-02	-1.085659490265502e+02
1	 1.761382480954966e+00	 6.275353206075669e-02	-8.838974683227565e+01
1	 1.759967948633153e+00	 9.444082690630186e-02	-7.274438110586624e+01
1	 1.757967637672972e+00	 1.263171995395239e-01	-6.124642169738482e+01
1	 1.755370526431943e+00	 1.583684468006347e-01	-5.348283718237231e+01
1	 1.752165973688007e+00	 1.905797750594578e-01	-4.901122820056199e+01
1	 1.748343752042406e+00	 2.229358084977041e-01	-4.736021478915458e+01
1	 1.743894081478562e+00	 2.554205994149417e-01	-4.802998421930464e+01
1	 1.738807662947248e+00	 2.880176406112040e-01	-5.049300502964654e+01
1	 1.733075711841326e+00	 3.207098798906232e-01	-5.419491202546644e+01
1	 1.775000000000000e+00	 0.000000000000000e+00	-8.626404962233167e+01
1	 1.774720636226143e+00	 3.149068677267536e-02	-7.143128272858641e+01
1	 1.773874555288057e+00	 6.319859257149853e-02	-5.936379039919814e+01
1	 1.772449990822214e+00	 9.511062000450050e-02	-4.979715622315717e+01
1	 1.770435493259618e+00	 1.272130662024405e-01	-4.244765951942305e+01
1	 1.767819962790108e+00	 1.594916272739015e-01	-3.701246104507604e+01
1	 1.764592682721967e+00	 1.919314046693453e-01	-3.316989041626960e+01
1	 1.760743353121696e+00	 2.245169135221267e-01	-3.057983948218144e+01
1	 1.756262124610897e+00	 2.572320930275563e-01	-2.888426536112448e+01
1	 1.751139632189640e+00	 2.900603189133286e-01	-2.770780624432484e+01
1	 1.745367028948611e+00	 3.229844180460166e-01	-2.665851239788929e+01
1	 1.787500000000000e+00	 0.000000000000000e+00	-3.059595515953942e+01
1	 1.787218668875638e+00	 3.171245217229974e-02	-2.698673321667389e+01
1	 1.786366629621130e+00	 6.364365308224038e-02	-2.405710761268494e+01
1	 1.784932033011234e+00	 9.578041310269911e-02	-2.163114037606543e+01
1	 1.782903348846188e+00	 1.281089328653570e-01	-1.952387226502641e+01
1	 1.780269399148155e+00	 1.606148077471684e-01	-1.754160643437367e+01
1	 1.777019391755757e+00	 1.932830342792328e-01	-1.548224912363065e+01
1	 1.773142954200753e+00	 2.260980185465493e-01	-1.313570866010688e+01
1	 1.768630167742926e+00	 2.590435866401711e-01	-1.028435371091197e+01
1	 1.763471601431642e+00	 2.921029972154534e-01	-6.703531323823412e+00
1	 1.757658346055410e+00	 3.252589562014102e-01	-2.162144870228677e+00
1	 1.800000000000000e+00	 0.000000000000000e+00	 3.320452392100502e+01
1	 1.799716701525128e+00	 3.193421757192412e-02	 2.461541027569058e+01
1	 1.798858703954184e+00	 6.408871359298220e-02	 1.739945306170048e+01
1	 1.797414075200213e+00	 9.645020620089774e-02	 1.164494162382169e+01
1	 1.795371204432684e+00	 1.290047995282736e-01	 7.439002043609928e+00
1	 1.792718835506084e+00	 1.617379882204352e-01	 4.867216681846568e+00
1	 1.789446100789376e+00	 1.946346638891202e-01	 4.013231021323604e+00
1	 1.785542555279577e+00	 2.276791235709719e-01	 4.958349437648185e+00
1	 1.780998210874648e+00	 2.608550802527859e-01	 7.781121715383876e+00
1	 1.775803570673254e+00	 2.941456755175779e-01	 1.255692231298157e+01
1	 1.769949663161724e+00	 3.275334943568037e-01	 1.935752456023014e+01
1	 1.812500000000000e+00	 0.000000000000000e+00	 1.049691313859827e+02
1	 1.812214734174612e+00	 3.215598297154849e-02	 8.322705959730980e+01
1	 1.811350778287220e+00	 6.453377410372405e-02	 6.487865277123529e+01
1	 1.809896117389150e+00	 9.711999929909636e-02	 4.992536427006098e+01
1	 1.807839060019105e+00	 1.299006661911902e-01	 3.835739608834918e+01
1	 1.805168271863896e+00	 1.628611686937021e-01	 3.015322274860146e+01
1	 1.801872809822825e+00	 1.959862934990077e-01	 2.527914645651978e+01
1	 1.797942156358166e+00	 2.292602285953945e-01	 2.368888804033571e+01
1	 1.793366254006062e+00	 2.626665738654007e-01	 2.532321821949635e+01
1	 1.788135539914474e+00	 2.961883538197025e-01	 3.010963372773859e+01
1	 1.782240980267553e+00	 3.298080325121973e-01	 3.796208275130760e+01
1	 1.825000000000000e+00	 0.000000000000000e+00	 1.845342207618875e+02
1	 1.824712766824093e+00	 3.237774837117288e-02	 1.487041838066052e+02
1	 1.823842852620237e+00	 6.497883461446587e-02	 1.182567386591588e+02
1	 1.822378159578045e+00	 9.778979239729499e-02	 9.310729864542429e+01
1	 1.820306915605452e+00	 1.307965328541067e-01	 7.315003206661773e+01
1	 1.817617708221590e+00	 1.639843491669689e-01	 5.825729156857632e+01
1	 1.814299518856104e+00	 1.973379231088951e-01	 4.827911837500774e+01
1	 1.810341757436523e+00	 2.308413336198172e-01	 4.304282878188456e+01
1	 1.805734297137171e+00	 2.644780674780155e-01	 4.235269016338570e+01
1	 1.800467509155304e+00	 2.982310321218272e-01	 4.598969351465776e+01
1	 1.794532297372897e+00	 3.320825706675907e-01	 5.371142924965855e+01
1	 1.837500000000000e+00	 0.000000000000000e+00	 2.717405985404747e+02
1	 1.837210799473569e+00	 3.259951377079726e-02	 2.209066711712899e+02
1	 1.836334926953235e+00	 6.542389512520771e-02	 1.774133252933814e+02
1	 1.834860201766898e+00	 9.845958549549363e-02	 1.410907138984566e+02
1	 1.832774771191723e+00	 1.316923995170233e-01	 1.117378438167260e+02
1	 1.830067144579166e+00	 1.651075296402358e-01	 8.912191165730613e+01
1	 1.826726227889211e+00	 1.986895527187826e-01	 7.297775786934446e+01
1	 1.822741358514645e+00	 2.324224386442398e-01	 6.300744917012992e+01
1	 1.818102340267972e+00	 2.662895610906304e-01	 5.887999927331434e+01
1	 1.812799478395743e+00	 3.002737104239518e-01	 6.023123742185099e+01
1	 1.806823614477755e+00	 3.343571088229843e-01	 6.666383368230851e+01
1	 1.850000000000000e+00	 0.000000000000000e+00	 3.664333737407458e+02
1	 1.849708832123041e+00	 3.282127917042164e-02	 2.996981967626510e+02
1	 1.848827001286216e+00	 6.586895563594955e-02	 2.422312809021382e+02
1	 1.847342243955709e+00	 9.912937859369225e-02	 1.937782827142263e+02
1	 1.845242626777920e+00	 1.325882661799398e-01	 1.540439021002713e+02
1	 1.842516580936625e+00	 1.662307101135026e-01	 1.226911258947697e+02
1	 1.839152936922149e+00	 2.000411823286701e-01	 9.934063248904334e+01
1	 1.835140959592534e+00	 2.340035436686624e-01	 8.357037056404542e+01
1	 1.830470383398466e+00	 2.681010547032451e-01	 7.491532452618608e+01
1	 1.825131447635792e+00	 3.023163887260764e-01	 7.286747860964770e+01
1	 1.819114931582128e+00	 3.366316469783779e-01	 7.687599082150642e+01
1	 1.862500000000000e+00	 0.000000000000000e+00	 4.684618135288395e+02
1	 1.862206864772507e+00	 3.304304457004600e-02	 3.849460953816003e+02
1	 1.861319075619178e+00	 6.631401614669137e-02	 3.125966181907569e+02
1	 1.859824286144479e+00	 9.979917169189090e-02	 2.510752905916222e+02
1	 1.857710482364042e+00	 1.334841328428564e-01	 1.999933428933023e+02
1	 1.854966017293967e+00	 1.673538905867695e-01	 1.589104793655076e+02
1	 1.851579645954916e+00	 2.013928119385575e-01	 1.273342341447036e+02
1	 1.847540560670190e+00	 2.355846486930850e-01	 1.047195466351146e+02
1	 1.842838426528654e+00	 2.699125483158599e-01	 9.046857163778120e+01
1	 1.837463416875449e+00	 3.043590670282010e-01	 8.393073860991433e+01
1	 1.831406248686016e+00	 3.389061851337714e-01	 8.440307343219754e+01
1	 1.875000000000000e+00	 0.000000000000000e+00	 5.776792046131312e+02
1	 1.874704897421970e+00	 3.326480996967039e-02	 4.765212395676938e+02
1	 1.873811149952121e+00	 6.675907665743323e-02	 3.883983895257560e+02
1	 1.872306328333207e+00	 1.004689647900895e-01	 3.128895487495660e+02
1	 1.870178337950090e+00	 1.343799995057729e-01	 2.495132985458396e+02
1	 1.867415453651191e+00	 1.684770710600364e-01	 1.977269692851385e+02
1	 1.864006354987513e+00	 2.027444415484450e-01	 1.569259482959731e+02
1	 1.859940161747613e+00	 2.371657537175077e-01	 1.264432522902492e+02
1	 1.855206469658534e+00	 2.717240419284748e-01	 1.055493821714599e+02
1	 1.849795386114716e+00	 3.064017453303257e-01	 9.345247704700498e+01
1	 1.843697565789419e+00	 3.411807232891650e-01	 8.929878300560372e+01
1	 1.720784394733555e+00	 3.184353417352296e-01	-8.483648729860072e+01
1	 1.714443962907183e+00	 3.509727882336210e-01	-8.972113142339913e+01
1	 1.707446796063893e+00	 3.835693400749201e-01	-9.263518610330999e+01
1	 1.699785900439417e+00	 4.162065505333916e-01	-9.386191744416348e+01
1	 1.691454921988814e+00	 4.488655109548259e-01	-9.369916210413319e+01
1	 1.682448176837619e+00	 4.815268759957912e-01	-9.245864418847017e+01
1	 1.672760680698918e+00	 5.141708910118742e-01	-9.046519419776162e+01
1	 1.662388177092036e+00	 5.467774215590895e-01	-8.805587064326130e+01
1	 1.651327164198396e+00	 5.793259849590476e-01	-8.557898575347083e+01
1	 1.639574920191208e+00	 6.117957838646149e-01	-8.339303753628423e+01
1	 1.627129526877964e+00	 6.441657417487923e-01	-8.186555132228706e+01
1	 1.733075711841326e+00	 3.207098798906232e-01	-5.419491202546644e+01
1	 1.726689991216679e+00	 3.534797367214088e-01	-5.924862592844499e+01
1	 1.719642844610636e+00	 3.863091210761491e-01	-6.287707295009246e+01
1	 1.711927228303469e+00	 4.191794544667827e-01	-6.529756336331013e+01
1	 1.703536742864199e+00	 4.520716931772842e-01	-6.673829705447636e+01
1	 1.694465663819255e+00	 4.849663536831973e-01	-6.743782862950229e+01
1	 1.684708971279676e+00	 5.178435402355064e-01	-6.764445839267174e+01
1	 1.674262378361351e+00	 5.506829745727694e-01	-6.761554977934603e+01
1	 1.663122358232710e+00	 5.834640277117502e-01	-6.761677444223950e+01
1	 1.651286169625344e+00	 6.161657537528370e-01	-6.792128683097040e+01
1	 1.638751880645368e+00	 6.487669256224087e-01	-6.880883075958029e+01
1	 1.745367028948611e+00	 3.229844180460166e-01	-2.665851239788929e+01
1	 1.738936019525595e+00	 3.559866852091919e-01	-3.139713103153648e+01
1	 1.731838893156713e+00	 3.890489020773594e-01	-3.524725510367540e+01
1	 1.724068556166777e+00	 4.221523584001311e-01	-3.836092854377053e+01
1	 1.715618563738773e+00	 4.552778753996662e-01	-4.089744056867045e+01
1	 1.706483150800026e+00	 4.884058313704840e-01	-4.302293775629118e+01
1	 1.696657261859521e+00	 5.215161894589655e-01	-4.490998560379529e+01
1	 1.686136579629713e+00	 5.545885275862120e-01	-4.673708011868909e+01
1	 1.674917552266045e+00	 5.876020704641420e-01	-4.868811041942934e+01
1	 1.662997419058485e+00	 6.205357236406640e-01	-5.095177376365316e+01
1	 1.650374234411771e+00	 6.533681094955353e-01	-5.372094487253654e+01
1	 1.757658346055410e+00	 3.252589562014102e-01	-2.162144870228677e+00
1	 1.751182047833929e+00	 3.584936336969702e-01	-6.111660495811867e+00
1	 1.744034941702122e+00	 3.917886830785507e-01	-9.701083011700899e+00
1	 1.736209884029342e+00	 4.251252623334367e-01	-1.301786502860519e+01
1	 1.727700384612536e+00	 4.584840576219720e-01	-1.615309596319885e+01
1	 1.718500637779927e+00	 4.918453090576508e-01	-1.920125986182659e+01
1	 1.708605552438449e+00	 5.251888386822515e-01	-2.225996611722971e+01
1	 1.698010780897124e+00	 5.584940805994180e-01	-2.542965359385416e+01
1	 1.686712746298402e+00	 5.917401132162234e-01	-2.881326891655910e+01
1	 1.674708668490632e+00	 6.249056935280959e-01	-3.251591992220050e+01
1	 1.661996588177176e+00	 6.579692933681721e-01	-3.664450552101148e+01
1	 1.769949663161724e+00	 3.275334943568037e-01	 1.935752456023014e+01
1	 1.763428076141683e+00	 3.610005821847440e-01	 1.666124452012469e+01
1	 1.756230990246865e+00	 3.945284640797232e-01	 1.380485261284417e+01
1	 1.748351211891164e+00	 4.280981662666999e-01	 1.076482658476191e+01
1	 1.739782205485490e+00	 4.616902398442015e-01	 7.517580759797571e+00
1	 1.730518124758961e+00	 4.952847867446978e-01	 4.039563657925703e+00
1	 1.720553843016463e+00	 5.288614879053642e-01	 3.073595110961147e-01
1	 1.709884982163583e+00	 5.623996336123871e-01	-3.702206805940319e+00
1	 1.698507940329780e+00	 5.958781559679937e-01	-8.011961964260671e+00
1	 1.686419917921784e+00	 6.292756634151330e-01	-1.264427407257385e+01
1	 1.673618941941580e+00	 6.625704772403191e-01	-1.762094090205391e+01
1	 1.782240980267553e+00	 3.298080325121973e-01	 3.796208275130760e+01
1	 1.775674104448857e+00	 3.635075306725129e-01	 3.697356813101288e+01
1	 1.768427038790941e+00	 3.972682450808769e-01	 3.531276355939890e+01
1	 1.760492539752241e+00	 4.310710701999204e-01	 3.301942985331485e+01
1	 1.751864026357632e+00	 4.648964220663550e-01	 3.013680341892208e+01
1	 1.742535611737127e+00	 4.987242644316255e-01	 2.671155047998845e+01
1	 1.732502133593562e+00	 5.325341371283038e-01	 2.279370218886455e+01
1	 1.721759183429090e+00	 5.663051866251195e-01	 1.843657017088426e+01
1	 1.710303134360180e+00	 6.000161987194534e-01	 1.369664218700071e+01
1	 1.698131167351941e+00	 6.336456333017750e-01	 8.633457743863948e+00
1	 1.685241295704983e+00	 6.671716611119766e-01	 3.309463634134277e+00
1	 1.794532297372897e+00	 3.320825706675907e-01	 5.371142924965855e+01
1	 1.787920132755449e+00	 3.660144791602774e-01	 5.487587022927340e+01
1	 1.780623087334351e+00	 4.000080260820117e-01	 5.486370513001916e+01
1	 1.772633867612575e+00	 4.340439741330983e-01	 5.377734385302072e+01
1	 1.763945847228964e+00	 4.681026042884321e-01	 5.172617723500372e+01
1	 1.754553098714425e+00	 5.021637421184332e-01	 4.882638902995558e+01
1	 1.744450424169746e+00	 5.362067863510702e-01	 4.520072594957422e+01
1	 1.733633384693645e+00	 5.702107396376150e-01	 4.097822534667942e+01
1	 1.722098328389602e+00	 6.041542414706025e-01	 3.629390044431729e+01
1	 1.709842416781103e+00	 6.380156031880218e-01	 3.128838334991636e+01
1	 1.696863649467388e+00	 6.717728449831445e-01	 2.610752644560638e+01
1	 1.806823614477755e+00	 3.343571088229843e-01	 6.666383368230851e+01
1	 1.800166161061462e+00	 3.685214276480370e-01	 7.041733492794310e+01
1	 1.792819135877093e+00	 4.027478070831276e-01	 7.249761547568400e+01
1	 1.784775195472166e+00	 4.370168780662335e-01	 7.306911326321867e+01
1	 1.776027668099485e+00	 4.713087865104332e-01	 7.230671953170162e+01
1	 1.766570585690856e+00	 5.056032198051217e-01	 7.039544968102126e+01
1	 1.756398714745015e+00	 5.398794355736636e-01	 6.753004954690036e+01
1	 1.745507585957248e+00	 5.741162926498736e-01	 6.391453671762986e+01
1	 1.733893522418045e+00	 6.082922842214408e-01	 5.976167700983729e+01
1	 1.721553666209272e+00	 6.423855730738739e-01	 5.529239675009772e+01
1	 1.708486003228792e+00	 6.763740288538224e-01	 5.073513205757209e+01
1	 1.819114931582128e+00	 3.366316469783779e-01	 7.687599082150642e+01
1	 1.812412189366892e+00	 3.710283761357918e-01	 8.364581703971064e+01
1	 1.805015184419169e+00	 4.054875880842249e-01	 8.825335333788429e+01
1	 1.796916523331014e+00	 4.399897819993261e-01	 9.092445723136993e+01
1	 1.788109488969196e+00	 4.745149687323580e-01	 9.189887959689734e+01
1	 1.778588072666419e+00	 5.090426974916901e-01	 9.142979549899239e+01
1	 1.768347005319369e+00	 5.435520847960839e-01	 8.978324798441771e+01
1	 1.757381787219899e+00	 5.780218456618955e-01	 8.723750449624261e+01
1	 1.745688716445509e+00	 6.124303269719682e-01	 8.408232624241671e+01
1	 1.733264915636445e+00	 6.467555429593308e-01	 8.061815157044053e+01
1	 1.720108356989195e+00	 6.809752127240108e-01	 7.715519514323729e+01
1	 1.831406248686016e+00	 3.389061851337714e-01	 8.440307343219754e+01
1	 1.824658217671743e+00	 3.735353246235422e-01	 9.460788668430672e+01
1	 1.817211232960577e+00	 4.082273690853030e-01	 1.021687342704198e+02
1	 1.809057851189117e+00	 4.429626859323761e-01	 1.073722970754711e+02
1	 1.800191309838096e+00	 4.777211509542068e-01	 1.105225577442959e+02
1	 1.790605559641113e+00	 5.124821751781390e-01	 1.119401925546175e+02
1	 1.780295295892808e+00	 5.472247340183306e-01	 1.119618539837255e+02
1	 1.769255988481599e+00	 5.819273986736807e-01	 1.109393436544245e+02
1	 1.757483910471995e+00	 6.165683697221850e-01	 1.092386762094084e+02
1	 1.744976165062624e+00	 6.511255128443929e-01	 1.072390355678387e+02
1	 1.731730710748600e+00	 6.855763965937093e-01	 1.053316259550766e+02
1	 1.843697565789419e+00	 3.411807232891650e-01	 8.929878300560372e+01
1	 1.836904245976013e+00	 3.760422731112877e-01	 1.033488721116069e+02
1	 1.829407281501320e+00	 4.109671500863628e-01	 1.142805654123214e+02
1	 1.821199179046478e+00	 4.459355898653836e-01	 1.224407828783696e+02
1	 1.812273130706186e+00	 4.809273331759791e-01	 1.281971236125682e+02
1	 1.802623046614941e+00	 5.159216528644683e-01	 1.319371198234233e+02
1	 1.792243586465333e+00	 5.508973832404047e-01	 1.340673593938480e+02
1	 1.781130189742346e+00	 5.858329516852289e-01	 1.350124767648364e+02
1	 1.769279104497502e+00	 6.207064124720912e-01	 1.352140128963796e+02
1	 1.756687414487809e+00	 6.554954827290598e-01	 1.351291461590199e+02
1	 1.743353064507004e+00	 6.901775804629183e-01	 1.352292971388598e+02
1	 1.627129526877964e+00	 6.441657417487923e-01	-8.186555132228706e+01
1	 1.613989891498045e+00	 6.764145402254381e-01	-7.940766899508979e+01
1	 1.600155766523939e+00	 7.085206580967053e-01	-7.745233760448426e+01
1	 1.585627767319404e+00	 7.404624120079153e-01	-7.573329810615351e+01
1	 1.570407387515452e+00	 7.722179985775097e-01	-7.397780900761899e+01
1	 1.554497011975571e+00	 8.037655378569363e-01	-7.190763929110126e+01
1	 1.537899927230667e+00	 8.350831179629202e-01	-6.924011674203489e+01
1	 1.520620329275986e+00	 8.661488407132029e-01	-6.568922632465785e+01
1	 1.502663328635016e+00	 8.969408680863412e-01	-6.096675266133600e+01
1	 1.484034952609081e+00	 9.274374693167079e-01	-5.478346012823938e+01
1	 1.464742144646208e+00	 9.576170684275745e-01	-4.685030358482993e+01
1	 1.638751880645368e+00	 6.487669256224087e-01	-6.880883075958029e+01
1	 1.625518390726798e+00	 6.812460726600401e-01	-6.524869383011138e+01
1	 1.611585450574138e+00	 7.135815199449438e-01	-6.201541896773226e+01
1	 1.596953679946601e+00	 7.457514292413342e-01	-5.890838271801042e+01
1	 1.581624583143993e+00	 7.777338414292114e-01	-5.572221526413426e+01
1	 1.565600562064543e+00	 8.095067202746747e-01	-5.224755307196317e+01
1	 1.548884926714374e+00	 8.410479973809957e-01	-4.827183273862470e+01
1	 1.531481903060134e+00	 8.723356181503270e-01	-4.358012196252547e+01
1	 1.513396638129045e+00	 9.033475885753565e-01	-3.795598311516620e+01
1	 1.494635202274586e+00	 9.340620226707022e-01	-3.118236448885986e+01
1	 1.475204588540842e+00	 9.644571903455147e-01	-2.304251392552864e+01
1	 1.650374234411771e+00	 6.533681094955353e-01	-5.372094487253654e+01
1	 1.637046889954552e+00	 6.860776050940667e-01	-4.945689052943447e+01
1	 1.623015134623337e+00	 7.186423817925500e-01	-4.534684954834318e+01
1	 1.608279592572798e+00	 7.510404464740931e-01	-4.125513358437776e+01
1	 1.592841778771534e+00	 7.832496842802550e-01	-3.704302640602853e+01
1	 1.576704112152514e+00	 8.152479026917873e-01	-3.256929838987287e+01
1	 1.559869926197083e+00	 8.470128767985073e-01	-2.769074814239204e+01
1	 1.542343476843282e+00	 8.785223955869790e-01	-2.226276843271959e+01
1	 1.524129947622075e+00	 9.097543090640229e-01	-1.613993332870928e+01
1	 1.505235451939092e+00	 9.406865760245012e-01	-9.176603159039704e+00
1	 1.485667032434476e+00	 9.712973122634445e-01	-1.227543680301320e+00
1	 1.661996588177176e+00	 6.579692933681721e-01	-3.664450552101148e+01
1	 1.648575389181304e+00	 6.909091375275175e-01	-3.206651422865742e+01
1	 1.634444818671535e+00	 7.237032436395238e-01	-2.747246817381465e+01
1	 1.619605505197995e+00	 7.563294637061926e-01	-2.279092833619944e+01
1	 1.604058974398076e+00	 7.887655271306413e-01	-1.794912904407057e+01
1	 1.587807662239485e+00	 8.209890851082737e-01	-1.287325640144087e+01
1	 1.570854925678792e+00	 8.529777562154547e-01	-7.488739888983926e+00
1	 1.553205050625430e+00	 8.847091730231600e-01	-1.720555578148820e+00
1	 1.534863257114104e+00	 9.161610295523409e-01	 4.506460748608424e+00
1	 1.515835701602599e+00	 9.473111293781052e-01	 1.126729241274828e+01
1	 1.496129476327111e+00	 9.781374341813636e-01	 1.863641455064962e+01
1	 1.673618941941580e+00	 6.625704772403191e-01	-1.762094090205391e+01
1	 1.660103888407058e+00	 6.957406699603933e-01	-1.311086853181524e+01
1	 1.645874502718734e+00	 7.287641054858656e-01	-8.417395926427170e+00
1	 1.630931417822192e+00	 7.616184809376318e-01	-3.532661892446637e+00
1	 1.615276170023616e+00	 7.942813699803695e-01	 1.550837061268949e+00
1	 1.598911212325456e+00	 8.267302675241344e-01	 6.840202324405722e+00
1	 1.581839925159500e+00	 8.589426356318381e-01	 1.234208944528084e+01
1	 1.564066624406578e+00	 8.908959504588688e-01	 1.806266536503836e+01
1	 1.545596566605134e+00	 9.225677500403102e-01	 2.400756694375808e+01
1	 1.526435951265105e+00	 9.539356827315140e-01	 3.018186109608345e+01
1	 1.506591920218745e+00	 9.849775560992717e-01	 3.659000685051806e+01
1	 1.685241295704983e+00	 6.671716611119766e-01	 3.309463634134277e+00
1	 1.671632387631811e+00	 7.005722023926938e-01	 7.377661677186239e+00
1	 1.657304186764933e+00	 7.338249673315752e-01	 1.179393910691992e+01
1	 1.642257330445389e+00	 7.669074981684119e-01	 1.650323689464114e+01
1	 1.626493365648157e+00	 7.997972128294403e-01	 2.144847048773808e+01
1	 1.610014762410427e+00	 8.324714499393688e-01	 2.657071744133059e+01
1	 1.592824924639209e+00	 8.649075150476579e-01	 3.180941942412409e+01
1	 1.574928198186726e+00	 8.970827278941063e-01	 3.710259767756489e+01
1	 1.556329876095164e+00	 9.289744705279305e-01	 4.238708086781780e+01
1	 1.537036200926610e+00	 9.605602360847276e-01	 4.759874413659492e+01
1	 1.517054364109380e+00	 9.918176780171698e-01	 5.267275803129216e+01
1	 1.696863649467388e+00	 6.717728449831445e-01	 2.610752644560638e+01
1	 1.683160886855564e+00	 7.054037348244186e-01	 2.936757877155164e+01
1	 1.668733870810132e+00	 7.388858291766527e-01	 3.313777810198896e+01
1	 1.653583243067586e+00	 7.721965153985318e-01	 3.730078927836644e+01
1	 1.637710561271698e+00	 8.053130556778525e-01	 4.173559998903617e+01
1	 1.621118312494399e+00	 8.382126323539776e-01	 4.631793847549982e+01
1	 1.603809924117917e+00	 8.708723944629133e-01	 5.092071921226633e+01
1	 1.585789771965874e+00	 9.032695053288717e-01	 5.541451441329647e+01
1	 1.567063185584193e+00	 9.353811910152019e-01	 5.966804893706434e+01
1	 1.547636450587117e+00	 9.671847894377464e-01	 6.354871589650607e+01
1	 1.527516807999014e+00	 9.986577999350574e-01	 6.692311003345166e+01
1	 1.708486003228792e+00	 6.763740288538224e-01	 5.073513205757209e+01
1	 1.694689386078318e+00	 7.102352672555683e-01	 5.282824220278216e+01
1	 1.680163554854331e+00	 7.439466910210980e-01	 5.559100873316944e+01
1	 1.664909155688782e+00	 7.774855326279917e-01	 5.884445130786209e+01
1	 1.648927756894240e+00	 8.108288985256076e-01	 6.240427666569920e+01
1	 1.632221862577370e+00	 8.439538147679603e-01	 6.608152448978257e+01
1	 1.614794923595626e+00	 8.768372738776048e-01	 6.968325473185317e+01
1	 1.596651345744023e+00	 9.094562827631659e-01	 7.301327303280794e+01
1	 1.577796495072223e+00	 9.417879115021248e-01	 7.587289045442765e+01
1	 1.558236700246622e+00	 9.738093427905699e-01	 7.806171334046260e+01
1	 1.537979251887649e+00	 1.005497921852934e+00	 7.937845875832994e+01
1	 1.720108356989195e+00	 6.809752127240108e-01	 7.715519514323729e+01
1	 1.706217885300071e+00	 7.150667996861424e-01	 7.772983954532801e+01
1	 1.691593238897530e+00	 7.490075528649108e-01	 7.913114333230537e+01
1	 1.676235068308979e+00	 7.827745498567924e-01	 8.111909913904236e+01
1	 1.660144952515781e+00	 8.163447413727047e-01	 8.344676645338320e+01
1	 1.643325412659340e+00	 8.496949971813165e-01	 8.586114376156428e+01
1	 1.625779923072334e+00	 8.828021532917318e-01	 8.810409552876203e+01
1	 1.607512919521170e+00	 9.156430601969879e-01	 8.991332944369574e+01
1	 1.588529804559253e+00	 9.481946319886988e-01	 9.102341879575206e+01
1	 1.568836949905128e+00	 9.804338961431981e-01	 9.116686432599235e+01
1	 1.548441695775283e+00	 1.012338043770800e+00	 9.007518940727297e+01
1	 1.731730710748600e+00	 6.855763965937093e-01	 1.053316259550766e+02
1	 1.717746384520824e+00	 7.198983321161414e-01	 1.040433587072248e+02
1	 1.703022922939729e+00	 7.540684147080918e-01	 1.037362979270381e+02
1	 1.687560980928176e+00	 7.880635670849330e-01	 1.041100149370596e+02
1	 1.671362148136322e+00	 8.218605842191440e-01	 1.048555429136319e+02
1	 1.654428962740312e+00	 8.554361795940472e-01	 1.056564734735355e+02
1	 1.636764922548042e+00	 8.887670327052954e-01	 1.061901213624056e+02
1	 1.618374493297319e+00	 9.218298376303385e-01	 1.061287514755112e+02
1	 1.599263114045282e+00	 9.546013524749239e-01	 1.051408617429203e+02
1	 1.579437199562634e+00	 9.870584494956315e-01	 1.028925147547478e+02
1	 1.558904139661917e+00	 1.019178165688655e+00	 9.904871039774437e+01
1	 1.743353064507004e+00	 6.901775804629183e-01	 1.352292971388598e+02
1	 1.729274883740578e+00	 7.247298645455649e-01	 1.317405612523112e+02
1	 1.714452606980928e+00	 7.591292765506406e-01	 1.293851721176121e+02
1	 1.698886893546374e+00	 7.933525843124138e-01	 1.278028733426654e+02
1	 1.682579343755863e+00	 8.273764270649256e-01	 1.266232803130137e+02
1	 1.665532512820283e+00	 8.611773620061519e-01	 1.254671994168505e+02
1	 1.647749922022751e+00	 8.947319121182951e-01	 1.239480285319509e+02
1	 1.629236067072467e+00	 9.280166150632179e-01	 1.216732318156941e+02
1	 1.609996423530313e+00	 9.610080729608007e-01	 1.182458810036500e+02
1	 1.590037449219140e+00	 9.936830028478698e-01	 1.132662546377008e+02
1	 1.569366583547552e+00	 1.026018287606500e+00	 1.063334859227878e+02
1	 1.464742144646208e+00	 9.576170684275745e-01	-4.685030358482993e+01
1	 1.444792760779105e+00	 9.874582919979614e-01	-4.247545813686190e+01
1	 1.424195563096069e+00	 1.016940016954224e+00	-3.852588824364547e+01
1	 1.402960210228699e+00	 1.046041418172352e+00	-3.526001329455727e+01
1	 1.381097244858090e+00	 1.074742015674165e+00	-3.293528938440032e+01
1	 1.358618078255741e+00	 1.103021721200889e+00	-3.180709621461075e+01
1	 1.335534971896006e+00	 1.130860883947535e+00	-3.212762340954370e+01
1	 1.311861016194242e+00	 1.158240335244118e+00	-3.414476376766193e+01
1	 1.287610106442683e+00	 1.185141431973866e+00	-3.810102099742205e+01
1	 1.262796916033438e+00	 1.211546098524362e+00	-4.423243944022160e+01
1	 1.237436867075000e+00	 1.237436867075000e+00	-5.276756315758043e+01
1	 1.475204588540842e+00	 9.644571903455147e-01	-2.304251392552864e+01
1	 1.455112709074938e+00	 9.945115655117275e-01	-2.124417716394747e+01
1	 1.434368388551411e+00	 1.024203874216805e+00	-1.965679305384293e+01
1	 1.412981354592089e+00	 1.053513142585853e+00	-1.847856169382163e+01
1	 1.390962225182928e+00	 1.082418744355134e+00	-1.790736435212997e+01
1	 1.368322493104510e+00	 1.110900447778312e+00	-1.813991050331128e+01
1	 1.345074507413148e+00	 1.138938461687509e+00	-1.937088218551981e+01
1	 1.321231452027168e+00	 1.166513480493667e+00	-2.179208143397975e+01
1	 1.296807321490887e+00	 1.193606727914892e+00	-2.559158658774837e+01
1	 1.271816894006361e+00	 1.220199999227256e+00	-3.095292324937455e+01
1	 1.246275701840000e+00	 1.246275701840000e+00	-3.805425559975571e+01
1	 1.485667032434476e+00	 9.712973122634445e-01	-1.227543680301320e+00
1	 1.465432657369780e+00	 1.001564839025664e+00	-1.673903475018241e+00
1	 1.444541214005794e+00	 1.031467731479696e+00	-2.120755729760348e+00
1	 1.423002498954569e+00	 1.060984866999766e+00	-2.706728655157326e+00
1	 1.400827205506926e+00	 1.090095473036578e+00	-3.570769705759184e+00
1	 1.378026907952530e+00	 1.118779174356233e+00	-4.851550407033942e+00
1	 1.354614042929651e+00	 1.147016039427960e+00	-6.686866426425808e+00
1	 1.330601887859582e+00	 1.174786625743633e+00	-9.213036894493026e+00
1	 1.306004536538730e+00	 1.202072023856238e+00	-1.256430703541411e+01
1	 1.280836871979093e+00	 1.228853899930329e+00	-1.687225817821973e+01
1	 1.255114536605000e+00	 1.255114536605000e+00	-2.226522919032669e+01
1	 1.496129476327111e+00	 9.781374341813636e-01	 1.863641455064962e+01
1	 1.475752605663633e+00	 1.008618112539770e+00	 1.627020923623565e+01
1	 1.454714039459216e+00	 1.038731588742899e+00	 1.411018997729683e+01
1	 1.433023643316138e+00	 1.068456591414092e+00	 1.207666663026618e+01
1	 1.410692185830083e+00	 1.097772201718495e+00	 1.008899798925553e+01
1	 1.387731322799798e+00	 1.126657900934648e+00	 8.065931464630584e+00
1	 1.364153578445512e+00	 1.155093617168889e+00	 5.925949576665555e+00
1	 1.339972323691486e+00	 1.183059770994018e+00	 3.587620993182827e+00
1	 1.315201751586213e+00	 1.210537319797904e+00	 9.699537752922920e-01
1	 1.289856849951636e+00	 1.237507800633582e+00	-2.007251546116516e+00
1	 1.263953371370000e+00	 1.263953371370000e+00	-5.423051457833442e+00
1	 1.506591920218745e+00	 9.849775560992717e-01	 3.659000685051806e+01
1	 1.486072553956495e+00	 1.015671386054045e+00	 3.262203932320580e+01
1	 1.464886864911678e+00	 1.045995446006413e+00	 2.906323347579918e+01
1	 1.443044787676797e+00	 1.075928315828831e+00	 2.589221661548385e+01
1	 1.420557166152399e+00	 1.105448930400887e+00	 2.308603929427450e+01
1	 1.397435737646315e+00	 1.134536627513560e+00	 2.062026174124276e+01
1	 1.373693113960733e+00	 1.163171194910295e+00	 1.846904915187660e+01
1	 1.349342759522880e+00	 1.191332916244822e+00	 1.660527528414954e+01
1	 1.324398966633336e+00	 1.219002615739889e+00	 1.500063373466284e+01
1	 1.298876827923988e+00	 1.246161701337016e+00	 1.362575619758917e+01
1	 1.272792206135000e+00	 1.272792206135000e+00	 1.245033694502730e+01
1	 1.517054364109380e+00	 9.918176780171698e-01	 5.267275803129216e+01
1	 1.496392502248367e+00	 1.022724659568490e+00	 4.741453056405135e+01
1	 1.475059690363180e+00	 1.053259303270238e+00	 4.276481412158671e+01
1	 1.453065932036545e+00	 1.083400040243982e+00	 3.875994568586620e+01
1	 1.430422146473876e+00	 1.113125659083753e+00	 3.543406578965320e+01
1	 1.407140152492082e+00	 1.142415354092968e+00	 3.281895390395803e+01
1	 1.383232649475314e+00	 1.171248772652179e+00	 3.094387470793203e+01
1	 1.358713195353763e+00	 1.199606061496045e+00	 2.983543639751171e+01
1	 1.333596181680099e+00	 1.227467911682194e+00	 2.951746210154942e+01
1	 1.307896805896150e+00	 1.254815602040628e+00	 3.001087537459978e+01
1	 1.281631040900000e+00	 1.281631040900000e+00	 3.133360062499229e+01
1	 1.527516807999014e+00	 9.986577999350574e-01	 6.692311003345166e+01
1	 1.506712450539249e+00	 1.029777933083105e+00	 6.067972416769861e+01
1	 1.485232515813721e+00	 1.060523160534374e+00	 5.524064690460197e+01
1	 1.463087076395382e+00	 1.090871764659546e+00	 5.069932961349034e+01
1	 1.440287126794510e+00	 1.120802387767094e+00	 4.714641339601039e+01
1	 1.416844567337098e+00	 1.150294080672872e+00	 4.466931558512961e+01
1	 1.392772184989253e+00	 1.179326350394540e+00	 4.335182913550874e+01
1	 1.368083631184136e+00	 1.207879206747686e+00	 4.327373775459529e+01
1	 1.342793396726501e+00	 1.235933207624818e+00	 4.451044952498806e+01
1	 1.316916783868122e+00	 1.263469502744421e+00	 4.713265164029819e+01
1	 1.290469875665000e+00	 1.290469875665000e+00	 5.120598872016782e+01
1	 1.537979251887649e+00	 1.005497921852934e+00	 7.937845875832994e+01
1	 1.517032398829141e+00	 1.036831206597890e+00	 7.244878947347392e+01
1	 1.495405341263303e+00	 1.067787017798821e+00	 6.651574708718546e+01
1	 1.473108220753309e+00	 1.098343489075522e+00	 6.172931421745719e+01
1	 1.450152107114305e+00	 1.128479116450908e+00	 5.823605515176847e+01
1	 1.426548982181364e+00	 1.158172807253272e+00	 5.617845556996795e+01
1	 1.402311720502552e+00	 1.187403928137378e+00	 5.569427715138495e+01
1	 1.377454067013998e+00	 1.216152351999745e+00	 5.691593159519867e+01
1	 1.351990611772543e+00	 1.244398503567761e+00	 5.996987847310331e+01
1	 1.325936761839904e+00	 1.272123403448393e+00	 6.497605117647990e+01
1	 1.299308710430000e+00	 1.299308710430000e+00	 7.204731501800708e+01
1	 1.548441695775283e+00	 1.012338043770800e+00	 9.007518940727297e+01
1	 1.527352347118043e+00	 1.043884480112846e+00	 8.275205340615679e+01
1	 1.505578166711924e+00	 1.075050875063579e+00	 7.661445384352153e+01
1	 1.483129365110326e+00	 1.105815213491911e+00	 7.186833326770696e+01
1	 1.460017087433259e+00	 1.136155845135198e+00	 6.871561347268964e+01
1	 1.436253397024878e+00	 1.166051533834168e+00	 6.735329051435104e+01
1	 1.411851256015211e+00	 1.195481505880694e+00	 6.797254658810220e+01
1	 1.386824502843350e+00	 1.224425497252223e+00	 7.075788496345503e+01
1	 1.361187826818225e+00	 1.252863799511024e+00	 7.588629405003098e+01
1	 1.334956739811496e+00	 1.280777304152546e+00	 8.352644648437850e+01
1	 1.308147545195000e+00	 1.308147545195000e+00	 9.383793887931925e+01
1	 1.558904139661917e+00	 1.019178165688655e+00	 9.904871039774437e+01
1	 1.537672295405955e+00	 1.050937753627970e+00	 9.161902874492351e+01
1	 1.515750992159585e+00	 1.082314732328648e+00	 8.556045294715940e+01
1	 1.493150509466432e+00	 1.113286937908712e+00	 8.113432566787725e+01
1	 1.469882067751373e+00	 1.143832573819961e+00	 7.859737191773527e+01
1	 1.445957811867642e+00	 1.173930260415559e+00	 7.820055139211610e+01
1	 1.421390791527228e+00	 1.203559083624488e+00	 8.018792963168912e+01
1	 1.396194938672191e+00	 1.232698642505121e+00	 8.479557585533723e+01
1	 1.370385041863546e+00	 1.261329095454607e+00	 9.225049518262830e+01
1	 1.343976717782898e+00	 1.289431204856878e+00	 1.027696027497842e+02
1	 1.316986379960000e+00	 1.316986379960000e+00	 1.165587469304360e+02
1	 1.569366583547552e+00	 1.026018287606500e+00	 1.063334859227878e+02
1	 1.547992243692877e+00	 1.057991027143265e+00	 9.907844126153304e+01
1	 1.525923817606285e+00	 1.089578589594028e+00	 9.337679855103345e+01
1	 1.503171653821628e+00	 1.120758662325927e+00	 8.954475195084655e+01
1	 1.479747048068645e+00	 1.151509302505199e+00	 8.789328648429360e+01
1	 1.455662226709656e+00	 1.181808986997448e+00	 8.872678968446240e+01
1	 1.430930327038606e+00	 1.211636661368759e+00	 9.234168400987906e+01
1	 1.405565374500522e+00	 1.240971787758436e+00	 9.902508952026369e+01
1	 1.379582256908508e+00	 1.269794391398509e+00	 1.090535261597159e+02
1	 1.352996695754110e+00	 1.298085105561391e+00	 1.226916647535598e+02
1	 1.325825214725000e+00	 1.325825214725000e+00	 1.401911354876945e+02
1	 1.237436867075000e+00	 1.237436867075000e+00	-5.276756315758043e+01
1	 1.211546098524362e+00	 1.262796916033438e+00	-5.437855257955194e+01
1	 1.185141431973866e+00	 1.287610106442683e+00	-5.324495595670301e+01
1	 1.158240335244119e+00	 1.311861016194243e+00	-4.909154095940326e+01
1	 1.130860883947535e+00	 1.335534971896005e+00	-4.165591060151559e+01
1	 1.103021721200889e+00	 1.358618078255741e+00	-3.068958427775565e+01
1	 1.074742015674166e+00	 1.381097244858090e+00	-1.595899901306772e+01
1	 1.046041418172353e+00	 1.402960210228699e+00	 2.753575320121834e+00
1	 1.016940016954224e+00	 1.424195563096068e+00	 2.564921229295117e+01
1	 9.874582919979624e-01	 1.444792760779105e+00	 5.291160137922861e+01
1	 9.576170684275745e-01	 1.464742144646208e+00	 8.470642038809261e+01
1	 1.246275701840000e+00	 1.246275701840000e+00	-3.805425559975571e+01
1	 1.220199999227256e+00	 1.271816894006361e+00	-3.588002521694482e+01
1	 1.193606727914892e+00	 1.296807321490887e+00	-3.203838105389610e+01
1	 1.166513480493667e+00	 1.321231452027167e+00	-2.631622815778447e+01
1	 1.138938461687509e+00	 1.345074507413148e+00	-1.850878154704133e+01
1	 1.110900447778313e+00	 1.368322493104510e+00	-8.420419148857933e+00
1	 1.082418744355135e+00	 1.390962225182927e+00	 4.134518666667396e+00
1	 1.053513142585854e+00	 1.412981354592089e+00	 1.933098801093172e+01
1	 1.024203874216806e+00	 1.434368388551411e+00	 3.733256338606232e+01
1	 9.945115655117286e-01	 1.455112709074937e+00	 5.829082653526211e+01
1	 9.644571903455147e-01	 1.475204588540842e+00	 8.234482558693828e+01
1	 1.255114536605000e+00	 1.255114536605000e+00	-2.226522919032669e+01
1	 1.228853899930329e+00	 1.280836871979093e+00	-1.666782146916365e+01
1	 1.202072023856238e+00	 1.306004536538730e+00	-1.046448210344355e+01
1	 1.174786625743633e+00	 1.330601887859582e+00	-3.503600949713125e+00
1	 1.147016039427960e+00	 1.354614042929651e+00	 4.362604261155281e+00
1	 1.118779174356233e+00	 1.378026907952529e+00	 1.327746105021028e+01
1	 1.090095473036578e+00	 1.400827205506926e+00	 2.337924256208419e+01
1	 1.060984866999767e+00	 1.423002498954568e+00	 3.480059905832348e+01
1	 1.031467731479697e+00	 1.444541214005793e+00	 4.766802411681518e+01
1	 1.001564839025664e+00	 1.465432657369779e+00	 6.210135879613294e+01
1	 9.712973122634446e-01	 1.485667032434477e+00	 7.821333666862674e+01
1	 1.263953371370000e+00	 1.263953371370000e+00	-5.423051457833442e+00
1	 1.237507800633582e+00	 1.289856849951636e+00	 3.243086431910184e+00
1	 1.210537319797904e+00	 1.315201751586213e+00	 1.146903479582035e+01
1	 1.183059770994018e+00	 1.339972323691486e+00	 1.934555784519132e+01
1	 1.155093617168889e+00	 1.364153578445512e+00	 2.696403164649289e+01
1	 1.126657900934648e+00	 1.387731322799797e+00	 3.441604131797568e+01
1	 1.097772201718496e+00	 1.410692185830083e+00	 4.179297953568483e+01
1	 1.068456591414093e+00	 1.433023643316137e+00	 4.918564905598384e+01
1	 1.038731588742900e+00	 1.454714039459216e+00	 5.668387190503843e+01
1	 1.008618112539770e+00	 1.475752605663632e+00	 6.437610780252095e+01
1	 9.781374341813637e-01	 1.496129476327111e+00	 7.234908427840718e+01
1	 1.272792206135000e+00	 1.272792206135000e+00	 1.245033694502730e+01
1	 1.246161701337015e+00	 1.298876827923988e+00	 2.383814214975349e+01
1	 1.219002615739890e+00	 1.324398966633336e+00	 3.375467760337393e+01
1	 1.191332916244822e+00	 1.349342759522880e+00	 4.223048715229941e+01
1	 1.163171194910296e+00	 1.373693113960733e+00	 4.930112474284618e+01
1	 1.134536627513560e+00	 1.397435737646315e+00	 5.500697373633325e+01
1	 1.105448930400887e+00	 1.420557166152399e+00	 5.939304181489909e+01
1	 1.075928315828831e+00	 1.443044787676796e+00	 6.250873302555878e+01
1	 1.045995446006414e+00	 1.464886864911678e+00	 6.440759868669409e+01
1	 1.015671386054046e+00	 1.486072553956495e+00	 6.514706903845216e+01
1	 9.849775560992720e-01	 1.506591920218745e+00	 6.478816765476735e+01
1	 1.281631040900000e+00	 1.281631040900000e+00	 3.133360062499229e+01
1	 1.254815602040628e+00	 1.307896805896150e+00	 4.510319090198217e+01
1	 1.227467911682194e+00	 1.333596181680099e+00	 5.638516095568721e+01
1	 1.199606061496045e+00	 1.358713195353763e+00	 6.515044689214557e+01
1	 1.171248772652179e+00	 1.383232649475313e+00	 7.137935253556344e+01
1	 1.142415354092968e+00	 1.407140152492081e+00	 7.506158895043087e+01
1	 1.113125659083754e+00	 1.430422146473875e+00	 7.619626404846798e+01
1	 1.083400040243983e+00	 1.453065932036545e+00	 7.479182267775737e+01
1	 1.053259303270239e+00	 1.475059690363180e+00	 7.086593799952797e+01
1	 1.022724659568491e+00	 1.496392502248366e+00	 6.444535535394256e+01
1	 9.918176780171699e-01	 1.517054364109380e+00	 5.556569019518182e+01
1	 1.290469875665000e+00	 1.290469875665000e+00	 5.120598872016782e+01
1	 1.263469502744421e+00	 1.316916783868122e+00	 6.702446570849480e+01
1	 1.235933207624818e+00	 1.342793396726501e+00	 7.935339908824226e+01
1	 1.207879206747686e+00	 1.368083631184136e+00	 8.810471726141417e+01
1	 1.179326350394540e+00	 1.392772184989253e+00	 9.320403417477524e+01
1	 1.150294080672872e+00	 1.416844567337098e+00	 9.459090717677678e+01
1	 1.120802387767094e+00	 1.440287126794510e+00	 9.221901966187679e+01
1	 1.090871764659547e+00	 1.463087076395382e+00	 8.605628775861763e+01
1	 1.060523160534375e+00	 1.485232515813721e+00	 7.608489095561046e+01
1	 1.029777933083107e+00	 1.506712450539249e+00	 6.230122719218816e+01
1	 9.986577999350573e-01	 1.527516807999014e+00	 4.471579356025511e+01
1	 1.299308710430000e+00	 1.299308710430000e+00	 7.204731501800708e+01
1	 1.272123403448393e+00	 1.325936761839904e+00	 8.958857420091853e+01
1	 1.244398503567761e+00	 1.351990611772543e+00	 1.026524990464496e+02
1	 1.216152351999746e+00	 1.377454067013998e+00	 1.110925980432750e+02
1	 1.187403928137379e+00	 1.402311720502552e+00	 1.147803440718266e+02
1	 1.158172807253272e+00	 1.426548982181363e+00	 1.136056487620368e+02
1	 1.128479116450909e+00	 1.450152107114305e+00	 1.074772365452219e+02
1	 1.098343489075523e+00	 1.473108220753309e+00	 9.632291652449489e+01
1	 1.067787017798822e+00	 1.495405341263302e+00	 8.008975115377368e+01
1	 1.036831206597892e+00	 1.517032398829141e+00	 5.874412158299470e+01
1	 1.005497921852934e+00	 1.537979251887649e+00	 3.227169038585804e+01
1	 1.308147545195000e+00	 1.308147545195000e+00	 9.383793887931925e+01
1	 1.280777304152546e+00	 1.334956739811497e+00	 1.127824859668073e+02
1	 1.252863799511024e+00	 1.361187826818225e+00	 1.262757541718013e+02
1	 1.224425497252224e+00	 1.386824502843349e+00	 1.341134079456791e+02
1	 1.195481505880695e+00	 1.411851256015210e+00	 1.361133167891058e+02
1	 1.166051533834168e+00	 1.436253397024877e+00	 1.321162443137734e+02
1	 1.136155845135198e+00	 1.460017087433259e+00	 1.219864121050821e+02
1	 1.105815213491912e+00	 1.483129365110326e+00	 1.056119353869829e+02
1	 1.075050875063580e+00	 1.505578166711923e+00	 8.290512858208621e+01
1	 1.043884480112846e+00	 1.527352347118043e+00	 5.380267996079422e+01
1	 1.012338043770800e+00	 1.548441695775283e+00	 1.826569566909735e+01
1	 1.316986379960000e+00	 1.316986379960000e+00	 1.165587469304360e+02
1	 1.289431204856878e+00	 1.343976717782898e+00	 1.365935204034675e+02
1	 1.261329095454607e+00	 1.370385041863546e+00	 1.502166378503210e+02
1	 1.232698642505121e+00	 1.396194938672191e+00	 1.571664839662956e+02
1	 1.203559083624488e+00	 1.421390791527228e+00	 1.572078517329568e+02
1	 1.173930260415560e+00	 1.445957811867642e+00	 1.501328444232342e+02
1	 1.143832573819962e+00	 1.469882067751372e+00	 1.357616277102744e+02
1	 1.113286937908713e+00	 1.493150509466432e+00	 1.139430277667650e+02
1	 1.082314732328649e+00	 1.515750992159584e+00	 8.455497255780986e+01
1	 1.050937753627971e+00	 1.537672295405955e+00	 4.750477486247774e+01
1	 1.019178165688655e+00	 1.558904139661917e+00	 2.729256890420267e+00
1	 1.325825214725000e+00	 1.325825214725000e+00	 1.401911354876945e+02
1	 1.298085105561391e+00	 1.352996695754110e+00	 1.610093350576350e+02
1	 1.269794391398509e+00	 1.379582256908508e+00	 1.744687975110854e+02
1	 1.240971787758436e+00	 1.405565374500522e+00	 1.802511807828597e+02
1	 1.211636661368759e+00	 1.430930327038606e+00	 1.780687176588862e+02
1	 1.181808986997448e+00	 1.455662226709656e+00	 1.676653289992287e+02
1	 1.151509302505200e+00	 1.479747048068645e+00	 1.488175625597782e+02
1	 1.120758662325928e+00	 1.503171653821628e+00	 1.213353521933114e+02
1	 1.089578589594029e+00	 1.525923817606285e+00	 8.506259374976003e+01
1	 1.057991027143266e+00	 1.547992243692877e+00	 3.987753555731108e+01
1	 1.026018287606500e+00	 1.569366583547552e+00	-1.430701706916550e+01
1	 9.576170684275745e-01	 1.464742144646208e+00	 8.470642038809261e+01
1	 9.274374693167079e-01	 1.484034952609081e+00	 1.051549907863673e+02
1	 8.969408680863412e-01	 1.502663328635016e+00	 1.180979600753247e+02
1	 8.661488407132029e-01	 1.520620329275986e+00	 1.233514716160863e+02
1	 8.350831179629206e-01	 1.537899927230666e+00	 1.207649482090744e+02
1	 8.037655378569366e-01	 1.554497011975572e+00	 1.102211221587722e+02
1	 7.722179985775102e-01	 1.570407387515452e+00	 9.163589002138582e+01
1	 7.404624120079161e-01	 1.585627767319404e+00	 6.495799715290988e+01
1	 7.085206580967063e-01	 1.600155766523939e+00	 3.016855842052133e+01
1	 6.764145402254393e-01	 1.613989891498045e+00	-1.271957741574954e+01
1	 6.441657417487923e-01	 1.627129526877964e+00	-6.366261111156196e+01
1	 9.644571903455147e-01	 1.475204588540842e+00	 8.234482558693828e+01
1	 9.340620226707020e-01	 1.494635202274587e+00	 9.343581731160309e+01
1	 9.033475885753567e-01	 1.513396638129045e+00	 9.989306350114552e+01
1	 8.723356181503269e-01	 1.531481903060134e+00	 1.015594157832843e+02
1	 8.410479973809958e-01	 1.548884926714374e+00	 9.829969850606247e+01
1	 8.095067202746751e-01	 1.565600562064542e+00	 9.000087578806436e+01
1	 7.777338414292119e-01	 1.581624583143993e+00	 7.657209855877927e+01
1	 7.457514292413349e-01	 1.596953679946601e+00	 5.794463414687172e+01
1	 7.135815199449446e-01	 1.611585450574138e+00	 3.407168186110868e+01
1	 6.812460726600413e-01	 1.625518390726798e+00	 4.928078834126721e+00
1	 6.487669256224087e-01	 1.638751880645368e+00	-2.949009884458043e+01
1	 9.712973122634446e-01	 1.485667032434477e+00	 7.821333666862674e+01
1	 9.406865760245010e-01	 1.505235451939093e+00	 8.024271130041988e+01
1	 9.097543090640229e-01	 1.524129947622075e+00	 8.046831866410932e+01
1	 8.785223955869794e-01	 1.542343476843282e+00	 7.875954577437882e+01
1	 8.470128767985073e-01	 1.559869926197083e+00	 7.499655329323808e+01
1	 8.152479026917877e-01	 1.576704112152514e+00	 6.907057815180701e+01
1	 7.832496842802557e-01	 1.592841778771534e+00	 6.088417099801585e+01
1	 7.510404464740938e-01	 1.608279592572798e+00	 5.035136849024443e+01
1	 7.186423817925509e-01	 1.623015134623336e+00	 3.739780098836184e+01
1	 6.860776050940676e-01	 1.637046889954551e+00	 2.196073670305639e+01
1	 6.533681094955354e-01	 1.650374234411771e+00	 3.989063846422200e+00
1	 9.781374341813637e-01	 1.496129476327111e+00	 7.234908427840718e+01
1	 9.473111293781052e-01	 1.515835701602599e+00	 6.560659441406253e+01
1	 9.161610295523410e-01	 1.534863257114104e+00	 5.984931678628473e+01
1	 8.847091730231601e-01	 1.553205050625430e+00	 5.497300454395207e+01
1	 8.529777562154551e-01	 1.570854925678792e+00	 5.087309079794149e+01
1	 8.209890851082741e-01	 1.587807662239485e+00	 4.744512543024938e+01
1	 7.887655271306419e-01	 1.604058974398075e+00	 4.458520110322589e+01
1	 7.563294637061935e-01	 1.619605505197995e+00	 4.219036597272252e+01
1	 7.237032436395248e-01	 1.634444818671535e+00	 4.015902078771441e+01
1	 6.909091375275186e-01	 1.648575389181304e+00	 3.839129825488014e+01
1	 6.579692933681720e-01	 1.661996588177175e+00	 3.678942275678312e+01
1	 9.849775560992720e-01	 1.506591920218745e+00	 6.478816765476735e+01
1	 9.539356827315137e-01	 1.526435951265105e+00	 4.955752937877734e+01
1	 9.225677500403102e-01	 1.545596566605134e+00	 3.806093822248639e+01
1	 8.908959504588690e-01	 1.564066624406578e+00	 3.022034774230993e+01
1	 8.589426356318386e-01	 1.581839925159500e+00	 2.594640096342846e+01
1	 8.267302675241348e-01	 1.598911212325456e+00	 2.513900002086045e+01
1	 7.942813699803704e-01	 1.615276170023616e+00	 2.768791892287166e+01
1	 7.616184809376328e-01	 1.630931417822191e+00	 3.347345444539835e+01
1	 7.287641054858667e-01	 1.645874502718734e+00	 4.236710999500131e+01
1	 6.957406699603945e-01	 1.660103888407058e+00	 5.423230716276858e+01
1	 6.625704772403191e-01	 1.673618941941579e+00	 6.892511963195894e+01
1	 9.918176780171699e-01	 1.517054364109380e+00	 5.556569019518182e+01
1	 9.605602360847276e-01	 1.537036200926611e+00	 3.212474960425952e+01
1	 9.289744705279306e-01	 1.556329876095164e+00	 1.512737697293752e+01
1	 8.970827278941061e-01	 1.574928198186726e+00	 4.521563967350584e+00
1	 8.649075150476579e-01	 1.592824924639208e+00	 2.331022862546490e-01
1	 8.324714499393694e-01	 1.610014762410427e+00	 2.166284806701846e+00
1	 7.997972128294406e-01	 1.626493365648157e+00	 1.020470333166592e+01
1	 7.669074981684126e-01	 1.642257330445388e+00	 2.421213547381406e+01
1	 7.338249673315762e-01	 1.657304186764933e+00	 4.403351269127162e+01
1	 7.005722023926947e-01	 1.671632387631810e+00	 6.949596106752287e+01
1	 6.671716611119766e-01	 1.685241295704983e+00	 1.004099061002788e+02
1	 9.986577999350573e-01	 1.527516807999014e+00	 4.471579356025511e+01
1	 9.671847894377462e-01	 1.547636450587116e+00	 1.333668758490364e+01
1	 9.353811910152018e-01	 1.567063185584193e+00	-8.927835811437145e+00
1	 9.032695053288720e-01	 1.585789771965874e+00	-2.210390581583088e+01
1	 8.708723944629133e-01	 1.603809924117917e+00	-2.625064203829077e+01
1	 8.382126323539778e-01	 1.621118312494398e+00	-2.145932316157288e+01
1	 8.053130556778535e-01	 1.637710561271698e+00	-7.852405942928939e+00
1	 7.721965153985323e-01	 1.653583243067585e+00	 1.441759551212700e+01
1	 7.388858291766537e-01	 1.668733870810132e+00	 4.516935942110364e+01
1	 7.054037348244198e-01	 1.683160886855564e+00	 8.419412342799751e+01
1	 6.717728449831446e-01	 1.696863649467388e+00	 1.312571570331210e+02
1	 1.005497921852934e+00	 1.537979251887649e+00	 3.227169038585804e+01
1	 9.738093427905699e-01	 1.558236700246622e+00	-6.778997858180794e+00
1	 9.417879115021248e-01	 1.577796495072223e+00	-3.408180928311725e+01
1	 9.094562827631661e-01	 1.596651345744022e+00	-4.963714964797874e+01
1	 8.768372738776050e-01	 1.614794923595625e+00	-5.348910862974790e+01
1	 8.439538147679604e-01	 1.632221862577369e+00	-4.572449954216702e+01
1	 8.108288985256082e-01	 1.648927756894240e+00	-2.647169678508133e+01
1	 7.774855326279926e-01	 1.664909155688782e+00	 4.100716621182475e+00
1	 7.439466910210989e-01	 1.680163554854331e+00	 4.578547785711208e+01
1	 7.102352672555692e-01	 1.694689386078317e+00	 9.833833488783453e+01
1	 6.763740288538225e-01	 1.708486003228792e+00	 1.614798833597763e+02
1	 1.012338043770800e+00	 1.548441695775283e+00	 1.826569566909735e+01
1	 9.804338961431978e-01	 1.568836949905128e+00	-2.819539543955887e+01
1	 9.481946319886988e-01	 1.588529804559253e+00	-6.031227126611594e+01
1	 9.156430601969882e-01	 1.607512919521170e+00	-7.805976670385725e+01
1	 8.828021532917325e-01	 1.625779923072334e+00	-8.146699906387721e+01
1	 8.496949971813170e-01	 1.643325412659341e+00	-7.061628011062517e+01
1	 8.163447413727055e-01	 1.660144952515780e+00	-4.564177362262893e+01
1	 7.827745498567932e-01	 1.676235068308980e+00	-6.727913247926921e+00
1	 7.490075528649117e-01	 1.691593238897529e+00	 4.589240303210616e+01
1	 7.150667996861435e-01	 1.706217885300070e+00	 1.119398241813821e+02
1	 6.809752127240106e-01	 1.720108356989195e+00	 1.910907443627869e+02
1	 1.019178165688655e+00	 1.558904139661917e+00	 2.729256890420267e+00
1	 9.870584494956313e-01	 1.579437199562634e+00	-5.088631632438192e+01
1	 9.546013524749237e-01	 1.599263114045282e+00	-8.759754749519090e+01
1	 9.218298376303387e-01	 1.618374493297318e+00	-1.073538501401022e+02
1	 8.887670327052957e-01	 1.636764922548042e+00	-1.101694256123831e+02
1	 8.554361795940475e-01	 1.654428962740311e+00	-9.612204867535954e+01
1	 8.218605842191447e-01	 1.671362148136321e+00	-6.535154680480814e+01
1	 7.880635670849336e-01	 1.687560980928176e+00	-1.805799038440794e+01
1	 7.540684147080928e-01	 1.703022922939728e+00	 4.550038715922111e+01
1	 7.198983321161423e-01	 1.717746384520824e+00	 1.250095186004491e+02
1	 6.855763965937093e-01	 1.731730710748600e+00	 2.201020594781762e+02
1	 1.026018287606500e+00	 1.569366583547552e+00	-1.430701706916550e+01
1	 9.936830028478698e-01	 1.590037449219140e+00	-7.482627004670283e+01
1	 9.610080729608007e-01	 1.609996423530313e+00	-1.159165416854880e+02
1	 9.280166150632180e-01	 1.629236067072467e+00	-1.375019706291623e+02
1	 8.947319121182953e-01	 1.647749922022751e+00	-1.395818975530531e+02
1	 8.611773620061525e-01	 1.665532512820283e+00	-1.222295254765546e+02
1	 8.273764270649263e-01	 1.682579343755863e+00	-8.559022240487602e+01
1	 7.933525843124147e-01	 1.698886893546373e+00	-2.987948584308981e+01
1	 7.591292765506416e-01	 1.714452606980927e+00	 4.461940905923751e+01
1	 7.247298645455660e-01	 1.729274883740578e+00	 1.375580540423909e+02
1	 6.901775804629183e-01	 1.743353064507004e+00	 2.485258196236649e+02
1	 6.441657417487923e-01	 1.627129526877964e+00	-6.366261111156196e+01
1	 6.117957838646149e-01	 1.639574920191208e+00	-9.900707156171561e+01
1	 5.793259849590476e-01	 1.651327164198396e+00	-1.230802849781606e+02
1	 5.467774215590897e-01	 1.662388177092036e+00	-1.361559886404158e+02
1	 5.141708910118744e-01	 1.672760680698918e+00	-1.385421973905216e+02
1	 4.815268759957917e-01	 1.682448176837619e+00	-1.305788966036443e+02
1	 4.488655109548267e-01	 1.691454921988814e+00	-1.126356540534054e+02
1	 4.162065505333923e-01	 1.699785900439417e+00	-8.510916886923641e+01
1	 3.835693400749210e-01	 1.707446796063892e+00	-4.842077546716200e+01
1	 3.509727882336220e-01	 1.714443962907183e+00	-3.013919866225010e+00
1	 3.184353417352296e-01	 1.720784394733555e+00	 5.064837480599994e+01
1	 6.487669256224087e-01	 1.638751880645368e+00	-2.949009884458043e+01
1	 6.161657537528369e-01	 1.651286169625344e+00	-4.960422099395711e+01
1	 5.834640277117503e-01	 1.663122358232710e+00	-6.326425498817682e+01
1	 5.506829745727695e-01	 1.674262378361350e+00	-7.064910246021572e+01
1	 5.178435402355067e-01	 1.684708971279677e+00	-7.195774424916563e+01
1	 4.849663536831978e-01	 1.694465663819255e+00	-6.740779839959791e+01
1	 4.520716931772849e-01	 1.703536742864199e+00	-5.723403346445307e+01
1	 4.191794544667834e-01	 1.711927228303469e+00	-4.168684826447804e+01
1	 3.863091210761500e-01	 1.719642844610636e+00	-2.103072902540522e+01
1	 3.534797367214098e-01	 1.726689991216679e+00	 4.457305509700532e+00
1	 3.207098798906232e-01	 1.733075711841326e+00	 3.448926080255283e+01
1	 6.533681094955354e-01	 1.650374234411771e+00	 3.989063846422200e+00
1	 6.205357236406640e-01	 1.662997419058485e+00	-7.234186643266560e-01
1	 5.876020704641420e-01	 1.674917552266045e+00	-3.733467171857787e+00
1	 5.545885275862121e-01	 1.686136579629713e+00	-5.126423866127459e+00
1	 5.215161894589658e-01	 1.696657261859521e+00	-4.993639538119133e+00
1	 4.884058313704844e-01	 1.706483150800025e+00	-3.431888572266431e+00
1	 4.552778753996668e-01	 1.715618563738773e+00	-5.427753690735457e-01
1	 4.221523584001318e-01	 1.724068556166777e+00	 3.567863634440172e+00
1	 3.890489020773603e-01	 1.731838893156712e+00	 8.790558327419376e+00
1	 3.559866852091929e-01	 1.738936019525595e+00	 1.501279983163803e+01
1	 3.229844180460166e-01	 1.745367028948611e+00	 2.211962831950805e+01
1	 6.579692933681720e-01	 1.661996588177175e+00	 3.678942275678312e+01
1	 6.249056935280957e-01	 1.674708668490631e+00	 4.764628748831637e+01
1	 5.917401132162232e-01	 1.686712746298402e+00	 5.551806257262681e+01
1	 5.584940805994181e-01	 1.698010780897124e+00	 6.041171583277070e+01
1	 5.251888386822519e-01	 1.708605552438449e+00	 6.234215202464653e+01
1	 4.918453090576513e-01	 1.718500637779927e+00	 6.133194871862806e+01
1	 4.584840576219726e-01	 1.727700384612536e+00	 5.741106490054614e+01
1	 4.251252623334376e-01	 1.736209884029342e+00	 5.061652505212531e+01
1	 3.917886830785516e-01	 1.744034941702122e+00	 4.099208153713197e+01
1	 3.584936336969712e-01	 1.751182047833929e+00	 2.858785815645286e+01
1	 3.252589562014102e-01	 1.757658346055410e+00	 1.345997774423638e+01
1	 6.625704772403191e-01	 1.673618941941579e+00	 6.892511963195894e+01
1	 6.292756634151327e-01	 1.686419917921784e+00	 9.551554530118479e+01
1	 5.958781559679939e-01	 1.698507940329780e+00	 1.144961521220530e+02
1	 5.623996336123873e-01	 1.709884982163583e+00	 1.259649945304303e+02
1	 5.288614879053646e-01	 1.720553843016463e+00	 1.300418869633287e+02
1	 4.952847867446983e-01	 1.730518124758960e+00	 1.268672983178048e+02
1	 4.616902398442022e-01	 1.739782205485489e+00	 1.166011835492293e+02
1	 4.280981662667007e-01	 1.748351211891163e+00	 9.942176204028446e+01
1	 3.945284640797241e-01	 1.756230990246865e+00	 7.552425235661497e+01
1	 3.610005821847450e-01	 1.763428076141683e+00	 4.511957290053859e+01
1	 3.275334943568037e-01	 1.769949663161724e+00	 8.433017786671286e+00
1	 6.671716611119766e-01	 1.685241295704983e+00	 1.004099061002788e+02
1	 6.336456333017748e-01	 1.698131167351941e+00	 1.428947088780446e+02
1	 6.000161987194534e-01	 1.710303134360181e+00	 1.732064588600405e+02
1	 5.663051866251195e-01	 1.721759183429090e+00	 1.915330990064873e+02
1	 5.325341371283041e-01	 1.732502133593562e+00	 1.980980354152534e+02
1	 4.987242644316259e-01	 1.742535611737127e+00	 1.931581979018579e+02
1	 4.648964220663556e-01	 1.751864026357632e+00	 1.770020024037399e+02
1	 4.310710701999212e-01	 1.760492539752242e+00	 1.499472316560980e+02
1	 3.972682450808779e-01	 1.768427038790942e+00	 1.123388504903957e+02
1	 3.635075306725140e-01	 1.775674104448856e+00	 6.454677186190295e+01
1	 3.298080325121973e-01	 1.782240980267553e+00	 6.963589330255438e+00
1	 6.717728449831446e-01	 1.696863649467388e+00	 1.312571570331210e+02
1	 6.380156031880218e-01	 1.709842416781104e+00	 1.897938486485775e+02
1	 6.041542414706024e-01	 1.722098328389602e+00	 2.316544851733953e+02
1	 5.702107396376153e-01	 1.733633384693645e+00	 2.571157246219584e+02
1	 5.362067863510706e-01	 1.744450424169746e+00	 2.665032738153569e+02
1	 5.021637421184337e-01	 1.754553098714425e+00	 2.601891224713152e+02
1	 4.681026042884328e-01	 1.763945847228964e+00	 2.385886440627182e+02
1	 4.340439741330990e-01	 1.772633867612575e+00	 2.021575866538140e+02
1	 4.000080260820126e-01	 1.780623087334350e+00	 1.513889767469904e+02
1	 3.660144791602783e-01	 1.787920132755449e+00	 8.680995878928950e+01
1	 3.320825706675907e-01	 1.794532297372897e+00	 8.978592412300209e+00
1	 6.763740288538225e-01	 1.708486003228792e+00	 1.614798833597763e+02
1	 6.423855730738738e-01	 1.721553666209272e+00	 2.362227610171635e+02
1	 6.082922842214408e-01	 1.733893522418045e+00	 2.898455837241072e+02
1	 5.741162926498737e-01	 1.745507585957248e+00	 3.227125750273565e+02
1	 5.398794355736638e-01	 1.756398714745015e+00	 3.352504778792588e+02
1	 5.056032198051220e-01	 1.766570585690856e+00	 3.279449694756735e+02
1	 4.713087865104338e-01	 1.776027668099485e+00	 3.013369080608988e+02
1	 4.370168780662343e-01	 1.784775195472166e+00	 2.560184416175021e+02
1	 4.027478070831286e-01	 1.792819135877093e+00	 1.926290081033906e+02
1	 3.685214276480380e-01	 1.800166161061461e+00	 1.118512563770511e+02
1	 3.343571088229843e-01	 1.806823614477755e+00	 1.440691618473908e+01
1	 6.809752127240106e-01	 1.720108356989195e+00	 1.910907443627869e+02
1	 6.467555429593308e-01	 1.733264915636446e+00	 2.821909776204885e+02
1	 6.124303269719683e-01	 1.745688716445509e+00	 3.477849625076263e+02
1	 5.780218456618959e-01	 1.757381787219899e+00	 3.883233618826373e+02
1	 5.435520847960841e-01	 1.768347005319369e+00	 4.043327158708122e+02
1	 5.090426974916905e-01	 1.778588072666419e+00	 3.964110445414738e+02
1	 4.745149687323587e-01	 1.788109488969196e+00	 3.652232479996510e+02
1	 4.399897819993270e-01	 1.796916523331014e+00	 3.114963404667981e+02
1	 4.054875880842257e-01	 1.805015184419168e+00	 2.360145545912657e+02
1	 3.710283761357929e-01	 1.812412189366892e+00	 1.396143515710419e+02
1	 3.366316469783779e-01	 1.819114931582128e+00	 2.317937171430945e+01
1	 6.855763965937093e-01	 1.731730710748600e+00	 2.201020594781762e+02
1	 6.511255128443928e-01	 1.744976165062624e+00	 3.277077742123699e+02
1	 6.165683697221850e-01	 1.757483910471994e+00	 4.054776897074378e+02
1	 5.819273986736807e-01	 1.769255988481598e+00	 4.539478045884327e+02
1	 5.472247340183309e-01	 1.780295295892808e+00	 4.737432421407424e+02
1	 5.124821751781393e-01	 1.790605559641113e+00	 4.655730477750874e+02
1	 4.777211509542074e-01	 1.800191309838096e+00	 4.302247495984317e+02
1	 4.429626859323769e-01	 1.809057851189117e+00	 3.685587252711536e+02
1	 4.082273690853040e-01	 1.817211232960577e+00	 2.815024179192890e+02
1	 3.735353246235432e-01	 1.824658217671742e+00	 1.700444430769575e+02
1	 3.389061851337714e-01	 1.831406248686016e+00	 3.522862748876736e+01
1	 6.901775804629183e-01	 1.743353064507004e+00	 2.485258196236649e+02
1	 6.554954827290597e-01	 1.756687414487810e+00	 3.727821791931848e+02
1	 6.207064124720911e-01	 1.769279104497503e+00	 4.629286983554694e+02
1	 5.858329516852290e-01	 1.781130189742346e+00	 5.195856300280258e+02
1	 5.508973832404049e-01	 1.792243586465333e+00	 5.434754909237661e+02
1	 5.159216528644688e-01	 1.802623046614941e+00	 5.354170606133872e+02
1	 4.809273331759799e-01	 1.812273130706186e+00	 4.963191096241844e+02
1	 4.459355898653843e-01	 1.821199179046478e+00	 4.271739063115045e+02
1	 4.109671500863636e-01	 1.829407281501319e+00	 3.290505517505698e+02
1	 3.760422731112888e-01	 1.836904245976013e+00	 2.030881909683375e+02
1	 3.411807232891650e-01	 1.843697565789419e+00	 5.048914750285454e+01
1	 3.184353417352296e-01	 1.720784394733555e+00	 5.064837480599994e+01
1	 2.859749623090795e-01	 1.726475693704463e+00	 1.064866614395758e+02
1	 2.536091058023270e-01	 1.731526038345919e+00	 1.435849440335434e+02
1	 2.213547034732818e-01	 1.735944150962882e+00	 1.626700065221025e+02
1	 1.892281454495708e-01	 1.739739264653876e+00	 1.645029346098612e+02
1	 1.572452663273684e-01	 1.742921090073661e+00	 1.498748317678143e+02
1	 1.254213328766080e-01	 1.745499782086253e+00	 1.196025936607046e+02
1	 9.377103380810400e-02	 1.747485906444048e+00	 7.452476273573699e+01
1	 6.230847155001576e-02	 1.748890406621857e+00	 1.549748284688322e+01
1	 3.104715597342760e-02	 1.749724570927141e+00	-5.660942812108844e+01
1	 0.000000000000000e+00	 1.750000000000000e+00	-1.409162716051983e+02
1	 3.207098798906232e-01	 1.733075711841326e+00	 3.448926080255283e+01
1	 2.880176406112042e-01	 1.738807662947247e+00	 7.150051400651398e+01
1	 2.554205994149419e-01	 1.743894081478562e+00	 9.517948157717925e+01
1	 2.229358084977045e-01	 1.748343752042406e+00	 1.060485366111830e+02
1	 1.905797750594583e-01	 1.752165973688006e+00	 1.046547233389988e+02
1	 1.583684468006353e-01	 1.755370526431943e+00	 9.156667038337535e+01
1	 1.263171995395246e-01	 1.757967637672972e+00	 6.737154607125775e+01
1	 9.444082690630262e-02	 1.759967948633152e+00	 3.267207148181583e+01
1	 6.275353206075759e-02	 1.761382480954967e+00	-1.191639442546325e+01
1	 3.126892137305198e-02	 1.762222603576644e+00	-6.576868463672085e+01
1	 0.000000000000000e+00	 1.762500000000000e+00	-1.282525572979221e+02
1	 3.229844180460166e-01	 1.745367028948611e+00	 2.211962831950805e+01
1	 2.900603189133288e-01	 1.751139632189640e+00	 3.958379057585336e+01
1	 2.572320930275566e-01	 1.756262124610897e+00	 4.905531984010163e+01
1	 2.245169135221270e-01	 1.760743353121696e+00	 5.085468810922569e+01
1	 1.919314046693457e-01	 1.764592682721967e+00	 4.531748401969307e+01
1	 1.594916272739021e-01	 1.767819962790108e+00	 3.279251255903409e+01
1	 1.272130662024412e-01	 1.770435493259618e+00	 1.363992063947182e+01
1	 9.511062000450128e-02	 1.772449990822214e+00	-1.177064178223203e+01
1	 6.319859257149944e-02	 1.773874555288057e+00	-4.306181618055753e+01
1	 3.149068677267637e-02	 1.774720636226143e+00	-7.985027752498033e+01
1	 0.000000000000000e+00	 1.775000000000000e+00	-1.217484167882789e+02
1	 3.252589562014102e-01	 1.757658346055410e+00	 1.345997774423638e+01
1	 2.921029972154534e-01	 1.763471601431642e+00	 1.067209763674586e+01
1	 2.590435866401714e-01	 1.768630167742926e+00	 5.164599366372904e+00
1	 2.260980185465497e-01	 1.773142954200753e+00	-2.941489083517371e+00
1	 1.932830342792332e-01	 1.777019391755757e+00	-1.351950303956792e+01
1	 1.606148077471690e-01	 1.780269399148155e+00	-2.643786555629868e+01
1	 1.281089328653577e-01	 1.782903348846188e+00	-4.156080198075605e+01
1	 9.578041310269989e-02	 1.784932033011234e+00	-5.874904093042379e+01
1	 6.364365308224128e-02	 1.786366629621130e+00	-7.786049826849727e+01
1	 3.171245217230076e-02	 1.787218668875638e+00	-9.875094098792592e+01
1	 0.000000000000000e+00	 1.787500000000000e+00	-1.212746282484655e+02
1	 3.275334943568037e-01	 1.769949663161724e+00	 8.433017786671286e+00
1	 2.941456755175780e-01	 1.775803570673254e+00	-1.529716961302850e+01
1	 2.608550802527862e-01	 1.780998210874648e+00	-3.653920987061778e+01
1	 2.276791235709723e-01	 1.785542555279576e+00	-5.536911311958036e+01
1	 1.946346638891207e-01	 1.789446100789376e+00	-7.186665976108817e+01
1	 1.617379882204359e-01	 1.792718835506084e+00	-8.611495937340423e+01
1	 1.290047995282743e-01	 1.795371204432684e+00	-9.820001559813535e+01
1	 9.645020620089854e-02	 1.797414075200213e+00	-1.082102991736091e+02
1	 6.408871359298313e-02	 1.798858703954184e+00	-1.162363310990969e+02
1	 3.193421757192514e-02	 1.799716701525127e+00	-1.223702777220030e+02
1	 0.000000000000000e+00	 1.800000000000000e+00	-1.267055593458915e+02
1	 3.298080325121973e-01	 1.782240980267553e+00	 6.963589330255438e+00
1	 2.961883538197027e-01	 1.788135539914474e+00	-3.838488894666886e+01
1	 2.626665738654010e-01	 1.793366254006063e+00	-7.610135431054427e+01
1	 2.292602285953949e-01	 1.797942156358166e+00	-1.064564988921191e+02
1	 1.959862934990082e-01	 1.801872809822824e+00	-1.297341205658663e+02
1	 1.628611686937026e-01	 1.805168271863896e+00	-1.462295264986282e+02
1	 1.299006661911908e-01	 1.807839060019105e+00	-1.562479583301003e+02
1	 9.711999929909716e-02	 1.809896117389149e+00	-1.601030470133708e+02
1	 6.453377410372496e-02	 1.811350778287220e+00	-1.581153046570719e+02
1	 3.215598297154953e-02	 1.812214734174612e+00	-1.506106600044424e+02
1	 0.000000000000000e+00	 1.812500000000000e+00	-1.379190434674821e+02
1	 3.320825706675907e-01	 1.794532297372897e+00	 8.978592412300209e+00
1	 2.982310321218273e-01	 1.800467509155304e+00	-5.865027025318387e+01
1	 2.644780674780159e-01	 1.805734297137171e+00	-1.135658407645989e+02
1	 2.308413336198176e-01	 1.810341757436522e+00	-1.562311855437935e+02
1	 1.973379231088956e-01	 1.814299518856103e+00	-1.871317422195332e+02
1	 1.639843491669695e-01	 1.817617708221590e+00	-2.067725777545802e+02
1	 1.307965328541074e-01	 1.820306915605452e+00	-2.156756836881277e+02
1	 9.778979239729581e-02	 1.822378159578045e+00	-2.143773223348088e+02
1	 6.497883461446680e-02	 1.823842852620236e+00	-2.034254365987870e+02
1	 3.237774837117391e-02	 1.824712766824093e+00	-1.833771348446021e+02
1	 0.000000000000000e+00	 1.825000000000000e+00	-1.547962610306556e+02
1	 3.343571088229843e-01	 1.806823614477755e+00	 1.440691618473908e+01
1	 3.002737104239519e-01	 1.812799478395743e+00	-7.615091226814501e+01
1	 2.662895610906306e-01	 1.818102340267972e+00	-1.489754785797289e+02
1	 2.324224386442401e-01	 1.822741358514645e+00	-2.047199628528402e+02
1	 1.986895527187831e-01	 1.826726227889211e+00	-2.440691132764100e+02
1	 1.651075296402364e-01	 1.830067144579166e+00	-2.677353685673355e+02
1	 1.316923995170240e-01	 1.832774771191723e+00	-2.764550328432457e+02
1	 9.845958549549444e-02	 1.834860201766898e+00	-2.709845225363539e+02
1	 6.542389512520864e-02	 1.836334926953235e+00	-2.520967032838346e+02
1	 3.259951377079830e-02	 1.837210799473569e+00	-2.205773330066870e+02
1	 0.000000000000000e+00	 1.837500000000000e+00	-1.772216256387480e+02
1	 3.366316469783779e-01	 1.819114931582128e+00	 2.317937171430945e+01
1	 3.023163887260765e-01	 1.825131447635791e+00	-9.094285700454729e+01
1	 2.681010547032454e-01	 1.830470383398466e+00	-1.823719200935061e+02
1	 2.340035436686628e-01	 1.835140959592535e+00	-2.519488965494360e+02
1	 2.000411823286705e-01	 1.839152936922148e+00	-3.005555631407001e+02
1	 1.662307101135032e-01	 1.842516580936626e+00	-3.291093907028077e+02
1	 1.325882661799405e-01	 1.845242626777920e+00	-3.385586080159106e+02
1	 9.912937859369306e-02	 1.847342243955709e+00	-3.298773586002611e+02
1	 6.586895563595048e-02	 1.848827001286216e+00	-3.040609736026287e+02
1	 3.282127917042268e-02	 1.849708832123040e+00	-2.621213817207336e+02
1	 0.000000000000000e+00	 1.850000000000000e+00	-2.050826748517590e+02
1	 3.389061851337714e-01	 1.831406248686016e+00	 3.522862748876736e+01
1	 3.043590670282013e-01	 1.837463416875449e+00	-1.030806419918198e+02
1	 2.699125483158602e-01	 1.842838426528653e+00	-2.137956994599483e+02
1	 2.355846486930855e-01	 1.847540560670190e+00	-2.979433526126134e+02
1	 2.013928119385580e-01	 1.851579645954916e+00	-3.566001707628054e+02
1	 1.673538905867701e-01	 1.854966017293967e+00	-3.908863643358728e+02
1	 1.334841328428570e-01	 1.857710482364042e+00	-4.019597469374399e+02
1	 9.979917169189172e-02	 1.859824286144479e+00	-3.910098110126158e+02
1	 6.631401614669230e-02	 1.861319075619177e+00	-3.592519454686538e+02
1	 3.304304457004707e-02	 1.862206864772507e+00	-3.079218209085843e+02
1	 0.000000000000000e+00	 1.862500000000000e+00	-2.382699653555915e+02
1	 3.411807232891650e-01	 1.843697565789419e+00	 5.048914750285454e+01
1	 3.064017453303258e-01	 1.849795386114716e+00	-1.126173504252806e+02
1	 2.717240419284751e-01	 1.855206469658534e+00	-2.432862699223022e+02
1	 2.371657537175081e-01	 1.859940161747613e+00	-3.427280205953020e+02
1	 2.027444415484455e-01	 1.864006354987513e+00	-4.122117729877856e+02
1	 1.684770710600370e-01	 1.867415453651191e+00	-4.530582304367509e+02
1	 1.343799995057737e-01	 1.870178337950090e+00	-4.666324983329880e+02
1	 1.004689647900904e-01	 1.872306328333207e+00	-4.543370874465428e+02
1	 6.675907665743416e-02	 1.873811149952121e+00	-4.176050848510404e+02
1	 3.326480996967145e-02	 1.874704897421970e+00	-3.578935227608339e+02
1	 0.000000000000000e+00	 1.875000000000000e+00	-2.766769723245235e+02
1	 1.875000000000000e+00	 0.000000000000000e+00	 5.776792046131312e+02
1	 1.874704897421970e+00	 3.326480996967039e-02	 4.765212395676938e+02
1	 1.873811149952121e+00	 6.675907665743323e-02	 3.883983895257560e+02
1	 1.872306328333207e+00	 1.004689647900895e-01	 3.128895487495660e+02
1	 1.870178337950090e+00	 1.343799995057729e-01	 2.495132985458396e+02
1	 1.867415453651191e+00	 1.684770710600364e-01	 1.977269692851385e+02
1	 1.864006354987513e+00	 2.027444415484450e-01	 1.569259482959731e+02
1	 1.859940161747613e+00	 2.371657537175077e-01	 1.264432522902492e+02
1	 1.855206469658534e+00	 2.717240419284748e-01	 1.055493821714599e+02
1	 1.849795386114716e+00	 3.064017453303257e-01	 9.345247704700498e+01
1	 1.843697565789419e+00	 3.411807232891650e-01	 8.929878300560372e+01
1	 1.887500000000000e+00	 0.000000000000000e+00	 5.034632262377377e+02
1	 1.887202930071432e+00	 3.348657536938452e-02	 4.194158183795630e+02
1	 1.886303224285065e+00	 6.720413716834120e-02	 3.450465365688373e+02
1	 1.884788370521935e+00	 1.011387578885170e-01	 2.800420787488978e+02
1	 1.882646193536138e+00	 1.352758661689670e-01	 2.240439810740143e+02
1	 1.879864890008415e+00	 1.696002515336150e-01	 1.766479084361165e+02
1	 1.876433064020110e+00	 2.040960711586639e-01	 1.374031291189756e+02
1	 1.872339762825035e+00	 2.387468587422663e-01	 1.058121876063848e+02
1	 1.867574512788415e+00	 2.735355355414151e-01	 8.133078897040622e+01
1	 1.862127355353983e+00	 3.084444236327496e-01	 6.336790749648075e+01
1	 1.855988882892821e+00	 3.434552614448158e-01	 5.128613125987096e+01
1	 1.900000000000000e+00	 0.000000000000000e+00	 4.182414782329595e+02
1	 1.899700962720899e+00	 3.370834076927819e-02	 3.525626991953256e+02
1	 1.898795298618027e+00	 6.764919767958150e-02	 2.932543969658965e+02
1	 1.897270412710705e+00	 1.018085509874021e-01	 2.401101395857592e+02
1	 1.895114049122259e+00	 1.361717328327159e-01	 1.928933465323968e+02
1	 1.892314326365756e+00	 1.707234320078171e-01	 1.513368053993784e+02
1	 1.888859773052877e+00	 2.054477007695455e-01	 1.151423114426053e+02
1	 1.884739363902691e+00	 2.403279637676972e-01	 8.398043942721660e+01
1	 1.879942555918602e+00	 2.753470291550062e-01	 5.749045681208823e+01
1	 1.874459324593640e+00	 3.104871019357721e-01	 3.528038679849081e+01
1	 1.868280199996709e+00	 3.457297996009814e-01	 1.692722914296161e+01
1	 1.912500000000000e+00	 0.000000000000000e+00	 3.222297600029228e+02
1	 1.912198995370370e+00	 3.393010616935138e-02	 2.761530133476773e+02
1	 1.911287372951007e+00	 6.809425819115406e-02	 2.331874665329310e+02
1	 1.909752454899517e+00	 1.024783440867449e-01	 1.932326424197096e+02
1	 1.907581904708456e+00	 1.370675994970198e-01	 1.561727932946005e+02
1	 1.904763762723215e+00	 1.718466124826427e-01	 1.218766413942158e+02
1	 1.901286482085814e+00	 2.067993303810899e-01	 9.019718151211219e+01
1	 1.897138964980580e+00	 2.419090687937999e-01	 6.097155056675846e+01
1	 1.892310599049096e+00	 2.771585227692481e-01	 3.402096881385524e+01
1	 1.886791293833689e+00	 3.125297802393932e-01	 9.150757133022537e+00
1	 1.880571517101082e+00	 3.480043377576615e-01	-1.384956549410387e+01
1	 1.925000000000000e+00	 0.000000000000000e+00	 2.156382657727878e+02
1	 1.924697028019846e+00	 3.415187156960411e-02	 1.903729277193858e+02
1	 1.923779447284006e+00	 6.853931870305893e-02	 1.650069424935166e+02
1	 1.922234497088370e+00	 1.031481371865453e-01	 1.395448903283718e+02
1	 1.920049760294728e+00	 1.379634661618787e-01	 1.139908262700635e+02
1	 1.917213199080792e+00	 1.729697929580919e-01	 8.834824228360952e+01
1	 1.913713191118923e+00	 2.081509599932970e-01	 6.262003112482523e+01
1	 1.909538566058704e+00	 2.434901738205749e-01	 3.680845233735677e+01
1	 1.904678642179897e+00	 2.789700163841410e-01	 1.091510073936372e+01
1	 1.899123263074128e+00	 3.145724585436129e-01	-1.505912223367802e+01
1	 1.892862834205940e+00	 3.502788759148565e-01	-4.111403396519675e+01
1	 1.937500000000000e+00	 0.000000000000000e+00	 9.867176540096206e+01
1	 1.937195060669326e+00	 3.437363697003634e-02	 9.540380488683016e+01
1	 1.936271521617023e+00	 6.898437921529610e-02	 8.886986214306410e+01
1	 1.934716539277264e+00	 1.038179302868033e-01	 7.917869469716805e+01
1	 1.932517615881075e+00	 1.388593328272925e-01	 6.645315024160061e+01
1	 1.929662635438486e+00	 1.740929734341646e-01	 5.083034810185070e+01
1	 1.926139900152201e+00	 2.095025896061670e-01	 3.246180261234252e+01
1	 1.921938167137059e+00	 2.450712788480219e-01	 1.151348427555324e+01
1	 1.917046685311006e+00	 2.807815099996848e-01	-1.183418521582174e+01
1	 1.911455232314958e+00	 3.166151368484312e-01	-3.738640775833763e+01
1	 1.905154151311284e+00	 3.525534140725660e-01	-6.493415677602181e+01
1	 1.950000000000000e+00	 0.000000000000000e+00	-2.847022176300263e+01
1	 1.949693093318812e+00	 3.459540237064810e-02	-8.577642895827324e+00
1	 1.948763595950059e+00	 6.942943972786557e-02	 4.929236179848502e+00
1	 1.947198581466201e+00	 1.044877233875190e-01	 1.226248713252546e+01
1	 1.944985471467495e+00	 1.397551994932612e-01	 1.366275961304889e+01
1	 1.942112071796298e+00	 1.752161539108608e-01	 9.399679908023259e+00
1	 1.938566609185650e+00	 2.108542192196997e-01	-2.278679073608210e-01
1	 1.934337768215650e+00	 2.466523838761410e-01	-1.489158689074251e+01
1	 1.929414728442420e+00	 2.825930036158795e-01	-3.423374639960959e+01
1	 1.923787201556179e+00	 3.186578151538481e-01	-5.786730316799904e+01
1	 1.917445468417113e+00	 3.548279522307903e-01	-8.537617134232933e+01
1	 1.962499999999999e+00	 0.000000000000000e+00	-1.655932596647625e+02
1	 1.962191125968301e+00	 3.481716777143939e-02	-1.213992055972185e+02
1	 1.961255670283113e+00	 6.987450024076731e-02	-8.666582305942170e+01
1	 1.959680623655179e+00	 1.051575164886924e-01	-6.107857290185271e+01
1	 1.957453327053991e+00	 1.406510661597848e-01	-4.427997527293093e+01
1	 1.954561508154227e+00	 1.763393343881805e-01	-3.586899591542362e+01
1	 1.950993318219269e+00	 2.122058488338951e-01	-3.540060893077526e+01
1	 1.946737369294472e+00	 2.482334889049322e-01	-4.238554899994023e+01
1	 1.941782771574142e+00	 2.844044972327250e-01	-5.629026545040504e+01
1	 1.936119170797790e+00	 3.207004934598635e-01	-7.653708980173066e+01
1	 1.929736785523427e+00	 3.571024903895291e-01	-1.025046275023380e+02
1	 1.975000000000000e+00	 0.000000000000000e+00	-3.125078346814197e+02
1	 1.974689158617796e+00	 3.503893317241022e-02	-2.428930329333654e+02
1	 1.973747744616185e+00	 7.031956075400138e-02	-1.857699782337336e+02
1	 1.972162665844200e+00	 1.058273095903234e-01	-1.407224945361691e+02
1	 1.969921182640562e+00	 1.415469328268634e-01	-1.072772250949498e+02
1	 1.967010944512274e+00	 1.774625148661237e-01	-8.490280580581945e+01
1	 1.963420027253059e+00	 2.135574784487534e-01	-7.300927354940868e+01
1	 1.959136970373529e+00	 2.498145939343955e-01	-7.094772690720107e+01
1	 1.954150814706171e+00	 2.862159908502214e-01	-7.801025582589106e+01
1	 1.948451140039792e+00	 3.227431717664775e-01	-9.343015580012074e+01
1	 1.942028102630227e+00	 3.593770285487826e-01	-1.163824409210850e+02
1	 1.987500000000000e+00	 0.000000000000000e+00	-4.690292008280900e+02
1	 1.987187191267294e+00	 3.526069857356055e-02	-3.728954972687255e+02
1	 1.986239818949276e+00	 7.076462126756775e-02	-2.922415482872240e+02
1	 1.984644708033262e+00	 1.064971026924121e-01	-2.265503558532228e+02
1	 1.982389038227208e+00	 1.424427994944970e-01	-1.752336216465599e+02
1	 1.979460380870438e+00	 1.785856953446905e-01	-1.376307094976418e+02
1	 1.975846736287019e+00	 2.149091080642744e-01	-1.130079009405115e+02
1	 1.971536571452820e+00	 2.513956989645308e-01	-1.005579655971188e+02
1	 1.966518857838506e+00	 2.880274844683688e-01	-9.940006712317694e+01
1	 1.960783109282185e+00	 3.247858500736903e-01	-1.085800241932798e+02
1	 1.954319419737511e+00	 3.616515667085508e-01	-1.270709444795278e+02
1	 2.000000000000000e+00	 0.000000000000000e+00	-6.349772307692307e+02
1	 1.999685223916798e+00	 3.548246397489042e-02	-5.112470616584282e+02
1	 1.998731893282386e+00	 7.120968178146642e-02	-4.059423941902739e+02
1	 1.997126750222366e+00	 1.071668957949584e-01	-3.184462079836372e+02
1	 1.994856893813928e+00	 1.433386661626855e-01	-2.480561809264147e+02
1	 1.991909817228721e+00	 1.797088758238808e-01	-1.939834427319805e+02
1	 1.988273445321150e+00	 2.162607376804582e-01	-1.553516793018983e+02
1	 1.983936172532344e+00	 2.529768039953384e-01	-1.311966139296765e+02
1	 1.978886900971149e+00	 2.898389780871670e-01	-1.204658901994467e+02
1	 1.973115078524969e+00	 3.268285283815016e-01	-1.220193799355463e+02
1	 1.966610736845282e+00	 3.639261048688338e-01	-1.346299377365425e+02
1	 1.843697565789419e+00	 3.411807232891650e-01	 8.929878300560372e+01
1	 1.836904245976013e+00	 3.760422731112877e-01	 1.033488721116069e+02
1	 1.829407281501320e+00	 4.109671500863628e-01	 1.142805654123214e+02
1	 1.821199179046478e+00	 4.459355898653836e-01	 1.224407828783696e+02
1	 1.812273130706186e+00	 4.809273331759791e-01	 1.281971236125682e+02
1	 1.802623046614941e+00	 5.159216528644683e-01	 1.319371198234233e+02
1	 1.792243586465333e+00	 5.508973832404047e-01	 1.340673593938480e+02
1	 1.781130189742346e+00	 5.858329516852289e-01	 1.350124767648364e+02
1	 1.769279104497502e+00	 6.207064124720912e-01	 1.352140128963796e+02
1	 1.756687414487809e+00	 6.554954827290598e-01	 1.351291461590199e+02
1	 1.743353064507004e+00	 6.901775804629183e-01	 1.352292971388598e+02
1	 1.855988882892821e+00	 3.434552614448158e-01	 5.128613125987096e+01
1	 1.849150274280280e+00	 3.785492215992383e-01	 6.479301215516483e+01
1	 1.841603330042052e+00	 4.137069310875700e-01	 7.595921579851918e+01
1	 1.833340506903817e+00	 4.489084937984764e-01	 8.505118995261896e+01
1	 1.824354951574237e+00	 4.841335153977702e-01	 9.235118168346975e+01
1	 1.814640533588709e+00	 5.193611305507440e-01	 9.815666031647200e+01
1	 1.804191877037770e+00	 5.545700324623478e-01	 1.027796395962175e+02
1	 1.793004391002975e+00	 5.897385046965644e-01	 1.065458988645675e+02
1	 1.781074298522854e+00	 6.248444552216972e-01	 1.097941038730076e+02
1	 1.768398663912796e+00	 6.598654526133346e-01	 1.128748286837077e+02
1	 1.754975418265163e+00	 6.947787643316375e-01	 1.161494809813576e+02
1	 1.868280199996709e+00	 3.457297996009814e-01	 1.692722914296161e+01
1	 1.861396302585124e+00	 3.810561700876036e-01	 2.932710193699016e+01
1	 1.853799378583433e+00	 4.164467120890913e-01	 4.015278533585848e+01
1	 1.845481834761856e+00	 4.518813977317833e-01	 4.959103828365124e+01
1	 1.836436772443023e+00	 4.873396976196745e-01	 5.783958439219311e+01
1	 1.826658020563224e+00	 5.228006082370322e-01	 6.510670257054038e+01
1	 1.816140167610950e+00	 5.582426816842028e-01	 7.161074721799497e+01
1	 1.804878592264319e+00	 5.936440577077110e-01	 7.757959788871827e+01
1	 1.792869492548874e+00	 6.289824979710139e-01	 8.325003889814138e+01
1	 1.780109913338382e+00	 6.642354224972196e-01	 8.886706992909890e+01
1	 1.766597772023832e+00	 6.993799481998669e-01	 9.468314930346699e+01
1	 1.880571517101082e+00	 3.480043377576615e-01	-1.384956549410387e+01
1	 1.873642330890543e+00	 3.835631185763834e-01	-3.109445792275288e+00
1	 1.865995427125461e+00	 4.191864930909272e-01	 6.811961884381880e+00
1	 1.857623162620597e+00	 4.548543016653039e-01	 1.602249569010558e+01
1	 1.848518593312543e+00	 4.905458798416917e-01	 2.463616811844108e+01
1	 1.838675507538488e+00	 5.262400859233329e-01	 3.277292302165750e+01
1	 1.828088458184871e+00	 5.619153309059697e-01	 4.055835230967173e+01
1	 1.816752793526378e+00	 5.975496107186689e-01	 4.812337232876945e+01
1	 1.804664686575561e+00	 6.331205407200413e-01	 5.560386024503137e+01
1	 1.791821162764569e+00	 6.686053923807149e-01	 6.314025109629863e+01
1	 1.778220125783012e+00	 7.039811320676065e-01	 7.087709652652096e+01
1	 1.892862834205940e+00	 3.502788759148565e-01	-4.111403396519675e+01
1	 1.885888359196539e+00	 3.860700670655777e-01	-3.257564458714547e+01
1	 1.878191475668137e+00	 4.219262740930773e-01	-2.411128586101947e+01
1	 1.869764490480039e+00	 4.578272055990384e-01	-1.569128735528479e+01
1	 1.860600414182798e+00	 4.937520620638225e-01	-7.284551183509988e+00
1	 1.850692994514499e+00	 5.296795636096463e-01	 1.141370146485885e+00
1	 1.840036748759534e+00	 5.655879801276484e-01	 9.620185439909525e+00
1	 1.828626994789152e+00	 6.014551637294382e-01	 1.818676616992162e+01
1	 1.816459880602917e+00	 6.372585834687796e-01	 2.687703766033729e+01
1	 1.803532412191354e+00	 6.729753622638208e-01	 3.572786036818280e+01
1	 1.789842479542702e+00	 7.085823159348567e-01	 4.477690163231901e+01
1	 1.905154151311284e+00	 3.525534140725660e-01	-6.493415677602181e+01
1	 1.898134387503110e+00	 3.885770155551868e-01	-5.912898507163936e+01
1	 1.890387524211462e+00	 4.246660550955419e-01	-5.266374968786025e+01
1	 1.881905818340181e+00	 4.608001095329867e-01	-4.558620942421316e+01
1	 1.872682235053787e+00	 4.969582442860664e-01	-3.794739990656998e+01
1	 1.862710481491260e+00	 5.331190412959723e-01	-2.980154753898911e+01
1	 1.851985039334939e+00	 5.692606293492392e-01	-2.120596425665854e+01
1	 1.840501196052641e+00	 6.053607167400185e-01	-1.222092289902194e+01
1	 1.828255074630939e+00	 6.413966262172286e-01	-2.909513167271587e+00
1	 1.815243661618739e+00	 6.773453321465369e-01	 6.662521716442074e+00
1	 1.801464833302902e+00	 7.131834998016169e-01	 1.642696737085484e+01
1	 1.917445468417113e+00	 3.548279522307903e-01	-8.537617134232933e+01
1	 1.910380415810258e+00	 3.910839640452103e-01	-8.282548375115942e+01
1	 1.902583572755435e+00	 4.274058360983207e-01	-7.889102159418995e+01
1	 1.894047146201024e+00	 4.637730134671488e-01	-7.369724861214486e+01
1	 1.884764055925510e+00	 5.001644265084235e-01	-6.737656786945190e+01
1	 1.874727968468767e+00	 5.365585189823108e-01	-6.006907301918227e+01
1	 1.863933329911085e+00	 5.729332785707417e-01	-5.192225095654214e+01
1	 1.852375397316846e+00	 6.092662697504101e-01	-4.309063559154107e+01
1	 1.840050268659630e+00	 6.455346689653881e-01	-3.373541284884654e+01
1	 1.826954911046724e+00	 6.817153020288634e-01	-2.402397739934403e+01
1	 1.813087187063613e+00	 7.177846836678874e-01	-1.412944203994703e+01
1	 1.929736785523427e+00	 3.571024903895291e-01	-1.025046275023380e+02
1	 1.922626444117981e+00	 3.935909125356485e-01	-1.037197299589446e+02
1	 1.914779621300055e+00	 4.301456171014137e-01	-1.028375319984508e+02
1	 1.906188474062569e+00	 4.667459174015250e-01	-1.000584918528487e+02
1	 1.896845876797968e+00	 5.033706087308940e-01	-9.559562858973570e+01
1	 1.886745455447024e+00	 5.399979966686618e-01	-8.967411187762112e+01
1	 1.875881620487973e+00	 5.766059277921560e-01	-8.253077395277097e+01
1	 1.864249598581766e+00	 6.131718227606131e-01	-7.441354343096882e+01
1	 1.851845462688989e+00	 6.496727117132586e-01	-6.558080121555157e+01
1	 1.838666160475309e+00	 6.860852719108005e-01	-5.630065939119155e+01
1	 1.824709540824834e+00	 7.223858675336682e-01	-4.685016465524578e+01
1	 1.942028102630227e+00	 3.593770285487826e-01	-1.163824409210850e+02
1	 1.934872472426280e+00	 3.960978610265014e-01	-1.218649310197482e+02
1	 1.926975669845323e+00	 4.328853981048212e-01	-1.245465864983251e+02
1	 1.918329801924813e+00	 4.697188213361148e-01	-1.247031631197146e+02
1	 1.908927697671160e+00	 5.065767909534776e-01	-1.226275587870699e+02
1	 1.898762942426027e+00	 5.434374743550253e-01	-1.186292429741912e+02
1	 1.887829911065603e+00	 5.802785770134823e-01	-1.130335793917161e+02
1	 1.876123799847400e+00	 6.170773757706272e-01	-1.061810414463817e+02
1	 1.863640656719016e+00	 6.538107544608398e-01	-9.842632088764412e+01
1	 1.850377409904492e+00	 6.904552417923476e-01	-9.013733091386577e+01
1	 1.836331894586565e+00	 7.269870513989594e-01	-8.169410592122593e+01
1	 1.954319419737511e+00	 3.616515667085508e-01	-1.270709444795278e+02
1	 1.947118500735156e+00	 3.986048095177688e-01	-1.373129557092281e+02
1	 1.939171718391239e+00	 4.356251791085429e-01	-1.440604012424633e+02
1	 1.930471129787760e+00	 4.726917252709185e-01	-1.476636505628794e+02
1	 1.921009518545086e+00	 5.097829731761744e-01	-1.484947571504021e+02
1	 1.910780429405780e+00	 5.468769520414016e-01	-1.469467287194626e+02
1	 1.899778201643975e+00	 5.839512262347204e-01	-1.434326619443633e+02
1	 1.887998001113750e+00	 6.209829287804526e-01	-1.383847411441182e+02
1	 1.875435850749710e+00	 6.579487972081314e-01	-1.322531014634999e+02
1	 1.862088659334276e+00	 6.948252116735054e-01	-1.255045582031567e+02
1	 1.847954248348806e+00	 7.315882352637606e-01	-1.186212051093397e+02
1	 1.966610736845282e+00	 3.639261048688338e-01	-1.346299377365425e+02
1	 1.959364529044608e+00	 4.011117580094511e-01	-1.501143760836038e+02
1	 1.951367766937805e+00	 4.383649601125791e-01	-1.614201369757602e+02
1	 1.942612457651407e+00	 4.756646292059362e-01	-1.689715326286977e+02
1	 1.933091339419748e+00	 5.129891553989847e-01	-1.732190624014397e+02
1	 1.922797916386281e+00	 5.503164297277904e-01	-1.746385249637343e+02
1	 1.911726492223089e+00	 5.876238754558706e-01	-1.737299664149287e+02
1	 1.899872202380815e+00	 6.248884817900893e-01	-1.710164637428639e+02
1	 1.887231044781072e+00	 6.620868399551341e-01	-1.670427443015460e+02
1	 1.873799908764660e+00	 6.991951815542736e-01	-1.623736433389739e+02
1	 1.859576602111558e+00	 7.361894191280726e-01	-1.575924030092707e+02
1	 1.743353064507004e+00	 6.901775804629183e-01	 1.352292971388598e+02
1	 1.729274883740578e+00	 7.247298645455649e-01	 1.317405612523112e+02
1	 1.714452606980928e+00	 7.591292765506406e-01	 1.293851721176121e+02
1	 1.698886893546374e+00	 7.933525843124138e-01	 1.278028733426654e+02
1	 1.682579343755863e+00	 8.273764270649256e-01	 1.266232803130137e+02
1	 1.665532512820283e+00	 8.611773620061519e-01	 1.254671994168505e+02
1	 1.647749922022751e+00	 8.947319121182951e-01	 1.239480285319509e+02
1	 1.629236067072467e+00	 9.280166150632179e-01	 1.216732318156941e+02
1	 1.609996423530313e+00	 9.610080729608007e-01	 1.182458810036500e+02
1	 1.590037449219140e+00	 9.936830028478698e-01	 1.132662546377008e+02
1	 1.569366583547552e+00	 1.026018287606500e+00	 1.063334859227878e+02
1	 1.754975418265163e+00	 6.947787643316375e-01	 1.161494809813576e+02
1	 1.740803382960041e+00	 7.295613969744104e-01	 1.114642348472750e+02
1	 1.725882291021801e+00	 7.641901383925472e-01	 1.077158183813661e+02
1	 1.710212806164218e+00	 7.986416015392133e-01	 1.046248261875773e+02
1	 1.693796539375036e+00	 8.328922699100104e-01	 1.019037876202788e+02
1	 1.676636062899880e+00	 8.669185444175695e-01	 9.925818822611193e+01
1	 1.658734921497089e+00	 9.006967915306421e-01	 9.638755530843574e+01
1	 1.640097640847259e+00	 9.342033924955047e-01	 9.298660224851712e+01
1	 1.620729733015010e+00	 9.674147934461709e-01	 8.874642556088806e+01
1	 1.600637698875349e+00	 1.000307556199713e+00	 8.335574804278826e+01
1	 1.579829027432933e+00	 1.032858409524087e+00	 7.650220080823766e+01
1	 1.766597772023832e+00	 6.993799481998669e-01	 9.468314930346699e+01
1	 1.752331882179924e+00	 7.343929294026761e-01	 8.926001646980622e+01
1	 1.737311975063022e+00	 7.692510002338026e-01	 8.458022554894370e+01
1	 1.721538718782361e+00	 8.039306187653088e-01	 8.044441330805465e+01
1	 1.705013734994474e+00	 8.384081127543593e-01	 7.664719452721684e+01
1	 1.687739612979730e+00	 8.726597268282392e-01	 7.297788812581283e+01
1	 1.669719920971688e+00	 9.066616709422494e-01	 6.922129041459274e+01
1	 1.650959214622339e+00	 9.403901699270792e-01	 6.515849168826747e+01
1	 1.631463042500044e+00	 9.738215139308771e-01	 6.056773189436908e+01
1	 1.611237948531963e+00	 1.006932109550961e+00	 5.522529066227145e+01
1	 1.590291471318810e+00	 1.039698531441169e+00	 4.890640655824056e+01
1	 1.778220125783012e+00	 7.039811320676065e-01	 7.087709652652096e+01
1	 1.763860381400227e+00	 7.392244618303614e-01	 6.516570792274939e+01
1	 1.748741659104592e+00	 7.743118620744064e-01	 6.000714340613793e+01
1	 1.732864631400799e+00	 8.092196359907015e-01	 5.528128893373604e+01
1	 1.716230930614176e+00	 8.439239555979724e-01	 5.086403241414580e+01
1	 1.698843163059831e+00	 8.784009092381607e-01	 4.662769693781074e+01
1	 1.680704920446545e+00	 9.126265503531157e-01	 4.244150427561474e+01
1	 1.661820788397706e+00	 9.465769473579415e-01	 3.817206642938849e+01
1	 1.642196351985415e+00	 9.802282344149192e-01	 3.368390271498284e+01
1	 1.621838198188981e+00	 1.013556662901614e+00	 2.883997957113126e+01
1	 1.600753915205181e+00	 1.046538653357745e+00	 2.350227001944070e+01
1	 1.789842479542702e+00	 7.085823159348567e-01	 4.477690163231901e+01
1	 1.775388880620949e+00	 7.440559942574663e-01	 3.921812914392832e+01
1	 1.760171343146511e+00	 7.793727239143585e-01	 3.402457499105196e+01
1	 1.744190544019534e+00	 8.145086532153905e-01	 2.915459679478577e+01
1	 1.727448126234142e+00	 8.494397984408504e-01	 2.456455911903727e+01
1	 1.709946713140184e+00	 8.841420916473343e-01	 2.020897617690137e+01
1	 1.691689919921663e+00	 9.185914297632422e-01	 1.604066808487117e+01
1	 1.672682362173361e+00	 9.527637247880916e-01	 1.201093000542610e+01
1	 1.652929661471120e+00	 9.866349548982979e-01	 8.069713390475826e+00
1	 1.632438447846405e+00	 1.020181216251673e+00	 4.165818413824780e+00
1	 1.611216359092047e+00	 1.053378775273816e+00	 2.470965619387032e-01
1	 1.801464833302902e+00	 7.131834998016169e-01	 1.642696737085484e+01
1	 1.786917379842092e+00	 7.488875266839913e-01	 1.145314987921239e+01
1	 1.771601027188778e+00	 7.844335857536594e-01	 6.659800682735246e+00
1	 1.755516456638565e+00	 8.197976704393758e-01	 2.082986589619185e+00
1	 1.738665321854372e+00	 8.549556412829922e-01	-2.241232238538172e+00
1	 1.721050263220789e+00	 8.898832740557597e-01	-6.276947777985187e+00
1	 1.702674919397040e+00	 9.245563091726281e-01	-9.988552672485357e+00
1	 1.683543935949303e+00	 9.589505022175293e-01	-1.334089091545690e+01
1	 1.663662970957163e+00	 9.930416753810126e-01	-1.629940975315676e+01
1	 1.643038697504234e+00	 1.026805769601136e+00	-1.883031183989189e+01
1	 1.621678802979408e+00	 1.060218897189382e+00	-2.090070664727173e+01
1	 1.813087187063613e+00	 7.177846836678874e-01	-1.412944203994703e+01
1	 1.798445879063653e+00	 7.537190591099358e-01	-1.809427986261370e+01
1	 1.783030711231393e+00	 7.894944475923085e-01	-2.206059863666754e+01
1	 1.766842369257893e+00	 8.250866876626581e-01	-2.591537018074628e+01
1	 1.749882517474867e+00	 8.604714841243986e-01	-2.954360477284523e+01
1	 1.732153813301645e+00	 8.956244564634370e-01	-3.282878255763486e+01
1	 1.713659918872676e+00	 9.305211885812739e-01	-3.565330444681863e+01
1	 1.694405509725534e+00	 9.651372796462546e-01	-3.789896009248752e+01
1	 1.674396280443541e+00	 9.994483958630631e-01	-3.944741029571722e+01
1	 1.653638947162468e+00	 1.033430322950004e+00	-4.018068101436408e+01
1	 1.632141246867263e+00	 1.067059019104442e+00	-3.998166595830621e+01
1	 1.824709540824834e+00	 7.223858675336682e-01	-4.685016465524578e+01
1	 1.809974378285636e+00	 7.585505915353004e-01	-4.939010051885943e+01
1	 1.794460395274358e+00	 7.945553094303062e-01	-5.211071930494453e+01
1	 1.778168281877518e+00	 8.303757048852366e-01	-5.482276498347493e+01
1	 1.761099713095627e+00	 8.659873269650693e-01	-5.733306967167110e+01
1	 1.743257363382755e+00	 9.013656388703668e-01	-5.944526871943781e+01
1	 1.724644918348573e+00	 9.364860679891791e-01	-6.096055161332433e+01
1	 1.705267083502052e+00	 9.713240570742675e-01	-6.167844475599649e+01
1	 1.685129589930255e+00	 1.005855116344450e+00	-6.139762178950011e+01
1	 1.664239196821106e+00	 1.040054876298278e+00	-5.991673677281182e+01
1	 1.642603690755613e+00	 1.073899141018997e+00	-5.703527520281280e+01
1	 1.836331894586565e+00	 7.269870513989594e-01	-8.169410592122593e+01
1	 1.821502877508037e+00	 7.633821239600846e-01	-8.240111479425303e+01
1	 1.805890079317670e+00	 7.996161712676525e-01	-8.346531344880619e+01
1	 1.789494194497439e+00	 8.356647221071117e-01	-8.462193760301909e+01
1	 1.772316908716650e+00	 8.715031698050042e-01	-8.560037834589892e+01
1	 1.754360913464116e+00	 9.071068212765480e-01	-8.612517870540788e+01
1	 1.735629917824729e+00	 9.424509473963442e-01	-8.591708223390259e+01
1	 1.716128657278858e+00	 9.775108345015684e-01	-8.469412815580100e+01
1	 1.695862899417306e+00	 1.012261836825173e+00	-8.217278706395876e+01
1	 1.674839446480150e+00	 1.046679429645957e+00	-7.806913063508694e+01
1	 1.653066134644457e+00	 1.080739262933047e+00	-7.210002836860718e+01
1	 1.847954248348806e+00	 7.315882352637606e-01	-1.186212051093397e+02
1	 1.833031376730859e+00	 7.682136563842887e-01	-1.170949605456166e+02
1	 1.817319763361331e+00	 8.046770331043469e-01	-1.160997683615908e+02
1	 1.800820107117657e+00	 8.409537393282837e-01	-1.152960620430952e+02
1	 1.783534104337938e+00	 8.770190126442036e-01	-1.143365148753184e+02
1	 1.765464463545728e+00	 9.128480036819814e-01	-1.128673158395194e+02
1	 1.746614917301145e+00	 9.484158268027688e-01	-1.105295136016012e+02
1	 1.726990231055951e+00	 9.836976119281569e-01	-1.069604216360647e+02
1	 1.706596208904692e+00	 1.018668557305231e+00	-1.017950768018977e+02
1	 1.685439696139599e+00	 1.053303982993040e+00	-9.466774301362810e+01
1	 1.663528578533797e+00	 1.087579384846591e+00	-8.521345104130110e+01
1	 1.859576602111558e+00	 7.361894191280726e-01	-1.575924030092707e+02
1	 1.844559875954101e+00	 7.730451888079128e-01	-1.534400846833603e+02
1	 1.828749447405340e+00	 8.097378949403902e-01	-1.499900866543149e+02
1	 1.812146019738172e+00	 8.462427565487523e-01	-1.468287329573287e+02
1	 1.794751299959490e+00	 8.825348554826673e-01	-1.435326887377295e+02
1	 1.776568013627593e+00	 9.185891860866668e-01	-1.396705133626490e+02
1	 1.757599916777820e+00	 9.543807062084535e-01	-1.348042975771410e+02
1	 1.737851804833333e+00	 9.898843893540332e-01	-1.284913762573464e+02
1	 1.717329518392415e+00	 1.025075277784627e+00	-1.202861074190530e+02
1	 1.696039945799453e+00	 1.059928536339529e+00	-1.097417073105674e+02
1	 1.673991022423631e+00	 1.094419506759630e+00	-9.641213066687428e+01
1	 1.569366583547552e+00	 1.026018287606500e+00	 1.063334859227878e+02
1	 1.547992243692877e+00	 1.057991027143265e+00	 9.907844126153304e+01
1	 1.525923817606285e+00	 1.089578589594028e+00	 9.337679855103345e+01
1	 1.503171653821628e+00	 1.120758662325927e+00	 8.954475195084655e+01
1	 1.479747048068645e+00	 1.151509302505199e+00	 8.789328648429360e+01
1	 1.455662226709656e+00	 1.181808986997448e+00	 8.872678968446240e+01
1	 1.430930327038606e+00	 1.211636661368759e+00	 9.234168400987906e+01
1	 1.405565374500522e+00	 1.240971787758436e+00	 9.902508952026369e+01
1	 1.379582256908508e+00	 1.269794391398509e+00	 1.090535261597159e+02
1	 1.352996695754110e+00	 1.298085105561391e+00	 1.226916647535598e+02
1	 1.325825214725000e+00	 1.325825214725000e+00	 1.401911354876945e+02
1	 1.579829027432933e+00	 1.032858409524087e+00	 7.650220080823766e+01
1	 1.558312191979597e+00	 1.065044300658442e+00	 7.271129995782479e+01
1	 1.536096643052833e+00	 1.096842446859411e+00	 7.004498778192327e+01
1	 1.513192798176722e+00	 1.128230386743245e+00	 6.875671572021328e+01
1	 1.489612028385866e+00	 1.159186031190622e+00	 6.909622872362229e+01
1	 1.465366641551668e+00	 1.189687713579582e+00	 7.130845298337775e+01
1	 1.440469862550032e+00	 1.219714239113318e+00	 7.563239778111290e+01
1	 1.414935810328952e+00	 1.249244933012061e+00	 8.230007905570150e+01
1	 1.388779471953618e+00	 1.278259687342719e+00	 9.153547218913420e+01
1	 1.362016673725522e+00	 1.306739006266193e+00	 1.035535013418973e+02
1	 1.334664049490250e+00	 1.334664049490250e+00	 1.185590724191907e+02
1	 1.590291471318810e+00	 1.039698531441169e+00	 4.890640655824056e+01
1	 1.568632140266901e+00	 1.072097574173214e+00	 4.826053728400814e+01
1	 1.546269468500037e+00	 1.104106304124489e+00	 4.831721145789847e+01
1	 1.523213942532522e+00	 1.135702111160359e+00	 4.926777119864897e+01
1	 1.499477008703824e+00	 1.166862759875942e+00	 5.130134087500290e+01
1	 1.475071056394428e+00	 1.197566440161714e+00	 5.460398857905355e+01
1	 1.450009398062197e+00	 1.227791816857975e+00	 5.935789512610906e+01
1	 1.424306246158092e+00	 1.257518078265884e+00	 6.574053629702701e+01
1	 1.397976686999389e+00	 1.286724983287230e+00	 7.392388399489585e+01
1	 1.371036651697523e+00	 1.315392906971395e+00	 8.407363188485300e+01
1	 1.343502884256000e+00	 1.343502884256000e+00	 9.634845092426198e+01
1	 1.600753915205181e+00	 1.046538653357745e+00	 2.350227001944070e+01
1	 1.578952088554790e+00	 1.079150847687581e+00	 2.568857718922868e+01
1	 1.556442293947896e+00	 1.111370161389263e+00	 2.816201792376162e+01
1	 1.533235086889028e+00	 1.143173835577269e+00	 3.105244600017765e+01
1	 1.509341989022520e+00	 1.174539488561158e+00	 3.448897254837827e+01
1	 1.484775471237937e+00	 1.205445166743843e+00	 3.859939897575732e+01
1	 1.459548933575101e+00	 1.235869394602729e+00	 4.350965087695414e+01
1	 1.433676681987940e+00	 1.265791223519906e+00	 4.934321677954439e+01
1	 1.407173902045819e+00	 1.295190279232040e+00	 5.622059558144930e+01
1	 1.380056629670115e+00	 1.324046807676997e+00	 6.425875650097731e+01
1	 1.352341719022250e+00	 1.352341719022250e+00	 7.357061528575440e+01
1	 1.611216359092047e+00	 1.053378775273816e+00	 2.470965619387032e-01
1	 1.589272036843264e+00	 1.086204121201542e+00	 4.958819623944921e+00
1	 1.566615119396410e+00	 1.118634018653731e+00	 9.548772450414212e+00
1	 1.543256231246241e+00	 1.150645559993975e+00	 1.408592935922772e+01
1	 1.519206969341953e+00	 1.182216217246272e+00	 1.863998375342163e+01
1	 1.494479886082193e+00	 1.213323893325969e+00	 2.328105024906540e+01
1	 1.469088469088744e+00	 1.243946972347583e+00	 2.807936129866098e+01
1	 1.443047117818499e+00	 1.274064368774127e+00	 3.310496031036635e+01
1	 1.416371117092909e+00	 1.303655575177150e+00	 3.842739331676692e+01
1	 1.389076607643296e+00	 1.332700708382998e+00	 4.411540127977143e+01
1	 1.361180553789000e+00	 1.361180553789000e+00	 5.023661512982910e+01
1	 1.621678802979408e+00	 1.060218897189382e+00	-2.090070664727173e+01
1	 1.599591985132323e+00	 1.093257394715098e+00	-1.396439094398653e+01
1	 1.576787944845580e+00	 1.125897875917895e+00	-7.552369117598021e+00
1	 1.553277375604159e+00	 1.158117284410476e+00	-1.655949211961454e+00
1	 1.529071949662122e+00	 1.189892945931280e+00	 3.735728435032038e+00
1	 1.504184300927196e+00	 1.221202619908093e+00	 8.635660317757427e+00
1	 1.478628004603125e+00	 1.252024550092534e+00	 1.305893694617216e+01
1	 1.452417553649766e+00	 1.282337514028546e+00	 1.702268824996775e+01
1	 1.425568332140659e+00	 1.312120871122559e+00	 2.054601746900186e+01
1	 1.398096585617068e+00	 1.341354609089400e+00	 2.364992389553283e+01
1	 1.370019388556250e+00	 1.370019388556250e+00	 2.635721493101743e+01
1	 1.632141246867263e+00	 1.067059019104442e+00	-3.998166595830621e+01
1	 1.609911933421967e+00	 1.100310668228250e+00	-3.111579580230399e+01
1	 1.586960770295406e+00	 1.133161733181755e+00	-2.317048570098405e+01
1	 1.563298519962784e+00	 1.165589008826773e+00	-1.619674044506409e+01
1	 1.538936929983029e+00	 1.197569674616187e+00	-1.024196135792466e+01
1	 1.513888715772949e+00	 1.229081346490214e+00	-5.349712333209958e+00
1	 1.488167540118244e+00	 1.260102127837583e+00	-1.559504203906833e+00
1	 1.461787989481743e+00	 1.290610659283165e+00	 1.093400898295869e+00
1	 1.434765547189069e+00	 1.320586167068268e+00	 2.578163684049602e+00
1	 1.407116563591429e+00	 1.350008509796201e+00	 2.868519005274114e+00
1	 1.378858223324000e+00	 1.378858223324000e+00	 1.942903151694905e+00
1	 1.642603690755613e+00	 1.073899141018997e+00	-5.703527520281280e+01
1	 1.620231881712195e+00	 1.107363941740996e+00	-4.652925111040391e+01
1	 1.597133595745887e+00	 1.140425590445309e+00	-3.733391535624014e+01
1	 1.573319664322116e+00	 1.173060733242866e+00	-2.955939505312238e+01
1	 1.548801910304673e+00	 1.205246403300989e+00	-2.331079069885553e+01
1	 1.523593130619449e+00	 1.236960073072333e+00	-1.868767949875916e+01
1	 1.497707075634103e+00	 1.268179705582731e+00	-1.578364335909384e+01
1	 1.471158425314429e+00	 1.298883804537982e+00	-1.468582501922551e+01
1	 1.443962762238138e+00	 1.329051463014275e+00	-1.547451559336223e+01
1	 1.416136541566381e+00	 1.358662410503402e+00	-1.822277655964206e+01
1	 1.387697058092250e+00	 1.387697058092250e+00	-2.299609896772253e+01
1	 1.653066134644457e+00	 1.080739262933047e+00	-7.210002836860718e+01
1	 1.630551830003009e+00	 1.114417215253336e+00	-6.023775590973120e+01
1	 1.607306421197023e+00	 1.147689447708559e+00	-5.007027872071991e+01
1	 1.583340808682154e+00	 1.180532457658756e+00	-4.176628271847797e+01
1	 1.558666890627054e+00	 1.212923131985688e+00	-3.548801643146930e+01
1	 1.533297545466696e+00	 1.244838799654449e+00	-3.139053368787246e+01
1	 1.507246611150701e+00	 1.276257283327976e+00	-2.962096726596168e+01
1	 1.480528861147824e+00	 1.307156949792999e+00	-3.031783877022309e+01
1	 1.453159977287867e+00	 1.337516758960583e+00	-3.361040975254829e+01
1	 1.425156519541922e+00	 1.367316311211003e+00	-3.961807879902042e+01
1	 1.396535892861000e+00	 1.396535892861000e+00	-4.844982895238838e+01
1	 1.663528578533797e+00	 1.087579384846591e+00	-8.521345104130110e+01
1	 1.640871778294408e+00	 1.121470488765272e+00	-7.227347907717474e+01
1	 1.617479246648815e+00	 1.154953304971504e+00	-6.140650157298384e+01
1	 1.593361953042898e+00	 1.188004182074440e+00	-5.283921036417682e+01
1	 1.568531870950172e+00	 1.220599860670283e+00	-4.679046126505044e+01
1	 1.543001960314693e+00	 1.252717526236562e+00	-4.347025816402983e+01
1	 1.516786146668037e+00	 1.284334861073320e+00	-4.307877432526223e+01
1	 1.489899296981929e+00	 1.315430095048214e+00	-4.580541794263757e+01
1	 1.462357192338255e+00	 1.345982054907189e+00	-5.182794870133000e+01
1	 1.434176497518053e+00	 1.375970211919004e+00	-6.131165173782257e+01
1	 1.405374727630250e+00	 1.405374727630250e+00	-7.440857495574326e+01
1	 1.673991022423631e+00	 1.094419506759630e+00	-9.641213066687428e+01
1	 1.651191726586392e+00	 1.128523762276803e+00	-8.266778526770820e+01
1	 1.627652072101263e+00	 1.162217162234144e+00	-7.136883654713785e+01
1	 1.603383097404348e+00	 1.195475906489921e+00	-6.279943974019751e+01
1	 1.578396851274028e+00	 1.228276589354776e+00	-5.723452734115956e+01
1	 1.552706375163437e+00	 1.260596252818672e+00	-5.493853660913213e+01
1	 1.526325682186112e+00	 1.292412438818762e+00	-5.616418047773431e+01
1	 1.499269732816743e+00	 1.323703240303628e+00	-6.115127068471303e+01
1	 1.471554407389304e+00	 1.354447350854096e+00	-7.012560159983262e+01
1	 1.443196475494775e+00	 1.384624112627405e+00	-8.329790280038151e+01
1	 1.414213562400000e+00	 1.414213562400000e+00	-1.008628679273817e+02
1	 1.325825214725000e+00	 1.325825214725000e+00	 1.401911354876945e+02
1	 1.298085105561391e+00	 1.352996695754110e+00	 1.610093350576350e+02
1	 1.269794391398509e+00	 1.379582256908508e+00	 1.744687975110854e+02
1	 1.240971787758436e+00	 1.405565374500522e+00	 1.802511807828597e+02
1	 1.211636661368759e+00	 1.430930327038606e+00	 1.780687176588862e+02
1	 1.181808986997448e+00	 1.455662226709656e+00	 1.676653289992287e+02
1	 1.151509302505200e+00	 1.479747048068645e+00	 1.488175625597782e+02
1	 1.120758662325928e+00	 1.503171653821628e+00	 1.213353521933114e+02
1	 1.089578589594029e+00	 1.525923817606285e+00	 8.506259374976003e+01
1	 1.057991027143266e+00	 1.547992243692877e+00	 3.987753555731108e+01
1	 1.026018287606500e+00	 1.569366583547552e+00	-1.430701706916550e+01
1	 1.334664049490250e+00	 1.334664049490250e+00	 1.185590724191907e+02
1	 1.306739006266193e+00	 1.362016673725522e+00	 1.345180744108896e+02
1	 1.278259687342720e+00	 1.388779471953618e+00	 1.448874118510378e+02
1	 1.249244933012061e+00	 1.414935810328952e+00	 1.493998730545916e+02
1	 1.219714239113318e+00	 1.440469862550032e+00	 1.478118361990542e+02
1	 1.189687713579582e+00	 1.465366641551668e+00	 1.399042201417014e+02
1	 1.159186031190623e+00	 1.489612028385866e+00	 1.254832995541970e+02
1	 1.128230386743246e+00	 1.513192798176721e+00	 1.043813797470774e+02
1	 1.096842446859412e+00	 1.536096643052833e+00	 7.645732776386367e+01
1	 1.065044300658443e+00	 1.558312191979596e+00	 4.159695755499879e+01
1	 1.032858409524087e+00	 1.579829027432933e+00	-2.867317200018320e-01
1	 1.343502884256000e+00	 1.343502884256000e+00	 9.634845092426198e+01
1	 1.315392906971395e+00	 1.371036651697524e+00	 1.077418703976836e+02
1	 1.286724983287230e+00	 1.397976686999389e+00	 1.152913306785376e+02
1	 1.257518078265884e+00	 1.424306246158092e+00	 1.187802520077608e+02
1	 1.227791816857975e+00	 1.450009398062197e+00	 1.180087217883391e+02
1	 1.197566440161714e+00	 1.475071056394428e+00	 1.127942843566749e+02
1	 1.166862759875943e+00	 1.499477008703824e+00	 1.029726334782796e+02
1	 1.135702111160360e+00	 1.523213942532522e+00	 8.839820352731915e+01
1	 1.104106304124490e+00	 1.546269468500036e+00	 6.894465618750678e+01
1	 1.072097574173215e+00	 1.568632140266900e+00	 4.450526041350531e+01
1	 1.039698531441169e+00	 1.590291471318810e+00	 1.499316430599923e+01
1	 1.352341719022250e+00	 1.352341719022250e+00	 7.357061528575440e+01
1	 1.324046807676997e+00	 1.380056629670115e+00	 8.068631014284824e+01
1	 1.295190279232041e+00	 1.407173902045819e+00	 8.568084214086140e+01
1	 1.265791223519906e+00	 1.433676681987940e+00	 8.838777476617295e+01
1	 1.235869394602730e+00	 1.459548933575101e+00	 8.865047703343828e+01
1	 1.205445166743843e+00	 1.484775471237936e+00	 8.632275354438588e+01
1	 1.174539488561159e+00	 1.509341989022520e+00	 8.126941537218173e+01
1	 1.143173835577269e+00	 1.533235086889027e+00	 7.336678831332343e+01
1	 1.111370161389264e+00	 1.556442293947895e+00	 6.250315560015785e+01
1	 1.079150847687582e+00	 1.578952088554790e+00	 4.857913274251910e+01
1	 1.046538653357745e+00	 1.600753915205181e+00	 3.150797275924927e+01
1	 1.361180553789000e+00	 1.361180553789000e+00	 5.023661512982910e+01
1	 1.332700708382998e+00	 1.389076607643297e+00	 5.335683565109292e+01
1	 1.303655575177150e+00	 1.416371117092909e+00	 5.605622690094197e+01
1	 1.274064368774127e+00	 1.443047117818499e+00	 5.821801645041238e+01
1	 1.243946972347583e+00	 1.469088469088743e+00	 5.972843564216684e+01
1	 1.213323893325970e+00	 1.494479886082192e+00	 6.047719124401813e+01
1	 1.182216217246271e+00	 1.519206969341952e+00	 6.035791572955320e+01
1	 1.150645559993975e+00	 1.543256231246240e+00	 5.926859330568647e+01
1	 1.118634018653732e+00	 1.566615119396410e+00	 5.711195903376012e+01
1	 1.086204121201543e+00	 1.589272036843264e+00	 5.379586864237989e+01
1	 1.053378775273816e+00	 1.611216359092047e+00	 4.923363690313194e+01
1	 1.370019388556250e+00	 1.370019388556250e+00	 2.635721493101743e+01
1	 1.341354609089400e+00	 1.398096585617068e+00	 2.575874848830273e+01
1	 1.312120871122559e+00	 1.425568332140659e+00	 2.641775837879712e+01
1	 1.282337514028547e+00	 1.452417553649766e+00	 2.826666637149771e+01
1	 1.252024550092534e+00	 1.478628004603124e+00	 3.123415496858332e+01
1	 1.221202619908093e+00	 1.504184300927196e+00	 3.524548193567221e+01
1	 1.189892945931281e+00	 1.529071949662122e+00	 4.022281096678102e+01
1	 1.158117284410477e+00	 1.553277375604159e+00	 4.608555617723951e+01
1	 1.125897875917896e+00	 1.576787944845579e+00	 5.275073802265012e+01
1	 1.093257394715099e+00	 1.599591985132322e+00	 6.013334817212218e+01
1	 1.060218897189382e+00	 1.621678802979408e+00	 6.814672082003587e+01
1	 1.378858223324000e+00	 1.378858223324000e+00	 1.942903151694905e+00
1	 1.350008509796201e+00	 1.407116563591429e+00	-2.102785717219355e+00
1	 1.320586167068267e+00	 1.434765547189069e+00	-3.234297016324279e+00
1	 1.290610659283165e+00	 1.461787989481743e+00	-1.470475629069618e+00
1	 1.260102127837583e+00	 1.488167540118244e+00	 3.159408844842527e+00
1	 1.229081346490215e+00	 1.513888715772948e+00	 1.061582075379846e+01
1	 1.197569674616187e+00	 1.538936929983029e+00	 2.084917041264405e+01
1	 1.165589008826774e+00	 1.563298519962784e+00	 3.380007773740085e+01
1	 1.133161733181756e+00	 1.586960770295405e+00	 4.939968534386934e+01
1	 1.100310668228251e+00	 1.609911933421966e+00	 6.757001856874916e+01
1	 1.067059019104442e+00	 1.632141246867263e+00	 8.822438951331046e+01
1	 1.387697058092250e+00	 1.387697058092250e+00	-2.299609896772253e+01
1	 1.358662410503402e+00	 1.416136541566380e+00	-3.022273294552944e+01
1	 1.329051463014275e+00	 1.443962762238138e+00	-3.289967966267016e+01
1	 1.298883804537982e+00	 1.471158425314429e+00	-3.099750269938374e+01
1	 1.268179705582731e+00	 1.497707075634103e+00	-2.450381931301283e+01
1	 1.236960073072333e+00	 1.523593130619448e+00	-1.342329640625469e+01
1	 1.205246403300989e+00	 1.548801910304673e+00	 2.222443795181356e+00
1	 1.173060733242868e+00	 1.573319664322116e+00	 2.239500718260248e+01
1	 1.140425590445310e+00	 1.597133595745886e+00	 4.703949841707362e+01
1	 1.107363941740996e+00	 1.620231881712195e+00	 7.608487618424007e+01
1	 1.073899141018997e+00	 1.642603690755613e+00	 1.094443897696556e+02
1	 1.396535892861000e+00	 1.396535892861000e+00	-4.844982895238838e+01
1	 1.367316311211003e+00	 1.425156519541922e+00	-5.859618662022169e+01
1	 1.337516758960583e+00	 1.453159977287867e+00	-6.257813651119061e+01
1	 1.307156949792999e+00	 1.480528861147824e+00	-6.031840436353957e+01
1	 1.276257283327977e+00	 1.507246611150701e+00	-5.176334313745237e+01
1	 1.244838799654449e+00	 1.533297545466696e+00	-3.688308240598933e+01
1	 1.212923131985688e+00	 1.558666890627054e+00	-1.567155079626014e+01
1	 1.180532457658757e+00	 1.583340808682153e+00	 1.185362790682828e+01
1	 1.147689447708560e+00	 1.607306421197023e+00	 4.565136333483516e+01
1	 1.114417215253337e+00	 1.630551830003009e+00	 8.565744910849232e+01
1	 1.080739262933047e+00	 1.653066134644457e+00	 1.317850317482566e+02
1	 1.405374727630250e+00	 1.405374727630250e+00	-7.440857495574326e+01
1	 1.375970211919004e+00	 1.434176497518053e+00	-8.721836360077002e+01
1	 1.345982054907189e+00	 1.462357192338255e+00	-9.226942087884984e+01
1	 1.315430095048214e+00	 1.489899296981929e+00	-8.943706978024926e+01
1	 1.284334861073321e+00	 1.516786146668037e+00	-7.862677969158150e+01
1	 1.252717526236562e+00	 1.543001960314692e+00	-5.977446802234773e+01
1	 1.220599860670284e+00	 1.568531870950172e+00	-3.284663849471376e+01
1	 1.188004182074441e+00	 1.593361953042897e+00	 2.159643847603171e+00
1	 1.154953304971505e+00	 1.617479246648815e+00	 4.521693949556531e+01
1	 1.121470488765273e+00	 1.640871778294407e+00	 9.626778044800572e+01
1	 1.087579384846591e+00	 1.663528578533797e+00	 1.552251712646653e+02
1	 1.414213562400000e+00	 1.414213562400000e+00	-1.008628679273817e+02
1	 1.384624112627405e+00	 1.443196475494774e+00	-1.160846003251585e+02
1	 1.354447350854096e+00	 1.471554407389304e+00	-1.219732922496876e+02
1	 1.323703240303628e+00	 1.499269732816743e+00	-1.183572908792608e+02
1	 1.292412438818763e+00	 1.526325682186112e+00	-1.051015556119328e+02
1	 1.260596252818672e+00	 1.552706375163436e+00	-8.210811076285610e+01
1	 1.228276589354776e+00	 1.578396851274027e+00	-4.931629880489333e+01
1	 1.195475906489922e+00	 1.603383097404348e+00	-6.702833655992649e+00
1	 1.162217162234145e+00	 1.627652072101262e+00	 4.571834481271116e+01
1	 1.128523762276804e+00	 1.651191726586391e+00	 1.078964122316129e+02
1	 1.094419506759630e+00	 1.673991022423631e+00	 1.797441927390464e+02
1	 1.026018287606500e+00	 1.569366583547552e+00	-1.430701706916550e+01
1	 9.936830028478698e-01	 1.590037449219140e+00	-7.482627004670283e+01
1	 9.610080729608007e-01	 1.609996423530313e+00	-1.159165416854880e+02
1	 9.280166150632180e-01	 1.629236067072467e+00	-1.375019706291623e+02
1	 8.947319121182953e-01	 1.647749922022751e+00	-1.395818975530531e+02
1	 8.611773620061525e-01	 1.665532512820283e+00	-1.222295254765546e+02
1	 8.273764270649263e-01	 1.682579343755863e+00	-8.559022240487602e+01
1	 7.933525843124147e-01	 1.698886893546373e+00	-2.987948584308981e+01
1	 7.591292765506416e-01	 1.714452606980927e+00	 4.461940905923751e+01
1	 7.247298645455660e-01	 1.729274883740578e+00	 1.375580540423909e+02
1	 6.901775804629183e-01	 1.743353064507004e+00	 2.485258196236649e+02
1	 1.032858409524087e+00	 1.579829027432933e+00	-2.867317200018320e-01
1	 1.000307556199713e+00	 1.600637698875349e+00	-4.768742883966624e+01
1	 9.674147934461709e-01	 1.620729733015011e+00	-8.001020444772948e+01
1	 9.342033924955050e-01	 1.640097640847259e+00	-9.716256901456737e+01
1	 9.006967915306425e-01	 1.658734921497089e+00	-9.911137420675232e+01
1	 8.669185444175702e-01	 1.676636062899880e+00	-8.588188907755043e+01
1	 8.328922699100108e-01	 1.693796539375036e+00	-5.755659033537850e+01
1	 7.986416015392142e-01	 1.710212806164218e+00	-1.427368136180446e+01
1	 7.641901383925483e-01	 1.725882291021801e+00	 4.377464354429939e+01
1	 7.295613969744115e-01	 1.740803382960041e+00	 1.163441716333133e+02
1	 6.947787643316375e-01	 1.754975418265163e+00	 2.031408614622178e+02
1	 1.039698531441169e+00	 1.590291471318810e+00	 1.499316430599923e+01
1	 1.006932109550961e+00	 1.611237948531963e+00	-1.940319037514170e+01
1	 9.738215139308771e-01	 1.631463042500044e+00	-4.301484582911357e+01
1	 9.403901699270795e-01	 1.650959214622338e+00	-5.573299872280167e+01
1	 9.066616709422495e-01	 1.669719920971687e+00	-5.749246687104294e+01
1	 8.726597268282396e-01	 1.687739612979729e+00	-4.827117757418482e+01
1	 8.384081127543602e-01	 1.705013734994474e+00	-2.808944120955917e+01
1	 8.039306187653098e-01	 1.721538718782360e+00	 2.990980083859029e+00
1	 7.692510002338034e-01	 1.737311975063022e+00	 4.486799739059184e+01
1	 7.343929294026771e-01	 1.752331882179924e+00	 9.740050119301289e+01
1	 6.993799481998668e-01	 1.766597772023833e+00	 1.604098351744146e+02
1	 1.046538653357745e+00	 1.600753915205181e+00	 3.150797275924927e+01
1	 1.013556662901614e+00	 1.621838198188981e+00	 1.000398657637588e+01
1	 9.802282344149195e-01	 1.642196351985414e+00	-4.951819190502739e+00
1	 9.465769473579416e-01	 1.661820788397706e+00	-1.323463561044742e+01
1	 9.126265503531162e-01	 1.680704920446545e+00	-1.474769287893695e+01
1	 8.784009092381612e-01	 1.698843163059831e+00	-9.422157144588731e+00
1	 8.439239555979734e-01	 1.716230930614175e+00	 2.783116795643224e+00
1	 8.092196359907021e-01	 1.732864631400798e+00	 2.188197188761161e+01
1	 7.743118620744075e-01	 1.748741659104592e+00	 4.786146825873206e+01
1	 7.392244618303623e-01	 1.763860381400226e+00	 8.068252876247571e+01
1	 7.039811320676067e-01	 1.778220125783012e+00	 1.202807028815869e+02
1	 1.053378775273816e+00	 1.611216359092047e+00	 4.923363690313194e+01
1	 1.020181216251672e+00	 1.632438447846405e+00	 4.051222658907601e+01
1	 9.866349548982980e-01	 1.652929661471120e+00	 3.415807673998641e+01
1	 9.527637247880920e-01	 1.672682362173361e+00	 3.031169968296478e+01
1	 9.185914297632424e-01	 1.691689919921662e+00	 2.910101530234685e+01
1	 8.841420916473348e-01	 1.709946713140184e+00	 3.064104931046053e+01
1	 8.494397984408509e-01	 1.727448126234142e+00	 3.503370558580979e+01
1	 8.145086532153912e-01	 1.744190544019534e+00	 4.236761229008686e+01
1	 7.793727239143596e-01	 1.760171343146511e+00	 5.271804088309710e+01
1	 7.440559942574673e-01	 1.775388880620949e+00	 6.614689658942719e+01
1	 7.085823159348565e-01	 1.789842479542702e+00	 8.270277833830123e+01
1	 1.060218897189382e+00	 1.621678802979408e+00	 6.814672082003587e+01
1	 1.026805769601136e+00	 1.643038697504233e+00	 7.210021876426288e+01
1	 9.930416753810124e-01	 1.663662970957163e+00	 7.429457997560617e+01
1	 9.589505022175296e-01	 1.683543935949304e+00	 7.488572382472910e+01
1	 9.245563091726284e-01	 1.702674919397039e+00	 7.403229120474153e+01
1	 8.898832740557604e-01	 1.721050263220789e+00	 7.189494141665804e+01
1	 8.549556412829928e-01	 1.738665321854372e+00	 6.863565359799233e+01
1	 8.197976704393767e-01	 1.755516456638565e+00	 6.441703712571106e+01
1	 7.844335857536603e-01	 1.771601027188778e+00	 5.940165523073222e+01
1	 7.488875266839924e-01	 1.786917379842091e+00	 5.375136583134035e+01
1	 7.131834998016169e-01	 1.801464833302902e+00	 4.762668333128499e+01
1	 1.067059019104442e+00	 1.632141246867263e+00	 8.822438951331046e+01
1	 1.033430322950004e+00	 1.653638947162467e+00	 1.047471986365373e+02
1	 9.994483958630631e-01	 1.674396280443540e+00	 1.154379480677279e+02
1	 9.651372796462548e-01	 1.694405509725534e+00	 1.204676735675931e+02
1	 9.305211885812740e-01	 1.713659918872676e+00	 1.200253162183363e+02
1	 8.956244564634376e-01	 1.732153813301645e+00	 1.143166213733991e+02
1	 8.604714841243993e-01	 1.749882517474867e+00	 1.035629731554751e+02
1	 8.250866876626589e-01	 1.766842369257893e+00	 8.800017361777847e+01
1	 7.894944475923095e-01	 1.783030711231393e+00	 6.787717588492059e+01
1	 7.537190591099371e-01	 1.798445879063653e+00	 4.345478069294785e+01
1	 7.177846836678873e-01	 1.813087187063613e+00	 1.500430575531475e+01
1	 1.073899141018997e+00	 1.642603690755613e+00	 1.094443897696556e+02
1	 1.040054876298278e+00	 1.664239196821106e+00	 1.384329307714633e+02
1	 1.005855116344450e+00	 1.685129589930255e+00	 1.575689415600428e+02
1	 9.713240570742678e-01	 1.705267083502052e+00	 1.670382891865232e+02
1	 9.364860679891795e-01	 1.724644918348573e+00	 1.670598021436612e+02
1	 9.013656388703671e-01	 1.743257363382755e+00	 1.578837747635354e+02
1	 8.659873269650699e-01	 1.761099713095627e+00	 1.397903386879561e+02
1	 8.303757048852374e-01	 1.778168281877517e+00	 1.130877151749783e+02
1	 7.945553094303071e-01	 1.794460395274357e+00	 7.811036259880504e+01
1	 7.585505915353016e-01	 1.809974378285635e+00	 3.521703393428686e+01
1	 7.223858675336681e-01	 1.824709540824833e+00	-1.521124070869277e+01
1	 1.080739262933047e+00	 1.653066134644457e+00	 1.317850317482566e+02
1	 1.046679429645956e+00	 1.674839446480151e+00	 1.731376920240791e+02
1	 1.012261836825172e+00	 1.695862899417306e+00	 2.006688080710802e+02
1	 9.775108345015685e-01	 1.716128657278857e+00	 2.145787985444644e+02
1	 9.424509473963443e-01	 1.735629917824729e+00	 2.151159744065524e+02
1	 9.071068212765485e-01	 1.754360913464115e+00	 2.025746520918692e+02
1	 8.715031698050051e-01	 1.772316908716650e+00	 1.772930657788151e+02
1	 8.356647221071125e-01	 1.789494194497438e+00	 1.396510971450280e+02
1	 7.996161712676533e-01	 1.805890079317670e+00	 9.006784196723021e+01
1	 7.633821239600858e-01	 1.821502877508038e+00	 2.899903368856870e+01
1	 7.269870513989594e-01	 1.836331894586565e+00	-4.306565538438318e+01
1	 1.087579384846591e+00	 1.663528578533797e+00	 1.552251712646653e+02
1	 1.053303982993040e+00	 1.685439696139599e+00	 2.088422554291718e+02
1	 1.018668557305232e+00	 1.706596208904692e+00	 2.447192669773981e+02
1	 9.836976119281569e-01	 1.726990231055951e+00	 2.630709017593747e+02
1	 9.484158268027693e-01	 1.746614917301144e+00	 2.641745559064048e+02
1	 9.128480036819818e-01	 1.765464463545728e+00	 2.483680510203171e+02
1	 8.770190126442042e-01	 1.783534104337938e+00	 2.160470910030463e+02
1	 8.409537393282845e-01	 1.800820107117657e+00	 1.676624734832511e+02
1	 8.046770331043480e-01	 1.817319763361330e+00	 1.037170801675647e+02
1	 7.682136563842901e-01	 1.833031376730859e+00	 2.476267153220722e+01
1	 7.315882352637607e-01	 1.847954248348806e+00	-6.860348792686591e+01
1	 1.094419506759630e+00	 1.673991022423631e+00	 1.797441927390464e+02
1	 1.059928536339529e+00	 1.696039945799453e+00	 2.455278746956528e+02
1	 1.025075277784627e+00	 1.717329518392415e+00	 2.897024946711354e+02
1	 9.898843893540332e-01	 1.737851804833332e+00	 3.124967564462666e+02
1	 9.543807062084537e-01	 1.757599916777820e+00	 3.142167514701322e+02
1	 9.185891860866674e-01	 1.776568013627593e+00	 2.952432992692527e+02
1	 8.825348554826680e-01	 1.794751299959490e+00	 2.560289525212702e+02
1	 8.462427565487531e-01	 1.812146019738171e+00	 1.970946942960902e+02
1	 8.097378949403913e-01	 1.828749447405340e+00	 1.190263567227520e+02
1	 7.730451888079141e-01	 1.844559875954101e+00	 2.247079175221618e+01
1	 7.361894191280726e-01	 1.859576602111558e+00	-9.186817424985801e+01
1	 6.901775804629183e-01	 1.743353064507004e+00	 2.485258196236649e+02
1	 6.554954827290597e-01	 1.756687414487810e+00	 3.727821791931848e+02
1	 6.207064124720911e-01	 1.769279104497503e+00	 4.629286983554694e+02
1	 5.858329516852290e-01	 1.781130189742346e+00	 5.195856300280258e+02
1	 5.508973832404049e-01	 1.792243586465333e+00	 5.434754909237661e+02
1	 5.159216528644688e-01	 1.802623046614941e+00	 5.354170606133872e+02
1	 4.809273331759799e-01	 1.812273130706186e+00	 4.963191096241844e+02
1	 4.459355898653843e-01	 1.821199179046478e+00	 4.271739063115045e+02
1	 4.109671500863636e-01	 1.829407281501319e+00	 3.290505517505698e+02
1	 3.760422731112888e-01	 1.836904245976013e+00	 2.030881909683375e+02
1	 3.411807232891650e-01	 1.843697565789419e+00	 5.048914750285454e+01
1	 6.947787643316375e-01	 1.754975418265163e+00	 2.031408614622178e+02
1	 6.598654526133345e-01	 1.768398663912796e+00	 3.062472335903542e+02
1	 6.248444552216971e-01	 1.781074298522854e+00	 3.820832393956610e+02
1	 5.897385046965644e-01	 1.793004391002975e+00	 4.310917890404311e+02
1	 5.545700324623483e-01	 1.804191877037771e+00	 4.537995568448511e+02
1	 5.193611305507445e-01	 1.814640533588709e+00	 4.508123170988246e+02
1	 4.841335153977708e-01	 1.824354951574237e+00	 4.228100478479212e+02
1	 4.489084937984773e-01	 1.833340506903816e+00	 3.705418423059238e+02
1	 4.137069310875708e-01	 1.841603330042052e+00	 2.948206672801714e+02
1	 3.785492215992395e-01	 1.849150274280280e+00	 1.965180073720381e+02
1	 3.434552614448158e-01	 1.855988882892821e+00	 7.655843276040024e+01
1	 6.993799481998668e-01	 1.766597772023833e+00	 1.604098351744146e+02
1	 6.642354224972193e-01	 1.780109913338382e+00	 2.418966218948314e+02
1	 6.289824979710141e-01	 1.792869492548873e+00	 3.028677046958007e+02
1	 5.936440577077111e-01	 1.804878592264319e+00	 3.435907416773225e+02
1	 5.582426816842031e-01	 1.816140167610950e+00	 3.643988107595843e+02
1	 5.228006082370326e-01	 1.826658020563224e+00	 3.656870706792731e+02
1	 4.873396976196750e-01	 1.836436772443023e+00	 3.479092286196785e+02
1	 4.518813977317842e-01	 1.845481834761856e+00	 3.115738441225293e+02
1	 4.164467120890923e-01	 1.853799378583433e+00	 2.572404988836622e+02
1	 3.810561700876046e-01	 1.861396302585124e+00	 1.855158617124025e+02
1	 3.457297996009814e-01	 1.868280199996709e+00	 9.704967735475620e+01
1	 7.039811320676067e-01	 1.778220125783012e+00	 1.202807028815869e+02
1	 6.686053923807149e-01	 1.791821162764569e+00	 1.796875140307685e+02
1	 6.331205407200413e-01	 1.804664686575561e+00	 2.252501349570929e+02
1	 5.975496107186692e-01	 1.816752793526378e+00	 2.570630213972352e+02
1	 5.619153309059700e-01	 1.828088458184871e+00	 2.752678568250184e+02
1	 5.262400859233336e-01	 1.838675507538488e+00	 2.800515272940864e+02
1	 4.905458798416924e-01	 1.848518593312543e+00	 2.716439413013799e+02
1	 4.548543016653047e-01	 1.857623162620597e+00	 2.503157143925571e+02
1	 4.191864930909281e-01	 1.865995427125461e+00	 2.163757384032952e+02
1	 3.835631185763844e-01	 1.873642330890543e+00	 1.701686552072601e+02
1	 3.480043377576615e-01	 1.880571517101082e+00	 1.120722546335572e+02
1	 7.085823159348565e-01	 1.789842479542702e+00	 8.270277833830123e+01
1	 6.729753622638208e-01	 1.803532412191355e+00	 1.195781923918437e+02
1	 6.372585834687796e-01	 1.816459880602917e+00	 1.491994009924257e+02
1	 6.014551637294383e-01	 1.828626994789152e+00	 1.714896672831672e+02
1	 5.655879801276489e-01	 1.840036748759533e+00	 1.864014393499668e+02
1	 5.296795636096469e-01	 1.850692994514499e+00	 1.939156277932750e+02
1	 4.937520620638231e-01	 1.860600414182798e+00	 1.940407664403328e+02
1	 4.578272055990393e-01	 1.869764490480038e+00	 1.868120660684718e+02
1	 4.219262740930783e-01	 1.878191475668138e+00	 1.722903713996443e+02
1	 3.860700670655788e-01	 1.885888359196539e+00	 1.505610318998686e+02
1	 3.502788759148565e-01	 1.892862834205940e+00	 1.217326970781595e+02
1	 7.131834998016169e-01	 1.801464833302902e+00	 4.762668333128499e+01
1	 6.773453321465368e-01	 1.815243661618740e+00	 6.152801595514339e+01
1	 6.413966262172285e-01	 1.828255074630939e+00	 7.468517694856554e+01
1	 6.053607167400187e-01	 1.840501196052642e+00	 8.685220773211809e+01
1	 5.692606293492394e-01	 1.851985039334938e+00	 9.779443827399210e+01
1	 5.331190412959727e-01	 1.862710481491259e+00	 1.072890564887801e+02
1	 4.969582442860671e-01	 1.872682235053787e+00	 1.151255986342156e+02
1	 4.608001095329875e-01	 1.881905818340180e+00	 1.211063608006992e+02
1	 4.246660550955427e-01	 1.890387524211462e+00	 1.250467321929536e+02
1	 3.885770155551879e-01	 1.898134387503110e+00	 1.267754514709998e+02
1	 3.525534140725660e-01	 1.905154151311284e+00	 1.261347879444925e+02
1	 7.177846836678873e-01	 1.813087187063613e+00	 1.500430575531475e+01
1	 6.817153020288633e-01	 1.826954911046724e+00	 5.497385775281742e+00
1	 6.455346689653881e-01	 1.840050268659631e+00	 1.677914558273130e+00
1	 6.092662697504103e-01	 1.852375397316846e+00	 3.132644771942111e+00
1	 5.729332785707419e-01	 1.863933329911085e+00	 9.441864820260598e+00
1	 5.365585189823112e-01	 1.874727968468767e+00	 2.018124937684290e+01
1	 5.001644265084243e-01	 1.884764055925510e+00	 3.492366851664123e+01
1	 4.637730134671497e-01	 1.894047146201024e+00	 5.324094583833542e+01
1	 4.274058360983216e-01	 1.902583572755435e+00	 7.470555678750955e+01
1	 3.910839640452114e-01	 1.910380415810258e+00	 9.889225925056280e+01
1	 3.548279522307902e-01	 1.917445468417113e+00	 1.253796493792608e+02
1	 7.223858675336681e-01	 1.824709540824833e+00	-1.521124070869277e+01
1	 6.860852719108003e-01	 1.838666160475309e+00	-4.855228820277839e+01
1	 6.496727117132584e-01	 1.851845462688989e+00	-6.985118162357868e+01
1	 6.131718227606133e-01	 1.864249598581766e+00	-7.968656102243101e+01
1	 5.766059277921564e-01	 1.875881620487973e+00	-7.866114268546458e+01
1	 5.399979966686622e-01	 1.886745455447023e+00	-6.739859795385011e+01
1	 5.033706087308947e-01	 1.896845876797968e+00	-4.654043609748599e+01
1	 4.667459174015257e-01	 1.906188474062568e+00	-1.674291048036289e+01
1	 4.301456171014146e-01	 1.914779621300055e+00	 2.132603377342256e+01
1	 3.935909125356498e-01	 1.922626444117981e+00	 6.698975355361723e+01
1	 3.571024903895291e-01	 1.929736785523427e+00	 1.195658271686496e+02
1	 7.269870513989594e-01	 1.836331894586565e+00	-4.306565538438318e+01
1	 6.904552417923476e-01	 1.850377409904493e+00	-1.006586190706377e+02
1	 6.538107544608396e-01	 1.863640656719015e+00	-1.399301780434903e+02
1	 6.170773757706274e-01	 1.876123799847400e+00	-1.616225050399854e+02
1	 5.802785770134827e-01	 1.887829911065603e+00	-1.665193228370554e+02
1	 5.434374743550259e-01	 1.898762942426027e+00	-1.554415227143328e+02
1	 5.065767909534783e-01	 1.908927697671160e+00	-1.292427498696097e+02
1	 4.697188213361155e-01	 1.918329801924813e+00	-8.880498458523198e+01
1	 4.328853981048221e-01	 1.926975669845323e+00	-3.503414670456704e+01
1	 3.960978610265026e-01	 1.934872472426280e+00	 3.114425045932935e+01
1	 3.593770285487826e-01	 1.942028102630226e+00	 1.087893722687224e+02
1	 7.315882352637607e-01	 1.847954248348806e+00	-6.860348792686591e+01
1	 6.948252116735053e-01	 1.862088659334276e+00	-1.508582736785831e+02
1	 6.579487972081315e-01	 1.875435850749710e+00	-2.085864350738229e+02
1	 6.209829287804527e-01	 1.887998001113750e+00	-2.426918525970161e+02
1	 5.839512262347207e-01	 1.899778201643975e+00	-2.541372950184723e+02
1	 5.468769520414020e-01	 1.910780429405780e+00	-2.439387875946113e+02
1	 5.097829731761752e-01	 1.921009518545087e+00	-2.131599103627887e+02
1	 4.726917252709194e-01	 1.930471129787759e+00	-1.629060648198504e+02
1	 4.356251791085438e-01	 1.939171718391240e+00	-9.431874582616392e+01
1	 3.986048095177700e-01	 1.947118500735156e+00	-8.569853854564871e+00
1	 3.616515667085508e-01	 1.954319419737511e+00	 9.314391925920398e+01
1	 7.361894191280726e-01	 1.859576602111558e+00	-9.186817424985801e+01
1	 6.991951815542736e-01	 1.873799908764660e+00	-1.991870022056279e+02
1	 6.620868399551343e-01	 1.887231044781072e+00	-2.758466290776134e+02
1	 6.248884817900895e-01	 1.899872202380815e+00	-3.229108523769039e+02
1	 5.876238754558710e-01	 1.911726492223089e+00	-3.415195631290804e+02
1	 5.503164297277909e-01	 1.922797916386281e+00	-3.328818737174527e+02
1	 5.129891553989854e-01	 1.933091339419748e+00	-2.982691392010279e+02
1	 4.756646292059370e-01	 1.942612457651407e+00	-2.390079198192510e+02
1	 4.383649601125800e-01	 1.951367766937804e+00	-1.564729307416284e+02
1	 4.011117580094523e-01	 1.959364529044608e+00	-5.208002311483926e+01
1	 3.639261048688338e-01	 1.966610736845282e+00	 7.272076185524026e+01
1	 3.411807232891650e-01	 1.843697565789419e+00	 5.048914750285454e+01
1	 3.064017453303258e-01	 1.849795386114716e+00	-1.126173504252806e+02
1	 2.717240419284751e-01	 1.855206469658534e+00	-2.432862699223022e+02
1	 2.371657537175081e-01	 1.859940161747613e+00	-3.427280205953020e+02
1	 2.027444415484455e-01	 1.864006354987513e+00	-4.122117729877856e+02
1	 1.684770710600370e-01	 1.867415453651191e+00	-4.530582304367509e+02
1	 1.343799995057737e-01	 1.870178337950090e+00	-4.666324983329880e+02
1	 1.004689647900904e-01	 1.872306328333207e+00	-4.543370874465428e+02
1	 6.675907665743416e-02	 1.873811149952121e+00	-4.176050848510404e+02
1	 3.326480996967145e-02	 1.874704897421970e+00	-3.578935227608339e+02
1	 0.000000000000000e+00	 1.875000000000000e+00	-2.766769723245235e+02
1	 3.434552614448158e-01	 1.855988882892821e+00	 7.655843276040024e+01
1	 3.084444236327498e-01	 1.862127355353983e+00	-6.256007873938781e+01
1	 2.735355355414154e-01	 1.867574512788415e+00	-1.762570912623274e+02
1	 2.387468587422667e-01	 1.872339762825035e+00	-2.654679996528994e+02
1	 2.040960711586644e-01	 1.876433064020110e+00	-3.311750135812906e+02
1	 1.696002515336156e-01	 1.879864890008415e+00	-3.744014915939729e+02
1	 1.352758661689677e-01	 1.882646193536137e+00	-3.962063482562280e+02
1	 1.011387578885178e-01	 1.884788370521935e+00	-3.976785633374200e+02
1	 6.720413716834214e-02	 1.886303224285065e+00	-3.799318195453568e+02
1	 3.348657536938560e-02	 1.887202930071432e+00	-3.440992927977487e+02
1	 0.000000000000000e+00	 1.887500000000000e+00	-2.913286164579418e+02
1	 3.457297996009814e-01	 1.868280199996709e+00	 9.704967735475620e+01
1	 3.104871019357723e-01	 1.874459324593641e+00	-1.714123918096335e+01
1	 2.753470291550064e-01	 1.879942555918602e+00	-1.128452458523386e+02
1	 2.403279637676975e-01	 1.884739363902691e+00	-1.907258528782556e+02
1	 2.054477007695459e-01	 1.888859773052877e+00	-2.514815265228499e+02
1	 1.707234320078177e-01	 1.892314326365756e+00	-2.958415721549945e+02
1	 1.361717328327167e-01	 1.895114049122259e+00	-3.245620663392409e+02
1	 1.018085509874029e-01	 1.897270412710705e+00	-3.384218592561684e+02
1	 6.764919767958245e-02	 1.898795298618027e+00	-3.382186669841621e+02
1	 3.370834076927928e-02	 1.899700962720899e+00	-3.247652713518038e+02
1	 0.000000000000000e+00	 1.900000000000000e+00	-2.988858432137366e+02
1	 3.480043377576615e-01	 1.880571517101082e+00	 1.120722546335572e+02
1	 3.125297802393933e-01	 1.886791293833689e+00	 2.373011790064754e+01
1	 2.771585227692485e-01	 1.892310599049096e+00	-5.297980558860477e+01
1	 2.419090687938004e-01	 1.897138964980581e+00	-1.184522101892047e+02
1	 2.067993303810904e-01	 1.901286482085814e+00	-1.731049731388664e+02
1	 1.718466124826434e-01	 1.904763762723215e+00	-2.173765737003136e+02
1	 1.370675994970205e-01	 1.907581904708456e+00	-2.517235375204328e+02
1	 1.024783440867457e-01	 1.909752454899516e+00	-2.766179199085597e+02
1	 6.809425819115501e-02	 1.911287372951007e+00	-2.925448406433987e+02
1	 3.393010616935248e-02	 1.912198995370370e+00	-3.000000817854913e+02
1	 0.000000000000000e+00	 1.912500000000000e+00	-2.994877588146373e+02
1	 3.502788759148565e-01	 1.892862834205940e+00	 1.217326970781595e+02
1	 3.145724585436130e-01	 1.899123263074128e+00	 6.014257982744718e+01
1	 2.789700163841413e-01	 1.904678642179897e+00	 3.408315344171037e+00
1	 2.434901738205753e-01	 1.909538566058704e+00	-4.859898384338423e+01
1	 2.081509599932976e-01	 1.913713191118922e+00	-9.601969887713310e+01
1	 1.729697929580925e-01	 1.917213199080792e+00	-1.390046471200261e+02
1	 1.379634661618794e-01	 1.920049760294728e+00	-1.777140263502275e+02
1	 1.031481371865461e-01	 1.922234497088370e+00	-2.123163667612994e+02
1	 6.853931870305990e-02	 1.923779447284006e+00	-2.429874965062225e+02
1	 3.415187156960520e-02	 1.924697028019846e+00	-2.699095260754237e+02
1	 0.000000000000000e+00	 1.925000000000000e+00	-2.932698563349644e+02
1	 3.525534140725660e-01	 1.905154151311284e+00	 1.261347879444925e+02
1	 3.166151368484313e-01	 1.911455232314958e+00	 9.218244779694037e+01
1	 2.807815099996850e-01	 1.917046685311005e+00	 5.638641990150565e+01
1	 2.450712788480224e-01	 1.921938167137059e+00	 1.888067292756574e+01
1	 2.095025896061675e-01	 1.926139900152201e+00	-2.020071123839696e+01
1	 1.740929734341652e-01	 1.929662635438486e+00	-6.072399102318840e+01
1	 1.388593328272932e-01	 1.932517615881074e+00	-1.025561970035618e+02
1	 1.038179302868042e-01	 1.934716539277265e+00	-1.455655407271595e+02
1	 6.898437921529707e-02	 1.936271521617023e+00	-1.896217994337338e+02
1	 3.437363697003744e-02	 1.937195060669326e+00	-2.345966758247716e+02
1	 0.000000000000000e+00	 1.937500000000000e+00	-2.803641322537962e+02
1	 3.548279522307902e-01	 1.917445468417113e+00	 1.253796493792608e+02
1	 3.186578151538482e-01	 1.923787201556179e+00	 1.199338101553557e+02
1	 2.825930036158798e-01	 1.929414728442421e+00	 1.060200853220824e+02
1	 2.466523838761414e-01	 1.934337768215650e+00	 8.403240569280837e+01
1	 2.108542192197002e-01	 1.938566609185649e+00	 5.437634144328176e+01
1	 1.752161539108614e-01	 1.942112071796298e+00	 1.746714979163189e+01
1	 1.397551994932619e-01	 1.944985471467495e+00	-2.627213252270148e+01
1	 1.044877233875199e-01	 1.947198581466201e+00	-7.641254320837383e+01
1	 6.942943972786655e-02	 1.948763595950059e+00	-1.325209869829902e+02
1	 3.459540237064921e-02	 1.949693093318812e+00	-1.941619597752298e+02
1	 0.000000000000000e+00	 1.950000000000000e+00	-2.608991985253223e+02
1	 3.571024903895291e-01	 1.929736785523427e+00	 1.195658271686496e+02
1	 3.207004934598637e-01	 1.936119170797790e+00	 1.434786128706174e+02
1	 2.844044972327253e-01	 1.941782771574142e+00	 1.523732180868855e+02
1	 2.482334889049326e-01	 1.946737369294472e+00	 1.469006970770660e+02
1	 2.122058488338956e-01	 1.950993318219269e+00	 1.277351904092382e+02
1	 1.763393343881811e-01	 1.954561508154227e+00	 9.557048580735858e+01
1	 1.406510661597856e-01	 1.957453327053991e+00	 5.111664667535777e+01
1	 1.051575164886933e-01	 1.959680623655180e+00	-4.903275571490486e+00
1	 6.987450024076833e-02	 1.961255670283113e+00	-7.175643078611135e+01
1	 3.481716777144051e-02	 1.962191125968301e+00	-1.487032479745759e+02
1	 0.000000000000000e+00	 1.962499999999999e+00	-2.350003903662530e+02
1	 3.593770285487826e-01	 1.942028102630226e+00	 1.087893722687224e+02
1	 3.227431717664778e-01	 1.948451140039792e+00	 1.628967273291319e+02
1	 2.862159908502217e-01	 1.954150814706171e+00	 1.955081067912790e+02
1	 2.498145939343959e-01	 1.959136970373530e+00	 2.075289035626566e+02
1	 2.135574784487539e-01	 1.963420027253059e+00	 1.998989661098898e+02
1	 1.774625148661244e-01	 1.967010944512274e+00	 1.735876842035517e+02
1	 1.415469328268642e-01	 1.969921182640562e+00	 1.295891649942878e+02
1	 1.058273095903243e-01	 1.972162665844200e+00	 6.891752287681389e+01
1	 7.031956075400238e-02	 1.973747744616185e+00	-7.397695598533129e+00
1	 3.503893317241133e-02	 1.974689158617795e+00	-9.831593274799219e+01
1	 0.000000000000000e+00	 1.975000000000000e+00	-2.027898699500376e+02
1	 3.616515667085508e-01	 1.954319419737511e+00	 9.314391925920398e+01
1	 3.247858500736904e-01	 1.960783109282185e+00	 1.782660155741985e+02
1	 2.880274844683691e-01	 1.966518857838506e+00	 2.354854730219160e+02
1	 2.513956989645312e-01	 1.971536571452820e+00	 2.659592909027778e+02
1	 2.149091080642749e-01	 1.975846736287019e+00	 2.708902170975333e+02
1	 1.785856953446911e-01	 1.979460380870439e+00	 2.515203702181474e+02
1	 1.424427994944977e-01	 1.982389038227207e+00	 2.091249745257067e+02
1	 1.064971026924130e-01	 1.984644708033262e+00	 1.450062383469727e+02
1	 7.076462126756874e-02	 1.986239818949276e+00	 6.048740388096998e+01
1	 3.526069857356168e-02	 1.987187191267294e+00	-4.309300661386683e+01
1	 0.000000000000000e+00	 1.987500000000000e+00	-1.643867261880922e+02
1	 3.639261048688338e-01	 1.966610736845282e+00	 7.272076185524026e+01
1	 3.268285283815017e-01	 1.973115078524969e+00	 1.896623930979827e+02
1	 2.898389780871672e-01	 1.978886900971149e+00	 2.723645203257564e+02
1	 2.529768039953388e-01	 1.983936172532344e+00	 3.222330682067958e+02
1	 2.162607376804587e-01	 1.988273445321150e+00	 3.407309282106635e+02
1	 1.797088758238815e-01	 1.991909817228721e+00	 3.293701284581361e+02
1	 1.433386661626862e-01	 1.994856893813928e+00	 2.897041385589304e+02
1	 1.071668957949593e-01	 1.997126750222366e+00	 2.233203473941223e+02
1	 7.120968178146743e-02	 1.998731893282386e+00	 1.318327483210211e+02
1	 3.548246397489156e-02	 1.999685223916798e+00	 1.687486272225113e+01
1	 0.000000000000000e+00	 2.000000000000000e+00	-1.199070707692307e+02
