x	y	stress_yy
 1.000000000000000e+000	 0.000000000000000e+000	 3.140723057755938e+001
 9.999607948607566e-001	 8.854871081647989e-003	 3.141043794243878e+001
 9.998426119589265e-001	 1.774123199891274e-002	 3.140264481361585e+001
 9.996446072361988e-001	 2.665819249913576e-002	 3.138368321625816e+001
 9.993659466433188e-001	 3.560484091004572e-002	 3.135338647039161e+001
 9.990058067093818e-001	 4.458024417780557e-002	 3.131158934799537e+001
 9.985633751160035e-001	 5.358344792087626e-002	 3.125812823395680e+001
 9.980378512759272e-001	 6.261347650004139e-002	 3.119284129080129e+001
 9.974284469156017e-001	 7.166933310492560e-002	 3.111556862710076e+001
 9.967343866612562e-001	 8.074999985732717e-002	 3.102615246945279e+001
 9.959549086279672e-001	 8.985443793167208e-002	 3.092443733791123e+001
 1.025000000000000e+000	 0.000000000000000e+000	 2.948158830962225e+001
 1.024959814732242e+000	 9.076242858200138e-003	 2.948473405821114e+001
 1.024838677257766e+000	 1.818476279791112e-002	 2.947713452521076e+001
 1.024635722416802e+000	 2.732464731015810e-002	 2.945862581407664e+001
 1.024350095308862e+000	 3.649496193086307e-002	 2.942904531683320e+001
 1.023980951876270e+000	 4.569475027984317e-002	 2.938823187035534e+001
 1.023527459492681e+000	 5.492303411602097e-002	 2.933602591657545e+001
 1.022988797556156e+000	 6.417881340919977e-002	 2.927226966653292e+001
 1.022364158086304e+000	 7.346106642874495e-002	 2.919680726817249e+001
 1.021652746325009e+000	 8.276874984949986e-002	 2.910948497778611e+001
 1.020853781340225e+000	 9.210079887525120e-002	 2.901015133498102e+001
 1.050000000000000e+000	 0.000000000000000e+000	 2.776075547226524e+001
 1.049958834603733e+000	 9.297614634757053e-003	 2.776447007087212e+001
 1.049834742556624e+000	 1.862829359692863e-002	 2.775770434616099e+001
 1.049626837597447e+000	 2.799110212122364e-002	 2.774029824158565e+001
 1.049334243974483e+000	 3.738508295175749e-002	 2.771209296992946e+001
 1.048956097043280e+000	 4.680925638200162e-002	 2.767293116874120e+001
 1.048491543869534e+000	 5.626262031134031e-002	 2.762265705977909e+001
 1.047939743836623e+000	 6.574415031859668e-002	 2.756111661238337e+001
 1.047299869257318e+000	 7.525279975287688e-002	 2.748815771068719e+001
 1.046571105989159e+000	 8.478749984206949e-002	 2.740363032456336e+001
 1.045752654052973e+000	 9.434715981932203e-002	 2.730738668419177e+001
 1.075000000000000e+000	 0.000000000000000e+000	 2.623075671084819e+001
 1.074957854475228e+000	 9.518986411318733e-003	 2.623565142891228e+001
 1.074830807855502e+000	 1.907182439596528e-002	 2.623034042848278e+001
 1.074617952778136e+000	 2.865755693233238e-002	 2.621466725839671e+001
 1.074318392640181e+000	 3.827520397272898e-002	 2.618847670465347e+001
 1.073931242210410e+000	 4.792376248428091e-002	 2.615161494497074e+001
 1.073455628246560e+000	 5.760220650683429e-002	 2.610392970744933e+001
 1.072890690117328e+000	 6.730948722823207e-002	 2.604527043327130e+001
 1.072235580428645e+000	 7.704453307732143e-002	 2.597548844334495e+001
 1.071489465653705e+000	 8.680624983503610e-002	 2.589443710879722e+001
 1.070651526766214e+000	 9.659352076388458e-002	 2.580197202520240e+001
 1.100000000000000e+000	 0.000000000000000e+000	 2.487888715751374e+001
 1.099956874346727e+000	 9.740358187885179e-003	 2.488555673046090e+001
 1.099826873154398e+000	 1.951535519502105e-002	 2.488230476438508e+001
 1.099609067958868e+000	 2.932401174348432e-002	 2.486897818185404e+001
 1.099302541305955e+000	 3.916532499377757e-002	 2.484542509749759e+001
 1.098906387377661e+000	 4.903826858668107e-002	 2.481149497164839e+001
 1.098419712623762e+000	 5.894179270250287e-002	 2.476703876821023e+001
 1.097841636398272e+000	 6.887482413810600e-002	 2.471190911668313e+001
 1.097171291600285e+000	 7.883626640207853e-002	 2.464596047826271e+001
 1.096407825318649e+000	 8.882499982839963e-002	 2.456904931591898e+001
 1.095550399479947e+000	 9.883988170893882e-002	 2.448103426834656e+001
 1.125000000000000e+000	 0.000000000000000e+000	 2.369357126598973e+001
 1.124955894218232e+000	 9.961729964456389e-003	 2.370259626221520e+001
 1.124822938453314e+000	 1.995888599409595e-002	 2.370199342624866e+001
 1.124600183139643e+000	 2.999046655467946e-002	 2.369161282506490e+001
 1.124286689971807e+000	 4.005544601490320e-002	 2.367130565963880e+001
 1.123881532545033e+000	 5.015277468920206e-002	 2.364092441763436e+001
 1.123383797001138e+000	 6.028137889834612e-002	 2.360032303045797e+001
 1.122792582679455e+000	 7.044016104821843e-002	 2.354935703461079e+001
 1.122107002772237e+000	 8.062799972714824e-002	 2.348788373726239e+001
 1.121326184983990e+000	 9.084374982216013e-002	 2.341576238595524e+001
 1.120449272194170e+000	 1.010862426544848e-001	 2.333285434233668e+001
 1.150000000000000e+000	 0.000000000000000e+000	 2.266424005924303e+001
 1.149954914089741e+000	 1.018310174103236e-002	 2.267618898981387e+001
 1.149819003752249e+000	 2.040241679318999e-002	 2.267881329704265e+001
 1.149591298320462e+000	 3.065692136591780e-002	 2.267196596475192e+001
 1.149270838637736e+000	 4.094556703610592e-002	 2.265550103969091e+001
 1.148856677712526e+000	 5.126728079184391e-002	 2.262927378323478e+001
 1.148347881378689e+000	 6.162096509436398e-002	 2.259314082760362e+001
 1.147743528960876e+000	 7.200549795856938e-002	 2.254696033654128e+001
 1.147042713944502e+000	 8.241973305253054e-002	 2.249059217038226e+001
 1.146244544649727e+000	 9.286249981631760e-002	 2.242389805542090e+001
 1.145348144908886e+000	 1.033326036005224e-001	 2.234674175748480e+001
 1.175000000000000e+000	 0.000000000000000e+000	 2.178122404764593e+001
 1.174953933961256e+000	 1.040447351761311e-002	 2.179665525156688e+001
 1.174815069051203e+000	 2.084594759230317e-002	 2.180307453728353e+001
 1.174582413501324e+000	 3.132337617719934e-002	 2.180033757916681e+001
 1.174254987303741e+000	 4.183568805738571e-002	 2.178830103036068e+001
 1.173831822880139e+000	 5.238178689460660e-002	 2.176682267345276e+001
 1.173311965756415e+000	 6.296055129055647e-002	 2.173576157583819e+001
 1.172694475242536e+000	 7.357083486915882e-002	 2.169497824972369e+001
 1.171978425117080e+000	 8.421146637822542e-002	 2.164433481670559e+001
 1.171162904315861e+000	 9.488124981087201e-002	 2.158369517684245e+001
 1.170247017624094e+000	 1.055789645470518e-001	 2.151292518212896e+001
 1.200000000000000e+000	 0.000000000000000e+000	 2.103565953237154e+001
 1.199952953832774e+000	 1.062584529419862e-002	 2.105512286546917e+001
 1.199811134350176e+000	 2.128947839143546e-002	 2.106589649362432e+001
 1.199573528682229e+000	 3.198983098852408e-002	 2.106783855626474e+001
 1.199239135969825e+000	 4.272580907874258e-002	 2.106080807427198e+001
 1.198806968047874e+000	 5.349629299749015e-002	 2.104466509958293e+001
 1.198276050134315e+000	 6.430013748692358e-002	 2.101927086967703e+001
 1.197645421524434e+000	 7.513617177998677e-002	 2.098448796690305e+001
 1.196914136289970e+000	 8.600319970423290e-002	 2.094018048258594e+001
 1.196081263982393e+000	 9.689999980582338e-002	 2.088621418584081e+001
 1.195145890339793e+000	 1.078253254940729e-001	 2.082245669700636e+001
 1.225000000000000e+000	 0.000000000000000e+000	 2.041940638184280e+001
 1.224951973704298e+000	 1.084721707078889e-002	 2.044344473331466e+001
 1.224807199649169e+000	 2.173300919058689e-002	 2.045912512884086e+001
 1.224564643863177e+000	 3.265628579989203e-002	 2.046630794781661e+001
 1.224223284635985e+000	 4.361593010017651e-002	 2.046485434050520e+001
 1.223782113215730e+000	 5.461079910049455e-002	 2.045462637652910e+001
 1.223240134512389e+000	 6.563972368346535e-002	 2.043548719845774e+001
 1.222596367806571e+000	 7.670150869105327e-002	 2.040730118045390e+001
 1.221849847463172e+000	 8.779493303055296e-002	 2.036993409192627e+001
 1.220999623649321e+000	 9.891874980117170e-002	 2.032325326612237e+001
 1.220044763055984e+000	 1.100716864415856e-001	 2.026712777358067e+001
 1.250000000000000e+000	 0.000000000000000e+000	 1.992497567500769e+001
 1.249950993575827e+000	 1.106858884738393e-002	 1.995412633231645e+001
 1.249803264948180e+000	 2.217653998975746e-002	 1.997526036021977e+001
 1.249555759044169e+000	 3.332274061130316e-002	 1.998824015302768e+001
 1.249207433302222e+000	 4.450605112168751e-002	 1.999292875195192e+001
 1.248757258383706e+000	 5.572530520361980e-002	 1.998918999244365e+001
 1.248204218890639e+000	 6.697930988018173e-002	 1.997688865685839e+001
 1.247547314088946e+000	 7.826684560235826e-002	 1.995589063241777e+001
 1.246785558636687e+000	 8.958666635718561e-002	 1.992606307442442e+001
 1.245917983316646e+000	 1.009374997969170e-001	 1.988727457467100e+001
 1.244943635772666e+000	 1.123180473895901e-001	 1.983939533496988e+001
 9.959549086279672e-001	 8.985443793167208e-002	 3.092443733791123e+001
 9.950892650105072e-001	 9.898158769347730e-002	 3.081017071401287e+001
 9.941367226775285e-001	 1.081303688543235e-001	 3.068356112159978e+001
 9.930965637671555e-001	 1.172996806447691e-001	 3.054461202634149e+001
 9.919680862820068e-001	 1.264884020066532e-001	 3.039333257051781e+001
 9.907506046851591e-001	 1.356953918032302e-001	 3.022973767321626e+001
 9.894434504957537e-001	 1.449194890479377e-001	 3.005384812770490e+001
 9.880459728836375e-001	 1.541595131519814e-001	 2.986569069577428e+001
 9.865575392624050e-001	 1.634142641909075e-001	 2.966529819884167e+001
 9.849775358802030e-001	 1.726825231903044e-001	 2.945270960560671e+001
 9.833053684076398e-001	 1.819630524307584e-001	 2.922797011604631e+001
 1.020853781340225e+000	 9.210079887525120e-002	 2.901015133498102e+001
 1.019966496631707e+000	 1.014561273807282e-001	 2.891204817024065e+001
 1.018990140739942e+000	 1.108336280703762e-001	 2.880189673759758e+001
 1.017923977856507e+000	 1.202321726555192e-001	 2.867968529232635e+001
 1.016767288434090e+000	 1.296506120515437e-001	 2.854540742172177e+001
 1.015519369797344e+000	 1.390877765932872e-001	 2.839906215617994e+001
 1.014179536753393e+000	 1.485424762695244e-001	 2.824065407817742e+001
 1.012747122201329e+000	 1.580135009767428e-001	 2.807019342894301e+001
 1.011221477740089e+000	 1.674996207923786e-001	 2.788769621261284e+001
 1.009601974274024e+000	 1.769995862676611e-001	 2.769318429765514e+001
 1.007888002615511e+000	 1.865121287401930e-001	 2.748668551534719e+001
 1.045752654052973e+000	 9.434715981932203e-002	 2.730738668419177e+001
 1.044843728253489e+000	 1.039306670685564e-001	 2.722423424737689e+001
 1.043843558803008e+000	 1.135368872870630e-001	 2.712933062471081e+001
 1.042751391946564e+000	 1.231646646669310e-001	 2.702264922125936e+001
 1.041566490586910e+000	 1.328128220970941e-001	 2.690416843021381e+001
 1.040288134910280e+000	 1.424801613839724e-001	 2.677387175468266e+001
 1.038915623011773e+000	 1.521654634916778e-001	 2.663174792810570e+001
 1.037448271519734e+000	 1.618674888019789e-001	 2.647779103308546e+001
 1.035885416218438e+000	 1.715849773942019e-001	 2.631200061842482e+001
 1.034226412668443e+000	 1.813166493452170e-001	 2.613438181415398e+001
 1.032470636823890e+000	 1.910612050496422e-001	 2.594494544432467e+001
 1.070651526766214e+000	 9.659352076388458e-002	 2.580197202520240e+001
 1.069720959875853e+000	 1.064052067569619e-001	 2.573267209798054e+001
 1.068696976866728e+000	 1.162401465043839e-001	 2.565192069329075e+001
 1.067578806037326e+000	 1.260971566790045e-001	 2.555967667928603e+001
 1.066365692740468e+000	 1.359750321433043e-001	 2.545590356814378e+001
 1.065056900023964e+000	 1.458725461752858e-001	 2.534056964841878e+001
 1.063651709270896e+000	 1.557884507143977e-001	 2.521364811674636e+001
 1.062149420838853e+000	 1.657214766276897e-001	 2.507511720868969e+001
 1.060549354697454e+000	 1.756703339963775e-001	 2.492496032851994e+001
 1.058850851063458e+000	 1.856337124229718e-001	 2.476316617770861e+001
 1.057053271032776e+000	 1.956102813591062e-001	 2.458972888190617e+001
 1.095550399479947e+000	 9.883988170893882e-002	 2.448103426834656e+001
 1.094598191498799e+000	 1.088797464459448e-001	 2.442459381914016e+001
 1.093550394931101e+000	 1.189434057223389e-001	 2.435700446355330e+001
 1.092406220128793e+000	 1.290296486917397e-001	 2.427821080286896e+001
 1.091164894894763e+000	 1.391372421901744e-001	 2.418816173724332e+001
 1.089825665138398e+000	 1.492649309672275e-001	 2.408681060849310e+001
 1.088387795530761e+000	 1.594114379376843e-001	 2.397411534296398e+001
 1.086850570158686e+000	 1.695754644538753e-001	 2.385003859427560e+001
 1.085213293177134e+000	 1.797556905989053e-001	 2.371454788572985e+001
 1.083475289459071e+000	 1.899507755009255e-001	 2.356761575216003e+001
 1.081635905242169e+000	 2.001593576685848e-001	 2.340921988098982e+001
 1.120449272194170e+000	 1.010862426544848e-001	 2.333285434233668e+001
 1.119475423122327e+000	 1.113542861355051e-001	 2.328837723641589e+001
 1.118403812996127e+000	 1.216466649409280e-001	 2.323305688670556e+001
 1.117233634220965e+000	 1.319621407051365e-001	 2.316682385764133e+001
 1.115964097049795e+000	 1.422994522377043e-001	 2.308961266553880e+001
 1.114594430253582e+000	 1.526573157597975e-001	 2.300136193170786e+001
 1.113123881791367e+000	 1.630344251615375e-001	 2.290201453638482e+001
 1.111551719479234e+000	 1.734294522805356e-001	 2.279151777327897e+001
 1.109877231657481e+000	 1.838410472017855e-001	 2.266982350451973e+001
 1.108099727855280e+000	 1.942678385790784e-001	 2.253688831577903e+001
 1.106218539452070e+000	 2.047084339780781e-001	 2.239267367133421e+001
 1.145348144908886e+000	 1.033326036005224e-001	 2.234674175748480e+001
 1.144352654746438e+000	 1.138288258256427e-001	 2.231342136813677e+001
 1.143257231061806e+000	 1.243499241601512e-001	 2.226956671114290e+001
 1.142061048313842e+000	 1.348946327191951e-001	 2.221509450697558e+001
 1.140763299205563e+000	 1.454616622858941e-001	 2.214992507840589e+001
 1.139363195369515e+000	 1.560497005529956e-001	 2.207398251385601e+001
 1.137859968052715e+000	 1.666574123859574e-001	 2.198719483231308e+001
 1.136252868800494e+000	 1.772834401076706e-001	 2.188949414960302e+001
 1.134541170138493e+000	 1.879264038050179e-001	 2.178081684580919e+001
 1.132724166252086e+000	 1.985849016574302e-001	 2.166110373360897e+001
 1.130801173662478e+000	 2.092575102875861e-001	 2.153030022728897e+001
 1.170247017624094e+000	 1.055789645470518e-001	 2.151292518212896e+001
 1.169229886371130e+000	 1.163033655163576e-001	 2.149003778787277e+001
 1.168110649128139e+000	 1.270531833800085e-001	 2.145692863168449e+001
 1.166888462407425e+000	 1.378271247339154e-001	 2.141350074839408e+001
 1.165562501362070e+000	 1.486238723347436e-001	 2.135966042225570e+001
 1.164131960486198e+000	 1.594420853468220e-001	 2.129531736046634e+001
 1.162596054314805e+000	 1.702803996109438e-001	 2.122038486899850e+001
 1.160954018122470e+000	 1.811374279352804e-001	 2.113478003054627e+001
 1.159205108620171e+000	 1.920117604086026e-001	 2.103842388436950e+001
 1.157348604649489e+000	 2.029019647359810e-001	 2.093124160780769e+001
 1.155383807873393e+000	 2.138065865971087e-001	 2.081316269921966e+001
 1.195145890339793e+000	 1.078253254940729e-001	 2.082245669700636e+001
 1.194107117996405e+000	 1.187779052076498e-001	 2.080935556659766e+001
 1.192964067195126e+000	 1.297564426004999e-001	 2.078634892015446e+001
 1.191715876501712e+000	 1.407596167492974e-001	 2.075332623292862e+001
 1.190361703519314e+000	 1.517860823842530e-001	 2.071017987275992e+001
 1.188900725603630e+000	 1.628344701412766e-001	 2.065680528370556e+001
 1.187332140577637e+000	 1.739033868364969e-001	 2.059310117274560e+001
 1.185655167445159e+000	 1.849914157633649e-001	 2.051896969936481e+001
 1.183869047102515e+000	 1.960971170125395e-001	 2.043431666779640e+001
 1.181973043047488e+000	 2.072190278147308e-001	 2.033905172169679e+001
 1.179966442084816e+000	 2.183556629066459e-001	 2.023308854100455e+001
 1.220044763055984e+000	 1.100716864415856e-001	 2.026712777358067e+001
 1.218984349622261e+000	 1.212524448995195e-001	 2.026323785458714e+001
 1.217817485262765e+000	 1.324597018216254e-001	 2.024976261140213e+001
 1.216543290596704e+000	 1.436921087653410e-001	 2.022657805557865e+001
 1.215160905677295e+000	 1.549482924344223e-001	 2.019356272982419e+001
 1.213669490721811e+000	 1.662268549363595e-001	 2.015059790170074e+001
 1.212068226841211e+000	 1.775263740626166e-001	 2.009756776117281e+001
 1.210356316768562e+000	 1.888454035919240e-001	 2.003435962180645e+001
 1.208532985585524e+000	 2.001824736168288e-001	 1.996086412540453e+001
 1.206597481446085e+000	 2.115360908936797e-001	 1.987697544984597e+001
 1.204549076296746e+000	 2.229047392161979e-001	 1.978259151987906e+001
 1.244943635772666e+000	 1.123180473895901e-001	 1.983939533496988e+001
 1.243861581248701e+000	 1.237269845919664e-001	 1.984420847348901e+001
 1.242670903331058e+000	 1.351629610433850e-001	 1.983976062699964e+001
 1.241370704692402e+000	 1.466246007820463e-001	 1.982591441091453e+001
 1.239960107836013e+000	 1.581105024852513e-001	 1.980253460516456e+001
 1.238438255840743e+000	 1.696192397320706e-001	 1.976948835794280e+001
 1.236804313105526e+000	 1.811493612893030e-001	 1.972664539408060e+001
 1.235057466092679e+000	 1.926993914209580e-001	 1.967387822786096e+001
 1.233196924069199e+000	 2.042678302214703e-001	 1.961106238005487e+001
 1.231221919845279e+000	 2.158531539728276e-001	 1.953807659894722e+001
 1.229131710509183e+000	 2.274538155257646e-001	 1.945480308509904e+001
 9.833053684076398e-001	 1.819630524307584e-001	 2.922797011604631e+001
 9.815404625233627e-001	 1.912545957719429e-001	 2.900386071409297e+001
 9.796822644929402e-001	 2.005558789966087e-001	 2.876752736982737e+001
 9.777302417428043e-001	 2.098656101739950e-001	 2.851913104172871e+001
 9.756838834310224e-001	 2.191824800423045e-001	 2.825884098741161e+001
 9.735427010105086e-001	 2.285051624109132e-001	 2.798683476150222e+001
 9.713062287851814e-001	 2.378323145820489e-001	 2.770329820503566e+001
 9.689740244583480e-001	 2.471625777918797e-001	 2.740842542618182e+001
 9.665456696725904e-001	 2.564945776709277e-001	 2.710241877211640e+001
 9.640207705404181e-001	 2.658269247236918e-001	 2.678548879186357e+001
 9.613989581649598e-001	 2.751582148273362e-001	 2.645785418994543e+001
 1.007888002615511e+000	 1.865121287401930e-001	 2.748668551534719e+001
 1.006078974084998e+000	 1.960359606660597e-001	 2.728977909096488e+001
 1.004174321104526e+000	 2.055697759725002e-001	 2.708095737227803e+001
 1.002173497786187e+000	 2.151122504304847e-001	 2.686035594882341e+001
 1.000075980516999e+000	 2.246620420466706e-001	 2.662811824619809e+001
 9.978812685361965e-001	 2.342177914756685e-001	 2.638439554391766e+001
 9.955888845052953e-001	 2.437781224522616e-001	 2.612934698579401e+001
 9.931983750701838e-001	 2.533416422435220e-001	 2.586313958262814e+001
 9.907093114145075e-001	 2.629069421207347e-001	 2.558594820701791e+001
 9.881212898035868e-001	 2.724725978510111e-001	 2.529795558008998e+001
 9.854339321181277e-001	 2.820371702084442e-001	 2.499935224997040e+001
 1.032470636823890e+000	 1.910612050496422e-001	 2.594494544432467e+001
 1.030617485647049e+000	 2.008173255599959e-001	 2.577321017407945e+001
 1.028666377716457e+000	 2.105836729480256e-001	 2.558986432229764e+001
 1.026616753829864e+000	 2.203588906864322e-001	 2.539501874733973e+001
 1.024468077603237e+000	 2.301416040503285e-001	 2.518879168896044e+001
 1.022219836062135e+000	 2.399304205395593e-001	 2.497130880591628e+001
 1.019871540225668e+000	 2.497239303214634e-001	 2.474270320708330e+001
 1.017422725682307e+000	 2.595207066940173e-001	 2.450311547586668e+001
 1.014872953156760e+000	 2.693193065692688e-001	 2.425269368768717e+001
 1.012221809067160e+000	 2.791182709769418e-001	 2.399159342033496e+001
 1.009468906071790e+000	 2.889161255880586e-001	 2.371997775698539e+001
 1.057053271032776e+000	 1.956102813591062e-001	 2.458972888190617e+001
 1.055155997209518e+000	 2.055986904537517e-001	 2.444130763287490e+001
 1.053158434328735e+000	 2.155975699231847e-001	 2.428157701116719e+001
 1.051060009873835e+000	 2.256055309418376e-001	 2.411062370767064e+001
 1.048860174689739e+000	 2.356211660532781e-001	 2.392854134716298e+001
 1.046558403588324e+000	 2.456430496025855e-001	 2.373543054548187e+001
 1.044154195946299e+000	 2.556697381896545e-001	 2.353139896118909e+001
 1.041647076294716e+000	 2.656997711433656e-001	 2.331656134149689e+001
 1.039036594899347e+000	 2.757316710165301e-001	 2.309103956222696e+001
 1.036322328331137e+000	 2.857639441014842e-001	 2.285496266157340e+001
 1.033503880025945e+000	 2.957950809661792e-001	 2.260846686744447e+001
 1.081635905242169e+000	 2.001593576685848e-001	 2.340921988098982e+001
 1.079694508772404e+000	 2.103800553473268e-001	 2.328241552038849e+001
 1.077650490941359e+000	 2.206114668979778e-001	 2.314459989063352e+001
 1.075503265918101e+000	 2.308521711967009e-001	 2.299583601066573e+001
 1.073252271776503e+000	 2.411007280555194e-001	 2.283619339182126e+001
 1.070896971114763e+000	 2.513556786647472e-001	 2.266574811441843e+001
 1.068436851667188e+000	 2.616155460568348e-001	 2.248458289981853e+001
 1.065871426907412e+000	 2.718788355915671e-001	 2.229278717771556e+001
 1.063200236642269e+000	 2.821440354625184e-001	 2.209045714840917e+001
 1.060422847595518e+000	 2.924096172246379e-001	 2.187769583981463e+001
 1.057538853980594e+000	 3.026740363428060e-001	 2.165461315896373e+001
 1.106218539452070e+000	 2.047084339780781e-001	 2.239267367133421e+001
 1.104233020335707e+000	 2.151614202407214e-001	 2.228593600841009e+001
 1.102142547554328e+000	 2.256253638724046e-001	 2.216848244396671e+001
 1.099946521962661e+000	 2.360988114510220e-001	 2.204035275757855e+001
 1.097644368863529e+000	 2.465802900570525e-001	 2.190159278466106e+001
 1.095235538641453e+000	 2.570683077260444e-001	 2.175225451236805e+001
 1.092719507388336e+000	 2.675613539230043e-001	 2.159239617194053e+001
 1.090095777520394e+000	 2.780579000386215e-001	 2.142208232724858e+001
 1.087363878385527e+000	 2.885563999072340e-001	 2.124138395926523e+001
 1.084523366860303e+000	 2.990552903464032e-001	 2.105037854620773e+001
 1.081573827935737e+000	 3.095529917179392e-001	 2.084915013907948e+001
 1.130801173662478e+000	 2.092575102875861e-001	 2.153030022728897e+001
 1.128771531899427e+000	 2.199427851339355e-001	 2.144221437457230e+001
 1.126634604167643e+000	 2.306392608464652e-001	 2.134370559557521e+001
 1.124389778007517e+000	 2.413454517048012e-001	 2.123479080480353e+001
 1.122036465950817e+000	 2.520598520578772e-001	 2.111549253999593e+001
 1.119574106168393e+000	 2.627809367864770e-001	 2.098583907726181e+001
 1.117002163109742e+000	 2.735071617881630e-001	 2.084586454364703e+001
 1.114320128133663e+000	 2.842369644845291e-001	 2.069560902685718e+001
 1.111527520129119e+000	 2.949687643506766e-001	 2.053511868186089e+001
 1.108623886125492e+000	 3.057009634667800e-001	 2.036444583409028e+001
 1.105608801891373e+000	 3.164319470915787e-001	 2.018364907895123e+001
 1.155383807873393e+000	 2.138065865971087e-001	 2.081316269921966e+001
 1.153310043463564e+000	 2.247241500269691e-001	 2.074243867194006e+001
 1.151126660781304e+000	 2.356531578201598e-001	 2.066158262152153e+001
 1.148833034052665e+000	 2.465920919580380e-001	 2.057058891758281e+001
 1.146428563038369e+000	 2.575394140579937e-001	 2.046945712338671e+001
 1.143912673695583e+000	 2.684935658460451e-001	 2.035819213018108e+001
 1.141284818831406e+000	 2.794529696523109e-001	 2.023680428994694e+001
 1.138544478747219e+000	 2.904160289292898e-001	 2.010530954626895e+001
 1.135691161873047e+000	 3.013811287928465e-001	 1.996372956303588e+001
 1.132724405391086e+000	 3.123466365857683e-001	 1.981209185066899e+001
 1.129643775847504e+000	 3.233109024637244e-001	 1.965042988957057e+001
 1.179966442084816e+000	 2.183556629066459e-001	 2.023308854100455e+001
 1.177848555028117e+000	 2.295055149198221e-001	 2.017855193990173e+001
 1.175618717395311e+000	 2.406670547934880e-001	 2.011417244622342e+001
 1.173276290098108e+000	 2.518387322107329e-001	 2.003992215450012e+001
 1.170820660126183e+000	 2.630189760574019e-001	 1.995577792546864e+001
 1.168251241223024e+000	 2.742061949047486e-001	 1.986172153961170e+001
 1.165567474553330e+000	 2.853987775154480e-001	 1.975773985008627e+001
 1.162768829361061e+000	 2.965950933729035e-001	 1.964382493474276e+001
 1.159854803617310e+000	 3.077934932337433e-001	 1.951997424692635e+001
 1.156824924657083e+000	 3.189923097033681e-001	 1.938619076474073e+001
 1.153678749804127e+000	 3.301898578343763e-001	 1.924248313844440e+001
 1.204549076296746e+000	 2.229047392161979e-001	 1.978259151987906e+001
 1.202387066593088e+000	 2.342868798124946e-001	 1.974317516474714e+001
 1.200110774009665e+000	 2.456809517664502e-001	 1.969420355588616e+001
 1.197719546143846e+000	 2.570853724628856e-001	 1.963562673550588e+001
 1.195212757214259e+000	 2.684985380561020e-001	 1.956739908592220e+001
 1.192589808750716e+000	 2.799188239625877e-001	 1.948947950231982e+001
 1.189850130275511e+000	 2.913445853775743e-001	 1.940183156589023e+001
 1.186993179975190e+000	 3.027741578153702e-001	 1.930442371703386e+001
 1.184018445361908e+000	 3.142058576733673e-001	 1.919722942830097e+001
 1.180925443923484e+000	 3.256379828195793e-001	 1.908022737673338e+001
 1.177713723761245e+000	 3.370688132035347e-001	 1.895340161525574e+001
 1.229131710509183e+000	 2.274538155257646e-001	 1.945480308509904e+001
 1.226925578158476e+000	 2.390682447049866e-001	 1.942953948497637e+001
 1.224602830624363e+000	 2.506948487390461e-001	 1.939500704232250e+001
 1.222162802189878e+000	 2.623320127144961e-001	 1.935113392577970e+001
 1.219604854302598e+000	 2.739781000540936e-001	 1.929785221856787e+001
 1.216928376278658e+000	 2.856314530195622e-001	 1.923509811052310e+001
 1.214132785997951e+000	 2.972903932386898e-001	 1.916281209150439e+001
 1.211217530589606e+000	 3.089532222566900e-001	 1.908093914584360e+001
 1.208182087106841e+000	 3.206182221117185e-001	 1.898942894749699e+001
 1.205025963190290e+000	 3.322836559344022e-001	 1.888823605554190e+001
 1.201748697718857e+000	 3.439477685711992e-001	 1.877732010964519e+001
 9.613989581649598e-001	 2.751582148273362e-001	 2.645785418994543e+001
 9.586798891490923e-001	 2.844870297499801e-001	 2.612549204839302e+001
 9.558632460948671e-001	 2.938119376861946e-001	 2.578387192984802e+001
 9.529487380907489e-001	 3.031314938110319e-001	 2.543337553207546e+001
 9.499361011842371e-001	 3.124442408536596e-001	 2.507439345968328e+001
 9.468250988417171e-001	 3.217487096881426e-001	 2.470732500350785e+001
 9.436155223939605e-001	 3.310434199417802e-001	 2.433257790663257e+001
 9.403071914665515e-001	 3.403268806206379e-001	 2.395056811710440e+001
 9.368999543945392e-001	 3.495975907518841e-001	 2.356171952744080e+001
 9.333936886206079e-001	 3.588540400425037e-001	 2.316646370104259e+001
 9.297883010760839e-001	 3.680947095539379e-001	 2.276523958565662e+001
 9.854339321181277e-001	 2.820371702084442e-001	 2.499935224997040e+001
 9.826468863761853e-001	 2.915992055051701e-001	 2.470692117481345e+001
 9.797598272449696e-001	 3.011572361404365e-001	 2.440520631151100e+001
 9.767724565401573e-001	 3.107097811686687e-001	 2.409454356307828e+001
 9.736845037104360e-001	 3.202553468872610e-001	 2.377527734888064e+001
 9.704957263088511e-001	 3.297924274421272e-001	 2.344776042684635e+001
 9.672059104494433e-001	 3.393195054512463e-001	 2.311235370350433e+001
 9.638148712484377e-001	 3.488350526458336e-001	 2.276942603186183e+001
 9.603224532492585e-001	 3.583375305287336e-001	 2.241935399715629e+001
 9.567285308306592e-001	 3.678253910496042e-001	 2.206252169054061e+001
 9.530330085972487e-001	 3.772970772964199e-001	 2.169932047078057e+001
 1.009468906071790e+000	 2.889161255880586e-001	 2.371997775698539e+001
 1.006613883603867e+000	 2.987113812587859e-001	 2.346395164101994e+001
 1.003656408395746e+000	 3.085025345930624e-001	 2.319861911735130e+001
 1.000596174990316e+000	 3.182880685246870e-001	 2.292427165694805e+001
 9.974329062374505e-001	 3.280664529192809e-001	 2.264120886909517e+001
 9.941663537768565e-001	 3.378361451946070e-001	 2.234973836565312e+001
 9.907962985058438e-001	 3.475955909593247e-001	 2.205017561431196e+001
 9.873225510312766e-001	 3.573432246697985e-001	 2.174284378080279e+001
 9.837449521049575e-001	 3.670774703045501e-001	 2.142807356004718e+001
 9.800633730417054e-001	 3.767967420559097e-001	 2.110620299624354e+001
 9.762777161194137e-001	 3.864994450383867e-001	 2.077757729190880e+001
 1.033503880025945e+000	 2.957950809661792e-001	 2.260846686744447e+001
 1.030580880832138e+000	 3.058235570108274e-001	 2.238559871092206e+001
 1.027552989547197e+000	 3.158478330440721e-001	 2.215340433128857e+001
 1.024419893441225e+000	 3.258663558790867e-001	 2.191213200043183e+001
 1.021181308765282e+000	 3.358775589497192e-001	 2.166203776181529e+001
 1.017836981245734e+000	 3.458798629455819e-001	 2.140338533610281e+001
 1.014386686563162e+000	 3.558716764660150e-001	 2.113644601692741e+001
 1.010830230815070e+000	 3.658513966925323e-001	 2.086149855671544e+001
 1.007167450961636e+000	 3.758174100793332e-001	 2.057882904249249e+001
 1.003398215253746e+000	 3.857680930614207e-001	 2.028873076161116e+001
 9.995224236425787e-001	 3.957018127798380e-001	 1.999150405735825e+001
 1.057538853980594e+000	 3.026740363428060e-001	 2.165461315896373e+001
 1.054547878060998e+000	 3.129357327612945e-001	 2.146191091101244e+001
 1.051449570699323e+000	 3.231931314934659e-001	 2.125986507368561e+001
 1.048243611892883e+000	 3.334446432318680e-001	 2.104868183381352e+001
 1.044929711293928e+000	 3.436886649785759e-001	 2.082857479328546e+001
 1.041507608715483e+000	 3.539235806950523e-001	 2.059976491545045e+001
 1.037977074621398e+000	 3.641477619713174e-001	 2.036248046279329e+001
 1.034337910599817e+000	 3.743595687140354e-001	 2.011695692574700e+001
 1.030589949819293e+000	 3.845573498530832e-001	 1.986343694251316e+001
 1.026733057466782e+000	 3.947394440661367e-001	 1.960217020977321e+001
 1.022767131166744e+000	 4.049041805207738e-001	 1.933341338418630e+001
 1.081573827935737e+000	 3.095529917179392e-001	 2.084915013907948e+001
 1.078514875290446e+000	 3.200479085101873e-001	 2.068385522341222e+001
 1.075346151852123e+000	 3.305384299412435e-001	 2.050920147507636e+001
 1.072067330345292e+000	 3.410229305830306e-001	 2.032535400052094e+001
 1.068678113823391e+000	 3.514997710058511e-001	 2.013248497397822e+001
 1.065178236186105e+000	 3.619672984430177e-001	 1.993077362413467e+001
 1.061567462680552e+000	 3.724238474752318e-001	 1.972040621319414e+001
 1.057845590385517e+000	 3.828677407343076e-001	 1.950157600814316e+001
 1.054012448677930e+000	 3.932972896257999e-001	 1.927448324403582e+001
 1.050067899680813e+000	 4.037107950700578e-001	 1.903933507912375e+001
 1.046011838691909e+000	 4.141065482611943e-001	 1.879634554166651e+001
 1.105608801891373e+000	 3.164319470915787e-001	 2.018364907895123e+001
 1.102481872520483e+000	 3.271600842575055e-001	 2.004321725373658e+001
 1.099242733005597e+000	 3.378837283874052e-001	 1.989341317505968e+001
 1.095891048798451e+000	 3.486012179325746e-001	 1.973436177287077e+001
 1.092426516353670e+000	 3.593108770315449e-001	 1.956619470596075e+001
 1.088848863657598e+000	 3.700110161894785e-001	 1.938905038847556e+001
 1.085157850740624e+000	 3.806999329777582e-001	 1.920307400992659e+001
 1.081353270172171e+000	 3.913759127533490e-001	 1.900841754845627e+001
 1.077434947537546e+000	 4.020372293974834e-001	 1.880523977712219e+001
 1.073402741895838e+000	 4.126821460731841e-001	 1.859370626296859e+001
 1.069256546218074e+000	 4.233089160010993e-001	 1.837398935865889e+001
 1.129643775847504e+000	 3.233109024637244e-001	 1.965042988957057e+001
 1.126448869751110e+000	 3.342722600032497e-001	 1.953251414348781e+001
 1.123139314159746e+000	 3.452290268319507e-001	 1.940521426814312e+001
 1.119714767252360e+000	 3.561795052805002e-001	 1.926861582771871e+001
 1.116174918884764e+000	 3.671219830556570e-001	 1.912281078378949e+001
 1.112519491129963e+000	 3.780547339344345e-001	 1.896789756132631e+001
 1.108748238801613e+000	 3.889760184788967e-001	 1.880398110928843e+001
 1.104860949959779e+000	 3.998840847711595e-001	 1.863117295551366e+001
 1.100857446398142e+000	 4.107771691681337e-001	 1.844959125561568e+001
 1.096737584111859e+000	 4.216534970755158e-001	 1.825936083559987e+001
 1.092501253745239e+000	 4.325112837404888e-001	 1.806061322791091e+001
 1.153678749804127e+000	 3.301898578343763e-001	 1.924248313844440e+001
 1.150415866982325e+000	 3.413844357474193e-001	 1.914491836840003e+001
 1.147035895314569e+000	 3.525743252748803e-001	 1.903795888135606e+001
 1.143538485707019e+000	 3.637577926268072e-001	 1.892165160015297e+001
 1.139923321416674e+000	 3.749330890781875e-001	 1.879604952029245e+001
 1.136190118603200e+000	 3.860984516778857e-001	 1.866121181514292e+001
 1.132338626863521e+000	 3.972521039786472e-001	 1.851720393681861e+001
 1.128368629748340e+000	 4.083922567877391e-001	 1.836409771239011e+001
 1.124279945259717e+000	 4.195171089377507e-001	 1.820197143508199e+001
 1.120072426328874e+000	 4.306248480770524e-001	 1.803090995011150e+001
 1.115745961273404e+000	 4.417136514793630e-001	 1.785100473482098e+001
 1.177713723761245e+000	 3.370688132035347e-001	 1.895340161525574e+001
 1.174382864214129e+000	 3.484966114900147e-001	 1.887419086759839e+001
 1.170932476470067e+000	 3.599196237161938e-001	 1.878557586480852e+001
 1.167362204162428e+000	 3.713360799714957e-001	 1.868756553265440e+001
 1.163671723949401e+000	 3.827441950991367e-001	 1.858017455082761e+001
 1.159860746077309e+000	 3.941421694198320e-001	 1.846342349712739e+001
 1.155929014926346e+000	 4.055281894770098e-001	 1.833733898839591e+001
 1.151876309537855e+000	 4.169004288030879e-001	 1.820195381781196e+001
 1.147702444122272e+000	 4.282570487063346e-001	 1.805730708814464e+001
 1.143407268546884e+000	 4.395961990777945e-001	 1.790344434056360e+001
 1.138990668802569e+000	 4.509160192177217e-001	 1.774041767859778e+001
 1.201748697718857e+000	 3.439477685711992e-001	 1.877732010964519e+001
 1.198349861446522e+000	 3.556087872310357e-001	 1.871462219725944e+001
 1.194829057626238e+000	 3.672649221558912e-001	 1.864251131938268e+001
 1.191185922618588e+000	 3.789143673145657e-001	 1.856095897435693e+001
 1.187420126482944e+000	 3.905553011185042e-001	 1.846994210102988e+001
 1.183531373552289e+000	 4.021858871602737e-001	 1.836944326175332e+001
 1.179519402990089e+000	 4.138042749739844e-001	 1.825945082320534e+001
 1.175383989328324e+000	 4.254086008172058e-001	 1.813995913459259e+001
 1.171124942985805e+000	 4.369969884738851e-001	 1.801096870277995e+001
 1.166742110765889e+000	 4.485675500777415e-001	 1.787248636388676e+001
 1.162235376332733e+000	 4.601183869555650e-001	 1.772452545088064e+001
 9.297883010760839e-001	 3.680947095539379e-001	 2.276523958565662e+001
 9.260837285441588e-001	 3.773180723910820e-001	 2.236203011399918e+001
 9.222799380044704e-001	 3.865225944084202e-001	 2.195131423589059e+001
 9.183769269585734e-001	 3.957067349304587e-001	 2.153358548080660e+001
 9.143747237357484e-001	 4.048689474837915e-001	 2.110934609384822e+001
 9.102733877783561e-001	 4.140076805434687e-001	 2.067910668282200e+001
 9.060730099062140e-001	 4.231213782919207e-001	 2.024338585034448e+001
 9.017737125594310e-001	 4.322084813897780e-001	 1.980270981125865e+001
 8.973756500191497e-001	 4.412674277578940e-001	 1.935761199568515e+001
 8.928790086056802e-001	 4.502966533698553e-001	 1.890863263806230e+001
 8.882840068535240e-001	 4.592945930542355e-001	 1.845631835256430e+001
 9.530330085972487e-001	 3.772970772964199e-001	 2.169932047078057e+001
 9.492358217518436e-001	 3.867510242020995e-001	 2.133827286026189e+001
 9.453369364486188e-001	 3.961856592678930e-001	 2.097003323725176e+001
 9.413363501266671e-001	 4.055994033014218e-001	 2.059505853268279e+001
 9.372340918235037e-001	 4.149906711674479e-001	 2.021381388322678e+001
 9.330302224675480e-001	 4.243578725528999e-001	 1.982677231156621e+001
 9.287248351491141e-001	 4.336994127447715e-001	 1.943441439272368e+001
 9.243180553693137e-001	 4.430136934202114e-001	 1.903722790669327e+001
 9.198100412663191e-001	 4.522991134480962e-001	 1.863570747764725e+001
 9.152009838184486e-001	 4.615540697013547e-001	 1.823035420002172e+001
 9.104911070235671e-001	 4.707769578792765e-001	 1.782167525181641e+001
 9.762777161194137e-001	 3.864994450383867e-001	 2.077757729190880e+001
 9.723879149605194e-001	 3.961839760128773e-001	 2.045575520101361e+001
 9.683939348937277e-001	 4.058487241273528e-001	 2.012703575538573e+001
 9.642957732956735e-001	 4.154920716725499e-001	 1.979184030797566e+001
 9.600934599121022e-001	 4.251123948513972e-001	 1.945059793047686e+001
 9.557870571574938e-001	 4.347080645627024e-001	 1.910374512637486e+001
 9.513766603926590e-001	 4.442774471980220e-001	 1.875172553105712e+001
 9.468623981797121e-001	 4.538189054510224e-001	 1.839498959918138e+001
 9.422444325138554e-001	 4.633307991386039e-001	 1.803399427952784e+001
 9.375229590314146e-001	 4.728114860330361e-001	 1.766920267758875e+001
 9.326982071936175e-001	 4.822593227043255e-001	 1.730108370617602e+001
 9.995224236425787e-001	 3.957018127798380e-001	 1.999150405735825e+001
 9.955400081701847e-001	 4.056169278234152e-001	 1.970620587201392e+001
 9.914509333397977e-001	 4.155117889867996e-001	 1.941428611131357e+001
 9.872551964655910e-001	 4.253847400438425e-001	 1.911613146411334e+001
 9.829528280015432e-001	 4.352341185356398e-001	 1.881213587251051e+001
 9.785438918481941e-001	 4.450582565728766e-001	 1.850270027733989e+001
 9.740284856368491e-001	 4.548554816516726e-001	 1.818823235170415e+001
 9.694067409906274e-001	 4.646241174822118e-001	 1.786914622268991e+001
 9.646788237617590e-001	 4.743624848294172e-001	 1.754586218144653e+001
 9.598449342445783e-001	 4.840689023649001e-001	 1.721880638183049e+001
 9.549053073636764e-001	 4.937416875293824e-001	 1.688841052784161e+001
 1.022767131166744e+000	 4.049041805207738e-001	 1.933341338418630e+001
 1.018692101380841e+000	 4.150498796337134e-001	 1.908215202004040e+001
 1.014507931786828e+000	 4.251748538462336e-001	 1.882452674830781e+001
 1.010214619636420e+000	 4.352774084153001e-001	 1.856089040962429e+001
 1.005812196091827e+000	 4.453558422201752e-001	 1.829160265259387e+001
 1.001300726539648e+000	 4.554084485834224e-001	 1.801702971147928e+001
 9.966803108816846e-001	 4.654335161057233e-001	 1.773754417287215e+001
 9.919510838020585e-001	 4.754293295137790e-001	 1.745352473144918e+001
 9.871132150100294e-001	 4.853941705205361e-001	 1.716535593494260e+001
 9.821669094579395e-001	 4.953263186969460e-001	 1.687342791847600e+001
 9.771124075337430e-001	 5.052240523544471e-001	 1.657813612843857e+001
 1.046011838691909e+000	 4.141065482611943e-001	 1.879634554166651e+001
 1.041844194592487e+000	 4.244828314437720e-001	 1.857683049055519e+001
 1.037564930234820e+000	 4.348379187056547e-001	 1.835119177386627e+001
 1.033174042808162e+000	 4.451700767869224e-001	 1.811974910957201e+001
 1.028671564182954e+000	 4.554775659050036e-001	 1.788282859741993e+001
 1.024057561231856e+000	 4.657586405943395e-001	 1.764076252863495e+001
 1.019332136127165e+000	 4.760115505601737e-001	 1.739388918552290e+001
 1.014495426614006e+000	 4.862345415457245e-001	 1.714255263103500e+001
 1.009547606258667e+000	 4.964258562119604e-001	 1.688710248837270e+001
 1.004488884671499e+000	 5.065837350291744e-001	 1.662789371073158e+001
 9.993195077038174e-001	 5.167064171795196e-001	 1.636528634130414e+001
 1.069256546218074e+000	 4.233089160010993e-001	 1.837398935865889e+001
 1.064996287805123e+000	 4.339157832535907e-001	 1.818411068654577e+001
 1.060621928683773e+000	 4.445009835650630e-001	 1.798833177881959e+001
 1.056133465980814e+000	 4.550627451587095e-001	 1.778693987288946e+001
 1.051530932274924e+000	 4.655992895901252e-001	 1.758022817978032e+001
 1.046814395924818e+000	 4.761088326056281e-001	 1.736849572573140e+001
 1.041983961373291e+000	 4.865895850150241e-001	 1.715204718459506e+001
 1.037039769426470e+000	 4.970397535780479e-001	 1.693119270104851e+001
 1.031981997507672e+000	 5.074575419036904e-001	 1.670624770464789e+001
 1.026810859885255e+000	 5.178411513615848e-001	 1.647753271477170e+001
 1.021526607873900e+000	 5.281887820046000e-001	 1.624537313651832e+001
 1.092501253745239e+000	 4.325112837404888e-001	 1.806061322791091e+001
 1.088148381018750e+000	 4.433487350631697e-001	 1.789842727517262e+001
 1.083678927133686e+000	 4.541640484244581e-001	 1.773054825399922e+001
 1.079092889154379e+000	 4.649554135306615e-001	 1.755723148601101e+001
 1.074390300367736e+000	 4.757210132755397e-001	 1.737873787536425e+001
 1.069571230618534e+000	 4.864590246172885e-001	 1.719533378219322e+001
 1.064635786620062e+000	 4.971676194702746e-001	 1.700729088773061e+001
 1.059584112239450e+000	 5.078449656107494e-001	 1.681488605107101e+001
 1.054416388757044e+000	 5.184892275957259e-001	 1.661840115755754e+001
 1.049132835099209e+000	 5.290985676941776e-001	 1.641812295878483e+001
 1.043733708043990e+000	 5.396711468296881e-001	 1.621434290422850e+001
 1.115745961273404e+000	 4.417136514793630e-001	 1.785100473482098e+001
 1.111300474233367e+000	 4.527816868725090e-001	 1.771472130608593e+001
 1.106735925584561e+000	 4.638271132838406e-001	 1.757293620482188e+001
 1.102052312328856e+000	 4.748480819027782e-001	 1.742587332980021e+001
 1.097249668461392e+000	 4.858427369612474e-001	 1.727376178745721e+001
 1.092328065313005e+000	 4.968092166293202e-001	 1.711683579718500e+001
 1.087287611867478e+000	 5.077456539259249e-001	 1.695533458915983e+001
 1.082128455052946e+000	 5.186501776438288e-001	 1.678950229462438e+001
 1.076850780006782e+000	 5.295209132880669e-001	 1.661958782855276e+001
 1.071454810313361e+000	 5.403559840269526e-001	 1.644584476463825e+001
 1.065940808214088e+000	 5.511535116547843e-001	 1.626853120255889e+001
 1.138990668802569e+000	 4.509160192177217e-001	 1.774041767859778e+001
 1.134452567448973e+000	 4.622146386816085e-001	 1.762838853974409e+001
 1.129792924036396e+000	 4.734901781432100e-001	 1.751103379265920e+001
 1.125011735504244e+000	 4.847407502750597e-001	 1.738854633930269e+001
 1.120109036555891e+000	 4.959644606472480e-001	 1.726112392983993e+001
 1.115084900008229e+000	 5.071594086417234e-001	 1.712896909984228e+001
 1.109939437115540e+000	 5.183236883819750e-001	 1.699228910086631e+001
 1.104672797866959e+000	 5.294553896772863e-001	 1.685129582427948e+001
 1.099285171256888e+000	 5.405525989807135e-001	 1.670620571820931e+001
 1.093776785527711e+000	 5.516134003599099e-001	 1.655723969750262e+001
 1.088147908384193e+000	 5.626358764798881e-001	 1.640462304659194e+001
 1.162235376332733e+000	 4.601183869555650e-001	 1.772452545088064e+001
 1.157604660665571e+000	 4.716475904904681e-001	 1.763523397633409e+001
 1.152849922489192e+000	 4.831532430025667e-001	 1.754077801924318e+001
 1.147971158680544e+000	 4.946334186475059e-001	 1.744131984832856e+001
 1.142968404651231e+000	 5.060861843335416e-001	 1.733702623573928e+001
 1.137841734704208e+000	 5.175096006544980e-001	 1.722806842627492e+001
 1.132591262364247e+000	 5.289017228384252e-001	 1.711462210081159e+001
 1.127217140681487e+000	 5.402606017111219e-001	 1.699686733375093e+001
 1.121719562507361e+000	 5.515842846736656e-001	 1.687498854431526e+001
 1.116098760742258e+000	 5.628708166930494e-001	 1.674917444152129e+001
 1.110355008554307e+000	 5.741182413050000e-001	 1.661961796267244e+001
 8.882840068535240e-001	 4.592945930542355e-001	 1.845631835256430e+001
 8.835908956630776e-001	 4.682596813065159e-001	 1.800468095490828e+001
 8.787999584278389e-001	 4.771903531077780e-001	 1.755426681255106e+001
 8.739115111371586e-001	 4.860850447508235e-001	 1.710580250278894e+001
 8.689259024546857e-001	 4.949421946742139e-001	 1.666001728612321e+001
 8.638435137714190e-001	 5.037602443012850e-001	 1.621764243148781e+001
 8.586647592332958e-001	 5.125376388839766e-001	 1.577941053151958e+001
 8.533900857430298e-001	 5.212728283505859e-001	 1.534605480880161e+001
 8.480199729359590e-001	 5.299642681565353e-001	 1.491830841404170e+001
 8.425549331296910e-001	 5.386104201372433e-001	 1.449690371717653e+001
 8.369955112473729e-001	 5.472097533621585e-001	 1.408257159242015e+001
 9.104911070235671e-001	 4.707769578792765e-001	 1.782167525181641e+001
 9.056806680544064e-001	 4.799661733393891e-001	 1.742290039494715e+001
 9.007699573891274e-001	 4.891201119369574e-001	 1.702414618960851e+001
 8.957592989168137e-001	 4.982371708721023e-001	 1.662603514710291e+001
 8.906490500177037e-001	 5.073157495443472e-001	 1.622919283676965e+001
 8.854396016175711e-001	 5.163542504126110e-001	 1.583424732347341e+001
 8.801313782159997e-001	 5.253510798601304e-001	 1.544182859560360e+001
 8.747248378882713e-001	 5.343046490634090e-001	 1.505256798432977e+001
 8.692204722606065e-001	 5.432133748642543e-001	 1.466709757488436e+001
 8.636188064585517e-001	 5.520756806439684e-001	 1.428604961067253e+001
 8.579203990283327e-001	 5.608899971987366e-001	 1.391005589103203e+001
 9.326982071936175e-001	 4.822593227043255e-001	 1.730108370617602e+001
 9.277704404455582e-001	 4.916726653720899e-001	 1.694736920145264e+001
 9.227399563500828e-001	 5.010498707658233e-001	 1.659251072743094e+001
 9.176070866960092e-001	 5.103892969929658e-001	 1.623703034475207e+001
 9.123721975801660e-001	 5.196893044140037e-001	 1.588145354983641e+001
 9.070356894631004e-001	 5.289482565234378e-001	 1.552630882169284e+001
 9.015979971980448e-001	 5.381645208358032e-001	 1.517212715967548e+001
 8.960595900328476e-001	 5.473364697758095e-001	 1.481944161274898e+001
 8.904209715846124e-001	 5.564624815716490e-001	 1.446878680084954e+001
 8.846826797868249e-001	 5.655409411505087e-001	 1.412069842895217e+001
 8.788452868087893e-001	 5.745702410353089e-001	 1.377571279447886e+001
 9.549053073636764e-001	 4.937416875293824e-001	 1.688841052784161e+001
 9.498602128365320e-001	 5.033791574046180e-001	 1.657252163993207e+001
 9.447099553107050e-001	 5.129796295943757e-001	 1.625435863663991e+001
 9.394548744747452e-001	 5.225414231134140e-001	 1.593434646005027e+001
 9.340953451420719e-001	 5.320628592831831e-001	 1.561291386922527e+001
 9.286317773080073e-001	 5.415422626337657e-001	 1.529049309365212e+001
 9.230646161794308e-001	 5.509779618109950e-001	 1.496751947804393e+001
 9.173943421767584e-001	 5.603682904877874e-001	 1.464443111887434e+001
 9.116214709079762e-001	 5.697115882787196e-001	 1.432166849305159e+001
 9.057465531145107e-001	 5.790062016568640e-001	 1.399967407915744e+001
 8.997701745887435e-001	 5.882504848718763e-001	 1.367889197170121e+001
 9.771124075337430e-001	 5.052240523544471e-001	 1.657813612843857e+001
 9.719499852273285e-001	 5.150856494369737e-001	 1.629335495317916e+001
 9.666799542709936e-001	 5.249093884226143e-001	 1.600520077881745e+001
 9.613026622530214e-001	 5.346935492334473e-001	 1.571400450257164e+001
 9.558184927034219e-001	 5.444364141518853e-001	 1.542010122380249e+001
 9.502278651522912e-001	 5.541362687435947e-001	 1.512383000165517e+001
 9.445312351601576e-001	 5.637914027857061e-001	 1.482553360442850e+001
 9.387290943200036e-001	 5.734001111993425e-001	 1.452555825087648e+001
 9.328219702306989e-001	 5.829606949854662e-001	 1.422425334366860e+001
 9.268104264416097e-001	 5.924714621630345e-001	 1.392197119525478e+001
 9.206950623681951e-001	 6.019307287084381e-001	 1.361906674640038e+001
 9.993195077038174e-001	 5.167064171795196e-001	 1.636528634130414e+001
 9.940397576179476e-001	 5.267921414691568e-001	 1.610536680824142e+001
 9.886499532309492e-001	 5.368391472505394e-001	 1.584100370528834e+001
 9.831504500308382e-001	 5.468456753530651e-001	 1.557243672212178e+001
 9.775416402642159e-001	 5.568099690201106e-001	 1.529991014018032e+001
 9.718239529959529e-001	 5.667302748529245e-001	 1.502367269227073e+001
 9.659978541402254e-001	 5.766048437599363e-001	 1.474397741424760e+001
 9.600638464625833e-001	 5.864319319104749e-001	 1.446108148879770e+001
 9.540224695527798e-001	 5.962098016918889e-001	 1.417524608137982e+001
 9.478742997681207e-001	 6.059367226690197e-001	 1.388673616838738e+001
 9.416199501471442e-001	 6.156109725449948e-001	 1.359582035762089e+001
 1.021526607873900e+000	 5.281887820046000e-001	 1.624537313651832e+001
 1.016129530008389e+000	 5.384986335011673e-001	 1.600450090247930e+001
 1.010619952190571e+000	 5.487689060781508e-001	 1.575814012562584e+001
 1.004998237808195e+000	 5.589978014722677e-001	 1.550644190871227e+001
 9.992647878244538e-001	 5.691835238878588e-001	 1.524956234078799e+001
 9.934200408389919e-001	 5.793242809617556e-001	 1.498766245673825e+001
 9.874644731196336e-001	 5.894182847336852e-001	 1.472090818921624e+001
 9.813985986044971e-001	 5.994637526211848e-001	 1.444947031282715e+001
 9.752229688742190e-001	 6.094589083979873e-001	 1.417352438044168e+001
 9.689381730940443e-001	 6.194019831748200e-001	 1.389325065153050e+001
 9.625448379255903e-001	 6.292912163815461e-001	 1.368573523334252e+001
 1.043733708043990e+000	 5.396711468296881e-001	 1.621434290422850e+001
 1.038219302398653e+000	 5.502051255330052e-001	 1.598709951353250e+001
 1.032589951149860e+000	 5.606986649054486e-001	 1.575334569932718e+001
 1.026846025585093e+000	 5.711499275910553e-001	 1.551314639892174e+001
 1.020987935384136e+000	 5.815570787551299e-001	 1.526657193580620e+001
 1.015016128681408e+000	 5.919182870700874e-001	 1.501369807727969e+001
 1.008931092098383e+000	 6.022317257069533e-001	 1.475460608476136e+001
 1.002733350745746e+000	 6.124955733314719e-001	 1.448938275647640e+001
 9.964234681950166e-001	 6.227080151037618e-001	 1.421812046222219e+001
 9.900020464193808e-001	 6.328672436804355e-001	 1.408582111869569e+001
 9.834697257035339e-001	 6.429714602180920e-001	 1.398686880329810e+001
 1.065940808214088e+000	 5.511535116547843e-001	 1.626853120255889e+001
 1.060309074788740e+000	 5.619116175646708e-001	 1.604986198054075e+001
 1.054559950108815e+000	 5.726284237324327e-001	 1.582368122852959e+001
 1.048693813361531e+000	 5.833020537094278e-001	 1.558996995646158e+001
 1.042711082943262e+000	 5.939306336219241e-001	 1.534871496610947e+001
 1.036612216523202e+000	 6.045122931779202e-001	 1.509990900512204e+001
 1.030397711076473e+000	 6.150451666797403e-001	 1.484355091401046e+001
 1.024068102886329e+000	 6.255273940413364e-001	 1.458966005663488e+001
 1.017623967515173e+000	 6.359571218092122e-001	 1.451513732131311e+001
 1.011065919744130e+000	 6.463325041858656e-001	 1.442986802170238e+001
 1.004394613480975e+000	 6.566517040546329e-001	 1.433375826489170e+001
 1.088147908384193e+000	 5.626358764798881e-001	 1.640462304659194e+001
 1.082398847178649e+000	 5.736181095961634e-001	 1.618980826929628e+001
 1.076529949067438e+000	 5.845581825591033e-001	 1.596649948019003e+001
 1.070541601137510e+000	 5.954541798273849e-001	 1.573459583063175e+001
 1.064434230501831e+000	 6.063041884882412e-001	 1.549400267564436e+001
 1.058208304364373e+000	 6.171062992852540e-001	 1.524463182284390e+001
 1.051864330053904e+000	 6.278586076520466e-001	 1.504190786941955e+001
 1.045402855026247e+000	 6.385592147507784e-001	 1.498121638525427e+001
 1.038824466834687e+000	 6.492062285143386e-001	 1.490836198530620e+001
 1.032129793068291e+000	 6.597977646911112e-001	 1.482316358474164e+001
 1.025319501257913e+000	 6.703319478911681e-001	 1.472544619741917e+001
 1.110355008554307e+000	 5.741182413050000e-001	 1.661961796267244e+001
 1.104488619568381e+000	 5.853246016274840e-001	 1.640424690957875e+001
 1.098499948025726e+000	 5.964879413854602e-001	 1.617941598960258e+001
 1.092389388913029e+000	 6.076063059449269e-001	 1.594494440776190e+001
 1.086157378059845e+000	 6.186777433540810e-001	 1.570065799112217e+001
 1.079804392204922e+000	 6.297003053920890e-001	 1.553952097246325e+001
 1.073330949030676e+000	 6.406720486238721e-001	 1.549110032854712e+001
 1.066737607165499e+000	 6.515910354597975e-001	 1.542930594101502e+001
 1.060024966153559e+000	 6.624553352191407e-001	 1.535387037162010e+001
 1.053193666391866e+000	 6.732630251961717e-001	 1.526453263287959e+001
 1.046244389034349e+000	 6.840121917276982e-001	 1.516103856161647e+001
 8.369955112473729e-001	 5.472097533621585e-001	 1.408257159242015e+001
 8.313422847138690e-001	 5.557607449888236e-001	 1.367009693810491e+001
 8.255958633264966e-001	 5.642618811166034e-001	 1.325548962017475e+001
 8.197568890991045e-001	 5.727116576387266e-001	 1.283893440765638e+001
 8.138260360782970e-001	 5.811085810912835e-001	 1.242061906885840e+001
 8.078040101335782e-001	 5.894511694987999e-001	 1.200073425484492e+001
 8.016915487208972e-001	 5.977379532152195e-001	 1.157947337700757e+001
 7.954894206196911e-001	 6.059674757593236e-001	 1.115703247881464e+001
 7.891984256435694e-001	 6.141382946436214e-001	 1.073361010183355e+001
 7.828193943248221e-001	 6.222489821957408e-001	 1.030940714613573e+001
 7.763531875729710e-001	 6.302981263713646e-001	 9.957125121414677e+000
 8.579203990283327e-001	 5.608899971987366e-001	 1.391005589103203e+001
 8.521258418306248e-001	 5.696547636152222e-001	 1.349824981833210e+001
 8.462357599078701e-001	 5.783684281454594e-001	 1.308400396069134e+001
 8.402508113242636e-001	 5.870294490800073e-001	 1.266751805199468e+001
 8.341716869775759e-001	 5.956362956183594e-001	 1.224899518424406e+001
 8.279991103840489e-001	 6.041874487356548e-001	 1.182864167915078e+001
 8.217338374360311e-001	 6.126814020446862e-001	 1.140666695317738e+001
 8.153766561324449e-001	 6.211166626522042e-001	 1.098328337612085e+001
 8.089283862822418e-001	 6.294917520085318e-001	 1.062398654082064e+001
 8.023898791810186e-001	 6.378052067494873e-001	 1.031722367833388e+001
 7.957620172610354e-001	 6.460555795296462e-001	 1.000608899851479e+001
 8.788452868087893e-001	 5.745702410353089e-001	 1.377571279447886e+001
 8.729093989469730e-001	 5.835487822418006e-001	 1.336571909965369e+001
 8.668756564889211e-001	 5.924749751746506e-001	 1.295296983160644e+001
 8.607447335491761e-001	 6.013472405217495e-001	 1.253767899408510e+001
 8.545173378766735e-001	 6.101640101459926e-001	 1.212006431689728e+001
 8.481942106343934e-001	 6.189237279731327e-001	 1.170034711643844e+001
 8.417761261510836e-001	 6.276248508748117e-001	 1.131902418521995e+001
 8.352638916451532e-001	 6.362658495457498e-001	 1.102667003246059e+001
 8.286583469208936e-001	 6.448452093740826e-001	 1.072931108116015e+001
 8.219603640372099e-001	 6.533614313038200e-001	 1.042708941994843e+001
 8.151708469490998e-001	 6.618130326884288e-001	 1.012015063710414e+001
 8.997701745887435e-001	 5.882504848718763e-001	 1.367889197170121e+001
 8.936929560629136e-001	 5.974428008685592e-001	 1.327178788948915e+001
 8.875155530696498e-001	 6.065815222041773e-001	 1.286160325512199e+001
 8.812386557738414e-001	 6.156650319639527e-001	 1.244856567444613e+001
 8.748629887755890e-001	 6.246917246741829e-001	 1.203290685700830e+001
 8.683893108846116e-001	 6.336600072112341e-001	 1.175315969247820e+001
 8.618184148660554e-001	 6.425682997055963e-001	 1.147270356568309e+001
 8.551511271578163e-001	 6.514150364399606e-001	 1.118671724183731e+001
 8.483883075595256e-001	 6.601986667402745e-001	 1.089534961380258e+001
 8.415308488933959e-001	 6.689176558587388e-001	 1.059875335194109e+001
 8.345796766371638e-001	 6.775704858477131e-001	 1.029708482618669e+001
 9.206950623681951e-001	 6.019307287084381e-001	 1.361906674640038e+001
 9.144765131784466e-001	 6.113368194954976e-001	 1.321586969475014e+001
 9.081554496500564e-001	 6.206880692340399e-001	 1.280925741376733e+001
 9.017325779982595e-001	 6.299828234066174e-001	 1.248269894371114e+001
 8.952086396743232e-001	 6.392194392029306e-001	 1.222235165908426e+001
 8.885844111347037e-001	 6.483962864499585e-001	 1.195577509776662e+001
 8.818607035809464e-001	 6.575117485370403e-001	 1.168311958222716e+001
 8.750383626704336e-001	 6.665642233348363e-001	 1.140453957834384e+001
 8.681182681981372e-001	 6.755521241071069e-001	 1.112019361818522e+001
 8.611013337495770e-001	 6.844738804142437e-001	 1.083024421880635e+001
 8.539885063252279e-001	 6.933279390074986e-001	 1.053485779708831e+001
 9.416199501471442e-001	 6.156109725449948e-001	 1.359582035762089e+001
 9.352600702935722e-001	 6.252308381226158e-001	 1.320150870416153e+001
 9.287953462301402e-001	 6.347946162642376e-001	 1.296453445829385e+001
 9.222265002224308e-001	 6.443006148497432e-001	 1.272060793424500e+001
 9.155542905728753e-001	 6.537471537322354e-001	 1.246987899136498e+001
 9.087795113846693e-001	 6.631325656893063e-001	 1.221250200546263e+001
 9.019029922957563e-001	 6.724551973691435e-001	 1.194863579396401e+001
 8.949255981830057e-001	 6.817134102303772e-001	 1.167844353684607e+001
 8.878482288367287e-001	 6.909055814745805e-001	 1.140209269337115e+001
 8.806718186057532e-001	 7.000301049703350e-001	 1.111975491465257e+001
 8.733973360132922e-001	 7.090853921677851e-001	 1.083160595208738e+001
 9.625448379255903e-001	 6.292912163815461e-001	 1.368573523334252e+001
 9.560436274082902e-001	 6.391248567499139e-001	 1.346774403525770e+001
 9.494352428099019e-001	 6.489011632947709e-001	 1.324220870965106e+001
 9.427204224463547e-001	 6.586184062933302e-001	 1.300928165534546e+001
 9.358999414712462e-001	 6.682748682620973e-001	 1.276912008974493e+001
 9.289746116345087e-001	 6.778688449292772e-001	 1.252188597351481e+001
 9.219452810104857e-001	 6.873986462019059e-001	 1.226774593083445e+001
 9.148128336955315e-001	 6.968625971265827e-001	 1.200687116524665e+001
 9.075781894752996e-001	 7.062590388426943e-001	 1.173943737113352e+001
 9.002423034619242e-001	 7.155863295270125e-001	 1.146562464085264e+001
 8.928061657013564e-001	 7.248428453285732e-001	 1.118561736757196e+001
 9.834697257035339e-001	 6.429714602180920e-001	 1.398686880329810e+001
 9.768271845226005e-001	 6.530188753773920e-001	 1.378167778711326e+001
 9.700751393893412e-001	 6.630077103256394e-001	 1.356849242441036e+001
 9.632143446700322e-001	 6.729361977373788e-001	 1.334747158200033e+001
 9.562455923694354e-001	 6.828025827925167e-001	 1.311877917212543e+001
 9.491697118842221e-001	 6.926051241698716e-001	 1.288258407314826e+001
 9.419875697251342e-001	 7.023420950353277e-001	 1.263906004564790e+001
 9.347000692080125e-001	 7.120117840234539e-001	 1.238838564394869e+001
 9.273081501138503e-001	 7.216124962114487e-001	 1.213074412311411e+001
 9.198127883180901e-001	 7.311425540842760e-001	 1.186632334144121e+001
 9.122149953894206e-001	 7.406002984898628e-001	 1.159531565849642e+001
 1.004394613480975e+000	 6.566517040546329e-001	 1.433375826489170e+001
 9.976107416365034e-001	 6.669128940050499e-001	 1.414223891257847e+001
 9.907150359684585e-001	 6.771142573568437e-001	 1.394227141938754e+001
 9.837082668934620e-001	 6.872539891818885e-001	 1.373402047764872e+001
 9.765912432674427e-001	 6.973302973234932e-001	 1.351765604721796e+001
 9.693648121338088e-001	 7.073414034110890e-001	 1.329335327289816e+001
 9.620298584397017e-001	 7.172855438694087e-001	 1.306129239711677e+001
 9.545873047204478e-001	 7.271609709209900e-001	 1.282165866788722e+001
 9.470381107523809e-001	 7.369659535808441e-001	 1.257464224208681e+001
 9.393832731742510e-001	 7.466987786421258e-001	 1.232043808408735e+001
 9.316238250774851e-001	 7.563577516516536e-001	 1.205924585978042e+001
 1.025319501257913e+000	 6.703319478911681e-001	 1.472544619741917e+001
 1.018394298749999e+000	 6.808069126328878e-001	 1.454843062958338e+001
 1.011354932547253e+000	 6.912208043883834e-001	 1.436250962690678e+001
 1.004202189116645e+000	 7.015717806268595e-001	 1.416785307903288e+001
 9.969368941652685e-001	 7.118580118550271e-001	 1.396463636038000e+001
 9.895599123832697e-001	 7.220776826529298e-001	 1.375304024500686e+001
 9.820721471541882e-001	 7.322289927041487e-001	 1.353325081660121e+001
 9.744745402328375e-001	 7.423101578191911e-001	 1.330545937361772e+001
 9.667680713908915e-001	 7.523194109508806e-001	 1.306986232959727e+001
 9.589537580304068e-001	 7.622550032005616e-001	 1.282666110870335e+001
 9.510326547655491e-001	 7.721152048139458e-001	 1.257606203651672e+001
 1.046244389034349e+000	 6.840121917276982e-001	 1.516103856161647e+001
 1.039177855863086e+000	 6.947009312609056e-001	 1.499932299462969e+001
 1.031994829125725e+000	 7.053273514202587e-001	 1.482824128324985e+001
 1.024696111339581e+000	 7.158895720722919e-001	 1.464796789886803e+001
 1.017282545062913e+000	 7.263857263871183e-001	 1.445868300995031e+001
 1.009755012632604e+000	 7.368139618953938e-001	 1.426057239505311e+001
 1.002114435868594e+000	 7.471724415395479e-001	 1.405382735084425e+001
 9.943617757451818e-001	 7.574593447180572e-001	 1.383864459515396e+001
 9.864980320293816e-001	 7.676728683215576e-001	 1.361522616508566e+001
 9.785242428865577e-001	 7.778112277595839e-001	 1.338377931022028e+001
 9.704414844536136e-001	 7.878726579767392e-001	 1.314451638095365e+001
 7.763531875729710e-001	 6.302981263713646e-001	 9.957125121414677e+000
 7.698006963084499e-001	 6.382843315578651e-001	 9.540589101889880e+000
 7.631628410692363e-001	 6.462062193673844e-001	 9.127049797597815e+000
 7.564405715924579e-001	 6.540624294185955e-001	 8.717204078284608e+000
 7.496348663729668e-001	 6.618516201064839e-001	 8.311746729286190e+000
 7.427467321968387e-001	 6.695724693589141e-001	 7.911369778110938e+000
 7.357772036510777e-001	 6.772236753791964e-001	 7.516761823462340e+000
 7.287273426100213e-001	 6.848039573737852e-001	 7.128607367751831e+000
 7.215982376989777e-001	 6.923120562642573e-001	 6.747586154149840e+000
 7.143910037356573e-001	 6.997467353827421e-001	 6.374372509210031e+000
 7.071067811500000e-001	 7.071067811500000e-001	 6.009634692096660e+000
 7.957620172610354e-001	 6.460555795296462e-001	 1.000608899851479e+001
 7.890457137156018e-001	 6.542414398460118e-001	 9.631488733572633e+000
 7.822419120960088e-001	 6.623613748509768e-001	 9.259056031234836e+000
 7.753515858828121e-001	 6.704139901536806e-001	 8.889423536877496e+000
 7.683757380332352e-001	 6.783979106089841e-001	 8.523222241185492e+000
 7.613154005030054e-001	 6.863117810929479e-001	 8.161080875664355e+000
 7.541716337438018e-001	 6.941542672639653e-001	 7.803625310228239e+000
 7.469455261768200e-001	 7.019240563086515e-001	 7.451477953797819e+000
 7.396381936430017e-001	 7.096198576716234e-001	 7.105257158831880e+000
 7.322507788304987e-001	 7.172404037683132e-001	 6.765576630713829e+000
 7.247844506799999e-001	 7.247844506800000e-001	 6.433044842900813e+000
 8.151708469490998e-001	 6.618130326884288e-001	 1.012015063710414e+001
 8.082907311227530e-001	 6.701985481345644e-001	 9.782457084385106e+000
 8.013209831227810e-001	 6.785165303348899e-001	 9.446112037485921e+000
 7.942626001731662e-001	 6.867655508890120e-001	 9.111686120922991e+000
 7.871166096935036e-001	 6.949442011116654e-001	 8.779748728476607e+000
 7.798840688091724e-001	 7.030510928271078e-001	 8.450867485853262e+000
 7.725660638365259e-001	 7.110848591488147e-001	 8.125607715070030e+000
 7.651637097436191e-001	 7.190441552435632e-001	 7.804531901375254e+000
 7.576781495870251e-001	 7.269276590790097e-001	 7.488199163514969e+000
 7.501105539253400e-001	 7.347340721538892e-001	 7.177164728147126e+000
 7.424621202100000e-001	 7.424621202100000e-001	 6.871979409198892e+000
 8.345796766371638e-001	 6.775704858477131e-001	 1.029708482618669e+001
 8.275357485299048e-001	 6.861556564235237e-001	 9.991629811312555e+000
 8.204000541495530e-001	 6.946716858191245e-001	 9.686713112768672e+000
 8.131736144635205e-001	 7.031171116245892e-001	 9.382845357450742e+000
 8.058574813537724e-001	 7.114904916145273e-001	 9.080536360198778e+000
 7.984527371153392e-001	 7.197904045613931e-001	 8.780294651998592e+000
 7.909604939292499e-001	 7.280154510337445e-001	 8.482627009558266e+000
 7.833818933104180e-001	 7.361642541785204e-001	 8.188037986957619e+000
 7.757181055310489e-001	 7.442354604864162e-001	 7.897029450065777e+000
 7.679703290201809e-001	 7.522277405394702e-001	 7.610100114414954e+000
 7.601397897400000e-001	 7.601397897400000e-001	 7.327745087212342e+000
 8.539885063252279e-001	 6.933279390074986e-001	 1.053485779708831e+001
 8.467807659370565e-001	 7.021127647128891e-001	 1.025730169327122e+001
 8.394791251763255e-001	 7.108268413036801e-001	 9.979481476632699e+000
 8.320846287538747e-001	 7.194686723604122e-001	 9.701849635077714e+000
 8.245983530140408e-001	 7.280367821175700e-001	 9.424858258293998e+000
 8.170214054215058e-001	 7.365297162958036e-001	 9.148958630034043e+000
 8.093549240219742e-001	 7.449460429187544e-001	 8.874600821431633e+000
 8.016000768772170e-001	 7.532843531135226e-001	 8.602233285937119e+000
 7.937580614750727e-001	 7.615432618938425e-001	 8.332302456454380e+000
 7.858301041150225e-001	 7.697214089250561e-001	 8.065252345255312e+000
 7.778174592700000e-001	 7.778174592700000e-001	 7.801524147242294e+000
 8.733973360132922e-001	 7.090853921677851e-001	 1.083160595208738e+001
 8.660257833442079e-001	 7.180698730026608e-001	 1.057790895089354e+001
 8.585581962030977e-001	 7.269819967885570e-001	 1.032315216918902e+001
 8.509956430442287e-001	 7.358202330964818e-001	 1.006773166383137e+001
 8.433392246743089e-001	 7.445830726207935e-001	 9.812043502839696e+000
 8.355900737276727e-001	 7.532690280303399e-001	 9.556483420438170e+000
 8.277493541146984e-001	 7.618766348038450e-001	 9.301446472800329e+000
 8.198182604440162e-001	 7.704044520485703e-001	 9.047326694966936e+000
 8.117980174190966e-001	 7.788510633012893e-001	 8.794516759409211e+000
 8.036898792098638e-001	 7.872150773106473e-001	 8.543407636702368e+000
 7.954951288000000e-001	 7.954951288000000e-001	 8.294388258771981e+000
 8.928061657013564e-001	 7.248428453285732e-001	 1.118561736757196e+001
 8.852708007513596e-001	 7.340269812928388e-001	 1.095201387242870e+001
 8.776372672298698e-001	 7.431371522737549e-001	 1.071656078800583e+001
 8.699066573345831e-001	 7.521717938327970e-001	 1.047959930977936e+001
 8.620800963345776e-001	 7.611293631241980e-001	 1.024147104964293e+001
 8.541587420338394e-001	 7.700083397650016e-001	 1.000251775252288e+001
 8.461437842074225e-001	 7.788072266890158e-001	 9.763081013366591e+000
 8.380364440108148e-001	 7.875245509836628e-001	 9.523501994867949e+000
 8.298379733631203e-001	 7.961588647087557e-001	 9.284121146291204e+000
 8.215496543047051e-001	 8.047087456962433e-001	 9.045277923749774e+000
 8.131727983300000e-001	 8.131727983300000e-001	 8.807310512294597e+000
 9.122149953894206e-001	 7.406002984898628e-001	 1.159531565849642e+001
 9.045158181585112e-001	 7.499840895834230e-001	 1.137829140229377e+001
 8.967163382566421e-001	 7.592923077592741e-001	 1.115863279050635e+001
 8.888176716249373e-001	 7.685233545693583e-001	 1.093662759970580e+001
 8.808209679948459e-001	 7.776756536277827e-001	 1.071256442431162e+001
 8.727274103400066e-001	 7.867476514997894e-001	 1.048673245370656e+001
 8.645382143001467e-001	 7.957378185742671e-001	 1.025942124940424e+001
 8.562546275776137e-001	 8.046446499188008e-001	 1.003092052252558e+001
 8.478779293071440e-001	 8.134666661162425e-001	 9.801519911835184e+000
 8.394094293995461e-001	 8.222024140818445e-001	 9.571508762589172e+000
 8.308504678599999e-001	 8.308504678599999e-001	 9.341175906439940e+000
 9.316238250774851e-001	 7.563577516516536e-001	 1.205924585978042e+001
 9.237608355656627e-001	 7.659411978744137e-001	 1.185551740605633e+001
 9.157954092834143e-001	 7.754474632451146e-001	 1.164837413356744e+001
 9.077286859152912e-001	 7.848749153061655e-001	 1.143805172520337e+001
 8.995618396551142e-001	 7.942219441315488e-001	 1.122478707956686e+001
 8.912960786461730e-001	 8.034869632347023e-001	 1.100881814762784e+001
 8.829326443928710e-001	 8.126684104595988e-001	 1.079038376911599e+001
 8.744728111444128e-001	 8.217647488539838e-001	 1.056972350879972e+001
 8.659178852511675e-001	 8.307744675237494e-001	 1.034707749279818e+001
 8.572692044943875e-001	 8.396960824674506e-001	 1.012268624506859e+001
 8.485281373899998e-001	 8.485281373899998e-001	 9.896790524210276e+000
 9.510326547655491e-001	 7.721152048139458e-001	 1.257606203651672e+001
 9.430058529728143e-001	 7.818983061658105e-001	 1.238255837235784e+001
 9.348744803101866e-001	 7.916026187312760e-001	 1.218486305928949e+001
 9.266397002056452e-001	 8.012264760432185e-001	 1.198316090340709e+001
 9.183027113153827e-001	 8.107682346354952e-001	 1.177763832104776e+001
 9.098647469523398e-001	 8.202262749697410e-001	 1.156848323412347e+001
 9.013270744855951e-001	 8.295990023450108e-001	 1.135588496488526e+001
 8.926909947112116e-001	 8.388848477892122e-001	 1.114003413016013e+001
 8.839578411951915e-001	 8.480822689312765e-001	 1.092112253510031e+001
 8.751289795892289e-001	 8.571897508530619e-001	 1.069934306648273e+001
 8.662058069199999e-001	 8.662058069199999e-001	 1.047488958559530e+001
 9.704414844536136e-001	 7.878726579767392e-001	 1.314451638095365e+001
 9.622508703799659e-001	 7.978554144576137e-001	 1.295836235060614e+001
 9.539535513369589e-001	 8.077577742177586e-001	 1.276724286647408e+001
 9.455507144959997e-001	 8.175780367805178e-001	 1.257129297444018e+001
 9.370435829756513e-001	 8.273145251396229e-001	 1.237064972201964e+001
 9.284334152585064e-001	 8.369655867049053e-001	 1.216545211160798e+001
 9.197215045783193e-001	 8.465295942305033e-001	 1.195584105285847e+001
 9.109091782780108e-001	 8.560049467244858e-001	 1.174195931412537e+001
 9.019977971392151e-001	 8.653900703388234e-001	 1.152395147290810e+001
 8.929887546840701e-001	 8.746834192386782e-001	 1.130196386522826e+001
 8.838834764499999e-001	 8.838834764499999e-001	 1.107614453387356e+001
 7.071067811500000e-001	 7.071067811500000e-001	 6.009634692096660e+000
 6.997467353827424e-001	 7.143910037356571e-001	 5.706501633578420e+000
 6.923120562642576e-001	 7.215982376989775e-001	 5.406424154313791e+000
 6.848039573737854e-001	 7.287273426100208e-001	 5.109805557862063e+000
 6.772236753791966e-001	 7.357772036510774e-001	 4.817047307948912e+000
 6.695724693589144e-001	 7.427467321968385e-001	 4.528548669338774e+000
 6.618516201064841e-001	 7.496348663729666e-001	 4.244706351516892e+000
 6.540624294185958e-001	 7.564405715924577e-001	 3.965914155691526e+000
 6.462062193673847e-001	 7.631628410692362e-001	 3.692562625617164e+000
 6.382843315578655e-001	 7.698006963084497e-001	 3.425038702731272e+000
 6.302981263713646e-001	 7.763531875729710e-001	 3.163725386089463e+000
 7.247844506799999e-001	 7.247844506800000e-001	 6.433044842900813e+000
 7.172404037683134e-001	 7.322507788304985e-001	 6.144266527496637e+000
 7.096198576716237e-001	 7.396381936430012e-001	 5.858256756702814e+000
 7.019240563086520e-001	 7.469455261768198e-001	 5.575406699803058e+000
 6.941542672639656e-001	 7.541716337438016e-001	 5.296105703612863e+000
 6.863117810929484e-001	 7.613154005030052e-001	 5.020740948689505e+000
 6.783979106089845e-001	 7.683757380332349e-001	 4.749697108362311e+000
 6.704139901536809e-001	 7.753515858828121e-001	 4.483356011062329e+000
 6.623613748509768e-001	 7.822419120960085e-001	 4.222096306420843e+000
 6.542414398460121e-001	 7.890457137156015e-001	 3.966293135599301e+000
 6.460555795296461e-001	 7.957620172610354e-001	 3.716317806303197e+000
 7.424621202100000e-001	 7.424621202100000e-001	 6.871979409198892e+000
 7.347340721538893e-001	 7.501105539253395e-001	 6.596327485882533e+000
 7.269276590790101e-001	 7.576781495870252e-001	 6.323134090144495e+000
 7.190441552435638e-001	 7.651637097436188e-001	 6.052778626400133e+000
 7.110848591488148e-001	 7.725660638365257e-001	 5.785638708134031e+000
 7.030510928271080e-001	 7.798840688091719e-001	 5.522089829308200e+000
 6.949442011116658e-001	 7.871166096935036e-001	 5.262505038584618e+000
 6.867655508890121e-001	 7.942626001731660e-001	 5.007254616809364e+000
 6.785165303348903e-001	 8.013209831227807e-001	 4.756705758196555e+000
 6.701985481345649e-001	 8.082907311227530e-001	 4.511222255643635e+000
 6.618130326884288e-001	 8.151708469490996e-001	 4.271164190600026e+000
 7.601397897400000e-001	 7.601397897400000e-001	 7.327745087212342e+000
 7.522277405394704e-001	 7.679703290201808e-001	 7.064080491784584e+000
 7.442354604864165e-001	 7.757181055310487e-001	 6.802542247427334e+000
 7.361642541785206e-001	 7.833818933104179e-001	 6.543498313579408e+000
 7.280154510337445e-001	 7.909604939292501e-001	 6.287314903981090e+000
 7.197904045613931e-001	 7.984527371153388e-001	 6.034356173191639e+000
 7.114904916145276e-001	 8.058574813537719e-001	 5.784983905899044e+000
 7.031171116245893e-001	 8.131736144635202e-001	 5.539557209436025e+000
 6.946716858191248e-001	 8.204000541495526e-001	 5.298432209910824e+000
 6.861556564235243e-001	 8.275357485299045e-001	 5.061961752352371e+000
 6.775704858477131e-001	 8.345796766371638e-001	 4.830495105261413e+000
 7.778174592700000e-001	 7.778174592700000e-001	 7.801524147242294e+000
 7.697214089250566e-001	 7.858301041150223e-001	 7.548789536279613e+000
 7.615432618938427e-001	 7.937580614750724e-001	 7.297827690730712e+000
 7.532843531135228e-001	 8.016000768772167e-001	 7.048995399136858e+000
 7.449460429187547e-001	 8.093549240219740e-001	 6.802647762832970e+000
 7.365297162958037e-001	 8.170214054215056e-001	 6.559137897532617e+000
 7.280367821175702e-001	 8.245983530140403e-001	 6.318816637666746e+000
 7.194686723604128e-001	 8.320846287538743e-001	 6.082032243857574e+000
 7.108268413036804e-001	 8.394791251763250e-001	 5.849130113905099e+000
 7.021127647128895e-001	 8.467807659370562e-001	 5.620452497654213e+000
 6.933279390074987e-001	 8.539885063252281e-001	 5.396338216104032e+000
 7.954951288000000e-001	 7.954951288000000e-001	 8.294388258771981e+000
 7.872150773106477e-001	 8.036898792098633e-001	 8.051601284247592e+000
 7.788510633012895e-001	 8.117980174190961e-001	 7.810212766137463e+000
 7.704044520485704e-001	 8.198182604440156e-001	 7.570568553642363e+000
 7.618766348038453e-001	 8.277493541146982e-001	 7.333012880111429e+000
 7.532690280303401e-001	 8.355900737276725e-001	 7.097888079697831e+000
 7.445830726207940e-001	 8.433392246743090e-001	 6.865534306711638e+000
 7.358202330964820e-001	 8.509956430442286e-001	 6.636289258022293e+000
 7.269819967885574e-001	 8.585581962030974e-001	 6.410487898854284e+000
 7.180698730026613e-001	 8.660257833442077e-001	 6.188462192313803e+000
 7.090853921677852e-001	 8.733973360132923e-001	 5.970540832976321e+000
 8.131727983300000e-001	 8.131727983300000e-001	 8.807310512294597e+000
 8.047087456962437e-001	 8.215496543047046e-001	 8.573557827218755e+000
 7.961588647087559e-001	 8.298379733631198e-001	 8.340809194513716e+000
 7.875245509836631e-001	 8.380364440108147e-001	 8.109399716007104e+000
 7.788072266890160e-001	 8.461437842074221e-001	 7.879662961530547e+000
 7.700083397650022e-001	 8.541587420338392e-001	 7.651930700687439e+000
 7.611293631241981e-001	 8.620800963345772e-001	 7.426532637248643e+000
 7.521717938327973e-001	 8.699066573345825e-001	 7.203796146494880e+000
 7.431371522737553e-001	 8.776372672298695e-001	 6.984046015817566e+000
 7.340269812928392e-001	 8.852708007513591e-001	 6.767604188884430e+000
 7.248428453285735e-001	 8.928061657013564e-001	 6.554789513667731e+000
 8.308504678599999e-001	 8.308504678599999e-001	 9.341175906439940e+000
 8.222024140818448e-001	 8.394094293995459e-001	 9.115607808198641e+000
 8.134666661162426e-001	 8.478779293071436e-001	 8.890629840148860e+000
 8.046446499188011e-001	 8.562546275776136e-001	 8.666566511745657e+000
 7.957378185742673e-001	 8.645382143001462e-001	 8.443740896469999e+000
 7.867476514997895e-001	 8.727274103400060e-001	 8.222474378791214e+000
 7.776756536277830e-001	 8.808209679948457e-001	 8.003086403671841e+000
 7.685233545693584e-001	 8.888176716249369e-001	 7.785894228901517e+000
 7.592923077592746e-001	 8.967163382566420e-001	 7.571212680537983e+000
 7.499840895834233e-001	 9.045158181585108e-001	 7.359353911730603e+000
 7.406002984898628e-001	 9.122149953894206e-001	 7.150627165191876e+000
 8.485281373899998e-001	 8.485281373899998e-001	 9.896790524210276e+000
 8.396960824674509e-001	 8.572692044943873e-001	 9.678616155888983e+000
 8.307744675237496e-001	 8.659178852511674e-001	 9.460599008315878e+000
 8.217647488539841e-001	 8.744728111444123e-001	 9.243053118954508e+000
 8.126684104595990e-001	 8.829326443928707e-001	 9.026291197176549e+000
 8.034869632347024e-001	 8.912960786461726e-001	 8.810624386537361e+000
 7.942219441315490e-001	 8.995618396551139e-001	 8.596362029494269e+000
 7.848749153061657e-001	 9.077286859152911e-001	 8.383811434819398e+000
 7.754474632451148e-001	 9.157954092834140e-001	 8.173277647954480e+000
 7.659411978744141e-001	 9.237608355656626e-001	 7.965063224547969e+000
 7.563577516516535e-001	 9.316238250774851e-001	 7.759468007409221e+000
 8.662058069199999e-001	 8.662058069199999e-001	 1.047488958559530e+001
 8.571897508530622e-001	 8.751289795892283e-001	 1.026337262696375e+001
 8.480822689312767e-001	 8.839578411951911e-001	 1.005156148190565e+001
 8.388848477892126e-001	 8.926909947112113e-001	 9.839759803763148e+000
 8.295990023450112e-001	 9.013270744855947e-001	 9.628270037247022e+000
 8.202262749697412e-001	 9.098647469523393e-001	 9.417393196178642e+000
 8.107682346354957e-001	 9.183027113153826e-001	 9.207428643560053e+000
 8.012264760432187e-001	 9.266397002056450e-001	 8.998673874189850e+000
 7.916026187312764e-001	 9.348744803101864e-001	 8.791424300039202e+000
 7.818983061658108e-001	 9.430058529728141e-001	 8.585973038594398e+000
 7.721152048139458e-001	 9.510326547655491e-001	 8.382610704368952e+000
 8.838834764499999e-001	 8.838834764499999e-001	 1.107614453387356e+001
 8.746834192386785e-001	 8.929887546840698e-001	 1.087059932327195e+001
 8.653900703388238e-001	 9.019977971392147e-001	 1.066429047366500e+001
 8.560049467244862e-001	 9.109091782780103e-001	 1.045751131153055e+001
 8.465295942305037e-001	 9.197215045783189e-001	 1.025055408549329e+001
 8.369655867049055e-001	 9.284334152585062e-001	 1.004370975971976e+001
 8.273145251396232e-001	 9.370435829756509e-001	 9.837267809511609e+000
 8.175780367805180e-001	 9.455507144959993e-001	 9.631516019282048e+000
 8.077577742177590e-001	 9.539535513369584e-001	 9.426740283094160e+000
 7.978554144576140e-001	 9.622508703799657e-001	 9.223224407934374e+000
 7.878726579767392e-001	 9.704414844536136e-001	 9.021249919890471e+000
 6.302981263713646e-001	 7.763531875729710e-001	 3.163725386089463e+000
 6.222489821957411e-001	 7.828193943248218e-001	 2.943554634797446e+000
 6.141382946436216e-001	 7.891984256435691e-001	 2.745651087780282e+000
 6.059674757593239e-001	 7.954894206196910e-001	 2.545186954962281e+000
 5.977379532152197e-001	 8.016915487208970e-001	 2.342643132976000e+000
 5.894511694988003e-001	 8.078040101335779e-001	 2.138503734666759e+000
 5.811085810912838e-001	 8.138260360782966e-001	 1.933255481584098e+000
 5.727116576387268e-001	 8.197568890991044e-001	 1.727387093991557e+000
 5.642618811166037e-001	 8.255958633264965e-001	 1.521388679593815e+000
 5.557607449888239e-001	 8.313422847138690e-001	 1.315751122177172e+000
 5.472097533621585e-001	 8.369955112473729e-001	 1.110965471351868e+000
 6.460555795296461e-001	 7.957620172610354e-001	 3.716317806303197e+000
 6.378052067494876e-001	 8.023898791810181e-001	 3.495122043668493e+000
 6.294917520085319e-001	 8.089283862822417e-001	 3.270158566387051e+000
 6.211166626522043e-001	 8.153766561324445e-001	 3.062233474378985e+000
 6.126814020446862e-001	 8.217338374360307e-001	 2.875951791306433e+000
 6.041874487356550e-001	 8.279991103840486e-001	 2.688412819454447e+000
 5.956362956183596e-001	 8.341716869775757e-001	 2.500089766613154e+000
 5.870294490800078e-001	 8.402508113242636e-001	 2.311457557904690e+000
 5.783684281454596e-001	 8.462357599078700e-001	 2.122992232501350e+000
 5.696547636152226e-001	 8.521258418306247e-001	 1.935170340490413e+000
 5.608899971987366e-001	 8.579203990283327e-001	 1.748468341073643e+000
 6.618130326884288e-001	 8.151708469490996e-001	 4.271164190600026e+000
 6.533614313038202e-001	 8.219603640372094e-001	 4.060096524270621e+000
 6.448452093740830e-001	 8.286583469208937e-001	 3.845527331622420e+000
 6.362658495457501e-001	 8.352638916451532e-001	 3.627827782175594e+000
 6.276248508748119e-001	 8.417761261510836e-001	 3.407373085702905e+000
 6.189237279731330e-001	 8.481942106343930e-001	 3.219142441843718e+000
 6.101640101459929e-001	 8.545173378766732e-001	 3.045181678060899e+000
 6.013472405217497e-001	 8.607447335491757e-001	 2.871173305020428e+000
 5.924749751746509e-001	 8.668756564889208e-001	 2.697581112875930e+000
 5.835487822418011e-001	 8.729093989469728e-001	 2.524869166479698e+000
 5.745702410353087e-001	 8.788452868087893e-001	 2.353501209791447e+000
 6.775704858477131e-001	 8.345796766371638e-001	 4.830495105261413e+000
 6.689176558587390e-001	 8.415308488933956e-001	 4.627587838904145e+000
 6.601986667402746e-001	 8.483883075595253e-001	 4.421394974781465e+000
 6.514150364399609e-001	 8.551511271578162e-001	 4.212267572468590e+000
 6.425682997055967e-001	 8.618184148660554e-001	 4.000560470539675e+000
 6.336600072112343e-001	 8.683893108846114e-001	 3.786631956480888e+000
 6.246917246741831e-001	 8.748629887755888e-001	 3.572712532841615e+000
 6.156650319639528e-001	 8.812386557738409e-001	 3.410850489188861e+000
 6.065815222041778e-001	 8.875155530696496e-001	 3.249608207981388e+000
 5.974428008685595e-001	 8.936929560629136e-001	 3.089439058032387e+000
 5.882504848718763e-001	 8.997701745887436e-001	 2.930795883196574e+000
 6.933279390074987e-001	 8.539885063252281e-001	 5.396338216104032e+000
 6.844738804142442e-001	 8.611013337495768e-001	 5.199753254510812e+000
 6.755521241071072e-001	 8.681182681981370e-001	 5.000050817347176e+000
 6.665642233348365e-001	 8.750383626704334e-001	 4.797562604268499e+000
 6.575117485370404e-001	 8.818607035809462e-001	 4.592623862520817e+000
 6.483962864499588e-001	 8.885844111347033e-001	 4.385573082269762e+000
 6.392194392029307e-001	 8.952086396743229e-001	 4.176751687734410e+000
 6.299828234066175e-001	 9.017325779982593e-001	 3.966503724578347e+000
 6.206880692340401e-001	 9.081554496500560e-001	 3.783217882265822e+000
 6.113368194954979e-001	 9.144765131784466e-001	 3.633148758154849e+000
 6.019307287084381e-001	 9.206950623681951e-001	 3.484747064026499e+000
 7.090853921677852e-001	 8.733973360132923e-001	 5.970540832976321e+000
 7.000301049703352e-001	 8.806718186057527e-001	 5.778558687380289e+000
 6.909055814745804e-001	 8.878482288367283e-001	 5.583581611844758e+000
 6.817134102303775e-001	 8.949255981830054e-001	 5.385922628494283e+000
 6.724551973691439e-001	 9.019029922957562e-001	 5.185898104346496e+000
 6.631325656893067e-001	 9.087795113846692e-001	 4.983827471525400e+000
 6.537471537322357e-001	 9.155542905728752e-001	 4.780032943376387e+000
 6.443006148497434e-001	 9.222265002224305e-001	 4.574839226887676e+000
 6.347946162642378e-001	 9.287953462301400e-001	 4.368573231830254e+000
 6.252308381226162e-001	 9.352600702935721e-001	 4.161563777036575e+000
 6.156109725449946e-001	 9.416199501471442e-001	 4.019449807947725e+000
 7.248428453285735e-001	 8.928061657013564e-001	 6.554789513667731e+000
 7.155863295270126e-001	 9.002423034619237e-001	 6.365799502133497e+000
 7.062590388426944e-001	 9.075781894752993e-001	 6.173893560206404e+000
 6.968625971265833e-001	 9.148128336955314e-001	 5.979366652391338e+000
 6.873986462019063e-001	 9.219452810104855e-001	 5.782516913074316e+000
 6.778688449292777e-001	 9.289746116345086e-001	 5.583645391152802e+000
 6.682748682620977e-001	 9.358999414712461e-001	 5.383055790631802e+000
 6.586184062933308e-001	 9.427204224463548e-001	 5.181054207540569e+000
 6.489011632947711e-001	 9.494352428099017e-001	 4.977948863536907e+000
 6.391248567499143e-001	 9.560436274082900e-001	 4.774049836569967e+000
 6.292912163815461e-001	 9.625448379255903e-001	 4.569668788983789e+000
 7.406002984898628e-001	 9.122149953894206e-001	 7.150627165191876e+000
 7.311425540842764e-001	 9.198127883180900e-001	 6.963118655517545e+000
 7.216124962114491e-001	 9.273081501138502e-001	 6.772731521281245e+000
 7.120117840234544e-001	 9.347000692080125e-001	 6.579743231411983e+000
 7.023420950353280e-001	 9.419875697251338e-001	 6.384434276464372e+000
 6.926051241698719e-001	 9.491697118842216e-001	 6.187087937261125e+000
 6.828025827925170e-001	 9.562455923694352e-001	 5.987990049529222e+000
 6.729361977373792e-001	 9.632143446700319e-001	 5.787428764840909e+000
 6.630077103256398e-001	 9.700751393893409e-001	 5.585694308176264e+000
 6.530188753773923e-001	 9.768271845226001e-001	 5.383078732435195e+000
 6.429714602180920e-001	 9.834697257035339e-001	 5.179875670232853e+000
 7.563577516516535e-001	 9.316238250774851e-001	 7.759468007409221e+000
 7.466987786421260e-001	 9.393832731742509e-001	 7.572022572225884e+000
 7.369659535808448e-001	 9.470381107523809e-001	 7.381695817406699e+000
 7.271609709209903e-001	 9.545873047204474e-001	 7.188748224610108e+000
 7.172855438694089e-001	 9.620298584397016e-001	 6.993443174781037e+000
 7.073414034110893e-001	 9.693648121338085e-001	 6.796046740454485e+000
 6.973302973234935e-001	 9.765912432674426e-001	 6.596827474050522e+000
 6.872539891818889e-001	 9.837082668934617e-001	 6.396056192423875e+000
 6.771142573568441e-001	 9.907150359684579e-001	 6.194005757938923e+000
 6.669128940050503e-001	 9.976107416365030e-001	 5.990950856352058e+000
 6.566517040546327e-001	 1.004394613480975e+000	 5.787167771791347e+000
 7.721152048139458e-001	 9.510326547655491e-001	 8.382610704368952e+000
 7.622550032005621e-001	 9.589537580304064e-001	 8.193895076740656e+000
 7.523194109508807e-001	 9.667680713908911e-001	 8.002256983031881e+000
 7.423101578191916e-001	 9.744745402328375e-001	 7.807940375906777e+000
 7.322289927041491e-001	 9.820721471541880e-001	 7.611192010129117e+000
 7.220776826529302e-001	 9.895599123832692e-001	 7.412261258230532e+000
 7.118580118550275e-001	 9.969368941652685e-001	 7.211399922135213e+000
 7.015717806268598e-001	 1.004202189116645e+000	 7.008862040956855e+000
 6.912208043883839e-001	 1.011354932547253e+000	 6.804903695193785e+000
 6.808069126328884e-001	 1.018394298749998e+000	 6.599782807558024e+000
 6.703319478911681e-001	 1.025319501257913e+000	 6.393758940685280e+000
 7.878726579767392e-001	 9.704414844536136e-001	 9.021249919890471e+000
 7.778112277595841e-001	 9.785242428865572e-001	 8.830009653353685e+000
 7.676728683215578e-001	 9.864980320293814e-001	 8.635768743506739e+000
 7.574593447180578e-001	 9.943617757451815e-001	 8.438755025603374e+000
 7.471724415395483e-001	 1.002114435868594e+000	 8.239199064270011e+000
 7.368139618953942e-001	 1.009755012632604e+000	 8.037333992291213e+000
 7.263857263871186e-001	 1.017282545062913e+000	 7.833395345284892e+000
 7.158895720722922e-001	 1.024696111339581e+000	 7.627620892436201e+000
 7.053273514202589e-001	 1.031994829125725e+000	 7.420250463470286e+000
 6.947009312609062e-001	 1.039177855863086e+000	 7.211525772056362e+000
 6.840121917276981e-001	 1.046244389034349e+000	 7.001690235844038e+000
 5.472097533621585e-001	 8.369955112473729e-001	 1.110965471351868e+000
 5.386104201372436e-001	 8.425549331296908e-001	 9.384162260782917e-001
 5.299642681565356e-001	 8.480199729359587e-001	 7.734694874397430e-001
 5.212728283505861e-001	 8.533900857430294e-001	 6.164252606965486e-001
 5.125376388839769e-001	 8.586647592332954e-001	 4.675770639512099e-001
 5.037602443012851e-001	 8.638435137714188e-001	 3.272115743344480e-001
 4.949421946742142e-001	 8.689259024546853e-001	 1.956082853524670e-001
 4.860850447508239e-001	 8.739115111371586e-001	 7.303917601797574e-002
 4.771903531077782e-001	 8.787999584278387e-001	-4.023160763728756e-002
 4.682596813065162e-001	 8.835908956630775e-001	-1.439480581128491e-001
 4.592945930542355e-001	 8.882840068535240e-001	-2.378625985257701e-001
 5.608899971987366e-001	 8.579203990283327e-001	 1.748468341073643e+000
 5.520756806439687e-001	 8.636188064585515e-001	 1.582182911505292e+000
 5.432133748642545e-001	 8.692204722606064e-001	 1.422110759523063e+000
 5.343046490634094e-001	 8.747248378882714e-001	 1.268574131511094e+000
 5.253510798601307e-001	 8.801313782159999e-001	 1.121889760091819e+000
 5.163542504126112e-001	 8.854396016175710e-001	 9.823684711064586e-001
 5.073157495443477e-001	 8.906490500177036e-001	 8.503148009067334e-001
 4.982371708721027e-001	 8.957592989168134e-001	 7.260266246709248e-001
 4.891201119369577e-001	 9.007699573891272e-001	 6.097947964264062e-001
 4.799661733393895e-001	 9.056806680544066e-001	 5.019028014261305e-001
 4.707769578792765e-001	 9.104911070235670e-001	 4.026264214895124e-001
 5.745702410353087e-001	 8.788452868087893e-001	 2.353501209791447e+000
 5.655409411505090e-001	 8.846826797868248e-001	 2.193155716276795e+000
 5.564624815716492e-001	 8.904209715846120e-001	 2.037669997378961e+000
 5.473364697758097e-001	 8.960595900328475e-001	 1.887389023460377e+000
 5.381645208358035e-001	 9.015979971980446e-001	 1.742653202971771e+000
 5.289482565234381e-001	 9.070356894631005e-001	 1.603797949496420e+000
 5.196893044140040e-001	 9.123721975801654e-001	 1.471153258287674e+000
 5.103892969929661e-001	 9.176070866960089e-001	 1.345043293103285e+000
 5.010498707658238e-001	 9.227399563500829e-001	 1.225785984106509e+000
 4.916726653720901e-001	 9.277704404455577e-001	 1.113692637570734e+000
 4.822593227043255e-001	 9.326982071936176e-001	 1.009067558089904e+000
 5.882504848718763e-001	 8.997701745887436e-001	 2.930795883196574e+000
 5.790062016568643e-001	 9.057465531145107e-001	 2.776036343922509e+000
 5.697115882787198e-001	 9.116214709079761e-001	 2.624815169474449e+000
 5.603682904877877e-001	 9.173943421767583e-001	 2.477500576786457e+000
 5.509779618109953e-001	 9.230646161794306e-001	 2.334457153336325e+000
 5.415422626337660e-001	 9.286317773080069e-001	 2.196045383459799e+000
 5.320628592831833e-001	 9.340953451420716e-001	 2.062621183370852e+000
 5.225414231134143e-001	 9.394548744747449e-001	 1.934535445779934e+000
 5.129796295943760e-001	 9.447099553107049e-001	 1.812133594972983e+000
 5.033791574046184e-001	 9.498602128365317e-001	 1.695755153177636e+000
 4.937416875293824e-001	 9.549053073636764e-001	 1.585733319009605e+000
 6.019307287084381e-001	 9.206950623681951e-001	 3.484747064026499e+000
 5.924714621630346e-001	 9.268104264416094e-001	 3.335190469849173e+000
 5.829606949854665e-001	 9.328219702306987e-001	 3.187879590626096e+000
 5.734001111993428e-001	 9.387290943200031e-001	 3.043206450524406e+000
 5.637914027857065e-001	 9.445312351601574e-001	 2.901560359287823e+000
 5.541362687435950e-001	 9.502278651522911e-001	 2.763327396968868e+000
 5.444364141518856e-001	 9.558184927034217e-001	 2.628889906604047e+000
 5.346935492334475e-001	 9.613026622530213e-001	 2.498625995819778e+000
 5.249093884226146e-001	 9.666799542709933e-001	 2.372909048322398e+000
 5.150856494369740e-001	 9.719499852273283e-001	 2.252107246192346e+000
 5.052240523544471e-001	 9.771124075337430e-001	 2.136583103866978e+000
 6.156109725449946e-001	 9.416199501471442e-001	 4.019449807947725e+000
 6.059367226690199e-001	 9.478742997681203e-001	 3.874685077798418e+000
 5.962098016918892e-001	 9.540224695527798e-001	 3.730899105738871e+000
 5.864319319104754e-001	 9.600638464625831e-001	 3.588508320413441e+000
 5.766048437599364e-001	 9.659978541402249e-001	 3.447927335468323e+000
 5.667302748529249e-001	 9.718239529959529e-001	 3.309568391788442e+000
 5.568099690201109e-001	 9.775416402642156e-001	 3.173840806943648e+000
 5.468456753530654e-001	 9.831504500308380e-001	 3.041150432922974e+000
 5.368391472505396e-001	 9.886499532309486e-001	 2.911899123207712e+000
 5.267921414691571e-001	 9.940397576179475e-001	 2.786484210195489e+000
 5.167064171795196e-001	 9.993195077038174e-001	 2.665297993955346e+000
 6.292912163815461e-001	 9.625448379255903e-001	 4.569668788983789e+000
 6.194019831748203e-001	 9.689381730940442e-001	 4.398320926332219e+000
 6.094589083979877e-001	 9.752229688742187e-001	 4.257644423491818e+000
 5.994637526211853e-001	 9.813985986044971e-001	 4.117144050994849e+000
 5.894182847336855e-001	 9.874644731196336e-001	 3.977260344957006e+000
 5.793242809617558e-001	 9.934200408389917e-001	 3.838432310759430e+000
 5.691835238878591e-001	 9.992647878244535e-001	 3.701096828321248e+000
 5.589978014722682e-001	 1.004998237808195e+000	 3.565688065047563e+000
 5.487689060781512e-001	 1.010619952190571e+000	 3.432636897595914e+000
 5.384986335011676e-001	 1.016129530008389e+000	 3.302370343573027e+000
 5.281887820046000e-001	 1.021526607873900e+000	 3.175311004235180e+000
 6.429714602180920e-001	 9.834697257035339e-001	 5.179875670232853e+000
 6.328672436804357e-001	 9.900020464193806e-001	 4.969072188550701e+000
 6.227080151037622e-001	 9.964234681950164e-001	 4.771649322319581e+000
 6.124955733314724e-001	 1.002733350745746e+000	 4.632615760632412e+000
 6.022317257069536e-001	 1.008931092098383e+000	 4.493027298373124e+000
 5.919182870700878e-001	 1.015016128681408e+000	 4.353350346194620e+000
 5.815570787551302e-001	 1.020987935384135e+000	 4.214049972731210e+000
 5.711499275910558e-001	 1.026846025585093e+000	 4.075589271785653e+000
 5.606986649054490e-001	 1.032589951149860e+000	 3.938428737845005e+000
 5.502051255330056e-001	 1.038219302398653e+000	 3.803025651132833e+000
 5.396711468296881e-001	 1.043733708043990e+000	 3.669833473369760e+000
 6.566517040546327e-001	 1.004394613480975e+000	 5.787167771791347e+000
 6.463325041858661e-001	 1.011065919744129e+000	 5.577703282746202e+000
 6.359571218092126e-001	 1.017623967515172e+000	 5.362676044417643e+000
 6.255273940413370e-001	 1.024068102886329e+000	 5.142442502688123e+000
 6.150451666797407e-001	 1.030397711076473e+000	 4.998486165589785e+000
 6.045122931779204e-001	 1.036612216523202e+000	 4.857545184725854e+000
 5.939306336219243e-001	 1.042711082943261e+000	 4.715885356682688e+000
 5.833020537094281e-001	 1.048693813361531e+000	 4.573999351068817e+000
 5.726284237324332e-001	 1.054559950108815e+000	 4.432377914496868e+000
 5.619116175646711e-001	 1.060309074788740e+000	 4.291509208019215e+000
 5.511535116547843e-001	 1.065940808214088e+000	 4.151878155006373e+000
 6.703319478911681e-001	 1.025319501257913e+000	 6.393758940685280e+000
 6.597977646911116e-001	 1.032129793068291e+000	 6.185476869949414e+000
 6.492062285143391e-001	 1.038824466834687e+000	 5.970278556793662e+000
 6.385592147507786e-001	 1.045402855026246e+000	 5.748532259111514e+000
 6.278586076520470e-001	 1.051864330053904e+000	 5.520612333456417e+000
 6.171062992852544e-001	 1.058208304364372e+000	 5.354052283393394e+000
 6.063041884882415e-001	 1.064434230501831e+000	 5.209602321963211e+000
 5.954541798273856e-001	 1.070541601137510e+000	 5.063879445867903e+000
 5.845581825591038e-001	 1.076529949067437e+000	 4.917405326340191e+000
 5.736181095961640e-001	 1.082398847178649e+000	 4.770699662739985e+000
 5.626358764798881e-001	 1.088147908384193e+000	 4.624279481553573e+000
 6.840121917276981e-001	 1.046244389034349e+000	 7.001690235844038e+000
 6.732630251961720e-001	 1.053193666391865e+000	 6.794432603469492e+000
 6.624553352191411e-001	 1.060024966153559e+000	 6.578917778428484e+000
 6.515910354597979e-001	 1.066737607165498e+000	 6.355525617536508e+000
 6.406720486238724e-001	 1.073330949030676e+000	 6.124643149016158e+000
 6.297003053920893e-001	 1.079804392204921e+000	 5.886664184729382e+000
 6.186777433540814e-001	 1.086157378059845e+000	 5.698033013111084e+000
 6.076063059449275e-001	 1.092389388913029e+000	 5.548024959689101e+000
 5.964879413854606e-001	 1.098499948025726e+000	 5.396267737585860e+000
 5.853246016274843e-001	 1.104488619568381e+000	 5.243313279830282e+000
 5.741182413050000e-001	 1.110355008554307e+000	 5.089711396305242e+000
 4.592945930542355e-001	 8.882840068535240e-001	-2.378625985257701e-001
 4.502966533698555e-001	 8.928790086056798e-001	-3.326755759408856e-001
 4.412674277578943e-001	 8.973756500191494e-001	-4.232560682133470e-001
 4.322084813897783e-001	 9.017737125594308e-001	-5.093427604655694e-001
 4.231213782919210e-001	 9.060730099062139e-001	-5.906784754573010e-001
 4.140076805434690e-001	 9.102733877783561e-001	-6.670104980162006e-001
 4.048689474837919e-001	 9.143747237357484e-001	-7.380908890838663e-001
 3.957067349304591e-001	 9.183769269585731e-001	-8.036767888672283e-001
 3.865225944084205e-001	 9.222799380044702e-001	-8.635307086184439e-001
 3.773180723910823e-001	 9.260837285441587e-001	-9.174208106017520e-001
 3.680947095539379e-001	 9.297883010760839e-001	-9.651211758411991e-001
 4.707769578792765e-001	 9.104911070235670e-001	 4.026264214895124e-001
 4.615540697013549e-001	 9.152009838184482e-001	 3.017190657149401e-001
 4.522991134480965e-001	 9.198100412663188e-001	 2.054198755625195e-001
 4.430136934202115e-001	 9.243180553693133e-001	 1.139979095972296e-001
 4.336994127447718e-001	 9.287248351491138e-001	 2.771755363364451e-002
 4.243578725529003e-001	 9.330302224675480e-001	-5.316181155809400e-002
 4.149906711674483e-001	 9.372340918235038e-001	-1.283861312584335e-001
 4.055994033014224e-001	 9.413363501266676e-001	-1.977069859960854e-001
 3.961856592678934e-001	 9.453369364486188e-001	-2.608818884553614e-001
 3.867510242020997e-001	 9.492358217518436e-001	-3.176745676469779e-001
 3.772970772964199e-001	 9.530330085972488e-001	-3.678552399378258e-001
 4.822593227043255e-001	 9.326982071936176e-001	 1.009067558089904e+000
 4.728114860330365e-001	 9.375229590314141e-001	 9.010384471314364e-001
 4.633307991386043e-001	 9.422444325138553e-001	 7.979625778743974e-001
 4.538189054510228e-001	 9.468623981797121e-001	 7.001178660640965e-001
 4.442774471980224e-001	 9.513766603926590e-001	 6.077770285014041e-001
 4.347080645627028e-001	 9.557870571574939e-001	 5.212072413815008e-001
 4.251123948513977e-001	 9.600934599121022e-001	 4.406698108389785e-001
 4.154920716725502e-001	 9.642957732956731e-001	 3.664198562321939e-001
 4.058487241273531e-001	 9.683939348937276e-001	 2.987060066577965e-001
 3.961839760128776e-001	 9.723879149605192e-001	 2.377701111454035e-001
 3.864994450383867e-001	 9.762777161194137e-001	 1.838469629431830e-001
 4.937416875293824e-001	 9.549053073636764e-001	 1.585733319009605e+000
 4.840689023649002e-001	 9.598449342445778e-001	 1.469566009387457e+000
 4.743624848294175e-001	 9.646788237617586e-001	 1.358668157807865e+000
 4.646241174822121e-001	 9.694067409906272e-001	 1.253327647853370e+000
 4.548554816516731e-001	 9.740284856368491e-001	 1.153826645809946e+000
 4.450582565728770e-001	 9.785438918481938e-001	 1.060441248136404e+000
 4.352341185356400e-001	 9.829528280015428e-001	 9.734411420771664e-001
 4.253847400438429e-001	 9.872551964655910e-001	 8.930892799633393e-001
 4.155117889868000e-001	 9.914509333397975e-001	 8.196415677035244e-001
 4.056169278234155e-001	 9.955400081701846e-001	 7.533465679243723e-001
 3.957018127798380e-001	 9.995224236425787e-001	 6.944452181764282e-001
 5.052240523544471e-001	 9.771124075337430e-001	 2.136583103866978e+000
 4.953263186969465e-001	 9.821669094579394e-001	 2.011269212315915e+000
 4.853941705205365e-001	 9.871132150100292e-001	 1.891513710659287e+000
 4.754293295137795e-001	 9.919510838020585e-001	 1.777615560375022e+000
 4.654335161057235e-001	 9.966803108816844e-001	 1.669867494141080e+000
 4.554084485834228e-001	 1.001300726539648e+000	 1.568555650936228e+000
 4.453558422201756e-001	 1.005812196091827e+000	 1.473959225237298e+000
 4.352774084153004e-001	 1.010214619636420e+000	 1.386350130873837e+000
 4.251748538462340e-001	 1.014507931786828e+000	 1.305992680055428e+000
 4.150498796337138e-001	 1.018692101380841e+000	 1.233143278042338e+000
 4.049041805207738e-001	 1.022767131166744e+000	 1.168050133883923e+000
 5.167064171795196e-001	 9.993195077038174e-001	 2.665297993955346e+000
 5.065837350291749e-001	 1.004488884671498e+000	 2.529834643530577e+000
 4.964258562119608e-001	 1.009547606258667e+000	 2.400192755023879e+000
 4.862345415457248e-001	 1.014495426614006e+000	 2.276683479253715e+000
 4.760115505601740e-001	 1.019332136127165e+000	 2.159611232670212e+000
 4.657586405943398e-001	 1.024057561231856e+000	 2.049273318584471e+000
 4.554775659050040e-001	 1.028671564182954e+000	 1.945959563466233e+000
 4.451700767869229e-001	 1.033174042808162e+000	 1.849951968889371e+000
 4.348379187056552e-001	 1.037564930234820e+000	 1.761524379656588e+000
 4.244828314437724e-001	 1.041844194592487e+000	 1.680942168587703e+000
 4.141065482611941e-001	 1.046011838691909e+000	 1.608461938406194e+000
 5.281887820046000e-001	 1.021526607873900e+000	 3.175311004235180e+000
 5.178411513615852e-001	 1.026810859885255e+000	 3.028698548015847e+000
 5.074575419036908e-001	 1.031981997507672e+000	 2.888146056349922e+000
 4.970397535780482e-001	 1.037039769426470e+000	 2.753977984001010e+000
 4.865895850150245e-001	 1.041983961373291e+000	 2.626511550884272e+000
 4.761088326056285e-001	 1.046814395924818e+000	 2.506056347917673e+000
 4.655992895901255e-001	 1.051530932274924e+000	 2.392913958932383e+000
 4.550627451587098e-001	 1.056133465980814e+000	 2.287377599243881e+000
 4.445009835650633e-001	 1.060621928683773e+000	 2.189731771434731e+000
 4.339157832535910e-001	 1.064996287805123e+000	 2.100251938846957e+000
 4.233089160010993e-001	 1.069256546218074e+000	 2.019204217234510e+000
 5.396711468296881e-001	 1.043733708043990e+000	 3.669833473369760e+000
 5.290985676941781e-001	 1.049132835099209e+000	 3.511073460321287e+000
 5.184892275957262e-001	 1.054416388757043e+000	 3.358588515571803e+000
 5.078449656107498e-001	 1.059584112239450e+000	 3.212717517176307e+000
 4.971676194702749e-001	 1.064635786620062e+000	 3.073791612165348e+000
 4.864590246172889e-001	 1.069571230618535e+000	 2.942133805503642e+000
 4.757210132755402e-001	 1.074390300367736e+000	 2.818058566120634e+000
 4.649554135306619e-001	 1.079092889154379e+000	 2.701871450638214e+000
 4.541640484244586e-001	 1.083678927133686e+000	 2.593868745367398e+000
 4.433487350631701e-001	 1.088148381018749e+000	 2.494337127091642e+000
 4.325112837404888e-001	 1.092501253745239e+000	 2.403553343099933e+000
 5.511535116547843e-001	 1.065940808214088e+000	 4.151878155006373e+000
 5.403559840269530e-001	 1.071454810313361e+000	 3.979971507732172e+000
 5.295209132880673e-001	 1.076850780006782e+000	 3.814532696663264e+000
 5.186501776438292e-001	 1.082128455052946e+000	 3.655916148652782e+000
 5.077456539259251e-001	 1.087287611867478e+000	 3.504468066926602e+000
 4.968092166293206e-001	 1.092328065313005e+000	 3.360526001627634e+000
 4.858427369612477e-001	 1.097249668461392e+000	 3.224418438466057e+000
 4.748480819027786e-001	 1.102052312328856e+000	 3.096464406128156e+000
 4.638271132838410e-001	 1.106735925584561e+000	 2.976973103038928e+000
 4.527816868725094e-001	 1.111300474233366e+000	 2.866243544016902e+000
 4.417136514793630e-001	 1.115745961273404e+000	 2.764564227302226e+000
 5.626358764798881e-001	 1.088147908384193e+000	 4.624279481553573e+000
 5.516134003599104e-001	 1.093776785527711e+000	 4.438224859990283e+000
 5.405525989807140e-001	 1.099285171256888e+000	 4.258809473266438e+000
 5.294553896772867e-001	 1.104672797866958e+000	 4.086404429973073e+000
 5.183236883819754e-001	 1.109939437115540e+000	 3.921372125364196e+000
 5.071594086417237e-001	 1.115084900008229e+000	 3.764065791953719e+000
 4.959644606472484e-001	 1.120109036555890e+000	 3.614829069276960e+000
 4.847407502750601e-001	 1.125011735504244e+000	 3.473995593496496e+000
 4.734901781432104e-001	 1.129792924036396e+000	 3.341888607475762e+000
 4.622146386816088e-001	 1.134452567448973e+000	 3.218820591881269e+000
 4.509160192177217e-001	 1.138990668802569e+000	 3.105092917814264e+000
 5.741182413050000e-001	 1.110355008554307e+000	 5.089711396305242e+000
 5.628708166930497e-001	 1.116098760742258e+000	 4.888503725048542e+000
 5.515842846736662e-001	 1.121719562507361e+000	 4.694086197724783e+000
 5.402606017111223e-001	 1.127217140681487e+000	 4.506847746182395e+000
 5.289017228384256e-001	 1.132591262364247e+000	 4.327168101478746e+000
 5.175096006544985e-001	 1.137841734704207e+000	 4.155417322986832e+000
 5.060861843335420e-001	 1.142968404651231e+000	 3.991955347747445e+000
 4.946334186475063e-001	 1.147971158680544e+000	 3.837131560779737e+000
 4.831532430025670e-001	 1.152849922489192e+000	 3.691284387002095e+000
 4.716475904904685e-001	 1.157604660665570e+000	 3.554740905350076e+000
 4.601183869555650e-001	 1.162235376332733e+000	 3.427816485614192e+000
 3.680947095539379e-001	 9.297883010760839e-001	-9.651211758411991e-001
 3.588540400425035e-001	 9.333936886206078e-001	-1.014955539449350e+000
 3.495975907518841e-001	 9.368999543945393e-001	-1.061184107539081e+000
 3.403268806206379e-001	 9.403071914665515e-001	-1.103614454490401e+000
 3.310434199417802e-001	 9.436155223939605e-001	-1.142057925033370e+000
 3.217487096881428e-001	 9.468250988417173e-001	-1.176329869056503e+000
 3.124442408536598e-001	 9.499361011842370e-001	-1.206249865915722e+000
 3.031314938110321e-001	 9.529487380907488e-001	-1.231641937979329e+000
 2.938119376861949e-001	 9.558632460948670e-001	-1.252334753175868e+000
 2.844870297499803e-001	 9.586798891490923e-001	-1.268161816344712e+000
 2.751582148273362e-001	 9.613989581649598e-001	-1.278961649223777e+000
 3.772970772964199e-001	 9.530330085972488e-001	-3.678552399378258e-001
 3.678253910496041e-001	 9.567285308306593e-001	-4.232582733528871e-001
 3.583375305287336e-001	 9.603224532492585e-001	-4.750254151684021e-001
 3.488350526458336e-001	 9.638148712484372e-001	-5.229608330092568e-001
 3.393195054512464e-001	 9.672059104494429e-001	-5.668726331528668e-001
 3.297924274421274e-001	 9.704957263088510e-001	-6.065731016395990e-001
 3.202553468872612e-001	 9.736845037104359e-001	-6.418789343913901e-001
 3.107097811686690e-001	 9.767724565401574e-001	-6.726114560680406e-001
 3.011572361404367e-001	 9.797598272449695e-001	-6.985968274228853e-001
 2.915992055051704e-001	 9.826468863761853e-001	-7.196662409548154e-001
 2.820371702084442e-001	 9.854339321181277e-001	-7.356561046893317e-001
 3.864994450383867e-001	 9.762777161194137e-001	 1.838469629431830e-001
 3.767967420559097e-001	 9.800633730417054e-001	 1.214935295149525e-001
 3.670774703045501e-001	 9.837449521049575e-001	 6.280631280665318e-002
 3.573432246697985e-001	 9.873225510312768e-001	 7.985600989809062e-003
 3.475955909593249e-001	 9.907962985058438e-001	-4.277244075184433e-002
 3.378361451946071e-001	 9.941663537768565e-001	-8.927601866271863e-002
 3.280664529192809e-001	 9.974329062374506e-001	-1.313379473276772e-001
 3.182880685246873e-001	 1.000596174990316e+000	-1.687758747746636e-001
 3.085025345930627e-001	 1.003656408395746e+000	-2.014124955291077e-001
 2.987113812587863e-001	 1.006613883603867e+000	-2.290757514084382e-001
 2.889161255880585e-001	 1.009468906071790e+000	-2.515990198893729e-001
 3.957018127798380e-001	 9.995224236425787e-001	 6.944452181764282e-001
 3.857680930614206e-001	 1.003398215253747e+000	 6.237946977419910e-001
 3.758174100793333e-001	 1.007167450961636e+000	 5.568412579934602e-001
 3.658513966925324e-001	 1.010830230815070e+000	 4.937906847807819e-001
 3.558716764660150e-001	 1.014386686563162e+000	 4.348444403690238e-001
 3.458798629455820e-001	 1.017836981245734e+000	 3.801994066393396e-001
 3.358775589497193e-001	 1.021181308765282e+000	 3.300476404023754e-001
 3.258663558790869e-001	 1.024419893441224e+000	 2.845761411114779e-001
 3.158478330440724e-001	 1.027552989547197e+000	 2.439666312244858e-001
 3.058235570108276e-001	 1.030580880832138e+000	 2.083953494265355e-001
 2.957950809661792e-001	 1.033503880025945e+000	 1.780328568868608e-001
 4.049041805207738e-001	 1.022767131166744e+000	 1.168050133883923e+000
 3.947394440661366e-001	 1.026733057466782e+000	 1.087785796759275e+000
 3.845573498530832e-001	 1.030589949819293e+000	 1.011250232932667e+000
 3.743595687140354e-001	 1.034337910599817e+000	 9.386557630617621e-001
 3.641477619713174e-001	 1.037977074621398e+000	 8.702101671166044e-001
 3.539235806950524e-001	 1.041507608715483e+000	 8.061164181934677e-001
 3.436886649785762e-001	 1.044929711293928e+000	 7.465724290701701e-001
 3.334446432318681e-001	 1.048243611892883e+000	 6.917708118005707e-001
 3.231931314934661e-001	 1.051449570699323e+000	 6.418986506043600e-001
 3.129357327612948e-001	 1.054547878060998e+000	 5.971372882691229e-001
 3.026740363428060e-001	 1.057538853980594e+000	 5.576621262424654e-001
 4.141065482611941e-001	 1.046011838691909e+000	 1.608461938406194e+000
 4.037107950700578e-001	 1.050067899680813e+000	 1.517292491412306e+000
 3.932972896257999e-001	 1.054012448677930e+000	 1.429884610994019e+000
 3.828677407343075e-001	 1.057845590385517e+000	 1.346458187129803e+000
 3.724238474752319e-001	 1.061567462680552e+000	 1.267228335249081e+000
 3.619672984430179e-001	 1.065178236186105e+000	 1.192405119624961e+000
 3.514997710058514e-001	 1.068678113823391e+000	 1.122193290186805e+000
 3.410229305830307e-001	 1.072067330345292e+000	 1.056792033058216e+000
 3.305384299412438e-001	 1.075346151852123e+000	 9.963947350857985e-001
 3.200479085101875e-001	 1.078514875290446e+000	 9.411887625821217e-001
 3.095529917179391e-001	 1.081573827935737e+000	 8.913552544639819e-001
 4.233089160010993e-001	 1.069256546218074e+000	 2.019204217234510e+000
 4.126821460731842e-001	 1.073402741895839e+000	 1.915859774285732e+000
 4.020372293974833e-001	 1.077434947537546e+000	 1.816311048024279e+000
 3.913759127533490e-001	 1.081353270172171e+000	 1.720786531554108e+000
 3.806999329777584e-001	 1.085157850740624e+000	 1.629509692543163e+000
 3.700110161894786e-001	 1.088848863657598e+000	 1.542698685159585e+000
 3.593108770315451e-001	 1.092426516353670e+000	 1.460566076150605e+000
 3.486012179325749e-001	 1.095891048798451e+000	 1.383318585383892e+000
 3.378837283874055e-001	 1.099242733005597e+000	 1.311156841123877e+000
 3.271600842575059e-001	 1.102481872520483e+000	 1.244275150274344e+000
 3.164319470915787e-001	 1.105608801891373e+000	 1.182861283773035e+000
 4.325112837404888e-001	 1.092501253745239e+000	 2.403553343099933e+000
 4.216534970755158e-001	 1.096737584111859e+000	 2.286781824452989e+000
 4.107771691681337e-001	 1.100857446398142e+000	 2.173841771445249e+000
 3.998840847711595e-001	 1.104860949959779e+000	 2.064971315103972e+000
 3.889760184788968e-001	 1.108748238801613e+000	 1.960403292834878e+000
 3.780547339344346e-001	 1.112519491129963e+000	 1.860364947857599e+000
 3.671219830556572e-001	 1.116174918884764e+000	 1.765077643557028e+000
 3.561795052805005e-001	 1.119714767252360e+000	 1.674756593082122e+000
 3.452290268319511e-001	 1.123139314159746e+000	 1.589610604475032e+000
 3.342722600032499e-001	 1.126448869751110e+000	 1.509841841568622e+000
 3.233109024637242e-001	 1.129643775847504e+000	 1.435645600844640e+000
 4.417136514793630e-001	 1.115745961273404e+000	 2.764564227302226e+000
 4.306248480770524e-001	 1.120072426328874e+000	 2.633128133883633e+000
 4.195171089377507e-001	 1.124279945259717e+000	 2.505561083213700e+000
 4.083922567877392e-001	 1.128368629748340e+000	 2.382111881561025e+000
 3.972521039786474e-001	 1.132338626863521e+000	 2.263023755804359e+000
 3.860984516778858e-001	 1.136190118603200e+000	 2.148534039318017e+000
 3.749330890781878e-001	 1.139923321416675e+000	 2.038873873594442e+000
 3.637577926268075e-001	 1.143538485707019e+000	 1.934267925949330e+000
 3.525743252748805e-001	 1.147035895314569e+000	 1.834934123603137e+000
 3.413844357474197e-001	 1.150415866982325e+000	 1.741083404385484e+000
 3.301898578343763e-001	 1.153678749804127e+000	 1.652919484260279e+000
 4.509160192177217e-001	 1.138990668802569e+000	 3.105092917814264e+000
 4.395961990777943e-001	 1.143407268546884e+000	 2.957766434697924e+000
 4.282570487063345e-001	 1.147702444122272e+000	 2.814348617521961e+000
 4.169004288030879e-001	 1.151876309537855e+000	 2.675099989003292e+000
 4.055281894770099e-001	 1.155929014926346e+000	 2.540275188828381e+000
 3.941421694198321e-001	 1.159860746077309e+000	 2.410122644929737e+000
 3.827441950991368e-001	 1.163671723949401e+000	 2.284884261371538e+000
 3.713360799714960e-001	 1.167362204162428e+000	 2.164795123203209e+000
 3.599196237161940e-001	 1.170932476470066e+000	 2.050083218587196e+000
 3.484966114900150e-001	 1.174382864214129e+000	 1.940969178456304e+000
 3.370688132035346e-001	 1.177713723761245e+000	 1.837666033905504e+000
 4.601183869555650e-001	 1.162235376332733e+000	 3.427816485614192e+000
 4.485675500777414e-001	 1.166742110765889e+000	 3.263382875151663e+000
 4.369969884738851e-001	 1.171124942985806e+000	 3.102899807573511e+000
 4.254086008172059e-001	 1.175383989328324e+000	 2.946640568375186e+000
 4.138042749739846e-001	 1.179519402990089e+000	 2.794872238210391e+000
 4.021858871602738e-001	 1.183531373552290e+000	 2.647855348492322e+000
 3.905553011185043e-001	 1.187420126482944e+000	 2.505843554525162e+000
 3.789143673145659e-001	 1.191185922618587e+000	 2.369083326540709e+000
 3.672649221558915e-001	 1.194829057626238e+000	 2.237813658959631e+000
 3.556087872310361e-001	 1.198349861446522e+000	 2.112265798142302e+000
 3.439477685711992e-001	 1.201748697718857e+000	 1.992662988839834e+000
 2.751582148273362e-001	 9.613989581649598e-001	-1.278961649223777e+000
 2.658269247236917e-001	 9.640207705404181e-001	-1.292418675438609e+000
 2.564945776709277e-001	 9.665456696725904e-001	-1.303408030967687e+000
 2.471625777918798e-001	 9.689740244583481e-001	-1.311806270515891e+000
 2.378323145820490e-001	 9.713062287851813e-001	-1.317492498266386e+000
 2.285051624109133e-001	 9.735427010105086e-001	-1.320348524392015e+000
 2.191824800423046e-001	 9.756838834310223e-001	-1.320259012950561e+000
 2.098656101739952e-001	 9.777302417428042e-001	-1.317111621080900e+000
 2.005558789966090e-001	 9.796822644929403e-001	-1.310797129440432e+000
 1.912545957719432e-001	 9.815404625233627e-001	-1.301209563849130e+000
 1.819630524307584e-001	 9.833053684076398e-001	-1.288246308126937e+000
 2.820371702084442e-001	 9.854339321181277e-001	-7.356561046893317e-001
 2.724725978510110e-001	 9.881212898035869e-001	-7.582253077060225e-001
 2.629069421207347e-001	 9.907093114145075e-001	-7.779674890422891e-001
 2.533416422435220e-001	 9.931983750701838e-001	-7.947560598646292e-001
 2.437781224522617e-001	 9.955888845052949e-001	-8.084674370688906e-001
 2.342177914756686e-001	 9.978812685361965e-001	-8.189811983538301e-001
 2.246620420466708e-001	 1.000075980516999e+000	-8.261802279538134e-001
 2.151122504304848e-001	 1.002173497786187e+000	-8.299508529618290e-001
 2.055697759725005e-001	 1.004174321104526e+000	-8.301829702055628e-001
 1.960359606660600e-001	 1.006078974084998e+000	-8.267701636589331e-001
 1.865121287401930e-001	 1.007888002615511e+000	-8.196098124001306e-001
 2.889161255880585e-001	 1.009468906071790e+000	-2.515990198893729e-001
 2.791182709769418e-001	 1.012221809067160e+000	-2.842147280494543e-001
 2.693193065692688e-001	 1.014872953156760e+000	-3.136491269888358e-001
 2.595207066940173e-001	 1.017422725682307e+000	-3.397716862873065e-001
 2.497239303214635e-001	 1.019871540225668e+000	-3.624553522490484e-001
 2.399304205395594e-001	 1.022219836062135e+000	-3.815767021940399e-001
 2.301416040503286e-001	 1.024468077603237e+000	-3.970160886400893e-001
 2.203588906864324e-001	 1.026616753829864e+000	-4.086577733260873e-001
 2.105836729480258e-001	 1.028666377716458e+000	-4.163900510559325e-001
 2.008173255599963e-001	 1.030617485647050e+000	-4.201053633677756e-001
 1.910612050496423e-001	 1.032470636823890e+000	-4.197004020600236e-001
 2.957950809661792e-001	 1.033503880025945e+000	 1.780328568868608e-001
 2.857639441014841e-001	 1.036322328331137e+000	 1.344461977448171e-001
 2.757316710165300e-001	 1.039036594899347e+000	 9.439134281895208e-002
 2.656997711433657e-001	 1.041647076294716e+000	 5.800355627757468e-002
 2.556697381896546e-001	 1.044154195946299e+000	 2.541413896363315e-002
 2.456430496025857e-001	 1.046558403588324e+000	-3.249725756426144e-003
 2.356211660532782e-001	 1.048860174689739e+000	-2.786511522358080e-002
 2.256055309418379e-001	 1.051060009873836e+000	-4.831349976614457e-002
 2.155975699231850e-001	 1.053158434328735e+000	-6.448086402697539e-002
 2.055986904537520e-001	 1.055155997209519e+000	-7.625781736248843e-002
 1.956102813591062e-001	 1.057053271032776e+000	-8.353969336710254e-002
 3.026740363428060e-001	 1.057538853980594e+000	 5.576621262424654e-001
 2.924096172246379e-001	 1.060422847595518e+000	 5.021873103157741e-001
 2.821440354625185e-001	 1.063200236642269e+000	 4.505921803995329e-001
 2.718788355915671e-001	 1.065871426907411e+000	 4.030175225626080e-001
 2.616155460568349e-001	 1.068436851667188e+000	 3.595996565099011e-001
 2.513556786647473e-001	 1.070896971114763e+000	 3.204702809410355e-001
 2.411007280555196e-001	 1.073252271776503e+000	 2.857563306829336e-001
 2.308521711967011e-001	 1.075503265918101e+000	 2.555798456085445e-001
 2.206114668979780e-001	 1.077650490941359e+000	 2.300578513262224e-001
 2.103800553473271e-001	 1.079694508772404e+000	 2.093022515926252e-001
 2.001593576685848e-001	 1.081635905242169e+000	 1.934197323749749e-001
 3.095529917179391e-001	 1.081573827935737e+000	 8.913552544639819e-001
 2.990552903464032e-001	 1.084523366860303e+000	 8.230799671256524e-001
 2.885563999072340e-001	 1.087363878385527e+000	 7.590307323427731e-001
 2.780579000386217e-001	 1.090095777520394e+000	 6.993546438973706e-001
 2.675613539230043e-001	 1.092719507388336e+000	 6.441938089267570e-001
 2.570683077260445e-001	 1.095235538641453e+000	 5.936851921709827e-001
 2.465802900570527e-001	 1.097644368863529e+000	 5.479604728906384e-001
 2.360988114510223e-001	 1.099946521962662e+000	 5.071459144518751e-001
 2.256253638724049e-001	 1.102142547554328e+000	 4.713622465428485e-001
 2.151614202407218e-001	 1.104233020335707e+000	 4.407245599539231e-001
 2.047084339780781e-001	 1.106218539452070e+000	 4.153422138252426e-001
 3.164319470915787e-001	 1.105608801891373e+000	 1.182861283773035e+000
 3.057009634667799e-001	 1.108623886125492e+000	 1.100876008023059e+000
 2.949687643506767e-001	 1.111527520129120e+000	 1.023462661531123e+000
 2.842369644845292e-001	 1.114320128133663e+000	 9.507754307528020e-001
 2.735071617881630e-001	 1.117002163109742e+000	 8.829629771963428e-001
 2.627809367864772e-001	 1.119574106168393e+000	 8.201682799437272e-001
 2.520598520578775e-001	 1.122036465950817e+000	 7.625284917852040e-001
 2.413454517048013e-001	 1.124389778007516e+000	 7.101748089469016e-001
 2.306392608464655e-001	 1.126634604167643e+000	 6.632323543555859e-001
 2.199427851339359e-001	 1.128771531899427e+000	 6.218200743531729e-001
 2.092575102875861e-001	 1.130801173662478e+000	 5.860506487403355e-001
 3.233109024637242e-001	 1.129643775847504e+000	 1.435645600844640e+000
 3.123466365857683e-001	 1.132724405391085e+000	 1.339041746478865e+000
 3.013811287928464e-001	 1.135691161873047e+000	 1.247356168810825e+000
 2.904160289292899e-001	 1.138544478747219e+000	 1.160750932407715e+000
 2.794529696523110e-001	 1.141284818831407e+000	 1.079382019805545e+000
 2.684935658460452e-001	 1.143912673695583e+000	 1.003399171695357e+000
 2.575394140579940e-001	 1.146428563038369e+000	 9.329457417127911e-001
 2.465920919580383e-001	 1.148833034052665e+000	 8.681585657922565e-001
 2.356531578201600e-001	 1.151126660781304e+000	 8.091678460110118e-001
 2.247241500269694e-001	 1.153310043463564e+000	 7.560970488140347e-001
 2.138065865971087e-001	 1.155383807873393e+000	 7.090628174755653e-001
 3.301898578343763e-001	 1.153678749804127e+000	 1.652919484260279e+000
 3.189923097033681e-001	 1.156824924657083e+000	 1.540787711917627e+000
 3.077934932337433e-001	 1.159854803617310e+000	 1.433921936954462e+000
 2.965950933729035e-001	 1.162768829361061e+000	 1.332492889156381e+000
 2.853987775154481e-001	 1.165567474553330e+000	 1.236664639672748e+000
 2.742061949047488e-001	 1.168251241223025e+000	 1.146594438264533e+000
 2.630189760574022e-001	 1.170820660126182e+000	 1.062432566192900e+000
 2.518387322107331e-001	 1.173276290098108e+000	 9.843222046908274e-001
 2.406670547934883e-001	 1.175618717395311e+000	 9.123993189248566e-001
 2.295055149198224e-001	 1.177848555028117e+000	 8.467925573153838e-001
 2.183556629066459e-001	 1.179966442084816e+000	 7.876231660479927e-001
 3.370688132035346e-001	 1.177713723761245e+000	 1.837666033905504e+000
 3.256379828195793e-001	 1.180925443923485e+000	 1.709094750130830e+000
 3.142058576733674e-001	 1.184018445361908e+000	 1.586139408015975e+000
 3.027741578153703e-001	 1.186993179975190e+000	 1.468980192409612e+000
 2.913445853775744e-001	 1.189850130275511e+000	 1.357790032675699e+000
 2.799188239625878e-001	 1.192589808750716e+000	 1.252734436402914e+000
 2.684985380561021e-001	 1.195212757214259e+000	 1.153971339839956e+000
 2.570853724628858e-001	 1.197719546143846e+000	 1.061650974982237e+000
 2.456809517664505e-001	 1.200110774009664e+000	 9.759157531957103e-001
 2.342868798124949e-001	 1.202387066593088e+000	 8.969001652252809e-001
 2.229047392161979e-001	 1.204549076296746e+000	 8.247306973959147e-001
 3.439477685711992e-001	 1.201748697718857e+000	 1.992662988839834e+000
 3.322836559344022e-001	 1.205025963190290e+000	 1.846736991640550e+000
 3.206182221117185e-001	 1.208182087106841e+000	 1.706779907402511e+000
 3.089532222566901e-001	 1.211217530589606e+000	 1.572982169583181e+000
 2.972903932386899e-001	 1.214132785997952e+000	 1.445526338356014e+000
 2.856314530195623e-001	 1.216928376278658e+000	 1.324586930184036e+000
 2.739781000540938e-001	 1.219604854302597e+000	 1.210330265254108e+000
 2.623320127144964e-001	 1.222162802189878e+000	 1.102914332679543e+000
 2.506948487390464e-001	 1.224602830624363e+000	 1.002488673337090e+000
 2.390682447049869e-001	 1.226925578158476e+000	 9.091942801620836e-001
 2.274538155257646e-001	 1.229131710509183e+000	 8.231635156870618e-001
 1.819630524307584e-001	 9.833053684076398e-001	-1.288246308126937e+000
 1.726825231903044e-001	 9.849775358802030e-001	-1.278268544334634e+000
 1.634142641909075e-001	 9.865575392624050e-001	-1.267236476712601e+000
 1.541595131519815e-001	 9.880459728836374e-001	-1.255098712995333e+000
 1.449194890479378e-001	 9.894434504957537e-001	-1.241804540523389e+000
 1.356953918032303e-001	 9.907506046851591e-001	-1.227304020645504e+000
 1.264884020066533e-001	 9.919680862820067e-001	-1.211548077753682e+000
 1.172996806447693e-001	 9.930965637671554e-001	-1.194488582958674e+000
 1.081303688543237e-001	 9.941367226775285e-001	-1.176078432425605e+000
 9.898158769347758e-002	 9.950892650105071e-001	-1.156271620405225e+000
 8.985443793167208e-002	 9.959549086279671e-001	-1.135023307005377e+000
 1.865121287401930e-001	 1.007888002615511e+000	-8.196098124001306e-001
 1.769995862676611e-001	 1.009601974274025e+000	-8.207842986523728e-001
 1.674996207923786e-001	 1.011221477740089e+000	-8.202985712666211e-001
 1.580135009767428e-001	 1.012747122201329e+000	-8.180951894818554e-001
 1.485424762695244e-001	 1.014179536753393e+000	-8.141180952983396e-001
 1.390877765932874e-001	 1.015519369797345e+000	-8.083127011711252e-001
 1.296506120515439e-001	 1.016767288434090e+000	-8.006259714715702e-001
 1.202321726555194e-001	 1.017923977856507e+000	-7.910064977590262e-001
 1.108336280703764e-001	 1.018990140739942e+000	-7.794045679192193e-001
 1.014561273807284e-001	 1.019966496631707e+000	-7.657722292401741e-001
 9.210079887525120e-002	 1.020853781340225e+000	-7.500633455088110e-001
 1.910612050496423e-001	 1.032470636823890e+000	-4.197004020600236e-001
 1.813166493452170e-001	 1.034226412668443e+000	-4.320533167982314e-001
 1.715849773942018e-001	 1.035885416218438e+000	-4.421509532123649e-001
 1.618674888019790e-001	 1.037448271519734e+000	-4.499294526955977e-001
 1.521654634916778e-001	 1.038915623011773e+000	-4.553270508632567e-001
 1.424801613839725e-001	 1.040288134910280e+000	-4.582841587848137e-001
 1.328128220970943e-001	 1.041566490586910e+000	-4.587434370934767e-001
 1.231646646669312e-001	 1.042751391946564e+000	-4.566498630501868e-001
 1.135368872870632e-001	 1.043843558803008e+000	-4.519507906558625e-001
 1.039306670685567e-001	 1.044843728253489e+000	-4.445960039171735e-001
 9.434715981932204e-002	 1.045752654052973e+000	-4.345377633908018e-001
 1.956102813591062e-001	 1.057053271032776e+000	-8.353969336710254e-002
 1.856337124229718e-001	 1.058850851063458e+000	-1.071395075424737e-001
 1.756703339963775e-001	 1.060549354697454e+000	-1.278977398318027e-001
 1.657214766276897e-001	 1.062149420838853e+000	-1.457437403307105e-001
 1.557884507143978e-001	 1.063651709270896e+000	-1.606096745917942e-001
 1.458725461752860e-001	 1.065056900023964e+000	-1.724305986225542e-001
 1.359750321433046e-001	 1.066365692740468e+000	-1.811445258415488e-001
 1.260971566790047e-001	 1.067578806037326e+000	-1.866924861079071e-001
 1.162401465043842e-001	 1.068696976866727e+000	-1.890185769511288e-001
 1.064052067569623e-001	 1.069720959875853e+000	-1.880700071492081e-001
 9.659352076388458e-002	 1.070651526766214e+000	-1.837971328128495e-001
 2.001593576685848e-001	 1.081635905242169e+000	 1.934197323749749e-001
 1.899507755009255e-001	 1.083475289459071e+000	 1.584646502345833e-001
 1.797556905989053e-001	 1.085213293177134e+000	 1.269306221156762e-001
 1.695754644538754e-001	 1.086850570158686e+000	 9.889546723634586e-002
 1.594114379376844e-001	 1.088387795530760e+000	 7.443345696033589e-002
 1.492649309672277e-001	 1.089825665138398e+000	 5.361524582639983e-002
 1.391372421901746e-001	 1.091164894894762e+000	 3.650781156570260e-002
 1.290296486917399e-001	 1.092406220128793e+000	 2.317440395805598e-002
 1.189434057223391e-001	 1.093550394931100e+000	 1.367450236007664e-002
 1.088797464459452e-001	 1.094598191498799e+000	 8.063781721210210e-003
 9.883988170893882e-002	 1.095550399479947e+000	 6.394086888248662e-003
 2.047084339780781e-001	 1.106218539452070e+000	 4.153422138252426e-001
 1.942678385790784e-001	 1.108099727855280e+000	 3.688857264444558e-001
 1.838410472017855e-001	 1.109877231657481e+000	 3.264247263360501e-001
 1.734294522805357e-001	 1.111551719479233e+000	 2.880445850228239e-001
 1.630344251615376e-001	 1.113123881791367e+000	 2.538263812981804e-001
 1.526573157597976e-001	 1.114594430253582e+000	 2.238468380919941e-001
 1.422994522377045e-001	 1.115964097049794e+000	 1.981782693024038e-001
 1.319621407051368e-001	 1.117233634220965e+000	 1.768885364069504e-001
 1.216466649409282e-001	 1.118403812996127e+000	 1.600410146481490e-001
 1.113542861355054e-001	 1.119475423122327e+000	 1.476945685696385e-001
 1.010862426544848e-001	 1.120449272194170e+000	 1.399035366642480e-001
 2.092575102875861e-001	 1.130801173662478e+000	 5.860506487403355e-001
 1.985849016574302e-001	 1.132724166252086e+000	 5.279107475311377e-001
 1.879264038050179e-001	 1.134541170138493e+000	 4.743373982547557e-001
 1.772834401076707e-001	 1.136252868800495e+000	 4.254239130714518e-001
 1.666574123859575e-001	 1.137859968052715e+000	 3.812585528073446e-001
 1.560497005529958e-001	 1.139363195369515e+000	 3.419244694827635e-001
 1.454616622858942e-001	 1.140763299205563e+000	 3.074996598164285e-001
 1.348946327191954e-001	 1.142061048313842e+000	 2.780569294796589e-001
 1.243499241601514e-001	 1.143257231061806e+000	 2.536638678573146e-001
 1.138288258256430e-001	 1.144352654746437e+000	 2.343828330525625e-001
 1.033326036005224e-001	 1.145348144908886e+000	 2.202709468540146e-001
 2.138065865971087e-001	 1.155383807873393e+000	 7.090628174755653e-001
 2.029019647359810e-001	 1.157348604649489e+000	 6.390233181168816e-001
 1.920117604086025e-001	 1.159205108620171e+000	 5.741196278130419e-001
 1.811374279352804e-001	 1.160954018122470e+000	 5.144533933629012e-001
 1.702803996109440e-001	 1.162596054314806e+000	 4.601204367028889e-001
 1.594420853468221e-001	 1.164131960486198e+000	 4.112107029390855e-001
 1.486238723347438e-001	 1.165562501362070e+000	 3.678082203962531e-001
 1.378271247339157e-001	 1.166888462407425e+000	 3.299910724214474e-001
 1.270531833800087e-001	 1.168110649128139e+000	 2.978313806573482e-001
 1.163033655163579e-001	 1.169229886371130e+000	 2.713952994817842e-001
 1.055789645470518e-001	 1.170247017624094e+000	 2.507430212910327e-001
 2.183556629066459e-001	 1.179966442084816e+000	 7.876231660479927e-001
 2.072190278147308e-001	 1.181973043047488e+000	 7.054352274427199e-001
 1.960971170125395e-001	 1.183869047102514e+000	 6.289520106644806e-001
 1.849914157633649e-001	 1.185655167445159e+000	 5.582838971140794e-001
 1.739033868364970e-001	 1.187332140577637e+000	 4.935346537353105e-001
 1.628344701412768e-001	 1.188900725603630e+000	 4.348013864051003e-001
 1.517860823842533e-001	 1.190361703519314e+000	 3.821745064165539e-001
 1.407596167492976e-001	 1.191715876501712e+000	 3.357377097527455e-001
 1.297564426005002e-001	 1.192964067195126e+000	 2.955679688262982e-001
 1.187779052076502e-001	 1.194107117996405e+000	 2.617355363390158e-001
 1.078253254940729e-001	 1.195145890339793e+000	 2.343039608973198e-001
 2.229047392161979e-001	 1.204549076296746e+000	 8.247306973959147e-001
 2.115360908936796e-001	 1.206597481446085e+000	 7.301141856320272e-001
 2.001824736168288e-001	 1.208532985585524e+000	 6.417723394294319e-001
 1.888454035919241e-001	 1.210356316768562e+000	 5.598246809790247e-001
 1.775263740626167e-001	 1.212068226841211e+000	 4.843833112579920e-001
 1.662268549363596e-001	 1.213669490721812e+000	 4.155528686447378e-001
 1.549482924344224e-001	 1.215160905677294e+000	 3.534305017378848e-001
 1.436921087653412e-001	 1.216543290596704e+000	 2.981058560367249e-001
 1.324597018216257e-001	 1.217817485262765e+000	 2.496610741168126e-001
 1.212524448995198e-001	 1.218984349622261e+000	 2.081708089119498e-001
 1.100716864415856e-001	 1.220044763055984e+000	 1.737022496948786e-001
 2.274538155257646e-001	 1.229131710509183e+000	 8.231635156870618e-001
 2.158531539728275e-001	 1.231221919845279e+000	 7.158082316026558e-001
 2.042678302214702e-001	 1.233196924069199e+000	 6.152998839983366e-001
 1.926993914209580e-001	 1.235057466092678e+000	 5.217675485052534e-001
 1.811493612893031e-001	 1.236804313105527e+000	 4.353320545675111e-001
 1.696192397320707e-001	 1.238438255840743e+000	 3.561059491599613e-001
 1.581105024852516e-001	 1.239960107836013e+000	 2.841934758581144e-001
 1.466246007820466e-001	 1.241370704692402e+000	 2.196905688752058e-001
 1.351629610433853e-001	 1.242670903331058e+000	 1.626848616587950e-001
 1.237269845919668e-001	 1.243861581248700e+000	 1.132557096131101e-001
 1.123180473895901e-001	 1.244943635772666e+000	 7.147422649530651e-002
 8.985443793167208e-002	 9.959549086279671e-001	-1.135023307005377e+000
 8.074999985732721e-002	 9.967343866612564e-001	-1.113524245560671e+000
 7.166933310492567e-002	 9.974284469156016e-001	-1.094534317877299e+000
 6.261347650004150e-002	 9.980378512759273e-001	-1.078047239589645e+000
 5.358344792087640e-002	 9.985633751160036e-001	-1.064054037162235e+000
 4.458024417780574e-002	 9.990058067093818e-001	-1.052543152464573e+000
 3.560484091004591e-002	 9.993659466433187e-001	-1.043500545679719e+000
 2.665819249913598e-002	 9.996446072361988e-001	-1.036909796479192e+000
 1.774123199891299e-002	 9.998426119589264e-001	-1.032752203407444e+000
 8.854871081648272e-003	 9.999607948607566e-001	-1.031006881423336e+000
 0.000000000000000e+000	 1.000000000000000e+000	-1.031650857555617e+000
 9.210079887525120e-002	 1.020853781340225e+000	-7.500633455088110e-001
 8.276874984949990e-002	 1.021652746325009e+000	-7.404861459654513e-001
 7.346106642874500e-002	 1.022364158086303e+000	-7.320555111756187e-001
 6.417881340919990e-002	 1.022988797556156e+000	-7.247618896721394e-001
 5.492303411602111e-002	 1.023527459492681e+000	-7.185942698841908e-001
 4.569475027984334e-002	 1.023980951876270e+000	-7.135402602546670e-001
 3.649496193086327e-002	 1.024350095308862e+000	-7.095861667678519e-001
 2.732464731015833e-002	 1.024635722416802e+000	-7.067170678871768e-001
 1.818476279791137e-002	 1.024838677257766e+000	-7.049168869111603e-001
 9.076242858200427e-003	 1.024959814732242e+000	-7.041684617623492e-001
 0.000000000000000e+000	 1.025000000000000e+000	-7.044536122291448e-001
 9.434715981932204e-002	 1.045752654052973e+000	-4.345377633908018e-001
 8.478749984206953e-002	 1.046571105989159e+000	-4.358069314823844e-001
 7.525279975287695e-002	 1.047299869257318e+000	-4.369049975702055e-001
 6.574415031859678e-002	 1.047939743836623e+000	-4.378189383668686e-001
 5.626262031134045e-002	 1.048491543869533e+000	-4.385354875618922e-001
 4.680925638200178e-002	 1.048956097043280e+000	-4.390411918792244e-001
 3.738508295175770e-002	 1.049334243974482e+000	-4.393224636136086e-001
 2.799110212122388e-002	 1.049626837597447e+000	-4.393656297146203e-001
 1.862829359692890e-002	 1.049834742556624e+000	-4.391569774912374e-001
 9.297614634757350e-003	 1.049958834603732e+000	-4.386827970170113e-001
 0.000000000000000e+000	 1.050000000000000e+000	-4.379294203220900e-001
 9.659352076388458e-002	 1.070651526766214e+000	-1.837971328128495e-001
 8.680624983503614e-002	 1.071489465653705e+000	-1.949419541250642e-001
 7.704453307732150e-002	 1.072235580428645e+000	-2.046382412296680e-001
 6.730948722823218e-002	 1.072890690117328e+000	-2.128692986639427e-001
 5.760220650683443e-002	 1.073455628246560e+000	-2.196193957526919e-001
 4.792376248428110e-002	 1.073931242210410e+000	-2.248737989427219e-001
 3.827520397272920e-002	 1.074318392640181e+000	-2.286187996787306e-001
 2.865755693233262e-002	 1.074617952778136e+000	-2.308417379550510e-001
 1.907182439596554e-002	 1.074830807855502e+000	-2.315310216811109e-001
 9.518986411319036e-003	 1.074957854475228e+000	-2.306761420095581e-001
 0.000000000000000e+000	 1.075000000000000e+000	-2.282676847745686e-001
 9.883988170893882e-002	 1.095550399479947e+000	 6.394086888248662e-003
 8.882499982839968e-002	 1.096407825318649e+000	-1.375199461050071e-002
 7.883626640207862e-002	 1.097171291600285e+000	-3.120805971730211e-002
 6.887482413810608e-002	 1.097841636398272e+000	-4.595354408296578e-002
 5.894179270250304e-002	 1.098419712623762e+000	-5.797004920230781e-002
 4.903826858668123e-002	 1.098906387377661e+000	-6.724135130962360e-002
 3.916532499377777e-002	 1.099302541305955e+000	-7.375340486828536e-002
 2.932401174348456e-002	 1.099609067958868e+000	-7.749434085355927e-002
 1.951535519502132e-002	 1.099826873154398e+000	-7.845446003531027e-002
 9.740358187885490e-003	 1.099956874346727e+000	-7.662622147351499e-002
 0.000000000000000e+000	 1.100000000000000e+000	-7.200422644050757e-002
 1.010862426544848e-001	 1.120449272194170e+000	 1.399035366642480e-001
 9.084374982216018e-002	 1.121326184983990e+000	 1.115417852741681e-001
 8.062799972714832e-002	 1.122107002772237e+000	 8.707952638561878e-002
 7.044016104821856e-002	 1.122792582679455e+000	 6.654138694135213e-002
 6.028137889834626e-002	 1.123383797001138e+000	 4.994863139794700e-002
 5.015277468920224e-002	 1.123881532545033e+000	 3.731917603491661e-002
 4.005544601490342e-002	 1.124286689971807e+000	 2.866760962974439e-002
 2.999046655467971e-002	 1.124600183139643e+000	 2.400522023186655e-002
 1.995888599409624e-002	 1.124822938453314e+000	 2.334002776180364e-002
 9.961729964456708e-003	 1.124955894218232e+000	 2.667682215821971e-002
 0.000000000000000e+000	 1.125000000000000e+000	 3.401720679144365e-002
 1.033326036005224e-001	 1.145348144908886e+000	 2.202709468540146e-001
 9.286249981631764e-002	 1.146244544649727e+000	 1.843970145270800e-001
 8.241973305253061e-002	 1.147042713944502e+000	 1.536036851120019e-001
 7.200549795856950e-002	 1.147743528960876e+000	 1.279198394191078e-001
 6.162096509436412e-002	 1.148347881378689e+000	 1.073698013614257e-001
 5.126728079184410e-002	 1.148856677712526e+000	 9.197337528098111e-002
 4.094556703610614e-002	 1.149270838637736e+000	 8.174589061425136e-002
 3.065692136591806e-002	 1.149591298320462e+000	 7.669825355991369e-002
 2.040241679319028e-002	 1.149819003752249e+000	 7.683700540993217e-002
 1.018310174103269e-002	 1.149954914089742e+000	 8.216438719948316e-002
 0.000000000000000e+000	 1.150000000000000e+000	 9.267841032792915e-002
 1.055789645470518e-001	 1.170247017624094e+000	 2.507430212910327e-001
 9.488124981087207e-002	 1.171162904315862e+000	 2.079842841242681e-001
 8.421146637822551e-002	 1.171978425117080e+000	 1.714622636816611e-001
 7.357083486915894e-002	 1.172694475242536e+000	 1.412102839918374e-001
 6.296055129055662e-002	 1.173311965756414e+000	 1.172559179629413e-001
 5.238178689460680e-002	 1.173831822880140e+000	 9.962104758340691e-002
 4.183568805738594e-002	 1.174254987303741e+000	 8.832193244647921e-002
 3.132337617719960e-002	 1.174582413501324e+000	 8.336928619562800e-002
 2.084594759230346e-002	 1.174815069051203e+000	 8.476836048393831e-002
 1.040447351761344e-002	 1.174953933961256e+000	 9.251903603505686e-002
 0.000000000000000e+000	 1.175000000000000e+000	 1.066159203924897e-001
 1.078253254940729e-001	 1.195145890339793e+000	 2.343039608973198e-001
 9.689999980582342e-002	 1.196081263982393e+000	 1.852170468133817e-001
 8.600319970423299e-002	 1.196914136289970e+000	 1.435010927526055e-001
 7.513617177998691e-002	 1.197645421524434e+000	 1.091940538454953e-001
 6.430013748692375e-002	 1.198276050134315e+000	 8.232693815112085e-002
 5.349629299749035e-002	 1.198806968047874e+000	 6.292388962783559e-002
 4.272580907874281e-002	 1.199239135969825e+000	 5.100228042885029e-002
 3.198983098852434e-002	 1.199573528682229e+000	 4.657281205123443e-002
 2.128947839143576e-002	 1.199811134350176e+000	 4.963962486330580e-002
 1.062584529419896e-002	 1.199952953832775e+000	 6.020041553010967e-002
 0.000000000000000e+000	 1.200000000000000e+000	 7.824656185710602e-002
 1.100716864415856e-001	 1.220044763055984e+000	 1.737022496948786e-001
 9.891874980117174e-002	 1.220999623649321e+000	 1.187778557082654e-001
 8.779493303055304e-002	 1.221849847463172e+000	 7.233970239633983e-002
 7.670150869105340e-002	 1.222596367806571e+000	 3.443056281830799e-002
 6.563972368346552e-002	 1.223240134512389e+000	 5.085063479422188e-003
 5.461079910049475e-002	 1.223782113215730e+000	-1.567020999491835e-002
 4.361593010017675e-002	 1.224223284635985e+000	-2.781659684200808e-002
 3.265628579989229e-002	 1.224564643863177e+000	-3.134323534323301e-002
 2.173300919058720e-002	 1.224807199649169e+000	-2.624692774803779e-002
 1.084721707078924e-002	 1.224951973704298e+000	-1.253199648836040e-002
 0.000000000000000e+000	 1.225000000000000e+000	 9.789867767854512e-003
 1.123180473895901e-001	 1.244943635772666e+000	 7.147422649530651e-002
 1.009374997969171e-001	 1.245917983316647e+000	 1.114145425232147e-002
 8.958666635718569e-002	 1.246785558636688e+000	-3.960604784358077e-002
 7.826684560235840e-002	 1.247547314088946e+000	-8.072050266476646e-002
 6.697930988018191e-002	 1.248204218890639e+000	-1.121634843546044e-001
 5.572530520362001e-002	 1.248757258383706e+000	-1.339057899796708e-001
 4.450605112168776e-002	 1.249207433302222e+000	-1.459272998049451e-001
 3.332274061130344e-002	 1.249555759044169e+000	-1.482168268018261e-001
 2.217653998975778e-002	 1.249803264948180e+000	-1.407719560040815e-001
 1.106858884738428e-002	 1.249950993575827e+000	-1.235988743276580e-001
 0.000000000000000e+000	 1.250000000000000e+000	-9.671219147261548e-002
 1.250000000000000e+000	 0.000000000000000e+000	 1.992497567500769e+001
 1.249950993575827e+000	 1.106858884738393e-002	 1.995412633231645e+001
 1.249803264948180e+000	 2.217653998975746e-002	 1.997526036021977e+001
 1.249555759044169e+000	 3.332274061130316e-002	 1.998824015302768e+001
 1.249207433302222e+000	 4.450605112168751e-002	 1.999292875195192e+001
 1.248757258383706e+000	 5.572530520361980e-002	 1.998918999244365e+001
 1.248204218890639e+000	 6.697930988018173e-002	 1.997688865685839e+001
 1.247547314088946e+000	 7.826684560235826e-002	 1.995589063241777e+001
 1.246785558636687e+000	 8.958666635718561e-002	 1.992606307442442e+001
 1.245917983316646e+000	 1.009374997969170e-001	 1.988727457467100e+001
 1.244943635772666e+000	 1.123180473895901e-001	 1.983939533496988e+001
 1.275000000000000e+000	 0.000000000000000e+000	 1.923573226378361e+001
 1.274950013447356e+000	 1.128996062397897e-002	 1.926882601904226e+001
 1.274799330247192e+000	 2.262007078892803e-002	 1.929379615752824e+001
 1.274546874225160e+000	 3.398919542271432e-002	 1.931051374774206e+001
 1.274191581968459e+000	 4.539617214319853e-002	 1.931885221654006e+001
 1.273732403551682e+000	 5.683981130674506e-002	 1.931868744908945e+001
 1.273168303268888e+000	 6.831889607689813e-002	 1.930989788784285e+001
 1.272498260371322e+000	 7.983218251366328e-002	 1.929236463043012e+001
 1.271721269810203e+000	 9.137839968381827e-002	 1.926597152636709e+001
 1.270836342983972e+000	 1.029562497926623e-001	 1.923060527248401e+001
 1.269842508489349e+000	 1.145644083375946e-001	 1.918615550697919e+001
 1.300000000000000e+000	 0.000000000000000e+000	 1.861411707112586e+001
 1.299949033318879e+000	 1.151133240056925e-002	 1.865007455708251e+001
 1.299795395546183e+000	 2.306360158807946e-002	 1.867799387192927e+001
 1.299537989406108e+000	 3.465565023408224e-002	 1.869773577133478e+001
 1.299175730634619e+000	 4.628629316463247e-002	 1.870916313513196e+001
 1.298707548719537e+000	 5.795431740974946e-002	 1.871214106873887e+001
 1.298132387646963e+000	 6.965848227343988e-002	 1.870653700385444e+001
 1.297449206653458e+000	 8.139751942472973e-002	 1.869222079833470e+001
 1.296656980983405e+000	 9.317013301013832e-002	 1.866906483515849e+001
 1.295754702650900e+000	 1.049749997880106e-001	 1.863694412039343e+001
 1.294741381205540e+000	 1.168107692851074e-001	 1.859573638007615e+001
 1.325000000000000e+000	 0.000000000000000e+000	 1.805723804957199e+001
 1.324948053190397e+000	 1.173270417715475e-002	 1.809492175440927e+001
 1.324791460845157e+000	 2.350713238721176e-002	 1.812464983014478e+001
 1.324529104587013e+000	 3.532210504540698e-002	 1.814627327171674e+001
 1.324159879300702e+000	 4.717641418598934e-002	 1.815964497341760e+001
 1.323682693887272e+000	 5.906882351263301e-002	 1.816461983137713e+001
 1.323096472024863e+000	 7.099806846980700e-002	 1.816105484555364e+001
 1.322400152935356e+000	 8.296285633555769e-002	 1.814880922114725e+001
 1.321592692156295e+000	 9.496186633614580e-002	 1.812774446935291e+001
 1.320673062317432e+000	 1.069937497829620e-001	 1.809772450737292e+001
 1.319640253921239e+000	 1.190571302321284e-001	 1.805861575761164e+001
 1.350000000000000e+000	 0.000000000000000e+000	 1.756241737739719e+001
 1.349947073061912e+000	 1.195407595373549e-002	 1.760073113874870e+001
 1.349787526144111e+000	 2.395066318632493e-002	 1.763116912997494e+001
 1.349520219767875e+000	 3.598855985668854e-002	 1.765357312707426e+001
 1.349144027966708e+000	 4.806653520726912e-002	 1.766778658966048e+001
 1.348657839054886e+000	 6.018332961539571e-002	 1.767365476410364e+001
 1.348060556402588e+000	 7.233765466599949e-002	 1.767102478638924e+001
 1.347351099217016e+000	 8.452819324614716e-002	 1.765974578462015e+001
 1.346528403328873e+000	 9.675359966184070e-002	 1.763966898108657e+001
 1.345591421983566e+000	 1.090124997775164e-001	 1.761064779383358e+001
 1.344539126636447e+000	 1.213034911786578e-001	 1.757253793765775e+001
 1.375000000000000e+000	 0.000000000000000e+000	 1.712717198354722e+001
 1.374946092933421e+000	 1.217544773031147e-002	 1.716505706874443e+001
 1.374783591443046e+000	 2.439419398541897e-002	 1.719514376632337e+001
 1.374511334948693e+000	 3.665501466792687e-002	 1.721726516615172e+001
 1.374128176632637e+000	 4.895665622847185e-002	 1.723125583476496e+001
 1.373632984222379e+000	 6.129783571803756e-002	 1.723695191875723e+001
 1.373024640780139e+000	 7.367724086201738e-002	 1.723419124808029e+001
 1.372302045498437e+000	 8.609353015649812e-002	 1.722281343918328e+001
 1.371464114501138e+000	 9.854533298722298e-002	 1.720265999792829e+001
 1.370509781649304e+000	 1.110312497716739e-001	 1.717357442222004e+001
 1.369437999351162e+000	 1.235498521246955e-001	 1.713540230429101e+001
 1.400000000000000e+000	 0.000000000000000e+000	 1.674919615918573e+001
 1.399945112804926e+000	 1.239681950688268e-002	 1.678562769548284e+001
 1.399779656741962e+000	 2.483772478449388e-002	 1.681433594395561e+001
 1.399502450129468e+000	 3.732146947912201e-002	 1.683514583338031e+001
 1.399112325298488e+000	 4.984677724959747e-002	 1.684788357079026e+001
 1.398608129389751e+000	 6.241234182055856e-002	 1.685237674470723e+001
 1.397988725157516e+000	 7.501682705786059e-002	 1.684845442844904e+001
 1.397252991779620e+000	 8.765886706661052e-002	 1.683594728345489e+001
 1.396399825673090e+000	 1.003370663122927e-001	 1.681468766257281e+001
 1.395428141314644e+000	 1.130499997654344e-001	 1.678450971325725e+001
 1.394336872065386e+000	 1.257962130702414e-001	 1.674524948062748e+001
 1.425000000000000e+000	 0.000000000000000e+000	 1.642634599960497e+001
 1.424944132676425e+000	 1.261819128344913e-002	 1.646032971754192e+001
 1.424775722040858e+000	 2.528125558354965e-002	 1.648666314680955e+001
 1.424493565310201e+000	 3.798792429027395e-002	 1.650516357346691e+001
 1.424096473964263e+000	 5.073689827064606e-002	 1.651564937172645e+001
 1.423583274557002e+000	 6.352684792295871e-002	 1.651794010661384e+001
 1.422952809534717e+000	 7.635641325352920e-002	 1.651185663685042e+001
 1.422203938060564e+000	 8.922420397648445e-002	 1.649722121790914e+001
 1.421335536844730e+000	 1.021287996370498e-001	 1.647385760519810e+001
 1.420346500979588e+000	 1.150687497587979e-001	 1.644159115732927e+001
 1.419235744779119e+000	 1.280425740152957e-001	 1.640024893943331e+001
 1.450000000000000e+000	 0.000000000000000e+000	 1.615662545559405e+001
 1.449943152547921e+000	 1.283956306001081e-002	 1.618719471310408e+001
 1.449771787339736e+000	 2.572478638258629e-002	 1.621018475185985e+001
 1.449484680490890e+000	 3.865437910138269e-002	 1.622540572792191e+001
 1.449080622629961e+000	 5.162701929161755e-002	 1.623266870350028e+001
 1.448558419724132e+000	 6.464135402523800e-002	 1.623178574862720e+001
 1.447916893911744e+000	 7.769599944902315e-002	 1.622257004317778e+001
 1.447154884341269e+000	 9.078954088611986e-002	 1.620483597919887e+001
 1.446271248016056e+000	 1.039205329614943e-001	 1.617839926350981e+001
 1.445264860644134e+000	 1.170874997517645e-001	 1.614307702054313e+001
 1.444134617492359e+000	 1.302889349598582e-001	 1.609868789539607e+001
 1.475000000000000e+000	 0.000000000000000e+000	 1.593817380331213e+001
 1.474942172419411e+000	 1.306093483656772e-002	 1.596438686202354e+001
 1.474767852638594e+000	 2.616831718160380e-002	 1.598309000428428e+001
 1.474475795671536e+000	 3.932083391244823e-002	 1.599408676414373e+001
 1.474064771295581e+000	 5.251714031251198e-002	 1.599718140770935e+001
 1.473533564891141e+000	 6.575586012739645e-002	 1.599217903341350e+001
 1.472880978288596e+000	 7.903558564434252e-002	 1.597888567273243e+001
 1.472105830621736e+000	 9.235487779551677e-002	 1.595710839132675e+001
 1.471206959187071e+000	 1.057122662856263e-001	 1.592665539057786e+001
 1.470183220308284e+000	 1.191062497443342e-001	 1.588733610949790e+001
 1.469033490205108e+000	 1.325352959039290e-001	 1.583896132699576e+001
 1.500000000000000e+000	 0.000000000000000e+000	 1.576925436717419e+001
 1.499941192290897e+000	 1.328230661311987e-002	 1.579019189568708e+001
 1.499763917937433e+000	 2.661184798060218e-002	 1.580368719511349e+001
 1.499466910852138e+000	 3.998728872347057e-002	 1.580953768159481e+001
 1.499048919961124e+000	 5.340726133332931e-002	 1.580754133698285e+001
 1.498508710058030e+000	 6.687036622943403e-002	 1.579749680727877e+001
 1.497845062665274e+000	 8.037517183948720e-002	 1.577920350160625e+001
 1.497056776901965e+000	 9.392021470467514e-002	 1.575246169169945e+001
 1.496142670357773e+000	 1.075039996094456e-001	 1.571707261188923e+001
 1.495101579972037e+000	 1.211249997365068e-001	 1.567283855957695e+001
 1.493932362917365e+000	 1.347816568475081e-001	 1.561956299618871e+001
 1.244943635772666e+000	 1.123180473895901e-001	 1.983939533496988e+001
 1.243861581248701e+000	 1.237269845919664e-001	 1.984420847348901e+001
 1.242670903331058e+000	 1.351629610433850e-001	 1.983976062699964e+001
 1.241370704692402e+000	 1.466246007820463e-001	 1.982591441091453e+001
 1.239960107836013e+000	 1.581105024852513e-001	 1.980253460516456e+001
 1.238438255840743e+000	 1.696192397320706e-001	 1.976948835794280e+001
 1.236804313105526e+000	 1.811493612893030e-001	 1.972664539408060e+001
 1.235057466092679e+000	 1.926993914209580e-001	 1.967387822786096e+001
 1.233196924069199e+000	 2.042678302214703e-001	 1.961106238005487e+001
 1.231221919845279e+000	 2.158531539728276e-001	 1.953807659894722e+001
 1.229131710509183e+000	 2.274538155257646e-001	 1.945480308509904e+001
 1.269842508489349e+000	 1.145644083375946e-001	 1.918615550697919e+001
 1.268738812875140e+000	 1.262015242844133e-001	 1.919445117208024e+001
 1.267524321399351e+000	 1.378662202651446e-001	 1.919361799044307e+001
 1.266198118788100e+000	 1.495570927987517e-001	 1.918355286761146e+001
 1.264759309994731e+000	 1.612727125360804e-001	 1.916415596958867e+001
 1.263207020959674e+000	 1.730116245277817e-001	 1.913533080709543e+001
 1.261540399369842e+000	 1.847723485159893e-001	 1.909698431790096e+001
 1.259758615416796e+000	 1.965533792499919e-001	 1.904902694716083e+001
 1.257860862552875e+000	 2.083531868261118e-001	 1.899137272570076e+001
 1.255846358244472e+000	 2.201702170519754e-001	 1.892393934619023e+001
 1.253714344721621e+000	 2.320028918353312e-001	 1.884664823715557e+001
 1.294741381205540e+000	 1.168107692851074e-001	 1.859573638007615e+001
 1.293616044500996e+000	 1.286760639762829e-001	 1.860808389338951e+001
 1.292377739466991e+000	 1.405694794862700e-001	 1.861135656309676e+001
 1.291025532883092e+000	 1.524895848147953e-001	 1.860544981697230e+001
 1.289558512152712e+000	 1.644349225862497e-001	 1.859026227891953e+001
 1.287975786077856e+000	 1.764040093228646e-001	 1.856569584989298e+001
 1.286276485633416e+000	 1.883953357421090e-001	 1.853165578687818e+001
 1.284459764740199e+000	 2.004073670785511e-001	 1.848805077987366e+001
 1.282524801035884e+000	 2.124385434304010e-001	 1.843479302682485e+001
 1.280470796643069e+000	 2.244872801309243e-001	 1.837179830646527e+001
 1.278296978933551e+000	 2.365519681448832e-001	 1.829898604902609e+001
 1.319640253921239e+000	 1.190571302321284e-001	 1.805861575761164e+001
 1.318493276126270e+000	 1.311506036675752e-001	 1.807462947451612e+001
 1.317231157533977e+000	 1.432727387067615e-001	 1.808162495941058e+001
 1.315852946977379e+000	 1.554220768301773e-001	 1.807949648290850e+001
 1.314357714309955e+000	 1.675971326357590e-001	 1.806814144756754e+001
 1.312744551195288e+000	 1.797963941173192e-001	 1.804746046502928e+001
 1.311012571896248e+000	 1.920183229676621e-001	 1.801735743119139e+001
 1.309160914062888e+000	 2.042613549066356e-001	 1.797773959936758e+001
 1.307188739518228e+000	 2.165239000343380e-001	 1.792851765139664e+001
 1.305095235041068e+000	 2.288043432096741e-001	 1.786960576666790e+001
 1.302879613144973e+000	 2.411010444544205e-001	 1.780092168903678e+001
 1.344539126636447e+000	 1.213034911786578e-001	 1.757253793765775e+001
 1.343370507750963e+000	 1.336251433582901e-001	 1.759183332200647e+001
 1.342084575600310e+000	 1.459759979266188e-001	 1.760216981883697e+001
 1.340680361070961e+000	 1.583545688448975e-001	 1.760344086567854e+001
 1.339156916466462e+000	 1.707593426846086e-001	 1.759554296788680e+001
 1.337513316311972e+000	 1.831887789111456e-001	 1.757837577154676e+001
 1.335748658158338e+000	 1.956413101926486e-001	 1.755184213437277e+001
 1.333862063384863e+000	 2.081153427342453e-001	 1.751584819457208e+001
 1.331852677999906e+000	 2.206092566379227e-001	 1.747030343764583e+001
 1.329719673438471e+000	 2.331214062882249e-001	 1.741512076110745e+001
 1.327462247355889e+000	 2.456501207639431e-001	 1.735021653710541e+001
 1.369437999351162e+000	 1.235498521246955e-001	 1.713540230429101e+001
 1.368247739375074e+000	 1.360996830484277e-001	 1.715759498190133e+001
 1.366937993665990e+000	 1.486792571458420e-001	 1.717089097277902e+001
 1.365507775163839e+000	 1.612870608589561e-001	 1.717518320928160e+001
 1.363956118622231e+000	 1.739215527327984e-001	 1.717036762746946e+001
 1.362282081427904e+000	 1.865811637043437e-001	 1.715634323530985e+001
 1.360484744419686e+000	 1.992642974170684e-001	 1.713301217883180e+001
 1.358563212706124e+000	 2.119693305613803e-001	 1.710027980621081e+001
 1.356516616480918e+000	 2.246946132411551e-001	 1.705805472977013e+001
 1.354344111835278e+000	 2.374384693665767e-001	 1.700624888589230e+001
 1.352044881566296e+000	 2.501991970734510e-001	 1.694477759284202e+001
 1.394336872065386e+000	 1.257962130702414e-001	 1.674524948062748e+001
 1.393124970998602e+000	 1.385742227379879e-001	 1.676995437728090e+001
 1.391791411731016e+000	 1.513825163644311e-001	 1.678582776673767e+001
 1.390335189256011e+000	 1.642195528723530e-001	 1.679276240826642e+001
 1.388755320777263e+000	 1.770837627803283e-001	 1.679065400064236e+001
 1.387050846543088e+000	 1.899735484969137e-001	 1.677940124518164e+001
 1.385220830680293e+000	 2.028872846409217e-001	 1.675890590666995e+001
 1.383264362026671e+000	 2.158233183880406e-001	 1.672907287217733e+001
 1.381180554961264e+000	 2.287799698440352e-001	 1.668981020775972e+001
 1.378968550231487e+000	 2.417555324447296e-001	 1.664102921305517e+001
 1.376627515776197e+000	 2.547482733829443e-001	 1.658264447379078e+001
 1.419235744779119e+000	 1.280425740152957e-001	 1.640024893943331e+001
 1.418002202621548e+000	 1.410487624269708e-001	 1.642707949448939e+001
 1.416644829795389e+000	 1.540857755823861e-001	 1.644514682223293e+001
 1.415162603347478e+000	 1.671520448850881e-001	 1.645434384540238e+001
 1.413554522931558e+000	 1.802459728271983e-001	 1.645456636191143e+001
 1.411819611657522e+000	 1.933659332888554e-001	 1.644571310223461e+001
 1.409956916940157e+000	 2.065102718642082e-001	 1.642768578461996e+001
 1.407965511346504e+000	 2.196773062142262e-001	 1.640038916813430e+001
 1.405844493440945e+000	 2.328653264465631e-001	 1.636373110355606e+001
 1.403592988627099e+000	 2.460725955226834e-001	 1.631762258213894e+001
 1.401210149985591e+000	 2.592973496924230e-001	 1.626197778227828e+001
 1.444134617492359e+000	 1.302889349598582e-001	 1.609868789539607e+001
 1.442879434243912e+000	 1.435233021153764e-001	 1.612725534319833e+001
 1.441498247859108e+000	 1.567890347997070e-001	 1.614713106473320e+001
 1.439990017438240e+000	 1.700845368971616e-001	 1.615820848752258e+001
 1.438353725085116e+000	 1.834081828734086e-001	 1.616038384973932e+001
 1.436588376771207e+000	 1.967583180801688e-001	 1.615355625145676e+001
 1.434693003199280e+000	 2.101332590869282e-001	 1.613762770364681e+001
 1.432666660665624e+000	 2.235312940399371e-001	 1.611250317494736e+001
 1.430508431919961e+000	 2.369506830487387e-001	 1.607809063622852e+001
 1.428217427022114e+000	 2.503896586004382e-001	 1.603430110299761e+001
 1.425792784194477e+000	 2.638464260018870e-001	 1.598104867569098e+001
 1.469033490205108e+000	 1.325352959039290e-001	 1.583896132699576e+001
 1.467756665865694e+000	 1.459978418032046e-001	 1.586887403917540e+001
 1.466351665922175e+000	 1.594922940163938e-001	 1.589016986738847e+001
 1.464817431528297e+000	 1.730170289085734e-001	 1.590274309026412e+001
 1.463152927237936e+000	 1.865703929189590e-001	 1.590649073231187e+001
 1.461357141884141e+000	 2.001507028708540e-001	 1.590131260853848e+001
 1.459429089457661e+000	 2.137562463090816e-001	 1.588711136672467e+001
 1.457367809984029e+000	 2.273852818651732e-001	 1.586379252739681e+001
 1.455172370398310e+000	 2.410360396505621e-001	 1.583126452154009e+001
 1.452841865416533e+000	 2.547067216779940e-001	 1.578943872610917e+001
 1.450375418402855e+000	 2.683955023113362e-001	 1.573822949740255e+001
 1.493932362917365e+000	 1.347816568475081e-001	 1.561956299618871e+001
 1.492633897486894e+000	 1.484723814904555e-001	 1.565042587877636e+001
 1.491205083984588e+000	 1.621955532324464e-001	 1.567275018039014e+001
 1.489644845617649e+000	 1.759495209193235e-001	 1.568643138233456e+001
 1.487952129390019e+000	 1.897326029638495e-001	 1.569136764672777e+001
 1.486125906996327e+000	 2.035430876609110e-001	 1.568745985398076e+001
 1.484165175715299e+000	 2.173792335306682e-001	 1.567461163783619e+001
 1.482068959301720e+000	 2.312392696899346e-001	 1.565272941801817e+001
 1.479836308875994e+000	 2.451213962520331e-001	 1.562172243055623e+001
 1.477466303810354e+000	 2.590237847553507e-001	 1.558150275585697e+001
 1.474958052610726e+000	 2.729445786207708e-001	 1.553198534460845e+001
 1.229131710509183e+000	 2.274538155257646e-001	 1.945480308509904e+001
 1.226925578158476e+000	 2.390682447049866e-001	 1.942953948497637e+001
 1.224602830624363e+000	 2.506948487390461e-001	 1.939500704232250e+001
 1.222162802189878e+000	 2.623320127144961e-001	 1.935113392577970e+001
 1.219604854302598e+000	 2.739781000540936e-001	 1.929785221856787e+001
 1.216928376278658e+000	 2.856314530195622e-001	 1.923509811052310e+001
 1.214132785997951e+000	 2.972903932386898e-001	 1.916281209150439e+001
 1.211217530589606e+000	 3.089532222566900e-001	 1.908093914584360e+001
 1.208182087106841e+000	 3.206182221117185e-001	 1.898942894749699e+001
 1.205025963190290e+000	 3.322836559344022e-001	 1.888823605554190e+001
 1.201748697718857e+000	 3.439477685711992e-001	 1.877732010964519e+001
 1.253714344721621e+000	 2.320028918353312e-001	 1.884664823715557e+001
 1.251464089723864e+000	 2.438496095974737e-001	 1.883019526822336e+001
 1.249094887239062e+000	 2.557087457116228e-001	 1.880500456255700e+001
 1.246606058235910e+000	 2.675786529660630e-001	 1.877077522719546e+001
 1.243996951390936e+000	 2.794576620520075e-001	 1.872694002123006e+001
 1.241266943806600e+000	 2.913440820764148e-001	 1.867342070652898e+001
 1.238415441720392e+000	 3.032362010996294e-001	 1.861014333740949e+001
 1.235441881204021e+000	 3.151322866977698e-001	 1.853703847396232e+001
 1.232345728851775e+000	 3.270305865497554e-001	 1.845404139655104e+001
 1.229126482457096e+000	 3.389293290488262e-001	 1.836109232110416e+001
 1.225783671676468e+000	 3.508267239383701e-001	 1.825813661480093e+001
 1.278296978933551e+000	 2.365519681448832e-001	 1.829898604902609e+001
 1.276002601288834e+000	 2.486309744901317e-001	 1.828919812817870e+001
 1.273586943853415e+000	 2.607226426845269e-001	 1.827035335221011e+001
 1.271049314281647e+000	 2.728252932180849e-001	 1.824240882181172e+001
 1.268389048479012e+000	 2.849372240504742e-001	 1.820532523441088e+001
 1.265605511334292e+000	 2.970567111338884e-001	 1.815906690711788e+001
 1.262698097442573e+000	 3.091820089612281e-001	 1.810360179700664e+001
 1.259666231818150e+000	 3.213113511395163e-001	 1.803890151878000e+001
 1.256509370596372e+000	 3.334429509884362e-001	 1.796494135987845e+001
 1.253227001723497e+000	 3.455750021638407e-001	 1.788170029309763e+001
 1.249818645633586e+000	 3.577056793060471e-001	 1.778900901939370e+001
 1.302879613144973e+000	 2.411010444544205e-001	 1.780092168903678e+001
 1.300541112853388e+000	 2.534123393829606e-001	 1.779725475772053e+001
 1.298079000467422e+000	 2.657365396577586e-001	 1.778441522728767e+001
 1.295492570327091e+000	 2.780719334705618e-001	 1.776235447113804e+001
 1.292781145566826e+000	 2.904167860494935e-001	 1.773102743137683e+001
 1.289944078861733e+000	 3.027693401919828e-001	 1.769039264317188e+001
 1.286980753164496e+000	 3.151278168234857e-001	 1.764041225655633e+001
 1.283890582431992e+000	 3.274904155819298e-001	 1.758105205573532e+001
 1.280673012340635e+000	 3.398553154277612e-001	 1.751228147596334e+001
 1.277327520989495e+000	 3.522206752794461e-001	 1.743407361806562e+001
 1.273853619590210e+000	 3.645846346742306e-001	 1.734640526068461e+001
 1.327462247355889e+000	 2.456501207639431e-001	 1.735021653710541e+001
 1.325079624417525e+000	 2.581937042759605e-001	 1.735214008157772e+001
 1.322571057081084e+000	 2.707504366313178e-001	 1.734478667918949e+001
 1.319935826372239e+000	 2.833185737234933e-001	 1.732810240305862e+001
 1.317173242654377e+000	 2.958963480490658e-001	 1.730203686050114e+001
 1.314282646388923e+000	 3.084819692506980e-001	 1.726654321814902e+001
 1.311263408886161e+000	 3.210736246864024e-001	 1.722157822462313e+001
 1.308114933045548e+000	 3.336694800250100e-001	 1.716710223082853e+001
 1.304836654084563e+000	 3.462676798677306e-001	 1.710307920794828e+001
 1.301428040255088e+000	 3.588663483956419e-001	 1.702947676321783e+001
 1.297888593546341e+000	 3.714635900429203e-001	 1.694626615357035e+001
 1.352044881566296e+000	 2.501991970734510e-001	 1.694477759284202e+001
 1.349618135981244e+000	 2.629750691691311e-001	 1.695177290111436e+001
 1.347063113694399e+000	 2.757643336052045e-001	 1.694939816983695e+001
 1.344379082417094e+000	 2.885652139768798e-001	 1.693759459483912e+001
 1.341565339741666e+000	 3.013759100491908e-001	 1.691630686509658e+001
 1.338621213915864e+000	 3.141945983100343e-001	 1.688548318795883e+001
 1.335546064607567e+000	 3.270194325499778e-001	 1.684507531203916e+001
 1.332339283658817e+000	 3.398485444687570e-001	 1.679503854784478e+001
 1.329000295828156e+000	 3.526800443083439e-001	 1.673533178623325e+001
 1.325528559520277e+000	 3.655120215124287e-001	 1.666591751478838e+001
 1.321923567501977e+000	 3.783425454121162e-001	 1.658676183221597e+001
 1.376627515776197e+000	 2.547482733829443e-001	 1.658264447379078e+001
 1.374156647544547e+000	 2.677564340624728e-001	 1.659420304820180e+001
 1.371555170307368e+000	 2.807782305794187e-001	 1.659630962819460e+001
 1.368822338461654e+000	 2.938118542307213e-001	 1.658890095214949e+001
 1.365957436828692e+000	 3.068554720498686e-001	 1.657191720392620e+001
 1.362959781442554e+000	 3.199072273699915e-001	 1.654530203754761e+001
 1.359828720328715e+000	 3.329652404142125e-001	 1.650900259965162e+001
 1.356563634271800e+000	 3.460276089131709e-001	 1.646296954979989e+001
 1.353163937571413e+000	 3.590924087496013e-001	 1.640715707874180e+001
 1.349629078785063e+000	 3.721576946298061e-001	 1.634152292473809e+001
 1.345958541457119e+000	 3.852215007818184e-001	 1.626602838805680e+001
 1.401210149985591e+000	 2.592973496924230e-001	 1.626197778227828e+001
 1.398695159107433e+000	 2.725377989559853e-001	 1.627759989131468e+001
 1.396047226919992e+000	 2.857921275539604e-001	 1.628369909351203e+001
 1.393265594505920e+000	 2.990584944850177e-001	 1.628020808727425e+001
 1.390349533915456e+000	 3.123350340510991e-001	 1.626706296212885e+001
 1.387298348968993e+000	 3.256198564305695e-001	 1.624420322221113e+001
 1.384111376049605e+000	 3.389110482791060e-001	 1.621157180761960e+001
 1.380787984884495e+000	 3.522066733582516e-001	 1.616911511374474e+001
 1.377327579314336e+000	 3.655047731915030e-001	 1.611678300868226e+001
 1.373729598049444e+000	 3.788033677477742e-001	 1.605452884884851e+001
 1.369993515411769e+000	 3.921004561520270e-001	 1.598230949292403e+001
 1.425792784194477e+000	 2.638464260018870e-001	 1.598104867569098e+001
 1.423233670669902e+000	 2.773191638496688e-001	 1.600024203065149e+001
 1.420539283532269e+000	 2.908060245288296e-001	 1.600985253340299e+001
 1.417708850549891e+000	 3.043051347397688e-001	 1.600980925819750e+001
 1.414741631001957e+000	 3.178145960528824e-001	 1.600004460929027e+001
 1.411636916495181e+000	 3.313324854917684e-001	 1.598049434256448e+001
 1.408394031770235e+000	 3.448568561446586e-001	 1.595109758512870e+001
 1.405012335496905e+000	 3.583857378039991e-001	 1.591179685300363e+001
 1.401491221056923e+000	 3.719171376340487e-001	 1.586253806702310e+001
 1.397830117313421e+000	 3.854490408663330e-001	 1.580327056708219e+001
 1.394028489365924e+000	 3.989794115227418e-001	 1.573394712487257e+001
 1.450375418402855e+000	 2.683955023113362e-001	 1.573822949740255e+001
 1.447772182231955e+000	 2.821005287435232e-001	 1.576050804120904e+001
 1.445031340144201e+000	 2.958199215040264e-001	 1.577315469737387e+001
 1.442152106593569e+000	 3.095517749949749e-001	 1.577609533083193e+001
 1.439133728088196e+000	 3.232941580552186e-001	 1.576925906855788e+001
 1.435975484021120e+000	 3.370451145535882e-001	 1.575257831866762e+001
 1.432676687490608e+000	 3.508026640108701e-001	 1.572598878759217e+001
 1.429236686109027e+000	 3.645648022504134e-001	 1.568942949545615e+001
 1.425654862799175e+000	 3.783295020772385e-001	 1.564284278980138e+001
 1.421930636576994e+000	 3.920947139854825e-001	 1.558617435780460e+001
 1.418063463319586e+000	 4.058583668939629e-001	 1.551937323714522e+001
 1.474958052610726e+000	 2.729445786207708e-001	 1.553198534460845e+001
 1.472310693793589e+000	 2.868818936375483e-001	 1.555686814154932e+001
 1.469523396755786e+000	 3.008338184795506e-001	 1.557208088499951e+001
 1.466595362636951e+000	 3.147984152506359e-001	 1.557754664502482e+001
 1.463525825174173e+000	 3.287737200581075e-001	 1.557319167884400e+001
 1.460314051546808e+000	 3.427577436160289e-001	 1.555894544673835e+001
 1.456959343210721e+000	 3.567484718777407e-001	 1.553474062613192e+001
 1.453461036720863e+000	 3.707438666974945e-001	 1.550051312399094e+001
 1.449818504541092e+000	 3.847418665210725e-001	 1.545620208770041e+001
 1.446031155840162e+000	 3.987403871052226e-001	 1.540174991458387e+001
 1.442098437272754e+000	 4.127373222656903e-001	 1.533710226024017e+001
 1.201748697718857e+000	 3.439477685711992e-001	 1.877732010964519e+001
 1.198349861446522e+000	 3.556087872310357e-001	 1.871462219725944e+001
 1.194829057626238e+000	 3.672649221558912e-001	 1.864251131938268e+001
 1.191185922618588e+000	 3.789143673145657e-001	 1.856095897435693e+001
 1.187420126482944e+000	 3.905553011185042e-001	 1.846994210102988e+001
 1.183531373552289e+000	 4.021858871602737e-001	 1.836944326175332e+001
 1.179519402990089e+000	 4.138042749739844e-001	 1.825945082320534e+001
 1.175383989328324e+000	 4.254086008172058e-001	 1.813995913459259e+001
 1.171124942985805e+000	 4.369969884738851e-001	 1.801096870277995e+001
 1.166742110765889e+000	 4.485675500777415e-001	 1.787248636388676e+001
 1.162235376332733e+000	 4.601183869555650e-001	 1.772452545088064e+001
 1.225783671676468e+000	 3.508267239383701e-001	 1.825813661480093e+001
 1.222316858678915e+000	 3.627209629714752e-001	 1.820393395315495e+001
 1.218725638782410e+000	 3.746102205949435e-001	 1.814024658308208e+001
 1.215009641074746e+000	 3.864926546569513e-001	 1.806705039924777e+001
 1.211168529016486e+000	 3.983664071371730e-001	 1.798432692625768e+001
 1.207202001027271e+000	 4.102296049000269e-001	 1.789206350528159e+001
 1.203109791053832e+000	 4.220803604703062e-001	 1.779025347837287e+001
 1.198891669118793e+000	 4.339167728307316e-001	 1.767889637002446e+001
 1.194547441849339e+000	 4.457369282409295e-001	 1.755799806549245e+001
 1.190076952984894e+000	 4.575389010772938e-001	 1.742757098540927e+001
 1.185480083862899e+000	 4.693207546931507e-001	 1.728763425620149e+001
 1.249818645633586e+000	 3.577056793060471e-001	 1.778900901939370e+001
 1.246283855910719e+000	 3.698331387123256e-001	 1.774445979917722e+001
 1.242622219937908e+000	 3.819555190343213e-001	 1.769035504726763e+001
 1.238833359530156e+000	 3.940709419995868e-001	 1.762667430271704e+001
 1.234916931549213e+000	 4.061775131560259e-001	 1.755340291501366e+001
 1.230872628501380e+000	 4.182733226399084e-001	 1.747053223510462e+001
 1.226700179116658e+000	 4.303564459667100e-001	 1.737805980401240e+001
 1.222399348908309e+000	 4.424249448443035e-001	 1.727598953856887e+001
 1.217969940711894e+000	 4.544768680079944e-001	 1.716433191378068e+001
 1.213411795202904e+000	 4.665102520768513e-001	 1.704310414133021e+001
 1.208724791392063e+000	 4.785231224307363e-001	 1.691233034370885e+001
 1.273853619590210e+000	 3.645846346742306e-001	 1.734640526068461e+001
 1.270250853141934e+000	 3.769453144535873e-001	 1.731302470650697e+001
 1.266518801092730e+000	 3.893008174740247e-001	 1.727122515278804e+001
 1.262657077984815e+000	 4.016492293424722e-001	 1.722104334238439e+001
 1.258665334081123e+000	 4.139886191750625e-001	 1.716251940733639e+001
 1.254543255974617e+000	 4.263170403799179e-001	 1.709569681147474e+001
 1.250290567178565e+000	 4.386325314631963e-001	 1.702062229071165e+001
 1.245907028696870e+000	 4.509331168579218e-001	 1.692947907390814e+001
 1.241392439573469e+000	 4.632168077750800e-001	 1.682818073703309e+001
 1.236746637419919e+000	 4.754816030764139e-001	 1.671726621486891e+001
 1.231969498920228e+000	 4.877254901683218e-001	 1.659676383606550e+001
 1.297888593546341e+000	 3.714635900429203e-001	 1.694626615357035e+001
 1.294217850372561e+000	 3.840574901952600e-001	 1.692119428274005e+001
 1.290415382246879e+000	 3.966461159140538e-001	 1.688776721324831e+001
 1.286480796438724e+000	 4.092275166856075e-001	 1.684603291481216e+001
 1.282413736612218e+000	 4.217997251942835e-001	 1.679604275409128e+001
 1.278213883446982e+000	 4.343607581200555e-001	 1.673785142252373e+001
 1.273880955239555e+000	 4.469086169597644e-001	 1.667151686171854e+001
 1.269414708484477e+000	 4.594412888715865e-001	 1.659710018663910e+001
 1.264814938434064e+000	 4.719567475421861e-001	 1.651466560681767e+001
 1.260081479635940e+000	 4.844529540759816e-001	 1.642428034584762e+001
 1.255214206447393e+000	 4.969278579059074e-001	 1.632601455940523e+001
 1.321923567501977e+000	 3.783425454121162e-001	 1.658676183221597e+001
 1.318184847602598e+000	 3.911696659373439e-001	 1.657055313870731e+001
 1.314311963400354e+000	 4.039914143544086e-001	 1.654606295966791e+001
 1.310304514891883e+000	 4.168058040289927e-001	 1.651335037152607e+001
 1.306162139142497e+000	 4.296108312136883e-001	 1.647247784074230e+001
 1.301884510918475e+000	 4.424044758603212e-001	 1.642351113661960e+001
 1.297471343299627e+000	 4.551847024564149e-001	 1.636651924156231e+001
 1.292922388271132e+000	 4.679494608852973e-001	 1.630157425904737e+001
 1.288237437293681e+000	 4.806966873093129e-001	 1.622875131958039e+001
 1.283416321850965e+000	 4.934243050755545e-001	 1.614812848491430e+001
 1.278458913973558e+000	 5.061302256434931e-001	 1.605978665081548e+001
 1.345958541457119e+000	 3.852215007818184e-001	 1.626602838805680e+001
 1.342151844832046e+000	 3.982818416798387e-001	 1.625919576360654e+001
 1.338208544553154e+000	 4.113367127950889e-001	 1.624416540537776e+001
 1.334128233344292e+000	 4.243840913726280e-001	 1.622100739643524e+001
 1.329910541671959e+000	 4.374219372332774e-001	 1.618979518829859e+001
 1.325555138389096e+000	 4.504481936007150e-001	 1.615060549845259e+001
 1.321061731358780e+000	 4.634607879531473e-001	 1.610351820521651e+001
 1.316430068056832e+000	 4.764576328990545e-001	 1.604861624026846e+001
 1.311659936152317e+000	 4.894366270764604e-001	 1.598598547912837e+001
 1.306751164064996e+000	 5.023956560751326e-001	 1.591571462991192e+001
 1.301703621498723e+000	 5.153325933810786e-001	 1.583789512067196e+001
 1.369993515411769e+000	 3.921004561520270e-001	 1.598230949292403e+001
 1.366118842060906e+000	 4.053940174227450e-001	 1.598532657578489e+001
 1.362105125705279e+000	 4.186820112360948e-001	 1.598023985158325e+001
 1.357951951795951e+000	 4.319623787165131e-001	 1.596713032906152e+001
 1.353658944200606e+000	 4.452330432530504e-001	 1.594608234915845e+001
 1.349225765858845e+000	 4.584919113412370e-001	 1.591718346692583e+001
 1.344652119417017e+000	 4.717368734499621e-001	 1.588052433073338e+001
 1.339937747841579e+000	 4.849658049128583e-001	 1.583619855909077e+001
 1.335082435009975e+000	 4.981765668436284e-001	 1.578430261542451e+001
 1.330086006278031e+000	 5.113670070747158e-001	 1.572493568115483e+001
 1.324948329022888e+000	 5.245349611186642e-001	 1.565819952742491e+001
 1.394028489365924e+000	 3.989794115227418e-001	 1.573394712487257e+001
 1.390085839289178e+000	 4.125061931660621e-001	 1.574725044608801e+001
 1.386001706856731e+000	 4.260273096774265e-001	 1.575255420737516e+001
 1.381775670246860e+000	 4.395406660606481e-001	 1.574995028043489e+001
 1.377407346728437e+000	 4.530441492730074e-001	 1.573953381819629e+001
 1.372896393327723e+000	 4.665356290818870e-001	 1.572140312082667e+001
 1.368242507474335e+000	 4.800129589468590e-001	 1.569565949897812e+001
 1.363445427625372e+000	 4.934739769267081e-001	 1.566240713463354e+001
 1.358504933866654e+000	 5.069165066108172e-001	 1.562175293992407e+001
 1.353420848490073e+000	 5.203383580743043e-001	 1.557380641429871e+001
 1.348193036546053e+000	 5.337373288562498e-001	 1.551867950043384e+001
 1.418063463319586e+000	 4.058583668939629e-001	 1.551937323714522e+001
 1.414052836516859e+000	 4.196183689097904e-001	 1.554336418493647e+001
 1.409898288007508e+000	 4.333726081190837e-001	 1.555947029414591e+001
 1.405599388697018e+000	 4.471189534050329e-001	 1.556779425415209e+001
 1.401155749255452e+000	 4.608552552931484e-001	 1.556844196984103e+001
 1.396567020795728e+000	 4.745793468226651e-001	 1.556152241137877e+001
 1.391832895530735e+000	 4.882890444438381e-001	 1.554714746118734e+001
 1.386953107408211e+000	 5.019821489406043e-001	 1.552543175852210e+001
 1.381927432722353e+000	 5.156564463780266e-001	 1.549649254205844e+001
 1.376755690701119e+000	 5.293097090738980e-001	 1.546044949090480e+001
 1.371437744068218e+000	 5.429396965938355e-001	 1.541742456446669e+001
 1.442098437272754e+000	 4.127373222656903e-001	 1.533710226024017e+001
 1.438019833743952e+000	 4.267305446539297e-001	 1.537214888069440e+001
 1.433794869157610e+000	 4.407179065610665e-001	 1.539943601956463e+001
 1.429423107146426e+000	 4.546972407496676e-001	 1.541907715532933e+001
 1.424904151781650e+000	 4.686663613134736e-001	 1.543118890144640e+001
 1.420237648262862e+000	 4.826230645635711e-001	 1.543589083953911e+001
 1.415423283586218e+000	 4.965651299408994e-001	 1.543330534977136e+001
 1.410460787190097e+000	 5.104903209545468e-001	 1.542355743884576e+001
 1.405349931577071e+000	 5.243963861452564e-001	 1.540677456607037e+001
 1.400090532911170e+000	 5.382810600734967e-001	 1.538308646794767e+001
 1.394682451589383e+000	 5.521420643314209e-001	 1.535262498174925e+001
 1.162235376332733e+000	 4.601183869555650e-001	 1.772452545088064e+001
 1.157604660665571e+000	 4.716475904904681e-001	 1.763523397633409e+001
 1.152849922489192e+000	 4.831532430025667e-001	 1.754077801924318e+001
 1.147971158680544e+000	 4.946334186475059e-001	 1.744131984832856e+001
 1.142968404651231e+000	 5.060861843335416e-001	 1.733702623573928e+001
 1.137841734704208e+000	 5.175096006544980e-001	 1.722806842627492e+001
 1.132591262364247e+000	 5.289017228384252e-001	 1.711462210081159e+001
 1.127217140681487e+000	 5.402606017111219e-001	 1.699686733375093e+001
 1.121719562507361e+000	 5.515842846736656e-001	 1.687498854431526e+001
 1.116098760742258e+000	 5.628708166930494e-001	 1.674917444152129e+001
 1.110355008554307e+000	 5.741182413050000e-001	 1.661961796267244e+001
 1.185480083862899e+000	 4.693207546931507e-001	 1.728763425620149e+001
 1.180756753882166e+000	 4.810805422992081e-001	 1.721112454382343e+001
 1.175906920941978e+000	 4.928163078619167e-001	 1.712832854546932e+001
 1.170930581856822e+000	 5.045260870200347e-001	 1.703933278436971e+001
 1.165827772746534e+000	 5.162079080199817e-001	 1.694422856871392e+001
 1.160598569400124e+000	 5.278597926674586e-001	 1.684311204796952e+001
 1.155243087612865e+000	 5.394797572950754e-001	 1.673608426416827e+001
 1.149761483495895e+000	 5.510658137451465e-001	 1.662325119783491e+001
 1.144153953757676e+000	 5.626159703667706e-001	 1.650472380823717e+001
 1.138420735956605e+000	 5.741282330262800e-001	 1.638061806764004e+001
 1.132562108724172e+000	 5.856006061301156e-001	 1.625105498925175e+001
 1.208724791392063e+000	 4.785231224307363e-001	 1.691233034370885e+001
 1.203908847097765e+000	 4.905134941079478e-001	 1.684477103470393e+001
 1.198963919393784e+000	 5.024793727212670e-001	 1.676982859847205e+001
 1.193890005032145e+000	 5.144187553925634e-001	 1.668751543663665e+001
 1.188687140840915e+000	 5.263296317064221e-001	 1.659784901820774e+001
 1.183355404095165e+000	 5.382099846804193e-001	 1.650085202188940e+001
 1.177894912860660e+000	 5.500577917517255e-001	 1.639655247410097e+001
 1.172305826309545e+000	 5.618710257791709e-001	 1.628498388224776e+001
 1.166588345007307e+000	 5.736476560598756e-001	 1.616618536277546e+001
 1.160742711170352e+000	 5.853856493595105e-001	 1.604020176354268e+001
 1.154769208893534e+000	 5.970829709552312e-001	 1.590708378004885e+001
 1.231969498920228e+000	 4.877254901683218e-001	 1.659676383606550e+001
 1.227060940312370e+000	 4.999464459166876e-001	 1.653457414580468e+001
 1.222020917844610e+000	 5.121424375806170e-001	 1.646392750669077e+001
 1.216849428206511e+000	 5.243114237650922e-001	 1.638476369330528e+001
 1.211546508934374e+000	 5.364513553928624e-001	 1.629702783108346e+001
 1.206112238789327e+000	 5.485601766933796e-001	 1.620067062361865e+001
 1.200546738107633e+000	 5.606358262083755e-001	 1.609564857641450e+001
 1.194850169122437e+000	 5.726762378131957e-001	 1.598192421648071e+001
 1.189022736256255e+000	 5.846793417529804e-001	 1.585946630716302e+001
 1.183064686383501e+000	 5.966430656927413e-001	 1.572825005759530e+001
 1.176976309062392e+000	 6.085653357803470e-001	 1.558825732615988e+001
 1.255214206447393e+000	 4.969278579059074e-001	 1.632601455940523e+001
 1.250213033525979e+000	 5.093793977254275e-001	 1.627851894659262e+001
 1.245077916294454e+000	 5.218055024399670e-001	 1.620941343838164e+001
 1.239808851379922e+000	 5.342040921376208e-001	 1.613009492636607e+001
 1.234405877026911e+000	 5.465730790793024e-001	 1.604100953272574e+001
 1.228869073482613e+000	 5.589103687063400e-001	 1.594203736139047e+001
 1.223198563353783e+000	 5.712138606650258e-001	 1.583306477179677e+001
 1.217394511934570e+000	 5.834814498472204e-001	 1.571398468390503e+001
 1.211457127504519e+000	 5.957110274460854e-001	 1.558469687889080e+001
 1.205386661596051e+000	 6.079004820259717e-001	 1.544510829475205e+001
 1.199183409230746e+000	 6.200477006054626e-001	 1.529513331606853e+001
 1.278458913973558e+000	 5.061302256434931e-001	 1.605978665081548e+001
 1.273365126738593e+000	 5.188123495341673e-001	 1.600891829793784e+001
 1.268134914743319e+000	 5.314685672993172e-001	 1.594955465009351e+001
 1.262768274552376e+000	 5.440967605101497e-001	 1.588152504680329e+001
 1.257265245118527e+000	 5.566948027657426e-001	 1.580465897776351e+001
 1.251625908175022e+000	 5.692605607193008e-001	 1.571878621934296e+001
 1.245850388599111e+000	 5.817918951216760e-001	 1.560855721992020e+001
 1.239938854745945e+000	 5.942866618812448e-001	 1.548112654414652e+001
 1.233891518752100e+000	 6.067427131391905e-001	 1.534204107750246e+001
 1.227708636808003e+000	 6.191578983592024e-001	 1.519114074413822e+001
 1.221390509398596e+000	 6.315300654305784e-001	 1.516736263351612e+001
 1.301703621498723e+000	 5.153325933810786e-001	 1.583789512067196e+001
 1.296517219950213e+000	 5.282453013429074e-001	 1.578030339538062e+001
 1.291191913191203e+000	 5.411316321586673e-001	 1.571344699308608e+001
 1.285727697723875e+000	 5.539894288826783e-001	 1.563709403202614e+001
 1.280124613209222e+000	 5.668165264521828e-001	 1.555101267432016e+001
 1.274382742866554e+000	 5.796107527322612e-001	 1.545497132392672e+001
 1.268502213843616e+000	 5.923699295783261e-001	 1.534873883223911e+001
 1.262483197556562e+000	 6.050918739152694e-001	 1.523208471123706e+001
 1.256325909998997e+000	 6.177743988322954e-001	 1.510477935408830e+001
 1.250030612019355e+000	 6.304153146924331e-001	 1.508299606946802e+001
 1.243597609565942e+000	 6.430124302556941e-001	 1.517452526877128e+001
 1.324948329022888e+000	 5.245349611186642e-001	 1.565819952742491e+001
 1.319669313160837e+000	 5.376782531516471e-001	 1.559070505618296e+001
 1.314248911638107e+000	 5.507946970180175e-001	 1.551320926802244e+001
 1.308687120894418e+000	 5.638820972552071e-001	 1.542542065491279e+001
 1.302983981298996e+000	 5.769382501386230e-001	 1.532704763058827e+001
 1.297139577557209e+000	 5.899609447452218e-001	 1.521779878833482e+001
 1.291154039087298e+000	 6.029479640349763e-001	 1.509738316760961e+001
 1.285027540366422e+000	 6.158970859492940e-001	 1.496551052933729e+001
 1.278760301245211e+000	 6.288060845254002e-001	 1.490425846852894e+001
 1.272352587230109e+000	 6.416727310256637e-001	 1.502633363980342e+001
 1.265804709732784e+000	 6.544947950808098e-001	 1.513402253979487e+001
 1.348193036546053e+000	 5.337373288562498e-001	 1.551867950043384e+001
 1.342821406370466e+000	 5.471112049603871e-001	 1.543826199969143e+001
 1.337305910084030e+000	 5.604577618773676e-001	 1.534713836359453e+001
 1.331646544064004e+000	 5.737747656277357e-001	 1.524495897511791e+001
 1.325843349387848e+000	 5.870599738250631e-001	 1.513137400080044e+001
 1.319896412246986e+000	 6.003111367581823e-001	 1.500603370679233e+001
 1.313805864330157e+000	 6.135259984916263e-001	 1.486858878494032e+001
 1.307571883175523e+000	 6.267022979833186e-001	 1.475567952016090e+001
 1.301194692490741e+000	 6.398377702185053e-001	 1.487783084092849e+001
 1.294674562440264e+000	 6.529301473588941e-001	 1.498491010169242e+001
 1.288011809899122e+000	 6.659771599059257e-001	 1.507654258735329e+001
 1.371437744068218e+000	 5.429396965938355e-001	 1.541742456446669e+001
 1.365973499579100e+000	 5.565441567691268e-001	 1.532121170309237e+001
 1.360362908528973e+000	 5.701208267367177e-001	 1.521361887294004e+001
 1.354605967232635e+000	 5.836674340002644e-001	 1.509423979303865e+001
 1.348702717475778e+000	 5.971816975115032e-001	 1.496266781143100e+001
 1.342653246935887e+000	 6.106613287711427e-001	 1.481849627797000e+001
 1.336457689572195e+000	 6.241040329482765e-001	 1.466131892837042e+001
 1.330116225983865e+000	 6.375075100173433e-001	 1.476245748615976e+001
 1.323629083735587e+000	 6.508694559116101e-001	 1.486748476877621e+001
 1.316996537649820e+000	 6.641875636921250e-001	 1.495648754900867e+001
 1.310218910064956e+000	 6.774595247310413e-001	 1.502904485179877e+001
 1.394682451589383e+000	 5.521420643314209e-001	 1.535262498174925e+001
 1.389125592786738e+000	 5.659771085778665e-001	 1.523788217159218e+001
 1.383419906972935e+000	 5.797838915960678e-001	 1.511111578493849e+001
 1.377565390400310e+000	 5.935601023727930e-001	 1.497186425475275e+001
 1.371562085562787e+000	 6.073034211979435e-001	 1.481966547184250e+001
 1.365410081623910e+000	 6.210115207841032e-001	 1.465405721294711e+001
 1.359109514813409e+000	 6.346820674049265e-001	 1.468469921218765e+001
 1.352660568791450e+000	 6.483127220513676e-001	 1.478602287490693e+001
 1.346063474979750e+000	 6.619011416047149e-001	 1.487089038922081e+001
 1.339318512858777e+000	 6.754449800253554e-001	 1.493884012955314e+001
 1.332426010230286e+000	 6.889418895561570e-001	 1.498940694118589e+001
 1.110355008554307e+000	 5.741182413050000e-001	 1.661961796267244e+001
 1.104488619568381e+000	 5.853246016274840e-001	 1.640424690957875e+001
 1.098499948025726e+000	 5.964879413854602e-001	 1.617941598960258e+001
 1.092389388913029e+000	 6.076063059449269e-001	 1.594494440776190e+001
 1.086157378059845e+000	 6.186777433540810e-001	 1.570065799112217e+001
 1.079804392204922e+000	 6.297003053920890e-001	 1.553952097246325e+001
 1.073330949030676e+000	 6.406720486238721e-001	 1.549110032854712e+001
 1.066737607165499e+000	 6.515910354597975e-001	 1.542930594101502e+001
 1.060024966153559e+000	 6.624553352191407e-001	 1.535387037162010e+001
 1.053193666391866e+000	 6.732630251961717e-001	 1.526453263287959e+001
 1.046244389034349e+000	 6.840121917276982e-001	 1.516103856161647e+001
 1.132562108724172e+000	 5.856006061301156e-001	 1.625105498925175e+001
 1.126578391957822e+000	 5.970310936587155e-001	 1.601297492987384e+001
 1.120469946983697e+000	 6.084177002116505e-001	 1.576532390830441e+001
 1.114237176688216e+000	 6.197584320622394e-001	 1.550793761868121e+001
 1.107880525617529e+000	 6.310512982196433e-001	 1.536276167783134e+001
 1.101400480045157e+000	 6.422943114986125e-001	 1.531086716323176e+001
 1.094797568007167e+000	 6.534854895953677e-001	 1.524580451405161e+001
 1.088072359304516e+000	 6.646228561684838e-001	 1.516731437742656e+001
 1.081225465472260e+000	 6.757044419236223e-001	 1.507514343028361e+001
 1.074257539715345e+000	 6.867282857009384e-001	 1.496904474309386e+001
 1.067169276810782e+000	 6.976924355639771e-001	 1.484877814215602e+001
 1.154769208893534e+000	 5.970829709552312e-001	 1.590708378004885e+001
 1.148668164346859e+000	 6.087375856899423e-001	 1.564790285636680e+001
 1.142439945941363e+000	 6.203474590378212e-001	 1.537902130587939e+001
 1.136084964463200e+000	 6.319105581795070e-001	 1.524201880431997e+001
 1.129603673175109e+000	 6.434248530851262e-001	 1.518803803676216e+001
 1.122996567885389e+000	 6.548883176050125e-001	 1.512106041415642e+001
 1.116264186983754e+000	 6.662989305666851e-001	 1.504083417064103e+001
 1.109407111443731e+000	 6.776546768769276e-001	 1.494711316750685e+001
 1.102425964791258e+000	 6.889535486277861e-001	 1.483965724711543e+001
 1.095321413039221e+000	 7.001935462053028e-001	 1.471823258618170e+001
 1.088094164587713e+000	 7.113726793997586e-001	 1.458261204777536e+001
 1.176976309062392e+000	 6.085653357803470e-001	 1.558825732615988e+001
 1.170757936735493e+000	 6.204440777211642e-001	 1.530951941396056e+001
 1.164409944898726e+000	 6.322772178639721e-001	 1.517234630088949e+001
 1.157932752237980e+000	 6.440626842967306e-001	 1.511766455835175e+001
 1.151326820732587e+000	 6.557984079505302e-001	 1.505012598977554e+001
 1.144592655725618e+000	 6.674823237112890e-001	 1.496948592999446e+001
 1.137730805960439e+000	 6.791123715378246e-001	 1.487550495463104e+001
 1.130741863583143e+000	 6.906864975851281e-001	 1.476794922410691e+001
 1.123626464110552e+000	 7.022026553316326e-001	 1.464659082782732e+001
 1.116385286363495e+000	 7.136588067092649e-001	 1.451120812792338e+001
 1.109019052365140e+000	 7.250529232350426e-001	 1.436158610192077e+001
 1.199183409230746e+000	 6.200477006054626e-001	 1.529513331606853e+001
 1.192847709123722e+000	 6.321505697523810e-001	 1.514898757233815e+001
 1.186379943855785e+000	 6.442069766901031e-001	 1.509498543037281e+001
 1.179780540012557e+000	 6.562148104139098e-001	 1.502823816813981e+001
 1.173049968289960e+000	 6.681719628158551e-001	 1.494850774987355e+001
 1.166188743565844e+000	 6.800763298174418e-001	 1.485556100861972e+001
 1.159197424937220e+000	 6.919258125087856e-001	 1.474916998023396e+001
 1.152076615722752e+000	 7.037183182930858e-001	 1.462911223834216e+001
 1.144826963430145e+000	 7.154517620351613e-001	 1.449517122967481e+001
 1.137449159688166e+000	 7.271240672128243e-001	 1.434713660917362e+001
 1.129943940143065e+000	 7.387331670698292e-001	 1.418480457425148e+001
 1.221390509398596e+000	 6.315300654305784e-001	 1.516736263351612e+001
 1.214937481511548e+000	 6.438570617835928e-001	 1.511541359015943e+001
 1.208349942812540e+000	 6.561367355162148e-001	 1.505080559023866e+001
 1.201628327786929e+000	 6.683669365310444e-001	 1.497330677385627e+001
 1.194773115847230e+000	 6.805455176811015e-001	 1.488268979061429e+001
 1.187784831406066e+000	 6.926703359234707e-001	 1.477873212346656e+001
 1.180664043914098e+000	 7.047392534795686e-001	 1.466121641429547e+001
 1.173411367862558e+000	 7.167501390008007e-001	 1.452993079065891e+001
 1.166027462750034e+000	 7.287008687383724e-001	 1.438466919313489e+001
 1.158513033013235e+000	 7.405893277159814e-001	 1.422523170267306e+001
 1.150868827921487e+000	 7.524134109041186e-001	 1.405142486734729e+001
 1.243597609565942e+000	 6.430124302556941e-001	 1.517452526877128e+001
 1.237027253898969e+000	 6.555635538147999e-001	 1.511339767749296e+001
 1.230319941768991e+000	 6.680664943423065e-001	 1.503944827376254e+001
 1.223476115561099e+000	 6.805190626481347e-001	 1.495245510163170e+001
 1.216496263404397e+000	 6.929190725462685e-001	 1.485220067999073e+001
 1.209380919246286e+000	 7.052643420293764e-001	 1.473847231856913e+001
 1.202130662891074e+000	 7.175526944501734e-001	 1.461106243588076e+001
 1.194746120002561e+000	 7.297819597082726e-001	 1.446976887857288e+001
 1.187227962070220e+000	 7.419499754412658e-001	 1.431439524161840e+001
 1.179576906338700e+000	 7.540545882187359e-001	 1.414475118877251e+001
 1.171793715700407e+000	 7.660936547379107e-001	 1.396065277269778e+001
 1.265804709732784e+000	 6.544947950808098e-001	 1.513402253979487e+001
 1.259117026285987e+000	 6.672700458460021e-001	 1.509634141209154e+001
 1.252289940725139e+000	 6.799962531683786e-001	 1.504856827296264e+001
 1.245323903335064e+000	 6.926711887651808e-001	 1.496528392092714e+001
 1.238219410961460e+000	 7.052926274113565e-001	 1.485658914232244e+001
 1.230977007086501e+000	 7.178583481351585e-001	 1.473427887780682e+001
 1.223597281868146e+000	 7.303661354205998e-001	 1.459815451590446e+001
 1.216080872142761e+000	 7.428137804155021e-001	 1.444802280990850e+001
 1.208428461390704e+000	 7.551990821438418e-001	 1.428369619173892e+001
 1.200640779664564e+000	 7.675198487210884e-001	 1.410499308634437e+001
 1.192718603479824e+000	 7.797738985712054e-001	 1.391173822606118e+001
 1.288011809899122e+000	 6.659771599059257e-001	 1.507654258735329e+001
 1.281206798672601e+000	 6.789765378771995e-001	 1.503120257775818e+001
 1.274259939680982e+000	 6.919260119944309e-001	 1.497600297091568e+001
 1.267171691108825e+000	 7.048233148821824e-001	 1.491079177657201e+001
 1.259942558518420e+000	 7.176661822763657e-001	 1.483541015437830e+001
 1.252573094926714e+000	 7.304523542408168e-001	 1.474969224054647e+001
 1.245063900845315e+000	 7.431795763908479e-001	 1.462196497817806e+001
 1.237415624283159e+000	 7.558456011224886e-001	 1.446411841742754e+001
 1.229628960711485e+000	 7.684481888461001e-001	 1.429195202458831e+001
 1.221704652990824e+000	 7.809851092230381e-001	 1.410529218394446e+001
 1.213643491259739e+000	 7.934541424040027e-001	 1.390397150192360e+001
 1.310218910064956e+000	 6.774595247310413e-001	 1.502904485179877e+001
 1.303296571058811e+000	 6.906830299083917e-001	 1.497656961741682e+001
 1.296229938636522e+000	 7.038557708204638e-001	 1.491449252582738e+001
 1.289019478882384e+000	 7.169754409991397e-001	 1.484268283028521e+001
 1.281665706075276e+000	 7.300397371412957e-001	 1.476100205748606e+001
 1.274169182766923e+000	 7.430463603463514e-001	 1.466930379000667e+001
 1.266530519822581e+000	 7.559930173609181e-001	 1.456743347481088e+001
 1.258750376423753e+000	 7.688774218292318e-001	 1.445522825911895e+001
 1.250829460032563e+000	 7.816972955480408e-001	 1.433251685486644e+001
 1.242768526317482e+000	 7.944503697245857e-001	 1.414501692373722e+001
 1.234568379040151e+000	 8.071343862363026e-001	 1.393667979496314e+001
 1.332426010230286e+000	 6.889418895561570e-001	 1.498940694118589e+001
 1.325386343444616e+000	 7.023895219395790e-001	 1.493024907721430e+001
 1.318199937591758e+000	 7.157855296464767e-001	 1.486177381105469e+001
 1.310867266655738e+000	 7.291275671160524e-001	 1.478387185930465e+001
 1.303388853632028e+000	 7.424132920061466e-001	 1.469642528900729e+001
 1.295765270607129e+000	 7.556403664517626e-001	 1.459930725471252e+001
 1.287997138799943e+000	 7.688064583308097e-001	 1.449238176332439e+001
 1.280085128564544e+000	 7.819092425357325e-001	 1.437550346815954e+001
 1.272029959353938e+000	 7.949464022496640e-001	 1.424851749356708e+001
 1.263832399644536e+000	 8.079156302257307e-001	 1.411125929137983e+001
 1.255493266821059e+000	 8.208146300681053e-001	 1.396355453038052e+001
 1.046244389034349e+000	 6.840121917276982e-001	 1.516103856161647e+001
 1.039177855863086e+000	 6.947009312609056e-001	 1.499932299462969e+001
 1.031994829125725e+000	 7.053273514202587e-001	 1.482824128324985e+001
 1.024696111339581e+000	 7.158895720722919e-001	 1.464796789886803e+001
 1.017282545062913e+000	 7.263857263871183e-001	 1.445868300995031e+001
 1.009755012632604e+000	 7.368139618953938e-001	 1.426057239505311e+001
 1.002114435868594e+000	 7.471724415395479e-001	 1.405382735084425e+001
 9.943617757451818e-001	 7.574593447180572e-001	 1.383864459515396e+001
 9.864980320293816e-001	 7.676728683215576e-001	 1.361522616508566e+001
 9.785242428865577e-001	 7.778112277595839e-001	 1.338377931022028e+001
 9.704414844536136e-001	 7.878726579767392e-001	 1.314451638095365e+001
 1.067169276810782e+000	 6.976924355639771e-001	 1.484877814215602e+001
 1.059961412976264e+000	 7.085949498887223e-001	 1.469472660081931e+001
 1.052634725704365e+000	 7.194338984519825e-001	 1.453254638769785e+001
 1.045190033562748e+000	 7.302073635176232e-001	 1.436240905338622e+001
 1.037628195960836e+000	 7.409134409191581e-001	 1.418449043390495e+001
 1.029950112882250e+000	 7.515502411378567e-001	 1.399897056214570e+001
 1.022156724583329e+000	 7.621158903749963e-001	 1.380603357636757e+001
 1.014249011257859e+000	 7.726085316170226e-001	 1.360586762577978e+001
 1.006227992668192e+000	 7.830263256923838e-001	 1.339866477324499e+001
 9.980947277430015e-001	 7.933674523188051e-001	 1.318462089513757e+001
 9.898503141419284e-001	 8.036301111397820e-001	 1.296393557839211e+001
 1.088094164587713e+000	 7.113726793997586e-001	 1.458261204777536e+001
 1.080744970090029e+000	 7.224889685159561e-001	 1.443623858712004e+001
 1.073274622283663e+000	 7.335404454830685e-001	 1.428290811055393e+001
 1.065683955786623e+000	 7.445251549622904e-001	 1.412278884069091e+001
 1.057973846859497e+000	 7.554411554505387e-001	 1.395605190940634e+001
 1.050145213132646e+000	 7.662865203796947e-001	 1.378287126842331e+001
 1.042199013298805e+000	 7.770593392098837e-001	 1.360342359896400e+001
 1.034136246771246e+000	 7.877577185155213e-001	 1.341788822051049e+001
 1.025957953307664e+000	 7.983797830628679e-001	 1.322644699871128e+001
 1.017665212600037e+000	 8.089236768778390e-001	 1.302928425246852e+001
 1.009259143830745e+000	 8.193875643028223e-001	 1.282658666023395e+001
 1.109019052365140e+000	 7.250529232350426e-001	 1.436158610192077e+001
 1.101528527204382e+000	 7.363829871426078e-001	 1.422291808298531e+001
 1.093914518863619e+000	 7.476469925135162e-001	 1.407840253443651e+001
 1.086177878011206e+000	 7.588429464062944e-001	 1.392820394176759e+001
 1.078319497758898e+000	 7.699688699812600e-001	 1.377248835662030e+001
 1.070340313383791e+000	 7.810227996209073e-001	 1.361142330721819e+001
 1.062241302015021e+000	 7.920027880442102e-001	 1.344517770985065e+001
 1.054023482285344e+000	 8.029069054135530e-001	 1.327392178145760e+001
 1.045687913947796e+000	 8.137332404330094e-001	 1.309782695335484e+001
 1.037235697457663e+000	 8.244799014366854e-001	 1.291706578613044e+001
 1.028667973520062e+000	 8.351450174658596e-001	 1.273181188573508e+001
 1.129943940143065e+000	 7.387331670698292e-001	 1.418480457425148e+001
 1.122312084319322e+000	 7.502770057686764e-001	 1.405388196384162e+001
 1.114554415444232e+000	 7.617535395433264e-001	 1.391816253079253e+001
 1.106671800236498e+000	 7.731607378496347e-001	 1.377780661207751e+001
 1.098665148659037e+000	 7.844965845113215e-001	 1.363297479848729e+001
 1.090535413635686e+000	 7.957590788614946e-001	 1.348382784561168e+001
 1.082283590731976e+000	 8.069462368779755e-001	 1.333052658783137e+001
 1.073910717800153e+000	 8.180560923111186e-001	 1.317323185537453e+001
 1.065417874588589e+000	 8.290866978028090e-001	 1.301210439447890e+001
 1.056806182315881e+000	 8.400361259953443e-001	 1.284730479068620e+001
 1.048076803209881e+000	 8.509024706288946e-001	 1.267899339528222e+001
 1.150868827921487e+000	 7.524134109041186e-001	 1.405142486734729e+001
 1.143095641434849e+000	 7.641710243941629e-001	 1.392829960145484e+001
 1.135194312025504e+000	 7.758600865724981e-001	 1.380137259727675e+001
 1.127165722462498e+000	 7.874785292923111e-001	 1.367079962933273e+001
 1.119010799559916e+000	 7.990242990407236e-001	 1.353673544228862e+001
 1.110730513888330e+000	 8.104953581014566e-001	 1.339933366318433e+001
 1.102325879449672e+000	 8.218896857111799e-001	 1.325874671860732e+001
 1.093797953315672e+000	 8.332052792082173e-001	 1.311512575687070e+001
 1.085147835230044e+000	 8.444401551722667e-001	 1.296862057523487e+001
 1.076376667174689e+000	 8.555923505538156e-001	 1.281937955219467e+001
 1.067485632900202e+000	 8.666599237919267e-001	 1.266754958483545e+001
 1.171793715700407e+000	 7.660936547379107e-001	 1.396065277269778e+001
 1.163879198550964e+000	 7.780650430190667e-001	 1.384538817675682e+001
 1.155834208607433e+000	 7.899666336010321e-001	 1.372726424826883e+001
 1.147659644689206e+000	 8.017963207343241e-001	 1.360643178258078e+001
 1.139356450461533e+000	 8.135520135694663e-001	 1.348303928818736e+001
 1.130925614141723e+000	 8.252316373407933e-001	 1.335723290089982e+001
 1.122368168168108e+000	 8.368331345438231e-001	 1.322915630487528e+001
 1.113685188831901e+000	 8.483544661048491e-001	 1.309895066056753e+001
 1.104877795872160e+000	 8.597936125413818e-001	 1.296675453963586e+001
 1.095947152034090e+000	 8.711485751120991e-001	 1.283270386682727e+001
 1.086894462591023e+000	 8.824173769549563e-001	 1.269693186882367e+001
 1.192718603479824e+000	 7.797738985712054e-001	 1.391173822606118e+001
 1.184662755667667e+000	 7.919590616433879e-001	 1.380440848605895e+001
 1.176474105190020e+000	 8.040731806289281e-001	 1.369511189059923e+001
 1.168153566916623e+000	 8.161141121756732e-001	 1.358399383612263e+001
 1.159702101363890e+000	 8.280797280975498e-001	 1.347119620002813e+001
 1.151120714395866e+000	 8.399679165795047e-001	 1.335685725747497e+001
 1.142410456887284e+000	 8.517765833759055e-001	 1.324111160694219e+001
 1.133572424348842e+000	 8.635036530010144e-001	 1.312409010460613e+001
 1.124607756514936e+000	 8.751470699101543e-001	 1.300591980756905e+001
 1.115517636894081e+000	 8.867047996701951e-001	 1.288672392594580e+001
 1.106303292282346e+000	 8.981748301179827e-001	 1.276662178378777e+001
 1.213643491259739e+000	 7.934541424040027e-001	 1.390397150192360e+001
 1.205446312784956e+000	 8.058530802671269e-001	 1.380466118110553e+001
 1.197114001773265e+000	 8.181797276561860e-001	 1.370422912592388e+001
 1.188647489144748e+000	 8.304319036163587e-001	 1.360281491095632e+001
 1.180047752266984e+000	 8.426074426249737e-001	 1.350055338260594e+001
 1.171315814650759e+000	 8.547041958175911e-001	 1.339757457922851e+001
 1.162452745607200e+000	 8.667200322074268e-001	 1.329400366189663e+001
 1.153459659866493e+000	 8.786528398967128e-001	 1.318996085586117e+001
 1.144337717158373e+000	 8.905005272785853e-001	 1.308556140273738e+001
 1.135088121754663e+000	 9.022610242281036e-001	 1.298091552341368e+001
 1.125712121974170e+000	 9.139322832810067e-001	 1.287612839164673e+001
 1.234568379040151e+000	 8.071343862363026e-001	 1.393667979496314e+001
 1.226229869902834e+000	 8.197470988902831e-001	 1.384548339149469e+001
 1.217753898357167e+000	 8.322862746828059e-001	 1.375396542912919e+001
 1.209141411373581e+000	 8.447496950563804e-001	 1.366225923420931e+001
 1.200393403170818e+000	 8.571351571517381e-001	 1.357049221717889e+001
 1.191510914906401e+000	 8.694404750550522e-001	 1.347878579672510e+001
 1.182495034327856e+000	 8.816634810383871e-001	 1.338725533642401e+001
 1.173346895384854e+000	 8.938020267919447e-001	 1.329601009394633e+001
 1.164067677802472e+000	 9.058539846466738e-001	 1.320515318284484e+001
 1.154658606615837e+000	 9.178172487858248e-001	 1.311478154690942e+001
 1.145120951666496e+000	 9.296897364440285e-001	 1.302498594703874e+001
 1.255493266821059e+000	 8.208146300681053e-001	 1.396355453038052e+001
 1.247013427021299e+000	 8.336411175128567e-001	 1.392624568485726e+001
 1.238393794941728e+000	 8.463928217087878e-001	 1.384370315889579e+001
 1.229635333603122e+000	 8.590674864957385e-001	 1.376172321362792e+001
 1.220739054075391e+000	 8.716628716778430e-001	 1.368042541342959e+001
 1.211706015162792e+000	 8.841767542918875e-001	 1.359992216775473e+001
 1.202537323049252e+000	 8.966069298687862e-001	 1.352031867434010e+001
 1.193234130903926e+000	 9.089512136867098e-001	 1.344171287681977e+001
 1.183797638447231e+000	 9.212074420144201e-001	 1.336419543676308e+001
 1.174229091477602e+000	 9.333734733433581e-001	 1.328784972010869e+001
 1.164529781359323e+000	 9.454471896070471e-001	 1.321275179792769e+001
 9.704414844536136e-001	 7.878726579767392e-001	 1.314451638095365e+001
 9.622508703799659e-001	 7.978554144576137e-001	 1.295836235060614e+001
 9.539535513369589e-001	 8.077577742177586e-001	 1.276724286647408e+001
 9.455507144959997e-001	 8.175780367805178e-001	 1.257129297444018e+001
 9.370435829756513e-001	 8.273145251396229e-001	 1.237064972201964e+001
 9.284334152585064e-001	 8.369655867049053e-001	 1.216545211160798e+001
 9.197215045783193e-001	 8.465295942305033e-001	 1.195584105285847e+001
 9.109091782780108e-001	 8.560049467244858e-001	 1.174195931412537e+001
 9.019977971392151e-001	 8.653900703388234e-001	 1.152395147290810e+001
 8.929887546840701e-001	 8.746834192386782e-001	 1.130196386522826e+001
 8.838834764499999e-001	 8.838834764499999e-001	 1.107614453387356e+001
 9.898503141419284e-001	 8.036301111397820e-001	 1.296393557839211e+001
 9.814958877873232e-001	 8.138125227497113e-001	 1.279170934323928e+001
 9.730326223639019e-001	 8.239129297045711e-001	 1.261386071099851e+001
 9.644617287864992e-001	 8.339295975181714e-001	 1.243051435102249e+001
 9.557844546360500e-001	 8.438608156441199e-001	 1.224179732572558e+001
 9.470020835647985e-001	 8.537048984404441e-001	 1.204783905920815e+001
 9.381159346711736e-001	 8.634601861163657e-001	 1.184877130463349e+001
 9.291273618449546e-001	 8.731250456601144e-001	 1.164472811025916e+001
 9.200377530834090e-001	 8.826978717467007e-001	 1.143584578402374e+001
 9.108485297791161e-001	 8.921770876245893e-001	 1.122226285658971e+001
 9.015611459802497e-001	 9.015611459802499e-001	 1.100412004274335e+001
 1.009259143830745e+000	 8.193875643028223e-001	 1.282658666023395e+001
 1.000740905195092e+000	 8.297696310419911e-001	 1.266812024986733e+001
 9.921116933911856e-001	 8.400680851917207e-001	 1.250337578829729e+001
 9.833727430772900e-001	 8.502811582562883e-001	 1.233246736946616e+001
 9.745253262967095e-001	 8.604071061491755e-001	 1.215551186788899e+001
 9.655707518713412e-001	 8.704442101766072e-001	 1.197262892307369e+001
 9.565103647642882e-001	 8.803907780028872e-001	 1.178394092232463e+001
 9.473455454121889e-001	 8.902451445964075e-001	 1.158957298179777e+001
 9.380777090279429e-001	 9.000056731552174e-001	 1.138965292567313e+001
 9.287083048745726e-001	 9.096707560110856e-001	 1.118431126331186e+001
 9.192388155110001e-001	 9.192388155110001e-001	 1.097368116426577e+001
 1.028667973520062e+000	 8.351450174658596e-001	 1.273181188573508e+001
 1.019985922603272e+000	 8.457267393344534e-001	 1.258695898737973e+001
 1.011190764418811e+000	 8.562232406792081e-001	 1.243517325687045e+001
 1.002283757368371e+000	 8.666327189948679e-001	 1.227655799756033e+001
 9.932661979576301e-001	 8.769533966547899e-001	 1.211121967715867e+001
 9.841394201781343e-001	 8.871835219133940e-001	 1.193926792838473e+001
 9.749047948576630e-001	 8.973213698900683e-001	 1.176081554764559e+001
 9.655637289797133e-001	 9.073652435333653e-001	 1.157597849156975e+001
 9.561176649728167e-001	 9.173134745643741e-001	 1.138487587122754e+001
 9.465680799704389e-001	 9.271644243981667e-001	 1.118762994387001e+001
 9.369164850422498e-001	 9.369164850422498e-001	 1.098436610202020e+001
 1.048076803209881e+000	 8.509024706288946e-001	 1.267899339528222e+001
 1.039230940011862e+000	 8.616838476270980e-001	 1.254762814535623e+001
 1.030269835446777e+000	 8.723783961670335e-001	 1.240867577835546e+001
 1.021194771659744e+000	 8.829842797339111e-001	 1.226222857618247e+001
 1.012007069618811e+000	 8.934996871609621e-001	 1.210838236531785e+001
 1.002708088485178e+000	 9.039228336508046e-001	 1.194723653416452e+001
 9.932992249512984e-001	 9.142519617779084e-001	 1.177889404806603e+001
 9.837819125475279e-001	 9.244853424709876e-001	 1.160346146179273e+001
 9.741576209180305e-001	 9.346212759741704e-001	 1.142104892929052e+001
 9.644278550667154e-001	 9.446580927858329e-001	 1.123177021048779e+001
 9.545941545740001e-001	 9.545941545740000e-001	 1.103574267495872e+001
 1.067485632900202e+000	 8.666599237919267e-001	 1.266754958483545e+001
 1.058475957420865e+000	 8.776409559199254e-001	 1.254956547036792e+001
 1.049348906475084e+000	 8.885335516551964e-001	 1.242334010815115e+001
 1.040105785951407e+000	 8.993358404734171e-001	 1.228895451265387e+001
 1.030747941280253e+000	 9.100459776676934e-001	 1.214649361972648e+001
 1.021276756792472e+000	 9.206621453888393e-001	 1.199604632111185e+001
 1.011693655045194e+000	 9.311825536664080e-001	 1.183770549628856e+001
 1.002000096115633e+000	 9.416054414092745e-001	 1.167156804140210e+001
 9.921975768635849e-001	 9.519290773846070e-001	 1.149773489504071e+001
 9.822876301634016e-001	 9.621517611740839e-001	 1.131631106061443e+001
 9.722718241062499e-001	 9.722718241062499e-001	 1.112740562509909e+001
 1.086894462591023e+000	 8.824173769549563e-001	 1.269693186882367e+001
 1.077720974830279e+000	 8.935980642129352e-001	 1.259224072695994e+001
 1.068427977503733e+000	 9.046887071436971e-001	 1.247865405133187e+001
 1.059016800243362e+000	 9.156874012133862e-001	 1.235624132837874e+001
 1.049488812941955e+000	 9.265922681749825e-001	 1.222507633943060e+001
 1.039845425100016e+000	 9.374014571274981e-001	 1.208523721288007e+001
 1.030088085139350e+000	 9.481131455555667e-001	 1.193680647335270e+001
 1.020218279684028e+000	 9.587255403482260e-001	 1.177987108759369e+001
 1.010237532809479e+000	 9.692368787956833e-001	 1.161452250678727e+001
 1.000147405260498e+000	 9.796454295629198e-001	 1.144085670502974e+001
 9.899494936390003e-001	 9.899494936390003e-001	 1.125897421367978e+001
 1.106303292282346e+000	 8.981748301179827e-001	 1.276662178378777e+001
 1.096965992240104e+000	 9.095551725061274e-001	 1.267515288905758e+001
 1.087507048532722e+000	 9.208438626325353e-001	 1.257413373899199e+001
 1.077927814535607e+000	 9.320389619538184e-001	 1.246362201725785e+001
 1.068229684603918e+000	 9.431385586828309e-001	 1.234368007273362e+001
 1.058414093407812e+000	 9.541407688667805e-001	 1.221437498985290e+001
 1.048482515233766e+000	 9.650437374453846e-001	 1.207577865562304e+001
 1.038436463252713e+000	 9.758456392878420e-001	 1.192796782299420e+001
 1.028277488755713e+000	 9.865446802073991e-001	 1.177102417025692e+001
 1.018007180358004e+000	 9.971390979523406e-001	 1.160503435614832e+001
 1.007627163172250e+000	 1.007627163172250e+000	 1.143009007035114e+001
 1.125712121974170e+000	 9.139322832810067e-001	 1.287612839164673e+001
 1.116211009650340e+000	 9.255122807995019e-001	 1.279782762191621e+001
 1.106586119562053e+000	 9.369990181217114e-001	 1.270932118634739e+001
 1.096838828828143e+000	 9.483905226947137e-001	 1.261065467737005e+001
 1.086970556266141e+000	 9.596848491912374e-001	 1.250187871984653e+001
 1.076982761715857e+000	 9.708800806066867e-001	 1.238304906011625e+001
 1.066876945328443e+000	 9.819743293358620e-001	 1.225422665139906e+001
 1.056654646821688e+000	 9.929657382281226e-001	 1.211547773519278e+001
 1.046317444702288e+000	 1.003852481619755e+000	 1.196687391829932e+001
 1.035866955455921e+000	 1.014632766342347e+000	 1.180849224512013e+001
 1.025304832706000e+000	 1.025304832706000e+000	 1.164041526486381e+001
 1.145120951666496e+000	 9.296897364440285e-001	 1.302498594703874e+001
 1.135456027060987e+000	 9.414693890930587e-001	 1.295981502014409e+001
 1.125665190591725e+000	 9.531541736112253e-001	 1.288378209916607e+001
 1.115749843120970e+000	 9.647420834360720e-001	 1.279692038349947e+001
 1.105711427928626e+000	 9.762311397002026e-001	 1.269926846916712e+001
 1.095551430024153e+000	 9.876193923472171e-001	 1.259087045711013e+001
 1.085271375423380e+000	 9.989049212269989e-001	 1.247177605753087e+001
 1.074872830390953e+000	 1.010085837169068e+000	 1.234204068987998e+001
 1.064357400649202e+000	 1.021160283032751e+000	 1.220172557807987e+001
 1.053726730554248e+000	 1.032126434732938e+000	 1.205089784058143e+001
 1.042982502240250e+000	 1.042982502240250e+000	 1.188963057485715e+001
 1.164529781359323e+000	 9.454471896070471e-001	 1.321275179792769e+001
 1.154701044472046e+000	 9.574264973867980e-001	 1.316068757192326e+001
 1.144744261621738e+000	 9.693093291010766e-001	 1.309710389955527e+001
 1.134660857414088e+000	 9.810936441778934e-001	 1.302202127241016e+001
 1.124452299591371e+000	 9.927774302097261e-001	 1.293546593993101e+001
 1.114120098332699e+000	 1.004358704088371e+000	 1.283747003751628e+001
 1.103665805518577e+000	 1.015835513118795e+000	 1.272807171037321e+001
 1.093091013960509e+000	 1.027205936110678e+000	 1.260731523267249e+001
 1.082397356596456e+000	 1.038468084446386e+000	 1.247525112155335e+001
 1.071586505652984e+000	 1.049620103124114e+000	 1.233193624553124e+001
 1.060660171775000e+000	 1.060660171775000e+000	 1.217743392686809e+001
 8.838834764499999e-001	 8.838834764499999e-001	 1.107614453387356e+001
 8.746834192386785e-001	 8.929887546840698e-001	 1.087059932327195e+001
 8.653900703388238e-001	 9.019977971392147e-001	 1.066429047366500e+001
 8.560049467244862e-001	 9.109091782780103e-001	 1.045751131153055e+001
 8.465295942305037e-001	 9.197215045783189e-001	 1.025055408549329e+001
 8.369655867049055e-001	 9.284334152585062e-001	 1.004370975971976e+001
 8.273145251396232e-001	 9.370435829756509e-001	 9.837267809511609e+000
 8.175780367805180e-001	 9.455507144959993e-001	 9.631516019282048e+000
 8.077577742177590e-001	 9.539535513369584e-001	 9.426740283094160e+000
 7.978554144576140e-001	 9.622508703799657e-001	 9.223224407934374e+000
 7.878726579767392e-001	 9.704414844536136e-001	 9.021249919890471e+000
 9.015611459802497e-001	 9.015611459802499e-001	 1.100412004274335e+001
 8.921770876245896e-001	 9.108485297791160e-001	 1.081357275845564e+001
 8.826978717467009e-001	 9.200377530834085e-001	 1.062079971333575e+001
 8.731250456601146e-001	 9.291273618449544e-001	 1.042606587629956e+001
 8.634601861163660e-001	 9.381159346711733e-001	 1.022963635926305e+001
 8.537048984404446e-001	 9.470020835647984e-001	 1.003177624292622e+001
 8.438608156441203e-001	 9.557844546360496e-001	 9.832750403098155e+000
 8.339295975181719e-001	 9.644617287864988e-001	 9.632823337689970e+000
 8.239129297045714e-001	 9.730326223639015e-001	 9.432258994499625e+000
 8.138125227497115e-001	 9.814958877873230e-001	 9.231320599913067e+000
 8.036301111397820e-001	 9.898503141419285e-001	 9.030270488643810e+000
 9.192388155110001e-001	 9.192388155110001e-001	 1.097368116426577e+001
 9.096707560110861e-001	 9.287083048745725e-001	 1.079649293127831e+001
 9.000056731552177e-001	 9.380777090279423e-001	 1.061564353134975e+001
 8.902451445964078e-001	 9.473455454121887e-001	 1.043137004883319e+001
 8.803907780028876e-001	 9.565103647642879e-001	 1.024391091398460e+001
 8.704442101766075e-001	 9.655707518713408e-001	 1.005350576101012e+001
 8.604071061491759e-001	 9.745253262967092e-001	 9.860395285018832e+000
 8.502811582562885e-001	 9.833727430772894e-001	 9.664821097949648e+000
 8.400680851917209e-001	 9.921116933911853e-001	 9.467025583541819e+000
 8.297696310419914e-001	 1.000740905195092e+000	 9.267251751422668e+000
 8.193875643028225e-001	 1.009259143830745e+000	 9.065743090388079e+000
 9.369164850422498e-001	 9.369164850422498e-001	 1.098436610202020e+001
 9.271644243981670e-001	 9.465680799704386e-001	 1.081899829657074e+001
 9.173134745643742e-001	 9.561176649728163e-001	 1.064855850680025e+001
 9.073652435333655e-001	 9.655637289797128e-001	 1.047325635282857e+001
 8.973213698900685e-001	 9.749047948576630e-001	 1.029330398705374e+001
 8.871835219133946e-001	 9.841394201781341e-001	 1.010891598438724e+001
 8.769533966547897e-001	 9.932661979576292e-001	 9.920309229778880e+000
 8.666327189948685e-001	 1.002283757368371e+000	 9.727702803041289e+000
 8.562232406792086e-001	 1.011190764418811e+000	 9.531317860988702e+000
 8.457267393344540e-001	 1.019985922603271e+000	 9.331377516912669e+000
 8.351450174658597e-001	 1.028667973520062e+000	 9.128106717422934e+000
 9.545941545740001e-001	 9.545941545740000e-001	 1.103574267495872e+001
 9.446580927858330e-001	 9.644278550667149e-001	 1.088074994742570e+001
 9.346212759741711e-001	 9.741576209180304e-001	 1.071929703929948e+001
 9.244853424709878e-001	 9.837819125475276e-001	 1.055156647737605e+001
 9.142519617779087e-001	 9.932992249512981e-001	 1.037774449189534e+001
 9.039228336508052e-001	 1.002708088485177e+000	 1.019802093893554e+001
 8.934996871609626e-001	 1.012007069618810e+000	 1.001258921850001e+001
 8.829842797339111e-001	 1.021194771659743e+000	 9.821646188246294e+000
 8.723783961670338e-001	 1.030269835446777e+000	 9.625392072818364e+000
 8.616838476270986e-001	 1.039230940011862e+000	 9.424030368750977e+000
 8.509024706288946e-001	 1.048076803209881e+000	 9.217767744928851e+000
 9.722718241062499e-001	 9.722718241062499e-001	 1.112740562509909e+001
 9.621517611740841e-001	 9.822876301634012e-001	 1.098142955717420e+001
 9.519290773846075e-001	 9.921975768635845e-001	 1.082762591074927e+001
 9.416054414092748e-001	 1.002000096115632e+000	 1.066615044374144e+001
 9.311825536664083e-001	 1.011693655045194e+000	 1.049716377468807e+001
 9.206621453888395e-001	 1.021276756792471e+000	 1.032083133731710e+001
 9.100459776676937e-001	 1.030747941280252e+000	 1.013732332922791e+001
 8.993358404734174e-001	 1.040105785951407e+000	 9.946814654574469e+000
 8.885335516551967e-001	 1.049348906475084e+000	 9.749484860654409e+000
 8.776409559199258e-001	 1.058475957420865e+000	 9.545518068322277e+000
 8.666599237919266e-001	 1.067485632900202e+000	 9.335102896159665e+000
 9.899494936390003e-001	 9.899494936390003e-001	 1.125897421367978e+001
 9.796454295629200e-001	 1.000147405260498e+000	 1.112073754186425e+001
 9.692368787956835e-001	 1.010237532809479e+000	 1.097332500120845e+001
 9.587255403482263e-001	 1.020218279684027e+000	 1.081686586142184e+001
 9.481131455555671e-001	 1.030088085139350e+000	 1.065149539715438e+001
 9.374014571274983e-001	 1.039845425100016e+000	 1.047735487480077e+001
 9.265922681749832e-001	 1.049488812941954e+000	 1.029459153184980e+001
 9.156874012133863e-001	 1.059016800243361e+000	 1.010335854860939e+001
 9.046887071436974e-001	 1.068427977503733e+000	 9.903815012154873e+000
 8.935980642129355e-001	 1.077720974830278e+000	 9.696125872365851e+000
 8.824173769549563e-001	 1.086894462591023e+000	 9.480461889935967e+000
 1.007627163172250e+000	 1.007627163172250e+000	 1.143009007035114e+001
 9.971390979523412e-001	 1.018007180358004e+000	 1.129839141616275e+001
 9.865446802073997e-001	 1.028277488755713e+000	 1.115618613993133e+001
 9.758456392878422e-001	 1.038436463252712e+000	 1.100357726251135e+001
 9.650437374453851e-001	 1.048482515233766e+000	 1.084067494221422e+001
 9.541407688667807e-001	 1.058414093407811e+000	 1.066759649394575e+001
 9.431385586828313e-001	 1.068229684603917e+000	 1.048446639933639e+001
 9.320389619538186e-001	 1.077927814535606e+000	 1.029141630763392e+001
 9.208438626325358e-001	 1.087507048532722e+000	 1.008858502714925e+001
 9.095551725061275e-001	 1.096965992240103e+000	 9.876118507066984e+000
 8.981748301179828e-001	 1.106303292282346e+000	 9.654169809454954e+000
 1.025304832706000e+000	 1.025304832706000e+000	 1.164041526486381e+001
 1.014632766342347e+000	 1.035866955455920e+000	 1.151412431933666e+001
 1.003852481619755e+000	 1.046317444702287e+000	 1.137601207526485e+001
 9.929657382281232e-001	 1.056654646821688e+000	 1.122615550492544e+001
 9.819743293358627e-001	 1.066876945328443e+000	 1.106463983974422e+001
 9.708800806066874e-001	 1.076982761715857e+000	 1.089155862190434e+001
 9.596848491912375e-001	 1.086970556266141e+000	 1.070701374540699e+001
 9.483905226947140e-001	 1.096838828828143e+000	 1.051111548629372e+001
 9.369990181217119e-001	 1.106586119562053e+000	 1.030398252176207e+001
 9.255122807995023e-001	 1.116211009650340e+000	 1.008574193793267e+001
 9.139322832810067e-001	 1.125712121974170e+000	 9.856529226051105e+000
 1.042982502240250e+000	 1.042982502240250e+000	 1.188963057485715e+001
 1.032126434732938e+000	 1.053726730554247e+000	 1.176768369113432e+001
 1.021160283032751e+000	 1.064357400649201e+000	 1.163261554930172e+001
 1.010085837169069e+000	 1.074872830390953e+000	 1.148447723631434e+001
 9.989049212269993e-001	 1.085271375423379e+000	 1.132332921005578e+001
 9.876193923472173e-001	 1.095551430024153e+000	 1.114924138359184e+001
 9.762311397002028e-001	 1.105711427928626e+000	 1.096229319734765e+001
 9.647420834360724e-001	 1.115749843120970e+000	 1.076257367885480e+001
 9.531541736112257e-001	 1.125665190591725e+000	 1.055018148974331e+001
 9.414693890930591e-001	 1.135456027060987e+000	 1.032522495967912e+001
 9.296897364440283e-001	 1.145120951666496e+000	 1.008782210698110e+001
 1.060660171775000e+000	 1.060660171775000e+000	 1.217743392686809e+001
 1.049620103124114e+000	 1.071586505652983e+000	 1.205883008007877e+001
 1.038468084446386e+000	 1.082397356596456e+000	 1.192581846506818e+001
 1.027205936110678e+000	 1.093091013960508e+000	 1.177842441158517e+001
 1.015835513118795e+000	 1.103665805518576e+000	 1.161668372302536e+001
 1.004358704088372e+000	 1.114120098332699e+000	 1.144064279353974e+001
 9.927774302097264e-001	 1.124452299591371e+000	 1.125035871154690e+001
 9.810936441778938e-001	 1.134660857414088e+000	 1.104589934923508e+001
 9.693093291010769e-001	 1.144744261621738e+000	 1.082734343766656e+001
 9.574264973867984e-001	 1.154701044472046e+000	 1.059478062713137e+001
 9.454471896070471e-001	 1.164529781359323e+000	 1.034831153243020e+001
 7.878726579767392e-001	 9.704414844536136e-001	 9.021249919890471e+000
 7.778112277595841e-001	 9.785242428865572e-001	 8.830009653353685e+000
 7.676728683215578e-001	 9.864980320293814e-001	 8.635768743506739e+000
 7.574593447180578e-001	 9.943617757451815e-001	 8.438755025603374e+000
 7.471724415395483e-001	 1.002114435868594e+000	 8.239199064270011e+000
 7.368139618953942e-001	 1.009755012632604e+000	 8.037333992291213e+000
 7.263857263871186e-001	 1.017282545062913e+000	 7.833395345284892e+000
 7.158895720722922e-001	 1.024696111339581e+000	 7.627620892436201e+000
 7.053273514202589e-001	 1.031994829125725e+000	 7.420250463470286e+000
 6.947009312609062e-001	 1.039177855863086e+000	 7.211525772056362e+000
 6.840121917276981e-001	 1.046244389034349e+000	 7.001690235844038e+000
 8.036301111397820e-001	 9.898503141419285e-001	 9.030270488643810e+000
 7.933674523188057e-001	 9.980947277430013e-001	 8.836862724001929e+000
 7.830263256923841e-001	 1.006227992668192e+000	 8.641453769494934e+000
 7.726085316170229e-001	 1.014249011257858e+000	 8.444280900224504e+000
 7.621158903749967e-001	 1.022156724583329e+000	 8.245582962156655e+000
 7.515502411378573e-001	 1.029950112882250e+000	 8.045600212593753e+000
 7.409134409191585e-001	 1.037628195960835e+000	 7.844574158031708e+000
 7.302073635176236e-001	 1.045190033562748e+000	 7.642747389548903e+000
 7.194338984519830e-001	 1.052634725704365e+000	 7.440363415882294e+000
 7.085949498887226e-001	 1.059961412976264e+000	 7.237666494355177e+000
 6.976924355639771e-001	 1.067169276810782e+000	 7.034901459827871e+000
 8.193875643028225e-001	 1.009259143830745e+000	 9.065743090388079e+000
 8.089236768778395e-001	 1.017665212600036e+000	 8.870743984897889e+000
 7.983797830628682e-001	 1.025957953307663e+000	 8.674669716162663e+000
 7.877577185155218e-001	 1.034136246771246e+000	 8.477766606656651e+000
 7.770593392098842e-001	 1.042199013298805e+000	 8.280281441951297e+000
 7.662865203796951e-001	 1.050145213132645e+000	 8.082461313224496e+000
 7.554411554505389e-001	 1.057973846859497e+000	 7.884553458583041e+000
 7.445251549622911e-001	 1.065683955786622e+000	 7.686805103323143e+000
 7.335404454830686e-001	 1.073274622283663e+000	 7.489463299258031e+000
 7.224889685159565e-001	 1.080744970090029e+000	 7.292774763250219e+000
 7.113726793997586e-001	 1.088094164587713e+000	 7.096985715088882e+000
 8.351450174658597e-001	 1.028667973520062e+000	 9.128106717422934e+000
 8.244799014366857e-001	 1.037235697457663e+000	 8.932060044977472e+000
 8.137332404330099e-001	 1.045687913947796e+000	 8.735794114888538e+000
 8.029069054135536e-001	 1.054023482285344e+000	 8.539563906752713e+000
 7.920027880442107e-001	 1.062241302015020e+000	 8.343623804162128e+000
 7.810227996209075e-001	 1.070340313383791e+000	 8.148227439614191e+000
 7.699688699812601e-001	 1.078319497758898e+000	 7.953627539598219e+000
 7.588429464062950e-001	 1.086177878011206e+000	 7.760075769960717e+000
 7.476469925135166e-001	 1.093914518863618e+000	 7.567822581652968e+000
 7.363829871426080e-001	 1.101528527204381e+000	 7.377117056969470e+000
 7.250529232350426e-001	 1.109019052365140e+000	 7.188206756389119e+000
 8.509024706288946e-001	 1.048076803209881e+000	 9.217767744928851e+000
 8.400361259953446e-001	 1.056806182315880e+000	 9.021187732671317e+000
 8.290866978028095e-001	 1.065417874588589e+000	 8.825177303668694e+000
 8.180560923111190e-001	 1.073910717800152e+000	 8.629999705834241e+000
 8.069462368779758e-001	 1.082283590731976e+000	 8.435916578727209e+000
 7.957590788614948e-001	 1.090535413635685e+000	 8.243187801239223e+000
 7.844965845113219e-001	 1.098665148659037e+000	 8.052071340758628e+000
 7.731607378496351e-001	 1.106671800236498e+000	 7.862823103890672e+000
 7.617535395433266e-001	 1.114554415444232e+000	 7.675696788811868e+000
 7.502770057686767e-001	 1.122312084319321e+000	 7.490943739338410e+000
 7.387331670698292e-001	 1.129943940143065e+000	 7.308812800789994e+000
 8.666599237919266e-001	 1.067485632900202e+000	 9.335102896159665e+000
 8.555923505538157e-001	 1.076376667174689e+000	 9.138476803223462e+000
 8.444401551722667e-001	 1.085147835230044e+000	 8.943144899242469e+000
 8.332052792082176e-001	 1.093797953315671e+000	 8.749378312375935e+000
 8.218896857111803e-001	 1.102325879449672e+000	 8.557445595066245e+000
 8.104953581014568e-001	 1.110730513888329e+000	 8.367612574890289e+000
 7.990242990407239e-001	 1.119010799559915e+000	 8.180142208129563e+000
 7.874785292923118e-001	 1.127165722462497e+000	 7.995294436112220e+000
 7.758600865724986e-001	 1.135194312025504e+000	 7.813326044379163e+000
 7.641710243941634e-001	 1.143095641434849e+000	 7.634490524725875e+000
 7.524134109041186e-001	 1.150868827921488e+000	 7.459037940170325e+000
 8.824173769549563e-001	 1.086894462591023e+000	 9.480461889935967e+000
 8.711485751120995e-001	 1.095947152034089e+000	 9.284252355940113e+000
 8.597936125413821e-001	 1.104877795872159e+000	 9.090000004347342e+000
 8.483544661048494e-001	 1.113685188831901e+000	 8.897983455581258e+000
 8.368331345438236e-001	 1.122368168168108e+000	 8.708477830341154e+000
 8.252316373407937e-001	 1.130925614141723e+000	 8.521754604019199e+000
 8.135520135694666e-001	 1.139356450461533e+000	 8.338081465018711e+000
 8.017963207343244e-001	 1.147659644689206e+000	 8.157722177000972e+000
 7.899666336010327e-001	 1.155834208607433e+000	 7.980936445086197e+000
 7.780650430190672e-001	 1.163879198550964e+000	 7.807979786030973e+000
 7.660936547379107e-001	 1.171793715700407e+000	 7.639103402403385e+000
 8.981748301179828e-001	 1.106303292282346e+000	 9.654169809454954e+000
 8.867047996701954e-001	 1.115517636894080e+000	 9.458816996991104e+000
 8.751470699101551e-001	 1.124607756514936e+000	 9.266025182631449e+000
 8.635036530010147e-001	 1.133572424348841e+000	 9.076080090581888e+000
 8.517765833759061e-001	 1.142410456887283e+000	 8.889263063163016e+000
 8.399679165795053e-001	 1.151120714395866e+000	 8.705850919207249e+000
 8.280797280975500e-001	 1.159702101363889e+000	 8.526115817481120e+000
 8.161141121756733e-001	 1.168153566916622e+000	 8.350325125135720e+000
 8.040731806289283e-001	 1.176474105190019e+000	 8.178741291182268e+000
 7.919590616433885e-001	 1.184662755667666e+000	 8.011621724987689e+000
 7.797738985712054e-001	 1.192718603479824e+000	 7.849218679778626e+000
 9.139322832810067e-001	 1.125712121974170e+000	 9.856529226051105e+000
 9.022610242281041e-001	 1.135088121754663e+000	 9.662452778473453e+000
 8.905005272785858e-001	 1.144337717158373e+000	 9.471484229264622e+000
 8.786528398967133e-001	 1.153459659866492e+000	 9.283916016891723e+000
 8.667200322074272e-001	 1.162452745607199e+000	 9.100035356225527e+000
 8.547041958175916e-001	 1.171315814650759e+000	 8.920124101343651e+000
 8.426074426249740e-001	 1.180047752266984e+000	 8.744458614427323e+000
 8.304319036163591e-001	 1.188647489144747e+000	 8.573309640728979e+000
 8.181797276561865e-001	 1.197114001773264e+000	 8.406942189579931e+000
 8.058530802671273e-001	 1.205446312784956e+000	 8.245615421403219e+000
 7.934541424040027e-001	 1.213643491259739e+000	 8.089582540689714e+000
 9.296897364440283e-001	 1.145120951666496e+000	 1.008782210698110e+001
 9.178172487858249e-001	 1.154658606615837e+000	 9.895422940281769e+000
 9.058539846466741e-001	 1.164067677802471e+000	 9.706623761487533e+000
 8.938020267919450e-001	 1.173346895384854e+000	 9.521723332273213e+000
 8.816634810383874e-001	 1.182495034327856e+000	 9.341014388162611e+000
 8.694404750550524e-001	 1.191510914906401e+000	 9.164783506175933e+000
 8.571351571517384e-001	 1.200393403170818e+000	 8.993310979584777e+000
 8.447496950563811e-001	 1.209141411373581e+000	 8.826870699726047e+000
 8.322862746828065e-001	 1.217753898357167e+000	 8.665730044815204e+000
 8.197470988902837e-001	 1.226229869902834e+000	 8.510149775694062e+000
 8.071343862363025e-001	 1.234568379040151e+000	 8.360383938439403e+000
 9.454471896070471e-001	 1.164529781359323e+000	 1.034831153243020e+001
 9.333734733433584e-001	 1.174229091477602e+000	 1.015797347779192e+001
 9.212074420144205e-001	 1.183797638447231e+000	 9.971674650105600e+000
 9.089512136867101e-001	 1.193234130903926e+000	 9.789719741216311e+000
 8.966069298687867e-001	 1.202537323049252e+000	 9.612406652219963e+000
 8.841767542918881e-001	 1.211706015162792e+000	 9.440026366404796e+000
 8.716628716778435e-001	 1.220739054075391e+000	 9.272862830262842e+000
 8.590674864957391e-001	 1.229635333603122e+000	 9.111192842493736e+000
 8.463928217087883e-001	 1.238393794941727e+000	 8.955285950912897e+000
 8.336411175128573e-001	 1.247013427021299e+000	 8.805404357168733e+000
 8.208146300681053e-001	 1.255493266821059e+000	 8.629039487235199e+000
 6.840121917276981e-001	 1.046244389034349e+000	 7.001690235844038e+000
 6.732630251961720e-001	 1.053193666391865e+000	 6.794432603469492e+000
 6.624553352191411e-001	 1.060024966153559e+000	 6.578917778428484e+000
 6.515910354597979e-001	 1.066737607165498e+000	 6.355525617536508e+000
 6.406720486238724e-001	 1.073330949030676e+000	 6.124643149016158e+000
 6.297003053920893e-001	 1.079804392204921e+000	 5.886664184729382e+000
 6.186777433540814e-001	 1.086157378059845e+000	 5.698033013111084e+000
 6.076063059449275e-001	 1.092389388913029e+000	 5.548024959689101e+000
 5.964879413854606e-001	 1.098499948025726e+000	 5.396267737585860e+000
 5.853246016274843e-001	 1.104488619568381e+000	 5.243313279830282e+000
 5.741182413050000e-001	 1.110355008554307e+000	 5.089711396305242e+000
 6.976924355639771e-001	 1.067169276810782e+000	 7.034901459827871e+000
 6.867282857009388e-001	 1.074257539715344e+000	 6.840717884332179e+000
 6.757044419236228e-001	 1.081225465472260e+000	 6.638031648013770e+000
 6.646228561684843e-001	 1.088072359304516e+000	 6.427205619752746e+000
 6.534854895953681e-001	 1.094797568007166e+000	 6.208610195703892e+000
 6.422943114986129e-001	 1.101400480045156e+000	 5.982622929371208e+000
 6.310512982196438e-001	 1.107880525617529e+000	 5.749628152784462e+000
 6.197584320622396e-001	 1.114237176688216e+000	 5.558357284352966e+000
 6.084177002116509e-001	 1.120469946983696e+000	 5.420031072167703e+000
 5.970310936587159e-001	 1.126578391957822e+000	 5.280431062879161e+000
 5.856006061301156e-001	 1.132562108724173e+000	 5.140107928638482e+000
 7.113726793997586e-001	 1.088094164587713e+000	 7.096985715088882e+000
 7.001935462053034e-001	 1.095321413039221e+000	 6.914378849786140e+000
 6.889535486277866e-001	 1.102425964791257e+000	 6.722999379817734e+000
 6.776546768769279e-001	 1.109407111443731e+000	 6.523193739031446e+000
 6.662989305666857e-001	 1.116264186983754e+000	 6.315316261070730e+000
 6.548883176050131e-001	 1.122996567885389e+000	 6.099728826862762e+000
 6.434248530851268e-001	 1.129603673175110e+000	 5.876800502416755e+000
 6.319105581795076e-001	 1.136084964463200e+000	 5.646907167544012e+000
 6.203474590378216e-001	 1.142439945941363e+000	 5.455015085891790e+000
 6.087375856899427e-001	 1.148668164346859e+000	 5.326696597794386e+000
 5.970829709552312e-001	 1.154769208893534e+000	 5.197568187756043e+000
 7.250529232350426e-001	 1.109019052365140e+000	 7.188206756389119e+000
 7.136588067092652e-001	 1.116385286363495e+000	 7.015754937550394e+000
 7.022026553316330e-001	 1.123626464110552e+000	 6.834236469024415e+000
 6.906864975851287e-001	 1.130741863583143e+000	 6.643981860483947e+000
 6.791123715378250e-001	 1.137730805960439e+000	 6.445329910678715e+000
 6.674823237112892e-001	 1.144592655725618e+000	 6.238627371947162e+000
 6.557984079505307e-001	 1.151326820732587e+000	 6.024228604224178e+000
 6.440626842967311e-001	 1.157932752237980e+000	 5.802495219132307e+000
 6.322772178639726e-001	 1.164409944898726e+000	 5.573795714764597e+000
 6.204440777211645e-001	 1.170757936735492e+000	 5.383820768582941e+000
 6.085653357803471e-001	 1.176976309062392e+000	 5.263856621629509e+000
 7.387331670698292e-001	 1.129943940143065e+000	 7.308812800789994e+000
 7.271240672128245e-001	 1.137449159688166e+000	 7.145164806684281e+000
 7.154517620351615e-001	 1.144826963430144e+000	 6.972132353170844e+000
 7.037183182930865e-001	 1.152076615722752e+000	 6.790030497180283e+000
 6.919258125087863e-001	 1.159197424937220e+000	 6.599182990876160e+000
 6.800763298174423e-001	 1.166188743565844e+000	 6.399921962838251e+000
 6.681719628158557e-001	 1.173049968289960e+000	 6.192587587903671e+000
 6.562148104139101e-001	 1.179780540012556e+000	 5.977527746230170e+000
 6.442069766901035e-001	 1.186379943855784e+000	 5.755097672169117e+000
 6.321505697523815e-001	 1.192847709123722e+000	 5.525659593558165e+000
 6.200477006054628e-001	 1.199183409230746e+000	 5.340668335305585e+000
 7.524134109041186e-001	 1.150868827921488e+000	 7.459037940170325e+000
 7.405893277159817e-001	 1.158513033013234e+000	 7.302908226556176e+000
 7.287008687383727e-001	 1.166027462750033e+000	 7.137052781023917e+000
 7.167501390008011e-001	 1.173411367862558e+000	 6.961771642152948e+000
 7.047392534795690e-001	 1.180664043914099e+000	 6.777373966908026e+000
 6.926703359234713e-001	 1.187784831406066e+000	 6.584177728177698e+000
 6.805455176811017e-001	 1.194773115847230e+000	 6.382509400106911e+000
 6.683669365310447e-001	 1.201628327786929e+000	 6.172703631767021e+000
 6.561367355162152e-001	 1.208349942812540e+000	 5.955102909730403e+000
 6.438570617835934e-001	 1.214937481511547e+000	 5.730057210142335e+000
 6.315300654305786e-001	 1.221390509398596e+000	 5.497923640904122e+000
 7.660936547379107e-001	 1.171793715700407e+000	 7.639103402403385e+000
 7.540545882187365e-001	 1.179576906338700e+000	 7.489267763423298e+000
 7.419499754412664e-001	 1.187227962070220e+000	 7.329341927649550e+000
 7.297819597082732e-001	 1.194746120002561e+000	 7.159611314828951e+000
 7.175526944501738e-001	 1.202130662891074e+000	 6.980370903371838e+000
 7.052643420293767e-001	 1.209380919246285e+000	 6.791924943961225e+000
 6.929190725462689e-001	 1.216496263404397e+000	 6.594586660069112e+000
 6.805190626481352e-001	 1.223476115561098e+000	 6.388677935898792e+000
 6.680664943423071e-001	 1.230319941768991e+000	 6.174528992304182e+000
 6.555635538148004e-001	 1.237027253898968e+000	 5.952478051259543e+000
 6.430124302556941e-001	 1.243597609565942e+000	 5.722870989481298e+000
 7.797738985712054e-001	 1.192718603479824e+000	 7.849218679778626e+000
 7.675198487210887e-001	 1.200640779664563e+000	 7.704510289476431e+000
 7.551990821438421e-001	 1.208428461390704e+000	 7.549324286842230e+000
 7.428137804155026e-001	 1.216080872142761e+000	 7.383931839416264e+000
 7.303661354206004e-001	 1.223597281868146e+000	 7.208614130940796e+000
 7.178583481351588e-001	 1.230977007086501e+000	 7.023662090788322e+000
 7.052926274113571e-001	 1.238219410961460e+000	 6.829376109382515e+000
 6.926711887651813e-001	 1.245323903335064e+000	 6.626065740111065e+000
 6.799962531683790e-001	 1.252289940725139e+000	 6.422691639899255e+000
 6.672700458460026e-001	 1.259117026285986e+000	 6.236270864209526e+000
 6.544947950808100e-001	 1.265804709732783e+000	 6.053503824119184e+000
 7.934541424040027e-001	 1.213643491259739e+000	 8.089582540689714e+000
 7.809851092230387e-001	 1.221704652990824e+000	 7.948888335776870e+000
 7.684481888461006e-001	 1.229628960711485e+000	 7.797306367786615e+000
 7.558456011224889e-001	 1.237415624283158e+000	 7.635093887595098e+000
 7.431795763908485e-001	 1.245063900845315e+000	 7.462518637219716e+000
 7.304523542408172e-001	 1.252573094926714e+000	 7.280567977503694e+000
 7.176661822763661e-001	 1.259942558518420e+000	 7.098955037196676e+000
 7.048233148821829e-001	 1.267171691108826e+000	 6.920839642015147e+000
 6.919260119944316e-001	 1.274259939680982e+000	 6.746419702898841e+000
 6.789765378771997e-001	 1.281206798672600e+000	 6.575880299006514e+000
 6.659771599059257e-001	 1.288011809899122e+000	 6.409393745157458e+000
 8.071343862363025e-001	 1.234568379040151e+000	 8.360383938439403e+000
 7.944503697245862e-001	 1.242768526317482e+000	 8.222641307606219e+000
 7.816972955480415e-001	 1.250829460032563e+000	 8.070876167942323e+000
 7.688774218292324e-001	 1.258750376423753e+000	 7.892516003805854e+000
 7.559930173609185e-001	 1.266530519822581e+000	 7.717513274466710e+000
 7.430463603463520e-001	 1.274169182766922e+000	 7.546088514825588e+000
 7.300397371412961e-001	 1.281665706075276e+000	 7.378448512781454e+000
 7.169754409991401e-001	 1.289019478882383e+000	 7.214786321674606e+000
 7.038557708204642e-001	 1.296229938636522e+000	 7.055281303029558e+000
 6.906830299083921e-001	 1.303296571058811e+000	 6.900099198847106e+000
 6.774595247310413e-001	 1.310218910064956e+000	 6.749392232624557e+000
 8.208146300681053e-001	 1.255493266821059e+000	 8.629039487235199e+000
 8.079156302257311e-001	 1.263832399644536e+000	 8.455348905603618e+000
 7.949464022496643e-001	 1.272029959353938e+000	 8.285116591017474e+000
 7.819092425357329e-001	 1.280085128564544e+000	 8.118576607520645e+000
 7.688064583308102e-001	 1.287997138799943e+000	 7.955948367509746e+000
 7.556403664517630e-001	 1.295765270607128e+000	 7.797436608070326e+000
 7.424132920061470e-001	 1.303388853632028e+000	 7.643231400587569e+000
 7.291275671160530e-001	 1.310867266655738e+000	 7.493508192958093e+000
 7.157855296464771e-001	 1.318199937591758e+000	 7.348427883648100e+000
 7.023895219395795e-001	 1.325386343444616e+000	 7.208136926760632e+000
 6.889418895561570e-001	 1.332426010230286e+000	 7.072767467201297e+000
 5.741182413050000e-001	 1.110355008554307e+000	 5.089711396305242e+000
 5.628708166930497e-001	 1.116098760742258e+000	 4.888503725048542e+000
 5.515842846736662e-001	 1.121719562507361e+000	 4.694086197724783e+000
 5.402606017111223e-001	 1.127217140681487e+000	 4.506847746182395e+000
 5.289017228384256e-001	 1.132591262364247e+000	 4.327168101478746e+000
 5.175096006544985e-001	 1.137841734704207e+000	 4.155417322986832e+000
 5.060861843335420e-001	 1.142968404651231e+000	 3.991955347747445e+000
 4.946334186475063e-001	 1.147971158680544e+000	 3.837131560779737e+000
 4.831532430025670e-001	 1.152849922489192e+000	 3.691284387002095e+000
 4.716475904904685e-001	 1.157604660665570e+000	 3.554740905350076e+000
 4.601183869555650e-001	 1.162235376332733e+000	 3.427816485614192e+000
 5.856006061301156e-001	 1.132562108724173e+000	 5.140107928638482e+000
 5.741282330262805e-001	 1.138420735956605e+000	 4.943683421755495e+000
 5.626159703667710e-001	 1.144153953757676e+000	 4.751920004207241e+000
 5.510658137451469e-001	 1.149761483495895e+000	 4.565233815050740e+000
 5.394797572950757e-001	 1.155243087612864e+000	 4.384033368910024e+000
 5.278597926674591e-001	 1.160598569400124e+000	 4.208719026640763e+000
 5.162079080199823e-001	 1.165827772746534e+000	 4.039682485178894e+000
 5.045260870200352e-001	 1.170930581856823e+000	 3.877306287414848e+000
 4.928163078619172e-001	 1.175906920941978e+000	 3.721963352872618e+000
 4.810805422992083e-001	 1.180756753882165e+000	 3.574016529906514e+000
 4.693207546931507e-001	 1.185480083862899e+000	 3.433818170064564e+000
 5.970829709552312e-001	 1.154769208893534e+000	 5.197568187756043e+000
 5.853856493595110e-001	 1.160742711170352e+000	 5.004822936694196e+000
 5.736476560598761e-001	 1.166588345007308e+000	 4.814679954002360e+000
 5.618710257791714e-001	 1.172305826309545e+000	 4.627583307780346e+000
 5.500577917517258e-001	 1.177894912860660e+000	 4.443970967458891e+000
 5.382099846804195e-001	 1.183355404095164e+000	 4.264274215384300e+000
 5.263296317064224e-001	 1.188687140840915e+000	 4.088917076598863e+000
 5.144187553925638e-001	 1.193890005032144e+000	 3.918315767789415e+000
 5.024793727212673e-001	 1.198963919393784e+000	 3.752878166309864e+000
 4.905134941079483e-001	 1.203908847097765e+000	 3.593003300118360e+000
 4.785231224307363e-001	 1.208724791392063e+000	 3.439080859402334e+000
 6.085653357803471e-001	 1.176976309062392e+000	 5.263856621629509e+000
 5.966430656927416e-001	 1.183064686383501e+000	 5.073684319438115e+000
 5.846793417529809e-001	 1.189022736256255e+000	 4.884121316236460e+000
 5.726762378131962e-001	 1.194850169122436e+000	 4.695640367291458e+000
 5.606358262083760e-001	 1.200546738107633e+000	 4.508709606769690e+000
 5.485601766933801e-001	 1.206112238789327e+000	 4.323791899534776e+000
 5.364513553928626e-001	 1.211546508934373e+000	 4.141344210226639e+000
 5.243114237650927e-001	 1.216849428206511e+000	 3.961816990722930e+000
 5.121424375806174e-001	 1.222020917844609e+000	 3.785653587018225e+000
 4.999464459166881e-001	 1.227060940312370e+000	 3.613289666488390e+000
 4.877254901683218e-001	 1.231969498920228e+000	 3.445152666438210e+000
 6.200477006054628e-001	 1.199183409230746e+000	 5.340668335305585e+000
 6.079004820259722e-001	 1.205386661596051e+000	 5.151958923102307e+000
 5.957110274460858e-001	 1.211457127504519e+000	 4.961927625834337e+000
 5.834814498472208e-001	 1.217394511934570e+000	 4.771076679274310e+000
 5.712138606650262e-001	 1.223198563353783e+000	 4.579905129678500e+000
 5.589103687063406e-001	 1.228869073482613e+000	 4.388908125026600e+000
 5.465730790793028e-001	 1.234405877026911e+000	 4.198576222698434e+000
 5.342040921376213e-001	 1.239808851379921e+000	 4.009394714820062e+000
 5.218055024399675e-001	 1.245077916294454e+000	 3.821842972442900e+000
 5.093793977254281e-001	 1.250213033525979e+000	 3.639442805824034e+000
 4.969278579059074e-001	 1.255214206447393e+000	 3.531170572733581e+000
 6.315300654305786e-001	 1.221390509398596e+000	 5.497923640904122e+000
 6.191578983592029e-001	 1.227708636808003e+000	 5.241273831294051e+000
 6.067427131391908e-001	 1.233891518752100e+000	 5.049717204810423e+000
 5.942866618812454e-001	 1.239938854745945e+000	 4.855498059209751e+000
 5.817918951216763e-001	 1.245850388599110e+000	 4.659147136468769e+000
 5.692605607193010e-001	 1.251625908175021e+000	 4.479362265742930e+000
 5.566948027657430e-001	 1.257265245118527e+000	 4.348732542618764e+000
 5.440967605101501e-001	 1.262768274552376e+000	 4.223780747795876e+000
 5.314685672993177e-001	 1.268134914743319e+000	 4.104212954923406e+000
 5.188123495341680e-001	 1.273365126738593e+000	 3.989748947005516e+000
 5.061302256434931e-001	 1.278458913973559e+000	 3.880122709441307e+000
 6.430124302556941e-001	 1.243597609565942e+000	 5.722870989481298e+000
 6.304153146924334e-001	 1.250030612019355e+000	 5.402035759133917e+000
 6.177743988322958e-001	 1.256325909998997e+000	 5.200411371837275e+000
 6.050918739152699e-001	 1.262483197556562e+000	 5.062717584335610e+000
 5.923699295783265e-001	 1.268502213843615e+000	 4.929964264588153e+000
 5.796107527322617e-001	 1.274382742866553e+000	 4.801792311099399e+000
 5.668165264521832e-001	 1.280124613209222e+000	 4.677857037154060e+000
 5.539894288826788e-001	 1.285727697723874e+000	 4.557828813556622e+000
 5.411316321586678e-001	 1.291191913191203e+000	 4.441393664816256e+000
 5.282453013429078e-001	 1.296517219950213e+000	 4.328253818048651e+000
 5.153325933810786e-001	 1.301703621498723e+000	 4.218128204020799e+000
 6.544947950808100e-001	 1.265804709732783e+000	 6.053503824119184e+000
 6.416727310256640e-001	 1.272352587230109e+000	 5.787078994435824e+000
 6.288060845254007e-001	 1.278760301245210e+000	 5.518114775139443e+000
 6.158970859492947e-001	 1.285027540366421e+000	 5.350382316622238e+000
 6.029479640349766e-001	 1.291154039087298e+000	 5.228463921522319e+000
 5.899609447452221e-001	 1.297139577557208e+000	 5.109442429621126e+000
 5.769382501386235e-001	 1.302983981298995e+000	 4.992946185492046e+000
 5.638820972552076e-001	 1.308687120894417e+000	 4.878621074083620e+000
 5.507946970180179e-001	 1.314248911638106e+000	 4.766131136140353e+000
 5.376782531516476e-001	 1.319669313160837e+000	 4.655159131883230e+000
 5.245349611186642e-001	 1.324948329022888e+000	 4.545407052397652e+000
 6.659771599059257e-001	 1.288011809899122e+000	 6.409393745157458e+000
 6.529301473588947e-001	 1.294674562440264e+000	 6.157090662027080e+000
 6.398377702185056e-001	 1.301194692490741e+000	 5.901014312840002e+000
 6.267022979833191e-001	 1.307571883175522e+000	 5.641337824000456e+000
 6.135259984916267e-001	 1.313805864330157e+000	 5.511479705832033e+000
 6.003111367581827e-001	 1.319896412246986e+000	 5.402353266278420e+000
 5.870599738250637e-001	 1.325843349387847e+000	 5.294074065040983e+000
 5.737747656277362e-001	 1.331646544064004e+000	 5.186261524190337e+000
 5.604577618773681e-001	 1.337305910084030e+000	 5.078555747669176e+000
 5.471112049603875e-001	 1.342821406370465e+000	 4.970618102195689e+000
 5.337373288562498e-001	 1.348193036546053e+000	 4.862131741331981e+000
 6.774595247310413e-001	 1.310218910064956e+000	 6.749392232624557e+000
 6.641875636921253e-001	 1.316996537649819e+000	 6.511405924722540e+000
 6.508694559116106e-001	 1.323629083735587e+000	 6.268488736471193e+000
 6.375075100173437e-001	 1.330116225983865e+000	 6.020812167249443e+000
 6.241040329482768e-001	 1.336457689572194e+000	 5.778969306623922e+000
 6.106613287711432e-001	 1.342653246935887e+000	 5.680519374791394e+000
 5.971816975115039e-001	 1.348702717475778e+000	 5.581268796383557e+000
 5.836674340002649e-001	 1.354605967232635e+000	 5.480808531210060e+000
 5.701208267367182e-001	 1.360362908528973e+000	 5.378752773711718e+000
 5.565441567691274e-001	 1.365973499579099e+000	 5.274739553534515e+000
 5.429396965938355e-001	 1.371437744068218e+000	 5.168431274618889e+000
 6.889418895561570e-001	 1.332426010230286e+000	 7.072767467201297e+000
 6.754449800253557e-001	 1.339318512858777e+000	 6.849319008275109e+000
 6.619011416047155e-001	 1.346063474979750e+000	 6.619856492297071e+000
 6.483127220513681e-001	 1.352660568791450e+000	 6.384549132713802e+000
 6.346820674049272e-001	 1.359109514813409e+000	 6.143562796640144e+000
 6.210115207841035e-001	 1.365410081623910e+000	 5.943893058567560e+000
 6.073034211979440e-001	 1.371562085562787e+000	 5.854516373012213e+000
 5.935601023727936e-001	 1.377565390400310e+000	 5.762278637286350e+000
 5.797838915960681e-001	 1.383419906972935e+000	 5.666766142817947e+000
 5.659771085778672e-001	 1.389125592786738e+000	 5.567591620405117e+000
 5.521420643314210e-001	 1.394682451589383e+000	 5.464394796668873e+000
 4.601183869555650e-001	 1.162235376332733e+000	 3.427816485614192e+000
 4.485675500777414e-001	 1.166742110765889e+000	 3.263382875151663e+000
 4.369969884738851e-001	 1.171124942985806e+000	 3.102899807573511e+000
 4.254086008172059e-001	 1.175383989328324e+000	 2.946640568375186e+000
 4.138042749739846e-001	 1.179519402990089e+000	 2.794872238210391e+000
 4.021858871602738e-001	 1.183531373552290e+000	 2.647855348492322e+000
 3.905553011185043e-001	 1.187420126482944e+000	 2.505843554525162e+000
 3.789143673145659e-001	 1.191185922618587e+000	 2.369083326540709e+000
 3.672649221558915e-001	 1.194829057626238e+000	 2.237813658959631e+000
 3.556087872310361e-001	 1.198349861446522e+000	 2.112265798142302e+000
 3.439477685711992e-001	 1.201748697718857e+000	 1.992662988839834e+000
 4.693207546931507e-001	 1.185480083862899e+000	 3.433818170064564e+000
 4.575389010772938e-001	 1.190076952984894e+000	 3.251271469332790e+000
 4.457369282409294e-001	 1.194547441849339e+000	 3.073375738847795e+000
 4.339167728307316e-001	 1.198891669118793e+000	 2.900420747424480e+000
 4.220803604703062e-001	 1.203109791053832e+000	 2.732689133030974e+000
 4.102296049000272e-001	 1.207202001027271e+000	 2.570456047457360e+000
 3.983664071371732e-001	 1.211168529016486e+000	 2.413988820119766e+000
 3.864926546569516e-001	 1.215009641074747e+000	 2.263546641368734e+000
 3.746102205949438e-001	 1.218725638782410e+000	 2.119380265612703e+000
 3.627209629714756e-001	 1.222316858678915e+000	 1.981731734509243e+000
 3.508267239383701e-001	 1.225783671676468e+000	 1.850834120419548e+000
 4.785231224307363e-001	 1.208724791392063e+000	 3.439080859402334e+000
 4.665102520768511e-001	 1.213411795202904e+000	 3.237691350325897e+000
 4.544768680079944e-001	 1.217969940711893e+000	 3.041633323361217e+000
 4.424249448443035e-001	 1.222399348908308e+000	 2.851214031709733e+000
 4.303564459667101e-001	 1.226700179116658e+000	 2.666732667238886e+000
 4.182733226399086e-001	 1.230872628501379e+000	 2.488479992989205e+000
 4.061775131560261e-001	 1.234916931549213e+000	 2.316737996457997e+000
 3.940709419995870e-001	 1.238833359530156e+000	 2.151779564026519e+000
 3.819555190343216e-001	 1.242622219937907e+000	 1.993868176834165e+000
 3.698331387123260e-001	 1.246283855910719e+000	 1.843257628340813e+000
 3.577056793060472e-001	 1.249818645633586e+000	 1.700191763757694e+000
 4.877254901683218e-001	 1.231969498920228e+000	 3.445152666438210e+000
 4.754816030764138e-001	 1.236746637419919e+000	 3.224166380992190e+000
 4.632168077750800e-001	 1.241392439573469e+000	 3.009173633369791e+000
 4.509331168579218e-001	 1.245907028696870e+000	 2.800500173700753e+000
 4.386325314631963e-001	 1.250290567178565e+000	 2.603430289383415e+000
 4.263170403799181e-001	 1.254543255974617e+000	 2.482840254112745e+000
 4.139886191750629e-001	 1.258665334081123e+000	 2.370256457131787e+000
 4.016492293424726e-001	 1.262657077984815e+000	 2.265443996367780e+000
 3.893008174740251e-001	 1.266518801092731e+000	 2.168181209428404e+000
 3.769453144535877e-001	 1.270250853141934e+000	 2.078259873246635e+000
 3.645846346742306e-001	 1.273853619590210e+000	 1.995485365531422e+000
 4.969278579059074e-001	 1.255214206447393e+000	 3.531170572733581e+000
 4.844529540759813e-001	 1.260081479635939e+000	 3.367845795800163e+000
 4.719567475421861e-001	 1.264814938434064e+000	 3.213909436141168e+000
 4.594412888715865e-001	 1.269414708484477e+000	 3.069050968628920e+000
 4.469086169597646e-001	 1.273880955239555e+000	 2.932972604956444e+000
 4.343607581200557e-001	 1.278213883446981e+000	 2.805389681546490e+000
 4.217997251942837e-001	 1.282413736612218e+000	 2.686031005732922e+000
 4.092275166856078e-001	 1.286480796438724e+000	 2.574639160323566e+000
 3.966461159140542e-001	 1.290415382246879e+000	 2.470970766772789e+000
 3.840574901952604e-001	 1.294217850372560e+000	 2.374796707305671e+000
 3.714635900429202e-001	 1.297888593546341e+000	 2.285902306445217e+000
 5.061302256434931e-001	 1.278458913973559e+000	 3.880122709441307e+000
 4.934243050755545e-001	 1.283416321850965e+000	 3.709266806463144e+000
 4.806966873093129e-001	 1.288237437293681e+000	 3.548068132963235e+000
 4.679494608852974e-001	 1.292922388271132e+000	 3.396189612566550e+000
 4.551847024564149e-001	 1.297471343299626e+000	 3.253307660426231e+000
 4.424044758603214e-001	 1.301884510918474e+000	 3.119112603967737e+000
 4.296108312136885e-001	 1.306162139142497e+000	 2.993309059369891e+000
 4.168058040289931e-001	 1.310304514891883e+000	 2.875616263882807e+000
 4.039914143544089e-001	 1.314311963400354e+000	 2.765768364208456e+000
 3.911696659373444e-001	 1.318184847602598e+000	 2.663514661290680e+000
 3.783425454121162e-001	 1.321923567501977e+000	 2.568619811978008e+000
 5.153325933810786e-001	 1.301703621498723e+000	 4.218128204020799e+000
 5.023956560751326e-001	 1.306751164064996e+000	 4.040344372728997e+000
 4.894366270764604e-001	 1.311659936152317e+000	 3.872440150059181e+000
 4.764576328990547e-001	 1.316430068056832e+000	 3.714050758399085e+000
 4.634607879531474e-001	 1.321061731358781e+000	 3.564825736912507e+000
 4.504481936007152e-001	 1.325555138389096e+000	 3.424429395870179e+000
 4.374219372332777e-001	 1.329910541671959e+000	 3.292541224044537e+000
 4.243840913726282e-001	 1.334128233344292e+000	 3.168856249261156e+000
 4.113367127950892e-001	 1.338208544553154e+000	 3.053085352331614e+000
 3.982818416798393e-001	 1.342151844832047e+000	 2.944955534720830e+000
 3.852215007818186e-001	 1.345958541457120e+000	 2.844210140426934e+000
 5.245349611186642e-001	 1.324948329022888e+000	 4.545407052397652e+000
 5.113670070747159e-001	 1.330086006278032e+000	 4.361327867608149e+000
 4.981765668436284e-001	 1.335082435009975e+000	 4.187304441065447e+000
 4.849658049128583e-001	 1.339937747841579e+000	 4.022943107675065e+000
 4.717368734499622e-001	 1.344652119417017e+000	 3.867865415716862e+000
 4.584919113412371e-001	 1.349225765858845e+000	 3.721708615545942e+000
 4.452330432530506e-001	 1.353658944200606e+000	 3.584126098546564e+000
 4.319623787165133e-001	 1.357951951795950e+000	 3.454787786424265e+000
 4.186820112360953e-001	 1.362105125705279e+000	 3.333380471060540e+000
 4.053940174227453e-001	 1.366118842060906e+000	 3.219608105293762e+000
 3.921004561520270e-001	 1.369993515411769e+000	 3.113192045118847e+000
 5.337373288562498e-001	 1.348193036546053e+000	 4.862131741331981e+000
 5.203383580743043e-001	 1.353420848490073e+000	 4.672419326123269e+000
 5.069165066108171e-001	 1.358504933866653e+000	 4.492892722788063e+000
 4.934739769267081e-001	 1.363445427625372e+000	 4.323128156650289e+000
 4.800129589468591e-001	 1.368242507474335e+000	 4.162718035203675e+000
 4.665356290818872e-001	 1.372896393327723e+000	 4.011271471999420e+000
 4.530441492730075e-001	 1.377407346728437e+000	 3.868414757834131e+000
 4.395406660606483e-001	 1.381775670246859e+000	 3.733791779316199e+000
 4.260273096774269e-001	 1.386001706856730e+000	 3.607064385038851e+000
 4.125061931660624e-001	 1.390085839289177e+000	 3.487912699732488e+000
 3.989794115227419e-001	 1.394028489365924e+000	 3.376035386907775e+000
 5.429396965938355e-001	 1.371437744068218e+000	 5.168431274618889e+000
 5.293097090738980e-001	 1.376755690701119e+000	 4.973777457003344e+000
 5.156564463780266e-001	 1.381927432722353e+000	 4.789393478324336e+000
 5.019821489406044e-001	 1.386953107408211e+000	 4.614824196736232e+000
 4.882890444438383e-001	 1.391832895530736e+000	 4.449631694438746e+000
 4.745793468226653e-001	 1.396567020795728e+000	 4.293395837599027e+000
 4.608552552931487e-001	 1.401155749255452e+000	 4.145714780476948e+000
 4.471189534050331e-001	 1.405599388697018e+000	 4.006205413827405e+000
 4.333726081190841e-001	 1.409898288007507e+000	 3.874503757811400e+000
 4.196183689097908e-001	 1.414052836516859e+000	 3.750265299800067e+000
 4.058583668939629e-001	 1.418063463319586e+000	 3.633165277604779e+000
 5.521420643314210e-001	 1.394682451589383e+000	 5.464394796668873e+000
 5.382810600734966e-001	 1.400090532911170e+000	 5.265521253208070e+000
 5.243963861452564e-001	 1.405349931577071e+000	 5.076955559871592e+000
 5.104903209545469e-001	 1.410460787190097e+000	 4.898209914903863e+000
 4.965651299408994e-001	 1.415423283586218e+000	 4.728814856464497e+000
 4.826230645635714e-001	 1.420237648262862e+000	 4.568319859463338e+000
 4.686663613134737e-001	 1.424904151781650e+000	 4.416293873355463e+000
 4.546972407496678e-001	 1.429423107146426e+000	 4.272325800965962e+000
 4.407179065610668e-001	 1.433794869157610e+000	 4.136024918582438e+000
 4.267305446539302e-001	 1.438019833743952e+000	 4.007021237713000e+000
 4.127373222656903e-001	 1.442098437272754e+000	 3.884965809065025e+000
 3.439477685711992e-001	 1.201748697718857e+000	 1.992662988839834e+000
 3.322836559344022e-001	 1.205025963190290e+000	 1.846736991640550e+000
 3.206182221117185e-001	 1.208182087106841e+000	 1.706779907402511e+000
 3.089532222566901e-001	 1.211217530589606e+000	 1.572982169583181e+000
 2.972903932386899e-001	 1.214132785997952e+000	 1.445526338356014e+000
 2.856314530195623e-001	 1.216928376278658e+000	 1.324586930184036e+000
 2.739781000540938e-001	 1.219604854302597e+000	 1.210330265254108e+000
 2.623320127144964e-001	 1.222162802189878e+000	 1.102914332679543e+000
 2.506948487390464e-001	 1.224602830624363e+000	 1.002488673337090e+000
 2.390682447049869e-001	 1.226925578158476e+000	 9.091942801620836e-001
 2.274538155257646e-001	 1.229131710509183e+000	 8.231635156870618e-001
 3.508267239383701e-001	 1.225783671676468e+000	 1.850834120419548e+000
 3.389293290488262e-001	 1.229126482457096e+000	 1.693525820378472e+000
 3.270305865497554e-001	 1.232345728851775e+000	 1.542861335376097e+000
 3.151322866977699e-001	 1.235441881204021e+000	 1.399049230491663e+000
 3.032362010996295e-001	 1.238415441720391e+000	 1.262289201816085e+000
 2.913440820764150e-001	 1.241266943806600e+000	 1.132771899865411e+000
 2.794576620520077e-001	 1.243996951390936e+000	 1.010678772509273e+000
 2.675786529660633e-001	 1.246606058235909e+000	 8.961819272968495e-001
 2.557087457116231e-001	 1.249094887239062e+000	 7.894440130167671e-001
 2.438496095974740e-001	 1.251464089723863e+000	 7.192565137406024e-001
 2.320028918353312e-001	 1.253714344721621e+000	 6.721667798466154e-001
 3.577056793060472e-001	 1.249818645633586e+000	 1.700191763757694e+000
 3.455750021638407e-001	 1.253227001723497e+000	 1.593375152215890e+000
 3.334429509884362e-001	 1.256509370596373e+000	 1.495972073338460e+000
 3.213113511395164e-001	 1.259666231818150e+000	 1.404407296062913e+000
 3.091820089612282e-001	 1.262698097442573e+000	 1.318573212992434e+000
 2.970567111338885e-001	 1.265605511334292e+000	 1.238376096601068e+000
 2.849372240504744e-001	 1.268389048479012e+000	 1.163736005889892e+000
 2.728252932180851e-001	 1.271049314281647e+000	 1.094586662050017e+000
 2.607226426845272e-001	 1.273586943853415e+000	 1.030875294242432e+000
 2.486309744901321e-001	 1.276002601288834e+000	 9.725624566586909e-001
 2.365519681448832e-001	 1.278296978933551e+000	 9.196218180740299e-001
 3.645846346742306e-001	 1.273853619590210e+000	 1.995485365531422e+000
 3.522206752794460e-001	 1.277327520989495e+000	 1.886526243159379e+000
 3.398553154277613e-001	 1.280673012340635e+000	 1.783537270536287e+000
 3.274904155819298e-001	 1.283890582431992e+000	 1.686390404719046e+000
 3.151278168234858e-001	 1.286980753164496e+000	 1.594972344196425e+000
 3.027693401919829e-001	 1.289944078861733e+000	 1.509184466425309e+000
 2.904167860494938e-001	 1.292781145566826e+000	 1.428942731454354e+000
 2.780719334705619e-001	 1.295492570327090e+000	 1.354177552742139e+000
 2.657365396577590e-001	 1.298079000467422e+000	 1.284833636340778e+000
 2.534123393829610e-001	 1.300541112853388e+000	 1.220869789670282e+000
 2.411010444544205e-001	 1.302879613144973e+000	 1.162258701160674e+000
 3.714635900429202e-001	 1.297888593546341e+000	 2.285902306445217e+000
 3.588663483956419e-001	 1.301428040255088e+000	 2.171998541413494e+000
 3.462676798677306e-001	 1.304836654084563e+000	 2.064024224475551e+000
 3.336694800250100e-001	 1.308114933045548e+000	 1.961844153181104e+000
 3.210736246864024e-001	 1.311263408886161e+000	 1.865338738442817e+000
 3.084819692506983e-001	 1.314282646388924e+000	 1.774403940570190e+000
 2.958963480490661e-001	 1.317173242654377e+000	 1.688951169410327e+000
 2.833185737234936e-001	 1.319935826372239e+000	 1.608907149761224e+000
 2.707504366313181e-001	 1.322571057081083e+000	 1.534213753291877e+000
 2.581937042759608e-001	 1.325079624417524e+000	 1.464827798260315e+000
 2.456501207639431e-001	 1.327462247355889e+000	 1.400720818376560e+000
 3.783425454121162e-001	 1.321923567501977e+000	 2.568619811978008e+000
 3.655120215124286e-001	 1.325528559520277e+000	 2.450420329018010e+000
 3.526800443083439e-001	 1.329000295828156e+000	 2.338058419400333e+000
 3.398485444687571e-001	 1.332339283658817e+000	 2.231391043459237e+000
 3.270194325499780e-001	 1.335546064607567e+000	 2.130291719377533e+000
 3.141945983100346e-001	 1.338621213915864e+000	 2.034650457383166e+000
 3.013759100491911e-001	 1.341565339741666e+000	 1.944373655955950e+000
 2.885652139768801e-001	 1.344379082417094e+000	 1.859383961273591e+000
 2.757643336052048e-001	 1.347063113694398e+000	 1.779620091196635e+000
 2.629750691691316e-001	 1.349618135981245e+000	 1.705036625155139e+000
 2.501991970734510e-001	 1.352044881566296e+000	 1.635603761356508e+000
 3.852215007818186e-001	 1.345958541457120e+000	 2.844210140426934e+000
 3.721576946298060e-001	 1.349629078785063e+000	 2.722363035798828e+000
 3.590924087496013e-001	 1.353163937571413e+000	 2.606210221867326e+000
 3.460276089131709e-001	 1.356563634271800e+000	 2.495600131205178e+000
 3.329652404142126e-001	 1.359828720328715e+000	 2.390398772200975e+000
 3.199072273699916e-001	 1.362959781442553e+000	 2.290489661084064e+000
 3.068554720498689e-001	 1.365957436828692e+000	 2.195773713745388e+000
 2.938118542307215e-001	 1.368822338461654e+000	 2.106169098650202e+000
 2.807782305794190e-001	 1.371555170307368e+000	 2.021611052212601e+000
 2.677564340624732e-001	 1.374156647544547e+000	 1.942051658068827e+000
 2.547482733829443e-001	 1.376627515776197e+000	 1.867459591746201e+000
 3.921004561520270e-001	 1.369993515411769e+000	 3.113192045118847e+000
 3.788033677477742e-001	 1.373729598049444e+000	 2.988346226403952e+000
 3.655047731915029e-001	 1.377327579314336e+000	 2.868999715630507e+000
 3.522066733582517e-001	 1.380787984884495e+000	 2.754991713989329e+000
 3.389110482791062e-001	 1.384111376049604e+000	 2.646180090900135e+000
 3.256198564305696e-001	 1.387298348968993e+000	 2.542441313530805e+000
 3.123350340510994e-001	 1.390349533915456e+000	 2.443670333778507e+000
 2.990584944850179e-001	 1.393265594505920e+000	 2.349780434080324e+000
 2.857921275539608e-001	 1.396047226919992e+000	 2.260703033496450e+000
 2.725377989559857e-001	 1.398695159107433e+000	 2.176387455581320e+000
 2.592973496924230e-001	 1.401210149985591e+000	 2.096800659622087e+000
 3.989794115227419e-001	 1.394028489365924e+000	 3.376035386907775e+000
 3.854490408663330e-001	 1.397830117313421e+000	 3.248842071439778e+000
 3.719171376340487e-001	 1.401491221056923e+000	 3.126901036365694e+000
 3.583857378039991e-001	 1.405012335496905e+000	 3.010041534583548e+000
 3.448568561446588e-001	 1.408394031770235e+000	 2.898112655077297e+000
 3.313324854917685e-001	 1.411636916495181e+000	 2.790983249595167e+000
 3.178145960528828e-001	 1.414741631001957e+000	 2.688541814336611e+000
 3.043051347397691e-001	 1.417708850549892e+000	 2.590696328087254e+000
 2.908060245288300e-001	 1.420539283532269e+000	 2.497374048324494e+000
 2.773191638496692e-001	 1.423233670669902e+000	 2.408521266891297e+000
 2.638464260018870e-001	 1.425792784194477e+000	 2.324103026902611e+000
 4.058583668939629e-001	 1.418063463319586e+000	 3.633165277604779e+000
 3.920947139854824e-001	 1.421930636576994e+000	 3.504279363915223e+000
 3.783295020772386e-001	 1.425654862799175e+000	 3.380346265575216e+000
 3.645648022504135e-001	 1.429236686109028e+000	 3.261184556791648e+000
 3.508026640108703e-001	 1.432676687490608e+000	 3.146633892185914e+000
 3.370451145535883e-001	 1.435975484021120e+000	 3.036554930297411e+000
 3.232941580552189e-001	 1.439133728088196e+000	 2.930829209517872e+000
 3.095517749949752e-001	 1.442152106593569e+000	 2.829358977974211e+000
 2.958199215040268e-001	 1.445031340144200e+000	 2.732066978964041e+000
 2.821005287435235e-001	 1.447772182231954e+000	 2.638896193628220e+000
 2.683955023113362e-001	 1.450375418402855e+000	 2.549809542615552e+000
 4.127373222656903e-001	 1.442098437272754e+000	 3.884965809065025e+000
 3.987403871052226e-001	 1.446031155840163e+000	 3.755047134041374e+000
 3.847418665210725e-001	 1.449818504541092e+000	 3.629728935102574e+000
 3.707438666974945e-001	 1.453461036720863e+000	 3.508818363696541e+000
 3.567484718777408e-001	 1.456959343210722e+000	 3.392144973543179e+000
 3.427577436160290e-001	 1.460314051546807e+000	 3.279560640627041e+000
 3.287737200581077e-001	 1.463525825174172e+000	 3.170939432919301e+000
 3.147984152506362e-001	 1.466595362636951e+000	 3.066177431426375e+000
 3.008338184795510e-001	 1.469523396755786e+000	 2.965192504257258e+000
 2.868818936375487e-001	 1.472310693793589e+000	 2.867924035482899e+000
 2.729445786207708e-001	 1.474958052610726e+000	 2.774332610639106e+000
 2.274538155257646e-001	 1.229131710509183e+000	 8.231635156870618e-001
 2.158531539728275e-001	 1.231221919845279e+000	 7.158082316026558e-001
 2.042678302214702e-001	 1.233196924069199e+000	 6.152998839983366e-001
 1.926993914209580e-001	 1.235057466092678e+000	 5.217675485052534e-001
 1.811493612893031e-001	 1.236804313105527e+000	 4.353320545675111e-001
 1.696192397320707e-001	 1.238438255840743e+000	 3.561059491599613e-001
 1.581105024852516e-001	 1.239960107836013e+000	 2.841934758581144e-001
 1.466246007820466e-001	 1.241370704692402e+000	 2.196905688752058e-001
 1.351629610433853e-001	 1.242670903331058e+000	 1.626848616587950e-001
 1.237269845919668e-001	 1.243861581248700e+000	 1.132557096131101e-001
 1.123180473895901e-001	 1.244943635772666e+000	 7.147422649530651e-002
 2.320028918353312e-001	 1.253714344721621e+000	 6.721667798466154e-001
 2.201702170519754e-001	 1.255846358244472e+000	 6.026599135285099e-001
 2.083531868261118e-001	 1.257860862552874e+000	 5.382036721773351e-001
 1.965533792499919e-001	 1.259758615416796e+000	 4.788245547509133e-001
 1.847723485159895e-001	 1.261540399369842e+000	 4.245607830091939e-001
 1.730116245277818e-001	 1.263207020959674e+000	 3.754619635405579e-001
 1.612727125360806e-001	 1.264759309994731e+000	 3.315887314789092e-001
 1.495570927987519e-001	 1.266198118788100e+000	 2.930123772713503e-001
 1.378662202651449e-001	 1.267524321399351e+000	 2.598144578634287e-001
 1.262015242844137e-001	 1.268738812875139e+000	 2.320863936664971e-001
 1.145644083375946e-001	 1.269842508489349e+000	 2.099290526710499e-001
 2.365519681448832e-001	 1.278296978933551e+000	 9.196218180740299e-001
 2.244872801309242e-001	 1.280470796643069e+000	 8.450423037833581e-001
 2.124385434304010e-001	 1.282524801035884e+000	 7.759175091204873e-001
 2.004073670785511e-001	 1.284459764740199e+000	 7.122686667535826e-001
 1.883953357421092e-001	 1.286276485633416e+000	 6.541291874221099e-001
 1.764040093228648e-001	 1.287975786077856e+000	 6.015443164349382e-001
 1.644349225862499e-001	 1.289558512152712e+000	 5.545707707342372e-001
 1.524895848147956e-001	 1.291025532883092e+000	 5.132763579447253e-001
 1.405694794862704e-001	 1.292377739466991e+000	 4.777395788330267e-001
 1.286760639762833e-001	 1.293616044500996e+000	 4.480492146035237e-001
 1.168107692851074e-001	 1.294741381205540e+000	 4.243039004531354e-001
 2.411010444544205e-001	 1.302879613144973e+000	 1.162258701160674e+000
 2.288043432096740e-001	 1.305095235041069e+000	 1.082518689167729e+000
 2.165239000343380e-001	 1.307188739518228e+000	 1.008569783630853e+000
 2.042613549066356e-001	 1.309160914062888e+000	 9.404281914143295e-001
 1.920183229676622e-001	 1.311012571896248e+000	 8.781228201293669e-001
 1.797963941173194e-001	 1.312744551195289e+000	 8.216949275661216e-001
 1.675971326357593e-001	 1.314357714309955e+000	 7.711977504972386e-001
 1.554220768301776e-001	 1.315852946977379e+000	 7.266961143345578e-001
 1.432727387067618e-001	 1.317231157533977e+000	 6.882660251285403e-001
 1.311506036675756e-001	 1.318493276126271e+000	 6.559942454021250e-001
 1.190571302321284e-001	 1.319640253921239e+000	 6.299778553058311e-001
 2.456501207639431e-001	 1.327462247355889e+000	 1.400720818376560e+000
 2.331214062882249e-001	 1.329719673438472e+000	 1.315738270600479e+000
 2.206092566379227e-001	 1.331852677999906e+000	 1.236816065055485e+000
 2.081153427342454e-001	 1.333862063384863e+000	 1.163965607461860e+000
 1.956413101926487e-001	 1.335748658158338e+000	 1.097211594902048e+000
 1.831887789111457e-001	 1.337513316311971e+000	 1.036591656650117e+000
 1.707593426846089e-001	 1.339156916466462e+000	 9.821559731063881e-001
 1.583545688448978e-001	 1.340680361070962e+000	 9.339668743863170e-001
 1.459759979266191e-001	 1.342084575600310e+000	 8.920984201234440e-001
 1.336251433582905e-001	 1.343370507750963e+000	 8.566359620462237e-001
 1.213034911786578e-001	 1.344539126636447e+000	 8.276756908876868e-001
 2.501991970734510e-001	 1.352044881566296e+000	 1.635603761356508e+000
 2.374384693665767e-001	 1.354344111835278e+000	 1.545302861568910e+000
 2.246946132411551e-001	 1.356516616480918e+000	 1.461264821327417e+000
 2.119693305613804e-001	 1.358563212706124e+000	 1.383496455035267e+000
 1.992642974170685e-001	 1.360484744419686e+000	 1.312018527602633e+000
 1.865811637043440e-001	 1.362282081427904e+000	 1.246865385135859e+000
 1.739215527327986e-001	 1.363956118622231e+000	 1.188084562392023e+000
 1.612870608589564e-001	 1.365507775163839e+000	 1.135736368621780e+000
 1.486792571458423e-001	 1.366937993665990e+000	 1.089893453433322e+000
 1.360996830484281e-001	 1.368247739375074e+000	 1.050640354312927e+000
 1.235498521246955e-001	 1.369437999351162e+000	 1.018073027436181e+000
 2.547482733829443e-001	 1.376627515776197e+000	 1.867459591746201e+000
 2.417555324447295e-001	 1.378968550231487e+000	 1.771771119149501e+000
 2.287799698440352e-001	 1.381180554961264e+000	 1.682481624448815e+000
 2.158233183880407e-001	 1.383264362026671e+000	 1.599593526629219e+000
 2.028872846409218e-001	 1.385220830680293e+000	 1.523123923498002e+000
 1.899735484969138e-001	 1.387050846543088e+000	 1.453104210693195e+000
 1.770837627803285e-001	 1.388755320777263e+000	 1.389579676043327e+000
 1.642195528723533e-001	 1.390335189256011e+000	 1.332609070980164e+000
 1.513825163644314e-001	 1.391791411731016e+000	 1.282264160715627e+000
 1.385742227379883e-001	 1.393124970998602e+000	 1.238629254898466e+000
 1.257962130702414e-001	 1.394336872065386e+000	 1.201800720465908e+000
 2.592973496924230e-001	 1.401210149985591e+000	 2.096800659622087e+000
 2.460725955226833e-001	 1.403592988627099e+000	 1.995662329657797e+000
 2.328653264465631e-001	 1.405844493440945e+000	 1.900992913292048e+000
 2.196773062142262e-001	 1.407965511346504e+000	 1.812790616887533e+000
 2.065102718642084e-001	 1.409956916940157e+000	 1.731069123802997e+000
 1.933659332888555e-001	 1.411819611657522e+000	 1.655857200176007e+000
 1.802459728271986e-001	 1.413554522931558e+000	 1.587198274567980e+000
 1.671520448850885e-001	 1.415162603347478e+000	 1.525149993255523e+000
 1.540857755823864e-001	 1.416644829795389e+000	 1.469783752964345e+000
 1.410487624269712e-001	 1.418002202621548e+000	 1.421184212846155e+000
 1.280425740152957e-001	 1.419235744779119e+000	 1.379448787498818e+000
 2.638464260018870e-001	 1.425792784194477e+000	 2.324103026902611e+000
 2.503896586004381e-001	 1.428217427022114e+000	 2.217459802679468e+000
 2.369506830487388e-001	 1.430508431919961e+000	 2.117289367145180e+000
 2.235312940399371e-001	 1.432666660665624e+000	 2.023585884486768e+000
 2.101332590869283e-001	 1.434693003199280e+000	 1.936359864650354e+000
 1.967583180801690e-001	 1.436588376771207e+000	 1.855637754347826e+000
 1.834081828734088e-001	 1.438353725085115e+000	 1.781461500359499e+000
 1.700845368971620e-001	 1.439990017438240e+000	 1.713888087005440e+000
 1.567890347997074e-001	 1.441498247859109e+000	 1.652989049670616e+000
 1.435233021153768e-001	 1.442879434243912e+000	 1.598849966275276e+000
 1.302889349598582e-001	 1.444134617492359e+000	 1.551569928580814e+000
 2.683955023113362e-001	 1.450375418402855e+000	 2.549809542615552e+000
 2.547067216779939e-001	 1.452841865416533e+000	 2.437613919945748e+000
 2.410360396505621e-001	 1.455172370398310e+000	 2.331828936185365e+000
 2.273852818651732e-001	 1.457367809984029e+000	 2.232444872133402e+000
 2.137562463090816e-001	 1.459429089457661e+000	 2.139469294470529e+000
 2.001507028708542e-001	 1.461357141884142e+000	 2.052926630431629e+000
 1.865703929189592e-001	 1.463152927237936e+000	 1.972857713130776e+000
 1.730170289085737e-001	 1.464817431528297e+000	 1.899319299503619e+000
 1.594922940163942e-001	 1.466351665922175e+000	 1.832383562848428e+000
 1.459978418032050e-001	 1.467756665865694e+000	 1.772137561950724e+000
 1.325352959039290e-001	 1.469033490205109e+000	 1.718682688779830e+000
 2.729445786207708e-001	 1.474958052610726e+000	 2.774332610639106e+000
 2.590237847553507e-001	 1.477466303810354e+000	 2.656544879321202e+000
 2.451213962520330e-001	 1.479836308875993e+000	 2.545039568904350e+000
 2.312392696899346e-001	 1.482068959301720e+000	 2.439803224561267e+000
 2.173792335306684e-001	 1.484165175715299e+000	 2.340840689633539e+000
 2.035430876609112e-001	 1.486125906996327e+000	 2.248174662405106e+000
 1.897326029638498e-001	 1.487952129390018e+000	 2.161845221803862e+000
 1.759495209193238e-001	 1.489644845617649e+000	 2.081909324096706e+000
 1.621955532324469e-001	 1.491205083984588e+000	 2.008440272657698e+000
 1.484723814904559e-001	 1.492633897486894e+000	 1.941527162896162e+000
 1.347816568475081e-001	 1.493932362917365e+000	 1.881274304433823e+000
 1.123180473895901e-001	 1.244943635772666e+000	 7.147422649530651e-002
 1.009374997969171e-001	 1.245917983316647e+000	 1.114145425232147e-002
 8.958666635718569e-002	 1.246785558636688e+000	-3.960604784358077e-002
 7.826684560235840e-002	 1.247547314088946e+000	-8.072050266476646e-002
 6.697930988018191e-002	 1.248204218890639e+000	-1.121634843546044e-001
 5.572530520362001e-002	 1.248757258383706e+000	-1.339057899796708e-001
 4.450605112168776e-002	 1.249207433302222e+000	-1.459272998049451e-001
 3.332274061130344e-002	 1.249555759044169e+000	-1.482168268018261e-001
 2.217653998975778e-002	 1.249803264948180e+000	-1.407719560040815e-001
 1.106858884738428e-002	 1.249950993575827e+000	-1.235988743276580e-001
 0.000000000000000e+000	 1.250000000000000e+000	-9.671219147261548e-002
 1.145644083375946e-001	 1.269842508489349e+000	 2.099290526710499e-001
 1.029562497926623e-001	 1.270836342983972e+000	 1.681175368410295e-001
 9.137839968381835e-002	 1.271721269810203e+000	 1.334490855351518e-001
 7.983218251366342e-002	 1.272498260371321e+000	 1.060512931916114e-001
 6.831889607689830e-002	 1.273168303268888e+000	 8.605843985992814e-002
 5.683981130674527e-002	 1.273732403551682e+000	 7.361105322015345e-002
 4.539617214319878e-002	 1.274191581968459e+000	 6.885546615339629e-002
 3.398919542271459e-002	 1.274546874225160e+000	 7.194337104645478e-002
 2.262007078892834e-002	 1.274799330247191e+000	 8.303137198282465e-002
 1.128996062397933e-002	 1.274950013447355e+000	 1.022805359388298e-001
 0.000000000000000e+000	 1.275000000000000e+000	 1.298559440693671e-001
 1.168107692851074e-001	 1.294741381205540e+000	 4.243039004531354e-001
 1.049749997880107e-001	 1.295754702650900e+000	 3.817924941635641e-001
 9.317013301013843e-002	 1.296656980983405e+000	 3.463387836969329e-001
 8.139751942472988e-002	 1.297449206653458e+000	 3.180691815860597e-001
 6.965848227344004e-002	 1.298132387646963e+000	 2.971175180629005e-001
 5.795431740974968e-002	 1.298707548719538e+000	 2.836245804411514e-001
 4.628629316463272e-002	 1.299175730634619e+000	 2.777376473204334e-001
 3.465565023408253e-002	 1.299537989406108e+000	 2.796100188729851e-001
 2.306360158807978e-002	 1.299795395546184e+000	 2.894005444413691e-001
 1.151133240056961e-002	 1.299949033318879e+000	 3.072731486409628e-001
 0.000000000000000e+000	 1.300000000000000e+000	 3.333963571249536e-001
 1.190571302321284e-001	 1.319640253921239e+000	 6.299778553058311e-001
 1.069937497829620e-001	 1.320673062317432e+000	 5.856319940112043e-001
 9.496186633614591e-002	 1.321592692156296e+000	 5.482143904749693e-001
 8.296285633555782e-002	 1.322400152935356e+000	 5.178510717066917e-001
 7.099806846980716e-002	 1.323096472024863e+000	 4.946762545335237e-001
 5.906882351263323e-002	 1.323682693887272e+000	 4.788318605444079e-001
 4.717641418598959e-002	 1.324159879300702e+000	 4.704670251090662e-001
 3.532210504540729e-002	 1.324529104587013e+000	 4.697376018130921e-001
 2.350713238721209e-002	 1.324791460845157e+000	 4.768056636175153e-001
 1.173270417715513e-002	 1.324948053190398e+000	 4.918390020168089e-001
 0.000000000000000e+000	 1.325000000000000e+000	 5.150106254298186e-001
 1.213034911786578e-001	 1.344539126636447e+000	 8.276756908876868e-001
 1.090124997775164e-001	 1.345591421983566e+000	 7.803931082598724e-001
 9.675359966184079e-002	 1.346528403328873e+000	 7.398646761944550e-001
 8.452819324614727e-002	 1.347351099217016e+000	 7.062168242733125e-001
 7.233765466599967e-002	 1.348060556402588e+000	 6.795849850590979e-001
 6.018332961539593e-002	 1.348657839054886e+000	 6.601130827794056e-001
 4.806653520726939e-002	 1.349144027966708e+000	 6.479530153185221e-001
 3.598855985668883e-002	 1.349520219767875e+000	 6.432641309431416e-001
 2.395066318632527e-002	 1.349787526144111e+000	 6.462127011564798e-001
 1.195407595373588e-002	 1.349947073061912e+000	 6.569713910356413e-001
 0.000000000000000e+000	 1.350000000000000e+000	 6.757187283689108e-001
 1.235498521246955e-001	 1.369437999351162e+000	 1.018073027436181e+000
 1.110312497716739e-001	 1.370509781649304e+000	 9.667814062612435e-001
 9.854533298722308e-002	 1.371464114501138e+000	 9.220245219503642e-001
 8.609353015649825e-002	 1.372302045498437e+000	 8.839299877711253e-001
 7.367724086201755e-002	 1.373024640780139e+000	 8.526352751949443e-001
 6.129783571803779e-002	 1.373632984222379e+000	 8.282871744762096e-001
 4.895665622847211e-002	 1.374128176632637e+000	 8.110412477512170e-001
 3.665501466792717e-002	 1.374511334948693e+000	 8.010612761738946e-001
 2.439419398541931e-002	 1.374783591443046e+000	 7.985187025704938e-001
 1.217544773031186e-002	 1.374946092933421e+000	 8.035920710552511e-001
 0.000000000000000e+000	 1.375000000000000e+000	 8.164664650084574e-001
 1.257962130702414e-001	 1.394336872065386e+000	 1.201800720465908e+000
 1.130499997654344e-001	 1.395428141314644e+000	 1.145455553282637e+000
 1.003370663122928e-001	 1.396399825673090e+000	 1.095379731145900e+000
 8.765886706661068e-002	 1.397252991779620e+000	 1.051702826329158e+000
 7.501682705786078e-002	 1.397988725157515e+000	 1.014565167606715e+000
 6.241234182055879e-002	 1.398608129389751e+000	 9.841172708594640e-001
 4.984677724959775e-002	 1.399112325298489e+000	 9.605192613913895e-001
 3.732146947912232e-002	 1.399502450129469e+000	 9.439402895690420e-001
 2.483772478449423e-002	 1.399779656741962e+000	 9.345579413576172e-001
 1.239681950688308e-002	 1.399945112804926e+000	 9.325576452871397e-001
 0.000000000000000e+000	 1.400000000000000e+000	 9.381320773385946e-001
 1.280425740152957e-001	 1.419235744779119e+000	 1.379448787498818e+000
 1.150687497587980e-001	 1.420346500979588e+000	 1.317031424900363e+000
 1.021287996370500e-001	 1.421335536844730e+000	 1.260571334553081e+000
 8.922420397648460e-002	 1.422203938060564e+000	 1.210200818347793e+000
 7.635641325352938e-002	 1.422952809534717e+000	 1.166063877060656e+000
 6.352684792295894e-002	 1.423583274557002e+000	 1.128315609092870e+000
 5.073689827064633e-002	 1.424096473964263e+000	 1.097121600090797e+000
 3.798792429027427e-002	 1.424493565310201e+000	 1.072657305156341e+000
 2.528125558355001e-002	 1.424775722040858e+000	 1.055107425318960e+000
 1.261819128344953e-002	 1.424944132676426e+000	 1.044665279897131e+000
 0.000000000000000e+000	 1.425000000000000e+000	 1.041532176332721e+000
 1.302889349598582e-001	 1.444134617492359e+000	 1.551569928580814e+000
 1.170874997517646e-001	 1.445264860644134e+000	 1.482085795766042e+000
 1.039205329614944e-001	 1.446271248016057e+000	 1.418199450022550e+000
 9.078954088612001e-002	 1.447154884341270e+000	 1.360046689751528e+000
 7.769599944902336e-002	 1.447916893911744e+000	 1.307775999725195e+000
 6.464135402523823e-002	 1.448558419724132e+000	 1.261547916043077e+000
 5.162701929161783e-002	 1.449080622629961e+000	 1.221534381114664e+000
 3.865437910138302e-002	 1.449484680490890e+000	 1.187918090482445e+000
 2.572478638258666e-002	 1.449771787339736e+000	 1.160891833256494e+000
 1.283956306001122e-002	 1.449943152547921e+000	 1.140657827888740e+000
 0.000000000000000e+000	 1.450000000000000e+000	 1.127427054966143e+000
 1.325352959039290e-001	 1.469033490205109e+000	 1.718682688779830e+000
 1.191062497443342e-001	 1.470183220308284e+000	 1.641159653244731e+000
 1.057122662856264e-001	 1.471206959187071e+000	 1.568826749680153e+000
 9.235487779551692e-002	 1.472105830621737e+000	 1.501824037079814e+000
 7.903558564434268e-002	 1.472880978288596e+000	 1.440305294408252e+000
 6.575586012739669e-002	 1.473533564891142e+000	 1.384437349830287e+000
 5.251714031251225e-002	 1.474064771295581e+000	 1.334399399089758e+000
 3.932083391244855e-002	 1.474475795671536e+000	 1.290382314958719e+000
 2.616831718160417e-002	 1.474767852638594e+000	 1.252587949634155e+000
 1.306093483656814e-002	 1.474942172419411e+000	 1.221228431913251e+000
 0.000000000000000e+000	 1.475000000000000e+000	 1.196525460927798e+000
 1.347816568475081e-001	 1.493932362917365e+000	 1.881274304433823e+000
 1.211249997365069e-001	 1.495101579972037e+000	 1.794761179688307e+000
 1.075039996094458e-001	 1.496142670357773e+000	 1.712981580404095e+000
 9.392021470467529e-002	 1.497056776901965e+000	 1.636080588269466e+000
 8.037517183948741e-002	 1.497845062665274e+000	 1.564218085670497e+000
 6.687036622943428e-002	 1.498508710058030e+000	 1.497568047223788e+000
 5.340726133332961e-002	 1.499048919961125e+000	 1.436317819557451e+000
 3.998728872347090e-002	 1.499466910852138e+000	 1.380667391372609e+000
 2.661184798060256e-002	 1.499763917937433e+000	 1.330828655772656e+000
 1.328230661312030e-002	 1.499941192290897e+000	 1.287024666799320e+000
 0.000000000000000e+000	 1.500000000000000e+000	 1.249488892060757e+000
 1.500000000000000e+000	 0.000000000000000e+000	 1.576925436717419e+001
 1.499941192290897e+000	 1.328230661311987e-002	 1.579019189568708e+001
 1.499763917937433e+000	 2.661184798060218e-002	 1.580368719511349e+001
 1.499466910852138e+000	 3.998728872347057e-002	 1.580953768159481e+001
 1.499048919961124e+000	 5.340726133332931e-002	 1.580754133698285e+001
 1.498508710058030e+000	 6.687036622943403e-002	 1.579749680727877e+001
 1.497845062665274e+000	 8.037517183948720e-002	 1.577920350160625e+001
 1.497056776901965e+000	 9.392021470467514e-002	 1.575246169169945e+001
 1.496142670357773e+000	 1.075039996094456e-001	 1.571707261188923e+001
 1.495101579972037e+000	 1.211249997365068e-001	 1.567283855957695e+001
 1.493932362917365e+000	 1.347816568475081e-001	 1.561956299618871e+001
 1.525000000000000e+000	 0.000000000000000e+000	 1.546628079088886e+001
 1.524940212162383e+000	 1.350367838967202e-002	 1.548851711375576e+001
 1.524759983236273e+000	 2.705537877960056e-002	 1.550284434860249e+001
 1.524458026032741e+000	 4.065374353449290e-002	 1.550908083897202e+001
 1.524033068626668e+000	 5.429738235414668e-002	 1.550704625933614e+001
 1.523483855224919e+000	 6.798487233147164e-002	 1.549656170656265e+001
 1.522809147041952e+000	 8.171475803463191e-002	 1.547744979077030e+001
 1.522007723182194e+000	 9.548555161383354e-002	 1.544953472553454e+001
 1.521078381528475e+000	 1.092957329332650e-001	 1.541264241741274e+001
 1.520019939635790e+000	 1.231437497286795e-001	 1.536660055476447e+001
 1.518831235629623e+000	 1.370280177910873e-001	 1.531123869584895e+001
 1.550000000000000e+000	 0.000000000000000e+000	 1.516161720268722e+001
 1.549939232033873e+000	 1.372505016622894e-002	 1.518648897102188e+001
 1.549756048535131e+000	 2.749890957861807e-002	 1.520300262542483e+001
 1.549449141213386e+000	 4.132019834555844e-002	 1.521099730088485e+001
 1.549017217292289e+000	 5.518750337504109e-002	 1.521031421526839e+001
 1.548459000391928e+000	 6.909937843363008e-002	 1.520079675345306e+001
 1.547773231418804e+000	 8.305434422995126e-002	 1.518229054970481e+001
 1.546958669462661e+000	 9.705088852323041e-002	 1.515464356824470e+001
 1.546014092699490e+000	 1.110874662573969e-001	 1.511770618196005e+001
 1.544938299299939e+000	 1.251624997212491e-001	 1.507133124922269e+001
 1.543730108342372e+000	 1.392743787351581e-001	 1.501537418878650e+001
 1.575000000000000e+000	 0.000000000000000e+000	 1.485613147837257e+001
 1.574938251905368e+000	 1.394642194279062e-002	 1.488488579859207e+001
 1.574752113834008e+000	 2.794244037765472e-002	 1.490485002922608e+001
 1.574440256394075e+000	 4.198665315666719e-002	 1.491588398923713e+001
 1.574001365957986e+000	 5.607762439601259e-002	 1.491785032001026e+001
 1.573434145559058e+000	 7.021388453590936e-002	 1.491061456178366e+001
 1.572737315795831e+000	 8.439393042544521e-002	 1.489404522717943e+001
 1.571909615743366e+000	 9.861622543286584e-002	 1.486801387176476e+001
 1.570949803870817e+000	 1.128791995818414e-001	 1.483239516158484e+001
 1.569856658964486e+000	 1.271812497142157e-001	 1.478706693761840e+001
 1.568628981055612e+000	 1.415207396797206e-001	 1.473191027711841e+001
 1.600000000000000e+000	 0.000000000000000e+000	 1.455063725151053e+001
 1.599937271776867e+000	 1.416779371935706e-002	 1.458443649768156e+001
 1.599748179132905e+000	 2.838597117671049e-002	 1.460902999673474e+001
 1.599431371574808e+000	 4.265310796781913e-002	 1.462429817133601e+001
 1.598985514623761e+000	 5.696774541706116e-002	 1.463012499453232e+001
 1.598409290726310e+000	 7.132839063830954e-002	 1.462639805810218e+001
 1.597701400173032e+000	 8.573351662111382e-002	 1.461300863686281e+001
 1.596860562024311e+000	 1.001815623427397e-001	 1.458985174884948e+001
 1.595885515042457e+000	 1.146709329065986e-001	 1.455682621129477e+001
 1.594775018629429e+000	 1.291999997075793e-001	 1.451383469234865e+001
 1.593527853769345e+000	 1.437671006247749e-001	 1.446078375849260e+001
 1.625000000000000e+000	 0.000000000000000e+000	 1.424589808590890e+001
 1.624936291648372e+000	 1.438916549592827e-002	 1.428582434191358e+001
 1.624744244431821e+000	 2.882950197578540e-002	 1.431614482598653e+001
 1.624422486755583e+000	 4.331956277901426e-002	 1.433676051024557e+001
 1.623969663289613e+000	 5.785786643818681e-002	 1.434757663433425e+001
 1.623384435893682e+000	 7.244289674083053e-002	 1.434850276530770e+001
 1.622665484550409e+000	 8.707310281695706e-002	 1.433945285233047e+001
 1.621811508305494e+000	 1.017468992528522e-001	 1.432034527608749e+001
 1.620821226214409e+000	 1.164626662316683e-001	 1.429110289282422e+001
 1.619693378294770e+000	 1.312187497013398e-001	 1.425165307294622e+001
 1.618426726483569e+000	 1.460134615703208e-001	 1.420192773412388e+001
 1.650000000000000e+000	 0.000000000000000e+000	 1.394263126878115e+001
 1.649935311519882e+000	 1.461053727250425e-002	 1.398969043395499e+001
 1.649740309730756e+000	 2.927303277487944e-002	 1.402675879289206e+001
 1.649413601936402e+000	 4.398601759025260e-002	 1.405375783783553e+001
 1.648953811955542e+000	 5.874798745938951e-002	 1.407061403561687e+001
 1.648359581061175e+000	 7.355740284347238e-002	 1.407725887868476e+001
 1.647629568927959e+000	 8.841268901297490e-002	 1.407362892979897e+001
 1.646762454586914e+000	 1.033122361632031e-001	 1.405966586027743e+001
 1.645756937386674e+000	 1.182543995570506e-001	 1.403531648170047e+001
 1.644611737960507e+000	 1.332374996954972e-001	 1.400053277099346e+001
 1.643325599198285e+000	 1.482598225163584e-001	 1.395527188882682e+001
 1.675000000000000e+000	 0.000000000000000e+000	 1.364151126422358e+001
 1.674934331391396e+000	 1.483190904908500e-002	 1.369663685260272e+001
 1.674736375029710e+000	 2.971656357399260e-002	 1.374140098870888e+001
 1.674404717117263e+000	 4.465247240153415e-002	 1.377574567949724e+001
 1.673937960621547e+000	 5.963810848066932e-002	 1.379961860418506e+001
 1.673334726228788e+000	 7.467190894623507e-002	 1.381297315602369e+001
 1.672593653305685e+000	 8.975227520916740e-002	 1.381576847658564e+001
 1.671713400868574e+000	 1.048775730737926e-001	 1.380796948244218e+001
 1.670692648559251e+000	 1.200461328827455e-001	 1.378954688412476e+001
 1.669530097626642e+000	 1.352562496900517e-001	 1.376047719728288e+001
 1.668224471913492e+000	 1.505061834628878e-001	 1.372074274597093e+001
 1.700000000000000e+000	 0.000000000000000e+000	 1.334317286197395e+001
 1.699933351262914e+000	 1.505328082567050e-002	 1.340722952218581e+001
 1.699732440328683e+000	 3.016009437312491e-002	 1.346056790714823e+001
 1.699395832298168e+000	 4.531892721285889e-002	 1.350315055609058e+001
 1.698922109287631e+000	 6.052822950202618e-002	 1.353494636944741e+001
 1.698309871396523e+000	 7.578641504911861e-002	 1.355593064096587e+001
 1.697557737683585e+000	 9.109186140553453e-002	 1.356608508117461e+001
 1.696664347150472e+000	 1.064429099846206e-001	 1.356539783207697e+001
 1.695628359732141e+000	 1.218378662087530e-001	 1.355386347295220e+001
 1.694448457293173e+000	 1.372749996850030e-001	 1.353148301716919e+001
 1.693123344629191e+000	 1.527525444099089e-001	 1.349826389993986e+001
 1.725000000000000e+000	 0.000000000000000e+000	 1.304821405236493e+001
 1.724932371134438e+000	 1.527465260226077e-002	 1.312200083245452e+001
 1.724728505627676e+000	 3.060362517227634e-002	 1.318472580651616e+001
 1.724386947479116e+000	 4.598538202422683e-002	 1.323637208572164e+001
 1.723906257953791e+000	 6.141835052346012e-002	 1.327692982328552e+001
 1.723285016564378e+000	 7.690092115212302e-002	 1.330639623649272e+001
 1.722521822061660e+000	 9.243144760207629e-002	 1.332477561892938e+001
 1.721615293432609e+000	 1.080082468956870e-001	 1.333207934276741e+001
 1.720564070905344e+000	 1.236295995350730e-001	 1.332832585097771e+001
 1.719366816960102e+000	 1.392937496803514e-001	 1.331354063936928e+001
 1.718022217345382e+000	 1.549989053574217e-001	 1.328775622837678e+001
 1.750000000000000e+000	 0.000000000000000e+000	 1.275719865485315e+001
 1.749931391005967e+000	 1.549602437885581e-002	 1.284145203390727e+001
 1.749724570926687e+000	 3.104715597144690e-002	 1.291431286938523e+001
 1.749378062660108e+000	 4.665183683563796e-002	 1.297578490536799e+001
 1.748890406620027e+000	 6.230847154497111e-002	 1.302587960130589e+001
 1.748260161732354e+000	 7.801542725524825e-002	 1.306461614354427e+001
 1.747485906439909e+000	 9.377103379879266e-002	 1.309202144588714e+001
 1.746566239714984e+000	 1.095735838069920e-001	 1.310813013904008e+001
 1.745499782078859e+000	 1.254213328617057e-001	 1.311298454879734e+001
 1.744285176627427e+000	 1.413124996760966e-001	 1.310663466286482e+001
 1.742921090062065e+000	 1.572452663054261e-001	 1.308913808623725e+001
 1.493932362917365e+000	 1.347816568475081e-001	 1.561956299618871e+001
 1.492633897486894e+000	 1.484723814904555e-001	 1.565042587877636e+001
 1.491205083984588e+000	 1.621955532324464e-001	 1.567275018039014e+001
 1.489644845617649e+000	 1.759495209193235e-001	 1.568643138233456e+001
 1.487952129390019e+000	 1.897326029638495e-001	 1.569136764672777e+001
 1.486125906996327e+000	 2.035430876609110e-001	 1.568745985398076e+001
 1.484165175715299e+000	 2.173792335306682e-001	 1.567461163783619e+001
 1.482068959301720e+000	 2.312392696899346e-001	 1.565272941801817e+001
 1.479836308875994e+000	 2.451213962520331e-001	 1.562172243055623e+001
 1.477466303810354e+000	 2.590237847553507e-001	 1.558150275585697e+001
 1.474958052610726e+000	 2.729445786207708e-001	 1.553198534460845e+001
 1.518831235629623e+000	 1.370280177910873e-001	 1.531123869584895e+001
 1.517511129108093e+000	 1.509469211777063e-001	 1.534520468415475e+001
 1.516058502047001e+000	 1.648988124484992e-001	 1.537028610450427e+001
 1.514472259707000e+000	 1.788820129300736e-001	 1.538638883701051e+001
 1.512751331542102e+000	 1.928948130087401e-001	 1.539342186079608e+001
 1.510894672108513e+000	 2.069354724509679e-001	 1.539129728463582e+001
 1.508901261972938e+000	 2.210022207522550e-001	 1.537993037448391e+001
 1.506770108619411e+000	 2.350932575146959e-001	 1.535923957793875e+001
 1.504500247353678e+000	 2.492067528535041e-001	 1.532914654571104e+001
 1.502090742204176e+000	 2.633408478327075e-001	 1.528957615017404e+001
 1.499540686818598e+000	 2.774936549302055e-001	 1.524045650108704e+001
 1.543730108342372e+000	 1.392743787351581e-001	 1.501537418878650e+001
 1.542388360729875e+000	 1.534214608655346e-001	 1.505286409092796e+001
 1.540911920110067e+000	 1.676020716651860e-001	 1.508114005253152e+001
 1.539299673797057e+000	 1.818145049414854e-001	 1.510011850843564e+001
 1.537550533694922e+000	 1.960570230542905e-001	 1.510971939997884e+001
 1.535663437221447e+000	 2.103278572416532e-001	 1.510986619826043e+001
 1.533637348231319e+000	 2.246252079744083e-001	 1.510048592361010e+001
 1.531471257937817e+000	 2.389472453399320e-001	 1.508150916132187e+001
 1.529164185832027e+000	 2.532921094553274e-001	 1.505287007372261e+001
 1.526715180598594e+000	 2.676579109102633e-001	 1.501450640865940e+001
 1.524123321026977e+000	 2.820427312396547e-001	 1.496635950450429e+001
 1.568628981055612e+000	 1.415207396797206e-001	 1.473191027711841e+001
 1.567265592352239e+000	 1.558960005539401e-001	 1.477330064536766e+001
 1.565765338173787e+000	 1.703053308825069e-001	 1.480516381758613e+001
 1.564127087887818e+000	 1.847469969535589e-001	 1.482742695493946e+001
 1.562349735848479e+000	 1.992192331005007e-001	 1.484002112232968e+001
 1.560432202335132e+000	 2.137202420329666e-001	 1.484288130372053e+001
 1.558373434490442e+000	 2.282481951971283e-001	 1.483594641299478e+001
 1.556172407256935e+000	 2.428012331656429e-001	 1.481915930040243e+001
 1.553828124311042e+000	 2.573774660575030e-001	 1.479246675467545e+001
 1.551339618993610e+000	 2.719749739880181e-001	 1.475581950090004e+001
 1.548705955235862e+000	 2.865918075491187e-001	 1.470917219425385e+001
 1.593527853769345e+000	 1.437671006247749e-001	 1.446078375849260e+001
 1.592142823975186e+000	 1.583705402429230e-001	 1.450640891113977e+001
 1.590618756238160e+000	 1.730085901004619e-001	 1.454220927001046e+001
 1.588954501979286e+000	 1.876794889662941e-001	 1.456812290943658e+001
 1.587148938002775e+000	 2.023814431473708e-001	 1.458409219489153e+001
 1.585200967449566e+000	 2.171126268249083e-001	 1.459006378981891e+001
 1.583109520750306e+000	 2.318711824204149e-001	 1.458598865731384e+001
 1.580873556576769e+000	 2.466552209918284e-001	 1.457182205672106e+001
 1.578492062790723e+000	 2.614628226600309e-001	 1.454752353523151e+001
 1.575964057389221e+000	 2.762920370659718e-001	 1.451305691457669e+001
 1.573288589445256e+000	 2.911408838585972e-001	 1.446839027293809e+001
 1.618426726483569e+000	 1.460134615703208e-001	 1.420192773412388e+001
 1.617020055598714e+000	 1.608450799324833e-001	 1.425208162181243e+001
 1.615472174303186e+000	 1.757118493190510e-001	 1.429212835143446e+001
 1.613781916071458e+000	 1.906119809796910e-001	 1.432201711215089e+001
 1.611948140157806e+000	 2.055436531949007e-001	 1.434170176223586e+001
 1.609969732564749e+000	 2.205050116174782e-001	 1.435114082683855e+001
 1.607845607010913e+000	 2.354941696442681e-001	 1.435029748991626e+001
 1.605574705897316e+000	 2.505092088184888e-001	 1.433913958040820e+001
 1.603156001271070e+000	 2.655481792629110e-001	 1.431763955273959e+001
 1.600588495785431e+000	 2.806091001441247e-001	 1.428577446176437e+001
 1.597871223655156e+000	 2.956899601680906e-001	 1.424352593227517e+001
 1.643325599198285e+000	 1.482598225163584e-001	 1.395527188882682e+001
 1.641897287222824e+000	 1.633196196226208e-001	 1.401020981949997e+001
 1.640325592368866e+000	 1.784151085382742e-001	 1.405477306937498e+001
 1.638609330164335e+000	 1.935444729937495e-001	 1.408892215854673e+001
 1.636747342313575e+000	 2.087058632430905e-001	 1.411262264513479e+001
 1.634738497680683e+000	 2.238973964106764e-001	 1.412584511340028e+001
 1.632581693272261e+000	 2.391171568686880e-001	 1.412856515534891e+001
 1.630275855218577e+000	 2.543631966456237e-001	 1.412076334589701e+001
 1.627819939752082e+000	 2.696335358661434e-001	 1.410242521169836e+001
 1.625212934182237e+000	 2.849261632224766e-001	 1.407354119375080e+001
 1.622453857865564e+000	 3.002390364775985e-001	 1.403410660392350e+001
 1.668224471913492e+000	 1.505061834628878e-001	 1.372074274597093e+001
 1.666774518847517e+000	 1.657941593133357e-001	 1.378068298109063e+001
 1.665179010435198e+000	 1.811183677581315e-001	 1.382999549231894e+001
 1.663436744257918e+000	 1.964769650084698e-001	 1.386865236087806e+001
 1.661546544470082e+000	 2.118680732919400e-001	 1.389663106621774e+001
 1.659507262797366e+000	 2.272897812045028e-001	 1.391391446390007e+001
 1.657317779534351e+000	 2.427401440936744e-001	 1.392049075628195e+001
 1.654977004540552e+000	 2.582171844732335e-001	 1.391635345607987e+001
 1.652483878233760e+000	 2.737188924697281e-001	 1.390150134292441e+001
 1.649837372579640e+000	 2.892432263010273e-001	 1.387593841303559e+001
 1.647036492076480e+000	 3.047881127871212e-001	 1.383967382217281e+001
 1.693123344629191e+000	 1.527525444099089e-001	 1.349826389993986e+001
 1.691651750472792e+000	 1.682686990046280e-001	 1.356338913333681e+001
 1.690032428502185e+000	 1.838216269786229e-001	 1.361764774524016e+001
 1.688264158352205e+000	 1.994094570238517e-001	 1.366102362195396e+001
 1.686345746627326e+000	 2.150302833414494e-001	 1.369350639983485e+001
 1.684276027914798e+000	 2.306821659989574e-001	 1.371509143234925e+001
 1.682053865797183e+000	 2.463631313192275e-001	 1.372577974923523e+001
 1.679678153863241e+000	 2.620711723013179e-001	 1.372557800786283e+001
 1.677147816716104e+000	 2.778042490736651e-001	 1.371449843691110e+001
 1.674461810977640e+000	 2.935602893797772e-001	 1.369255877250569e+001
 1.671619126287902e+000	 3.093371890966585e-001	 1.365978218698582e+001
 1.718022217345382e+000	 1.549989053574217e-001	 1.328775622837678e+001
 1.716528982098648e+000	 1.707432386964976e-001	 1.335821495793732e+001
 1.714885846569825e+000	 1.865248861997484e-001	 1.341758200550610e+001
 1.713091572447198e+000	 2.023419490398954e-001	 1.346585331988093e+001
 1.711144948785307e+000	 2.181924933916187e-001	 1.350303094367141e+001
 1.709044793032979e+000	 2.340745507940402e-001	 1.352912296892397e+001
 1.706789952060757e+000	 2.499861185453472e-001	 1.354414348415420e+001
 1.704379303186644e+000	 2.659251601298772e-001	 1.354811251288924e+001
 1.701811755199113e+000	 2.818896056779544e-001	 1.354105594385197e+001
 1.699086249376236e+000	 2.978773524587260e-001	 1.352300545294364e+001
 1.696201760499832e+000	 3.138862654062104e-001	 1.349399841721050e+001
 1.742921090062065e+000	 1.572452663054261e-001	 1.308913808623725e+001
 1.741406213725087e+000	 1.732177783889446e-001	 1.316504588761263e+001
 1.739739264638117e+000	 1.892281454215080e-001	 1.322965049913550e+001
 1.737918986542895e+000	 2.052744410566007e-001	 1.328296020268463e+001
 1.735944150944025e+000	 2.213547034424478e-001	 1.332498970993820e+001
 1.733813558151911e+000	 2.374669355897513e-001	 1.335576010595360e+001
 1.731526038325072e+000	 2.536091057720335e-001	 1.337529878345102e+001
 1.729080452510761e+000	 2.697791479589111e-001	 1.338363936791564e+001
 1.726475693682788e+000	 2.859749622825958e-001	 1.338082163366218e+001
 1.723710687775430e+000	 3.021944155378738e-001	 1.336689141103497e+001
 1.720784394712270e+000	 3.184353417157770e-001	 1.334190048494520e+001
 1.474958052610726e+000	 2.729445786207708e-001	 1.553198534460845e+001
 1.472310693793589e+000	 2.868818936375483e-001	 1.555686814154932e+001
 1.469523396755786e+000	 3.008338184795506e-001	 1.557208088499951e+001
 1.466595362636951e+000	 3.147984152506359e-001	 1.557754664502482e+001
 1.463525825174173e+000	 3.287737200581075e-001	 1.557319167884400e+001
 1.460314051546808e+000	 3.427577436160289e-001	 1.555894544673835e+001
 1.456959343210721e+000	 3.567484718777407e-001	 1.553474062613192e+001
 1.453461036720863e+000	 3.707438666974945e-001	 1.550051312399094e+001
 1.449818504541092e+000	 3.847418665210725e-001	 1.545620208770041e+001
 1.446031155840162e+000	 3.987403871052226e-001	 1.540174991458387e+001
 1.442098437272754e+000	 4.127373222656903e-001	 1.533710226024017e+001
 1.499540686818598e+000	 2.774936549302055e-001	 1.524045650108704e+001
 1.496849205355224e+000	 2.916632585315759e-001	 1.526666437117138e+001
 1.494015453367372e+000	 3.058477154550846e-001	 1.528306167839463e+001
 1.491038618680334e+000	 3.200450555063187e-001	 1.528959647571739e+001
 1.487917922260148e+000	 3.342532820610352e-001	 1.528622043339585e+001
 1.484652619072495e+000	 3.484703726785303e-001	 1.527288883281701e+001
 1.481241998930835e+000	 3.626942797446992e-001	 1.524956055760276e+001
 1.477685387332699e+000	 3.769229311446957e-001	 1.521619808215641e+001
 1.473982146283010e+000	 3.911542309650638e-001	 1.517276745783665e+001
 1.470131675103331e+000	 4.053860602251623e-001	 1.511923829695513e+001
 1.466133411225922e+000	 4.196162776376646e-001	 1.505558375480350e+001
 1.524123321026977e+000	 2.820427312396547e-001	 1.496635950450429e+001
 1.521387716917276e+000	 2.964446234254375e-001	 1.499507739570484e+001
 1.518507509979304e+000	 3.108616124303102e-001	 1.501386108168624e+001
 1.515481874724011e+000	 3.252916957615901e-001	 1.502268336831472e+001
 1.512310019346388e+000	 3.397328440634880e-001	 1.502152109004089e+001
 1.508991186598434e+000	 3.541830017405330e-001	 1.501035508132654e+001
 1.505524654651208e+000	 3.686400876111747e-001	 1.498917014445628e+001
 1.501909737944821e+000	 3.831019955914700e-001	 1.495795501393370e+001
 1.498145788025261e+000	 3.975665954087250e-001	 1.491670231767619e+001
 1.494232194366904e+000	 4.120317333449102e-001	 1.486540853523483e+001
 1.490168385179583e+000	 4.264952330096262e-001	 1.480407395327921e+001
 1.548705955235862e+000	 2.865918075491187e-001	 1.470917219425385e+001
 1.545926228479745e+000	 3.012259883191330e-001	 1.474150837518668e+001
 1.542999566591581e+000	 3.158755094052278e-001	 1.476380329045868e+001
 1.539925130767982e+000	 3.305383360164504e-001	 1.477605430072518e+001
 1.536702116432889e+000	 3.452124060654656e-001	 1.477826318813530e+001
 1.533329754124623e+000	 3.598956308020364e-001	 1.477043610499378e+001
 1.529807310371839e+000	 3.745858954771670e-001	 1.475258351794030e+001
 1.526134088557231e+000	 3.892810600378177e-001	 1.472472014787429e+001
 1.522309429767849e+000	 4.039789598520568e-001	 1.468686490586818e+001
 1.518332713630881e+000	 4.186774064644663e-001	 1.463904082532874e+001
 1.514203359133739e+000	 4.333741883815753e-001	 1.458127499068063e+001
 1.573288589445256e+000	 2.911408838585972e-001	 1.446839027293809e+001
 1.570464740042631e+000	 3.060073532126624e-001	 1.450538047393316e+001
 1.567491623204205e+000	 3.208894063798373e-001	 1.453223867560720e+001
 1.564368386812248e+000	 3.357849762708995e-001	 1.454898662567243e+001
 1.561094213519653e+000	 3.506919680669683e-001	 1.455565086830286e+001
 1.557668321651062e+000	 3.656082598630408e-001	 1.455226266965240e+001
 1.554089966092728e+000	 3.805317033426761e-001	 1.453885793804013e+001
 1.550358439169927e+000	 3.954601244837386e-001	 1.451547713905837e+001
 1.546473071510771e+000	 4.103913242950587e-001	 1.448216520587851e+001
 1.542433232895262e+000	 4.253230795838304e-001	 1.443897144504757e+001
 1.538238333088388e+000	 4.402531437535119e-001	 1.438594943808559e+001
 1.597871223655156e+000	 2.956899601680906e-001	 1.424352593227517e+001
 1.595003251605933e+000	 3.107887181060257e-001	 1.428613716790285e+001
 1.591983679817174e+000	 3.259033033541385e-001	 1.431854176985236e+001
 1.588811642856808e+000	 3.410316165249371e-001	 1.434078573417113e+001
 1.585486310606679e+000	 3.561715300679961e-001	 1.435292021079881e+001
 1.582006889177752e+000	 3.713208889235460e-001	 1.435500140554247e+001
 1.578372621813876e+000	 3.864775112077024e-001	 1.434709047588329e+001
 1.574582789782909e+000	 4.016391889292327e-001	 1.432925342090036e+001
 1.570636713254029e+000	 4.168036887377309e-001	 1.430156096561950e+001
 1.566533752160047e+000	 4.319687527030029e-001	 1.426408844011447e+001
 1.562273307043531e+000	 4.471320991254358e-001	 1.421691565370862e+001
 1.622453857865564e+000	 3.002390364775985e-001	 1.403410660392350e+001
 1.619541763169654e+000	 3.155700829992230e-001	 1.408324070593588e+001
 1.616475736430489e+000	 3.309172003281314e-001	 1.412210943729882e+001
 1.613254898901663e+000	 3.462782567785636e-001	 1.415078293141389e+001
 1.609878407693968e+000	 3.616510920685486e-001	 1.416933681584089e+001
 1.606345456704692e+000	 3.770335179835523e-001	 1.417785209030996e+001
 1.602655277535283e+000	 3.924233190722454e-001	 1.417641499774398e+001
 1.598807140396178e+000	 4.078182533743001e-001	 1.416511688860857e+001
 1.594800354997622e+000	 4.232160531800732e-001	 1.414405407893123e+001
 1.590634271425236e+000	 4.386144258219835e-001	 1.411332770235348e+001
 1.586308280999167e+000	 4.540110544973471e-001	 1.407304355660280e+001
 1.647036492076480e+000	 3.047881127871212e-001	 1.383967382217281e+001
 1.644080274733790e+000	 3.203514478922541e-001	 1.389617070879258e+001
 1.640967793044150e+000	 3.359310973018163e-001	 1.394235920691403e+001
 1.637698154946812e+000	 3.515248970317786e-001	 1.397833350287746e+001
 1.634270504781519e+000	 3.671306540686263e-001	 1.400419360062706e+001
 1.630684024231883e+000	 3.827461470430597e-001	 1.402004517531968e+001
 1.626937933256947e+000	 3.983691269363053e-001	 1.402599941913654e+001
 1.623031491009734e+000	 4.139973178189406e-001	 1.402217287964823e+001
 1.618963996741549e+000	 4.296284176220859e-001	 1.400868729110935e+001
 1.614734790690830e+000	 4.452600989407723e-001	 1.398566939908508e+001
 1.610343254955297e+000	 4.608900098692461e-001	 1.395325077883595e+001
 1.671619126287902e+000	 3.093371890966585e-001	 1.365978218698582e+001
 1.668618786298344e+000	 3.251328127851191e-001	 1.372442289180633e+001
 1.665459849658157e+000	 3.409449942751929e-001	 1.377872775305305e+001
 1.662141410992255e+000	 3.567715372845824e-001	 1.382281495106650e+001
 1.658662601869332e+000	 3.726102160682288e-001	 1.385680879073393e+001
 1.655022591759323e+000	 3.884587761020676e-001	 1.388083953023479e+001
 1.651220588978871e+000	 4.043149347998822e-001	 1.389504320119499e+001
 1.647255841623576e+000	 4.201763822631545e-001	 1.389956142063450e+001
 1.643127638485812e+000	 4.360407820637686e-001	 1.389454119512164e+001
 1.638835309956827e+000	 4.519057720593694e-001	 1.388013471757498e+001
 1.634378228911922e+000	 4.677689652411324e-001	 1.385649915718089e+001
 1.696201760499832e+000	 3.138862654062104e-001	 1.349399841721050e+001
 1.693157297863315e+000	 3.299141776778182e-001	 1.356750789861024e+001
 1.689951906272511e+000	 3.459588912482614e-001	 1.363066950811155e+001
 1.686584667037993e+000	 3.620181775369751e-001	 1.368362538558398e+001
 1.683054698957408e+000	 3.780897780673564e-001	 1.372652408617637e+001
 1.679361159287015e+000	 3.941714051605767e-001	 1.375952038371993e+001
 1.675503244701052e+000	 4.102607426629759e-001	 1.378277506475842e+001
 1.671480192237705e+000	 4.263554467069416e-001	 1.379645471362588e+001
 1.667291280230410e+000	 4.424531465051216e-001	 1.380073148902313e+001
 1.662935829223229e+000	 4.585514451777746e-001	 1.379578289257446e+001
 1.658413202869040e+000	 4.746479206130062e-001	 1.378179152987594e+001
 1.720784394712270e+000	 3.184353417157770e-001	 1.334190048494520e+001
 1.717695809428702e+000	 3.346955425703510e-001	 1.342495023482987e+001
 1.714443962887209e+000	 3.509727882210215e-001	 1.349765539409437e+001
 1.711027923084025e+000	 3.672648177889563e-001	 1.356018205119561e+001
 1.707446796045747e+000	 3.835693400660090e-001	 1.361270298466183e+001
 1.703699726814957e+000	 3.998840342185867e-001	 1.365539744065520e+001
 1.699785900423492e+000	 4.162065505255865e-001	 1.368845090039214e+001
 1.695704542852120e+000	 4.325345111503019e-001	 1.371205483787839e+001
 1.691454921975343e+000	 4.488655109461449e-001	 1.372640646844984e+001
 1.687036348490034e+000	 4.651971182959881e-001	 1.373170848864276e+001
 1.682448176826651e+000	 4.815268759848673e-001	 1.372816880794896e+001
 1.442098437272754e+000	 4.127373222656903e-001	 1.533710226024017e+001
 1.438019833743952e+000	 4.267305446539297e-001	 1.537214888069440e+001
 1.433794869157610e+000	 4.407179065610665e-001	 1.539943601956463e+001
 1.429423107146426e+000	 4.546972407496676e-001	 1.541907715532933e+001
 1.424904151781650e+000	 4.686663613134736e-001	 1.543118890144640e+001
 1.420237648262862e+000	 4.826230645635711e-001	 1.543589083953911e+001
 1.415423283586218e+000	 4.965651299408994e-001	 1.543330534977136e+001
 1.410460787190097e+000	 5.104903209545468e-001	 1.542355743884576e+001
 1.405349931577071e+000	 5.243963861452564e-001	 1.540677456607037e+001
 1.400090532911170e+000	 5.382810600734967e-001	 1.538308646794767e+001
 1.394682451589383e+000	 5.521420643314209e-001	 1.535262498174925e+001
 1.466133411225922e+000	 4.196162776376646e-001	 1.505558375480350e+001
 1.461986830971045e+000	 4.338427203983612e-001	 1.509899893810014e+001
 1.457691450307712e+000	 4.480632050033768e-001	 1.513471332102619e+001
 1.453246825595835e+000	 4.622755280946554e-001	 1.516280244517195e+001
 1.448652554307849e+000	 4.764774673341675e-001	 1.518334427755285e+001
 1.443908275729996e+000	 4.906667823048522e-001	 1.519641906728539e+001
 1.439013671641701e+000	 5.048412154383312e-001	 1.520210920092302e+001
 1.433968466971982e+000	 5.189984929688458e-001	 1.520049905688605e+001
 1.428772430431791e+000	 5.331363259128185e-001	 1.519167485942700e+001
 1.423425375121222e+000	 5.472524110733930e-001	 1.517572453257920e+001
 1.417927159110548e+000	 5.613444320692591e-001	 1.515273755454091e+001
 1.490168385179583e+000	 4.264952330096262e-001	 1.480407395327921e+001
 1.485953828198727e+000	 4.409548961429656e-001	 1.485344646799834e+001
 1.481588031458489e+000	 4.554085034460164e-001	 1.489518335257663e+001
 1.477070544045993e+000	 4.698538154400996e-001	 1.492932337245798e+001
 1.472400956834864e+000	 4.842885733554154e-001	 1.495590700914795e+001
 1.467578903198001e+000	 4.987105000467547e-001	 1.497497633921799e+001
 1.462604059698101e+000	 5.131173009364221e-001	 1.498657491343012e+001
 1.457476146754822e+000	 5.275066649838112e-001	 1.499074763641740e+001
 1.452194929287490e+000	 5.418762656810238e-001	 1.498754064736011e+001
 1.446760217332268e+000	 5.562237620738788e-001	 1.497700120210087e+001
 1.441171866632713e+000	 5.705467998076025e-001	 1.495917755714283e+001
 1.514203359133739e+000	 4.333741883815753e-001	 1.458127499068063e+001
 1.509920825426997e+000	 4.480670718877428e-001	 1.463429423620595e+001
 1.505484612609940e+000	 4.627538018889853e-001	 1.467974990549584e+001
 1.500894262496902e+000	 4.774321027860002e-001	 1.471764510828969e+001
 1.496149359362695e+000	 4.920996793772169e-001	 1.474798396040773e+001
 1.491249530666879e+000	 5.067542177892785e-001	 1.477077148394282e+001
 1.486194447755419e+000	 5.213933864351721e-001	 1.478601350902340e+001
 1.480983826538615e+000	 5.360148369994430e-001	 1.479371657758656e+001
 1.475617428144168e+000	 5.506162054498724e-001	 1.479388784960150e+001
 1.470095059544309e+000	 5.651951130749543e-001	 1.478653501218402e+001
 1.464416574155878e+000	 5.797491675464509e-001	 1.477166619204049e+001
 1.538238333088388e+000	 4.402531437535119e-001	 1.438594943808559e+001
 1.533887822655857e+000	 4.551792476326931e-001	 1.444039864689835e+001
 1.529381193762066e+000	 4.700991003322836e-001	 1.448736360382904e+001
 1.524717980948561e+000	 4.850103901323571e-001	 1.452681284597396e+001
 1.519897761891341e+000	 4.999107853995722e-001	 1.455871520514050e+001
 1.514920158136628e+000	 5.147979355324238e-001	 1.458303972810391e+001
 1.509784835813656e+000	 5.296694719345810e-001	 1.459975559987772e+001
 1.504491506323362e+000	 5.445230090157411e-001	 1.460883207044235e+001
 1.499039927001826e+000	 5.593561452193646e-001	 1.461023838537460e+001
 1.493429901757345e+000	 5.741664640766195e-001	 1.460394372081792e+001
 1.487661281680043e+000	 5.889515352858046e-001	 1.458991712322832e+001
 1.562273307043531e+000	 4.471320991254358e-001	 1.421691565370862e+001
 1.557854819885305e+000	 4.622914233778162e-001	 1.427066561658185e+001
 1.553277774914866e+000	 4.774443987759112e-001	 1.431701830186623e+001
 1.548541699400969e+000	 4.925886774791703e-001	 1.435590872239112e+001
 1.543646164420804e+000	 5.077218914224814e-001	 1.438727147219978e+001
 1.538590785607250e+000	 5.228416532761904e-001	 1.441104066576514e+001
 1.533375223872810e+000	 5.379455574346491e-001	 1.442714988165481e+001
 1.527999186109062e+000	 5.530311810327058e-001	 1.443553211109707e+001
 1.522462425860463e+000	 5.680960849895000e-001	 1.443611971189522e+001
 1.516764743971375e+000	 5.831378150788742e-001	 1.442884436813144e+001
 1.510905989205208e+000	 5.981539030256633e-001	 1.441363705609373e+001
 1.586308280999167e+000	 4.540110544973471e-001	 1.407304355660280e+001
 1.581821817115343e+000	 4.694035991231121e-001	 1.412404682315971e+001
 1.577174356068340e+000	 4.847896972198681e-001	 1.416774780912390e+001
 1.572365417854128e+000	 5.001669648264399e-001	 1.420404901923948e+001
 1.567394566951083e+000	 5.155329974459445e-001	 1.423285182313227e+001
 1.562261413078743e+000	 5.308853710205783e-001	 1.425405641239344e+001
 1.556965611932882e+000	 5.462216429353759e-001	 1.426756176354211e+001
 1.551506865895716e+000	 5.615393530503368e-001	 1.427326560732776e+001
 1.545884924720079e+000	 5.768360247602786e-001	 1.427106440482656e+001
 1.540099586186401e+000	 5.921091660817187e-001	 1.426085333077646e+001
 1.534150696731373e+000	 6.073562707660271e-001	 1.424252626458426e+001
 1.610343254955297e+000	 4.608900098692461e-001	 1.395325077883595e+001
 1.605788814345970e+000	 4.765157748685813e-001	 1.399953629090241e+001
 1.601070937222489e+000	 4.921349956641541e-001	 1.403862290861158e+001
 1.596189136308037e+000	 5.077452521741660e-001	 1.407038161491462e+001
 1.591142969482178e+000	 5.233441034699612e-001	 1.409468153779796e+001
 1.585932040551108e+000	 5.389290887655879e-001	 1.411138992415726e+001
 1.580555999993871e+000	 5.544977284367622e-001	 1.412037212097478e+001
 1.575014545683324e+000	 5.700475250686342e-001	 1.412149156427276e+001
 1.569307423580675e+000	 5.855759645317008e-001	 1.411460977630561e+001
 1.563434428402421e+000	 6.010805170851530e-001	 1.409958637144097e+001
 1.557395404258538e+000	 6.165586385068962e-001	 1.407627907116572e+001
 1.634378228911922e+000	 4.677689652411324e-001	 1.385649915718089e+001
 1.629755811577185e+000	 4.836279506142233e-001	 1.389616727674434e+001
 1.624967518377312e+000	 4.994802941087698e-001	 1.392874863819283e+001
 1.620012854762697e+000	 5.153235395223482e-001	 1.395408366122277e+001
 1.614891372014088e+000	 5.311552094945315e-001	 1.397201018655280e+001
 1.609602668024345e+000	 5.469728065112189e-001	 1.398236346552191e+001
 1.604146388055778e+000	 5.627738139388072e-001	 1.398497615841153e+001
 1.598522225471885e+000	 5.785556970875980e-001	 1.397967834197879e+001
 1.592729922442250e+000	 5.943159043037664e-001	 1.396629752667293e+001
 1.586769270619436e+000	 6.100518680891769e-001	 1.394465868399361e+001
 1.580640111786703e+000	 6.257610062482703e-001	 1.392941449356459e+001
 1.658413202869040e+000	 4.746479206130062e-001	 1.378179152987594e+001
 1.653722808808989e+000	 4.907401263600381e-001	 1.381300942733715e+001
 1.648864099532809e+000	 5.068255925537145e-001	 1.383726180834932e+001
 1.643836573218106e+000	 5.229018268709869e-001	 1.385435946211922e+001
 1.638639774546815e+000	 5.389663155196559e-001	 1.386410987006803e+001
 1.633273295498454e+000	 5.550165242574712e-001	 1.386631721009762e+001
 1.627736776118604e+000	 5.710498994415113e-001	 1.386078237099963e+001
 1.622029905261401e+000	 5.870638691072281e-001	 1.384730297750894e+001
 1.616152421304804e+000	 6.030558440764752e-001	 1.382567342648691e+001
 1.610104112837447e+000	 6.190232190937902e-001	 1.379568493470236e+001
 1.603884819315868e+000	 6.349633739901497e-001	 1.394605596494653e+001
 1.682448176826651e+000	 4.815268759848673e-001	 1.372816880794896e+001
 1.677689806041381e+000	 4.978523021060258e-001	 1.374916617978425e+001
 1.672760680688981e+000	 5.141708909989885e-001	 1.376332873270815e+001
 1.667660291674265e+000	 5.304801142200817e-001	 1.377043853426911e+001
 1.662388177080357e+000	 5.467774215453340e-001	 1.377027361002174e+001
 1.656943922973434e+000	 5.630602420043450e-001	 1.376260796141498e+001
 1.651327164182347e+000	 5.793259849448745e-001	 1.374721159523999e+001
 1.645537585051869e+000	 5.955720411275248e-001	 1.372385056515581e+001
 1.639574920168338e+000	 6.117957838498270e-001	 1.369228702579389e+001
 1.633438955056452e+000	 6.279945700989933e-001	 1.370736671910387e+001
 1.627129526846032e+000	 6.441657417325339e-001	 1.395599843581313e+001
 1.394682451589383e+000	 5.521420643314209e-001	 1.535262498174925e+001
 1.389125592786738e+000	 5.659771085778665e-001	 1.523788217159218e+001
 1.383419906972935e+000	 5.797838915960678e-001	 1.511111578493849e+001
 1.377565390400310e+000	 5.935601023727930e-001	 1.497186425475275e+001
 1.371562085562787e+000	 6.073034211979435e-001	 1.481966547184250e+001
 1.365410081623910e+000	 6.210115207841032e-001	 1.465405721294711e+001
 1.359109514813409e+000	 6.346820674049265e-001	 1.468469921218765e+001
 1.352660568791450e+000	 6.483127220513676e-001	 1.478602287490693e+001
 1.346063474979750e+000	 6.619011416047149e-001	 1.487089038922081e+001
 1.339318512858777e+000	 6.754449800253554e-001	 1.493884012955314e+001
 1.332426010230286e+000	 6.889418895561570e-001	 1.498940694118589e+001
 1.417927159110548e+000	 5.613444320692591e-001	 1.515273755454091e+001
 1.412277685994379e+000	 5.754100603868140e-001	 1.501487975126246e+001
 1.406476905416907e+000	 5.894469564555899e-001	 1.486535464621684e+001
 1.400524813568007e+000	 6.034527707454682e-001	 1.470372190508757e+001
 1.394421453649835e+000	 6.174251448845146e-001	 1.452954030693459e+001
 1.388166916311995e+000	 6.313617127971888e-001	 1.447992181371248e+001
 1.381761340054712e+000	 6.452601018617062e-001	 1.457931074302853e+001
 1.375204911599156e+000	 6.591179340855364e-001	 1.466329430156232e+001
 1.368497866224071e+000	 6.729328272979883e-001	 1.473144660957299e+001
 1.361640488067935e+000	 6.867023963587892e-001	 1.478333728039702e+001
 1.354633110395864e+000	 7.004242543815206e-001	 1.481853141415137e+001
 1.441171866632713e+000	 5.705467998076025e-001	 1.495917755714283e+001
 1.435429779203020e+000	 5.848430121961762e-001	 1.479945806918474e+001
 1.429533903861879e+000	 5.991100213154564e-001	 1.462842842805913e+001
 1.423484236736704e+000	 6.133454391184369e-001	 1.444566893816116e+001
 1.417280821737884e+000	 6.275468685713478e-001	 1.430547972392124e+001
 1.410923751001080e+000	 6.417119048105252e-001	 1.440196140103642e+001
 1.404413165297016e+000	 6.558381363187450e-001	 1.448403554523998e+001
 1.397749254407861e+000	 6.699231461199927e-001	 1.455131409069058e+001
 1.390932257469392e+000	 6.839645129915987e-001	 1.460340359455717e+001
 1.383962463278093e+000	 6.979598126926291e-001	 1.463990514709069e+001
 1.376840210562442e+000	 7.119066192073804e-001	 1.466041430307528e+001
 1.464416574155878e+000	 5.797491675464509e-001	 1.477166619204049e+001
 1.458581872412662e+000	 5.942759640059531e-001	 1.459127206420005e+001
 1.452590902307851e+000	 6.087730861756668e-001	 1.439992657750586e+001
 1.446443659906401e+000	 6.232381074916983e-001	 1.419723011487691e+001
 1.440140189826932e+000	 6.376685922584426e-001	 1.425227838469072e+001
 1.433680585691166e+000	 6.520620968241120e-001	 1.433137867047639e+001
 1.427064990540319e+000	 6.664161707760430e-001	 1.439666614364989e+001
 1.420293597217567e+000	 6.807283581547373e-001	 1.444778644000403e+001
 1.413366648715714e+000	 6.949961986855461e-001	 1.448437888539857e+001
 1.406284438489250e+000	 7.092172290268756e-001	 1.450607634092473e+001
 1.399047310730021e+000	 7.233889840337363e-001	 1.451250507067048e+001
 1.487661281680043e+000	 5.889515352858046e-001	 1.458991712322832e+001
 1.481733965623303e+000	 6.037089158161452e-001	 1.438997295381442e+001
 1.475647900754824e+000	 6.184361510362215e-001	 1.417943860923636e+001
 1.469403083077098e+000	 6.331307758652528e-001	 1.412890039845011e+001
 1.462999557916980e+000	 6.477903159457991e-001	 1.420392641082628e+001
 1.456437420382251e+000	 6.624122888379491e-001	 1.426606733423813e+001
 1.449716815784622e+000	 6.769942052336002e-001	 1.431500996708800e+001
 1.442837940028272e+000	 6.915335701897695e-001	 1.435043407102547e+001
 1.435801039963035e+000	 7.060278843798304e-001	 1.437201212748956e+001
 1.428606413701408e+000	 7.204746453615282e-001	 1.437940911640719e+001
 1.421254410898599e+000	 7.348713488605884e-001	 1.437228231876846e+001
 1.510905989205208e+000	 5.981539030256633e-001	 1.441363705609373e+001
 1.504886058834944e+000	 6.131418676267519e-001	 1.419520852045548e+001
 1.498704899202796e+000	 6.280992158971203e-001	 1.403078944926521e+001
 1.492362506248796e+000	 6.430234442391006e-001	 1.410060827282461e+001
 1.485858926008029e+000	 6.579120396334174e-001	 1.415841229035959e+001
 1.479194255074336e+000	 6.727624808520368e-001	 1.420393148600947e+001
 1.472368641029925e+000	 6.875722396914165e-001	 1.423688820192440e+001
 1.465382282839978e+000	 7.023387822250898e-001	 1.425699680417963e+001
 1.458235431211356e+000	 7.170595700744518e-001	 1.426396337006891e+001
 1.450928388914566e+000	 7.317320616965873e-001	 1.425748539870845e+001
 1.443461511068178e+000	 7.463537136879365e-001	 1.423725154684843e+001
 1.534150696731373e+000	 6.073562707660271e-001	 1.424252626458426e+001
 1.528038152047586e+000	 6.225748194377736e-001	 1.400662337170567e+001
 1.521761897651768e+000	 6.377622807583634e-001	 1.402066910133893e+001
 1.515321929421493e+000	 6.529161126132413e-001	 1.407291471834785e+001
 1.508718294100077e+000	 6.680337633212978e-001	 1.411373095556116e+001
 1.501951089767421e+000	 6.831126728663750e-001	 1.414288481448421e+001
 1.495020466276228e+000	 6.981502741494923e-001	 1.416013474983145e+001
 1.487926625652684e+000	 7.131439942606983e-001	 1.416523026342185e+001
 1.480669822460677e+000	 7.280912557694100e-001	 1.415791152047615e+001
 1.473250364128724e+000	 7.429894780320526e-001	 1.413790899042904e+001
 1.465668611238756e+000	 7.578360785157806e-001	 1.410494311433692e+001
 1.557395404258538e+000	 6.165586385068962e-001	 1.407627907116572e+001
 1.551190245261227e+000	 6.320077712492102e-001	 1.396365756193784e+001
 1.544818896101741e+000	 6.474253456199506e-001	 1.400909630917851e+001
 1.538281352595190e+000	 6.628087809876752e-001	 1.404390033476535e+001
 1.531577662193125e+000	 6.781554870094398e-001	 1.406788330202715e+001
 1.524707924461507e+000	 6.934628648809638e-001	 1.408084988731712e+001
 1.517672291523532e+000	 7.087283086078268e-001	 1.408259527888061e+001
 1.510470968466389e+000	 7.239492062965944e-001	 1.407290469687006e+001
 1.503104213710998e+000	 7.391229414647055e-001	 1.405155293683028e+001
 1.495572339343882e+000	 7.542468943679244e-001	 1.401830393895570e+001
 1.487875711410334e+000	 7.693184433441207e-001	 1.397291038538772e+001
 1.580640111786703e+000	 6.257610062482703e-001	 1.392941449356459e+001
 1.574342338475868e+000	 6.414407230610618e-001	 1.396677548724025e+001
 1.567875894552713e+000	 6.570884104818818e-001	 1.399423274939838e+001
 1.561240775769887e+000	 6.727014493624020e-001	 1.401164852066817e+001
 1.554437030287174e+000	 6.882772106978441e-001	 1.401887575019944e+001
 1.547464759156591e+000	 7.038130568958028e-001	 1.401575749825892e+001
 1.540324116771835e+000	 7.193063430664205e-001	 1.400212635836611e+001
 1.533015311281095e+000	 7.347544183327788e-001	 1.397780390149867e+001
 1.525538604962320e+000	 7.501546271603375e-001	 1.394260014488437e+001
 1.517894314560039e+000	 7.655043107042022e-001	 1.389631304787414e+001
 1.510082811582912e+000	 7.808008081729571e-001	 1.383872803735775e+001
 1.603884819315868e+000	 6.349633739901497e-001	 1.394605596494653e+001
 1.597494431691509e+000	 6.508736748733279e-001	 1.396481143604835e+001
 1.590932893004685e+000	 6.667514753441571e-001	 1.397424014450060e+001
 1.584200198945584e+000	 6.825941177374222e-001	 1.397424527067812e+001
 1.577296398382222e+000	 6.983989343865098e-001	 1.396471984501451e+001
 1.570221593852676e+000	 7.141632489108925e-001	 1.394554607106249e+001
 1.562975942021138e+000	 7.298843775252734e-001	 1.391659466886109e+001
 1.555559654096801e+000	 7.455596303692508e-001	 1.387772424133730e+001
 1.547972996214641e+000	 7.611863128563067e-001	 1.382878066645774e+001
 1.540216289777197e+000	 7.767617270408865e-001	 1.376959651782407e+001
 1.532289911756491e+000	 7.922831730022893e-001	 1.369999051637217e+001
 1.627129526846032e+000	 6.441657417325339e-001	 1.395599843581313e+001
 1.620646524908150e+000	 6.603066266860092e-001	 1.395600174157217e+001
 1.613989891457657e+000	 6.764145402067767e-001	 1.394728025959718e+001
 1.607159622122281e+000	 6.924867861127354e-001	 1.392977899001678e+001
 1.600155766478270e+000	 7.085206580754373e-001	 1.390343188986802e+001
 1.592978428549762e+000	 7.245134409262325e-001	 1.386816111448259e+001
 1.585627767271442e+000	 7.404624119843857e-001	 1.382387627998352e+001
 1.578103996913506e+000	 7.563648424060108e-001	 1.377047374982411e+001
 1.570407387467962e+000	 7.722179985526128e-001	 1.370783594828856e+001
 1.562538264995355e+000	 7.880191433779770e-001	 1.363583070385253e+001
 1.554497011931069e+000	 8.037655378321177e-001	 1.355431062526923e+001
 1.332426010230286e+000	 6.889418895561570e-001	 1.498940694118589e+001
 1.325386343444616e+000	 7.023895219395790e-001	 1.493024907721430e+001
 1.318199937591758e+000	 7.157855296464767e-001	 1.486177381105469e+001
 1.310867266655738e+000	 7.291275671160524e-001	 1.478387185930465e+001
 1.303388853632028e+000	 7.424132920061466e-001	 1.469642528900729e+001
 1.295765270607129e+000	 7.556403664517626e-001	 1.459930725471252e+001
 1.287997138799943e+000	 7.688064583308097e-001	 1.449238176332439e+001
 1.280085128564544e+000	 7.819092425357325e-001	 1.437550346815954e+001
 1.272029959353938e+000	 7.949464022496640e-001	 1.424851749356708e+001
 1.263832399644536e+000	 8.079156302257307e-001	 1.411125929137983e+001
 1.255493266821059e+000	 8.208146300681053e-001	 1.396355453038052e+001
 1.354633110395864e+000	 7.004242543815206e-001	 1.481853141415137e+001
 1.347476115830716e+000	 7.140960139710572e-001	 1.476199210561886e+001
 1.340169936547323e+000	 7.277152884728083e-001	 1.469651605288152e+001
 1.332715054429446e+000	 7.412796932332970e-001	 1.462202958246817e+001
 1.325112001189150e+000	 7.547868468713274e-001	 1.453844950926323e+001
 1.317361358447709e+000	 7.682343725574867e-001	 1.444568281280263e+001
 1.309463757777677e+000	 7.816198993009828e-001	 1.434362634286166e+001
 1.301419880705692e+000	 7.949410632424673e-001	 1.423216655591110e+001
 1.293230458675645e+000	 8.081955089514592e-001	 1.411117928394177e+001
 1.284896272971888e+000	 8.213808907269707e-001	 1.398052953707275e+001
 1.276418154602220e+000	 8.344948738999106e-001	 1.384007134126909e+001
 1.376840210562442e+000	 7.119066192073804e-001	 1.466041430307528e+001
 1.369565888217805e+000	 7.258025060031214e-001	 1.460758745863554e+001
 1.362139935503848e+000	 7.396450472997965e-001	 1.454623590201895e+001
 1.354562842204066e+000	 7.534318193512490e-001	 1.447632152004307e+001
 1.346835148747114e+000	 7.671604017372468e-001	 1.439779577358723e+001
 1.338957446289043e+000	 7.808283786639605e-001	 1.431059931213339e+001
 1.330930376756053e+000	 7.944333402718961e-001	 1.421466161919352e+001
 1.322754632847353e+000	 8.079728839499134e-001	 1.410990069035633e+001
 1.314430957997716e+000	 8.214446156539167e-001	 1.399622274560545e+001
 1.305960146299434e+000	 8.348461512288031e-001	 1.387352197747486e+001
 1.297343042383386e+000	 8.481751177322187e-001	 1.374168033651066e+001
 1.399047310730021e+000	 7.233889840337363e-001	 1.451250507067048e+001
 1.391655660605885e+000	 7.375089980357721e-001	 1.446438479492195e+001
 1.384109934461334e+000	 7.515748061274419e-001	 1.440818446490893e+001
 1.376410629979597e+000	 7.655839454699086e-001	 1.434390153518474e+001
 1.368558296305920e+000	 7.795339566039046e-001	 1.427152206690807e+001
 1.360553534131129e+000	 7.934223847711833e-001	 1.419102027957108e+001
 1.352396995735073e+000	 8.072467812435499e-001	 1.410235813529891e+001
 1.344089384989528e+000	 8.210047046580709e-001	 1.400548495761393e+001
 1.335631457320152e+000	 8.346937223570361e-001	 1.390033708647348e+001
 1.327024019627176e+000	 8.483114117312283e-001	 1.378683757129921e+001
 1.318267930164557e+000	 8.618553615650291e-001	 1.366489590361511e+001
 1.421254410898599e+000	 7.348713488605884e-001	 1.437228231876846e+001
 1.413745432994954e+000	 7.492154900690090e-001	 1.432976751882910e+001
 1.406079933419780e+000	 7.635045649557439e-001	 1.427965119318515e+001
 1.398258417756038e+000	 7.777360715892758e-001	 1.422196642648421e+001
 1.390281443865568e+000	 7.919075114713010e-001	 1.415673388839280e+001
 1.382149621973968e+000	 8.060163908791559e-001	 1.408396132138739e+001
 1.373863614714737e+000	 8.200602222159443e-001	 1.400364306289401e+001
 1.365424137132218e+000	 8.340365253669396e-001	 1.391575960383362e+001
 1.356831956642953e+000	 8.479428290608175e-001	 1.382027718554270e+001
 1.348087892955113e+000	 8.617766722342460e-001	 1.371714743694293e+001
 1.339192817945733e+000	 8.755356053983423e-001	 1.360630705372942e+001
 1.443461511068178e+000	 7.463537136879365e-001	 1.423725154684843e+001
 1.435835205385014e+000	 7.609219821028320e-001	 1.420115018457888e+001
 1.428049932379187e+000	 7.754343237847030e-001	 1.415796093404286e+001
 1.420106205533392e+000	 7.898881977093507e-001	 1.410775262524235e+001
 1.412004591426058e+000	 8.042810663394359e-001	 1.405058059650532e+001
 1.403745709817560e+000	 8.186103969878779e-001	 1.398648611715126e+001
 1.395330233695044e+000	 8.328736631890793e-001	 1.391549584637571e+001
 1.386758889275422e+000	 8.470683460765198e-001	 1.383762133057837e+001
 1.378032455966119e+000	 8.611919357652610e-001	 1.375285854126964e+001
 1.369151766283245e+000	 8.752419327378559e-001	 1.366118745558875e+001
 1.360117705726915e+000	 8.892158492321584e-001	 1.356257168135802e+001
 1.465668611238756e+000	 7.578360785157806e-001	 1.410494311433692e+001
 1.457924977776064e+000	 7.726284741372415e-001	 1.407597613642526e+001
 1.450019931339554e+000	 7.873640826143185e-001	 1.404047124875685e+001
 1.441953993311657e+000	 8.020403238301329e-001	 1.399853319299176e+001
 1.433727738987390e+000	 8.166546212083095e-001	 1.395025208633233e+001
 1.425341797661905e+000	 8.312044030973499e-001	 1.389570277781245e+001
 1.416796852675995e+000	 8.456871041629545e-001	 1.383494424276987e+001
 1.408093641419141e+000	 8.601001667868111e-001	 1.376801901789897e+001
 1.399232955289649e+000	 8.744410424703665e-001	 1.369495267918736e+001
 1.390215639611572e+000	 8.887071932420584e-001	 1.361575336493317e+001
 1.381042593508102e+000	 9.028960930664768e-001	 1.353041134592647e+001
 1.487875711410334e+000	 7.693184433441207e-001	 1.397291038538772e+001
 1.480014750168104e+000	 7.843349661722373e-001	 1.395171536014456e+001
 1.471989930300882e+000	 7.992938414445909e-001	 1.392456997133243e+001
 1.463801781090832e+000	 8.141924499516231e-001	 1.389161508789744e+001
 1.455450886549564e+000	 8.290281760779212e-001	 1.385297576446223e+001
 1.446937885507002e+000	 8.437984092075711e-001	 1.380876052992677e+001
 1.438263471657590e+000	 8.585005451375705e-001	 1.375906071631132e+001
 1.429428393563373e+000	 8.731319874978141e-001	 1.370394983041723e+001
 1.420433454613544e+000	 8.876901491761340e-001	 1.364348297078024e+001
 1.411279512940094e+000	 9.021724537468535e-001	 1.357769629228249e+001
 1.401967481289294e+000	 9.165763369012980e-001	 1.350660652066810e+001
 1.510082811582912e+000	 7.808008081729571e-001	 1.383872803735775e+001
 1.502104522561134e+000	 7.960414582078191e-001	 1.382586252409969e+001
 1.493959929263171e+000	 8.112236002755202e-001	 1.380767298256906e+001
 1.485649568870919e+000	 8.263445760738210e-001	 1.378433667235722e+001
 1.477174034112580e+000	 8.414017309482718e-001	 1.375601379078646e+001
 1.468533973352852e+000	 8.563924153185417e-001	 1.372284669244970e+001
 1.459730090639828e+000	 8.713139861129265e-001	 1.368495915114908e+001
 1.450763145708121e+000	 8.861638082095285e-001	 1.364245566698972e+001
 1.441633953937804e+000	 9.009392558825637e-001	 1.359542082128169e+001
 1.432343386268812e+000	 9.156377142522409e-001	 1.354391868178738e+001
 1.422892369070492e+000	 9.302565807366219e-001	 1.348799226072622e+001
 1.532289911756491e+000	 7.922831730022893e-001	 1.369999051637217e+001
 1.524194294955155e+000	 8.077479502439875e-001	 1.369593519064719e+001
 1.515929928226421e+000	 8.231533591071063e-001	 1.368722217768412e+001
 1.507497356651917e+000	 8.384967021967261e-001	 1.367406543733285e+001
 1.498897181676438e+000	 8.537752858193607e-001	 1.365666056014413e+001
 1.490130061199455e+000	 8.689864214302617e-001	 1.363518391641773e+001
 1.481196709622710e+000	 8.841274270890234e-001	 1.360979184990321e+001
 1.472097897853381e+000	 8.991956289219537e-001	 1.358061991909657e+001
 1.462834453262429e+000	 9.141883625896550e-001	 1.354778218896766e+001
 1.453407259597724e+000	 9.291029747582211e-001	 1.351137057583100e+001
 1.443817256851695e+000	 9.439368245724484e-001	 1.347145424794346e+001
 1.554497011931069e+000	 8.037655378321177e-001	 1.355431062526923e+001
 1.546284067350165e+000	 8.194544422807419e-001	 1.355947218085169e+001
 1.537899927190630e+000	 8.350831179393492e-001	 1.356068360814015e+001
 1.529345144433827e+000	 8.506488283203388e-001	 1.355819592173812e+001
 1.520620329241138e+000	 8.661488406911879e-001	 1.355224039982581e+001
 1.511726149046811e+000	 8.815804275427315e-001	 1.354302766122808e+001
 1.502663328606235e+000	 8.969408680658605e-001	 1.353074678948830e+001
 1.493432649999157e+000	 9.122274496350905e-001	 1.351556450708272e+001
 1.484034952587419e+000	 9.274374692974083e-001	 1.349762440279646e+001
 1.474471132926832e+000	 9.425682352647933e-001	 1.347704621515521e+001
 1.464742144632903e+000	 9.576170684087775e-001	 1.345392517466880e+001
 1.255493266821059e+000	 8.208146300681053e-001	 1.396355453038052e+001
 1.247013427021299e+000	 8.336411175128567e-001	 1.392624568485726e+001
 1.238393794941728e+000	 8.463928217087878e-001	 1.384370315889579e+001
 1.229635333603122e+000	 8.590674864957385e-001	 1.376172321362792e+001
 1.220739054075391e+000	 8.716628716778430e-001	 1.368042541342959e+001
 1.211706015162792e+000	 8.841767542918875e-001	 1.359992216775473e+001
 1.202537323049252e+000	 8.966069298687862e-001	 1.352031867434010e+001
 1.193234130903926e+000	 9.089512136867098e-001	 1.344171287681977e+001
 1.183797638447231e+000	 9.212074420144201e-001	 1.336419543676308e+001
 1.174229091477602e+000	 9.333734733433581e-001	 1.328784972010869e+001
 1.164529781359323e+000	 9.454471896070471e-001	 1.321275179792769e+001
 1.276418154602220e+000	 8.344948738999106e-001	 1.384007134126909e+001
 1.267796984139968e+000	 8.475351361353408e-001	 1.384448967686904e+001
 1.259033691526450e+000	 8.604993687346021e-001	 1.384959752414028e+001
 1.250129255832787e+000	 8.733852779348662e-001	 1.385536664809960e+001
 1.241084704980055e+000	 8.861905862036693e-001	 1.377433538925213e+001
 1.231901115419247e+000	 8.989130335284116e-001	 1.368786556000884e+001
 1.222579611770688e+000	 9.115503786988557e-001	 1.359722668310457e+001
 1.213121366423021e+000	 9.241004005811424e-001	 1.350244255266254e+001
 1.203527599092000e+000	 9.365608993818458e-001	 1.340353388729075e+001
 1.193799576339370e+000	 9.489296979005983e-001	 1.330051841844995e+001
 1.183938611052150e+000	 9.612046427698152e-001	 1.319341098818116e+001
 1.297343042383386e+000	 8.481751177322187e-001	 1.374168033651066e+001
 1.288580541258456e+000	 8.614291547582270e-001	 1.375869090589623e+001
 1.279673588110835e+000	 8.746059157607187e-001	 1.377244696997875e+001
 1.270623178061991e+000	 8.877030693741959e-001	 1.378283755497123e+001
 1.261430355884161e+000	 9.007183007295979e-001	 1.378973237707935e+001
 1.252096215675079e+000	 9.136493127649379e-001	 1.379298173362662e+001
 1.242621900491466e+000	 9.264938275288274e-001	 1.371123487985101e+001
 1.233008601941451e+000	 9.392495874753766e-001	 1.359768998653030e+001
 1.223257559736129e+000	 9.519143567489734e-001	 1.347495327522365e+001
 1.213370061200551e+000	 9.644859224574401e-001	 1.334297798499375e+001
 1.203347440744476e+000	 9.769620959320846e-001	 1.320171877574026e+001
 1.318267930164557e+000	 8.618553615650291e-001	 1.366489590361511e+001
 1.309364098376765e+000	 8.753231733815162e-001	 1.369092008077053e+001
 1.300313484694886e+000	 8.887124627871379e-001	 1.370991816647653e+001
 1.291117100290734e+000	 9.020208608137283e-001	 1.372169856883405e+001
 1.281776006787710e+000	 9.152460152556290e-001	 1.372605262166977e+001
 1.272291315930287e+000	 9.283855920014662e-001	 1.372275456705335e+001
 1.262664189211584e+000	 9.414372763587006e-001	 1.371156158884048e+001
 1.252895837459215e+000	 9.543987743694122e-001	 1.369221389794655e+001
 1.242987520379617e+000	 9.672678141158019e-001	 1.357832771129222e+001
 1.232940546061146e+000	 9.800421470138830e-001	 1.341522555027875e+001
 1.222756270436300e+000	 9.927195490938553e-001	 1.323778810950821e+001
 1.339192817945733e+000	 8.755356053983423e-001	 1.360630705372942e+001
 1.330147655494894e+000	 8.892171920052078e-001	 1.363791515162867e+001
 1.320953381278602e+000	 9.028190098138598e-001	 1.365889307842383e+001
 1.311611022519015e+000	 9.163386522534631e-001	 1.366897066156222e+001
 1.302121657690702e+000	 9.297737297817618e-001	 1.366786275242210e+001
 1.292486416184872e+000	 9.431218712379963e-001	 1.365526929755261e+001
 1.282706477931043e+000	 9.563807251884756e-001	 1.363087545996966e+001
 1.272783072976315e+000	 9.695479612632498e-001	 1.359435179107610e+001
 1.262717481022464e+000	 9.826212714823324e-001	 1.354535445361342e+001
 1.252511030921156e+000	 9.955983715699278e-001	 1.348352549588782e+001
 1.242165100127623e+000	 1.008477002255128e+000	 1.330171741998957e+001
 1.360117705726915e+000	 8.892158492321584e-001	 1.356257168135802e+001
 1.350931212612843e+000	 9.031112106293023e-001	 1.359647293406211e+001
 1.341593277861981e+000	 9.169255568408838e-001	 1.361630290163520e+001
 1.332104944746835e+000	 9.306564436934001e-001	 1.362171479081355e+001
 1.322467308593137e+000	 9.443014443079969e-001	 1.361234879493272e+001
 1.312681516438834e+000	 9.578581504745284e-001	 1.358783225129520e+001
 1.302748766649843e+000	 9.713241740181526e-001	 1.354777984782271e+001
 1.292670308492750e+000	 9.846971481568890e-001	 1.349179387943142e+001
 1.282447441664671e+000	 9.979747288485642e-001	 1.341946455440422e+001
 1.272081515780578e+000	 1.011154596125574e+000	 1.333037035086802e+001
 1.261573929818444e+000	 1.024234455415901e+000	 1.322407842331483e+001
 1.381042593508102e+000	 9.028960930664768e-001	 1.353041134592647e+001
 1.371714769730612e+000	 9.170052292537990e-001	 1.356344464961291e+001
 1.362233174445026e+000	 9.310321038682108e-001	 1.357912433332653e+001
 1.352598866974193e+000	 9.449742351335393e-001	 1.357702887080336e+001
 1.342812959495014e+000	 9.588291588343341e-001	 1.355672555129587e+001
 1.332876616692172e+000	 9.725944297110625e-001	 1.351777072054113e+001
 1.322791055367983e+000	 9.862676228477311e-001	 1.345971007044083e+001
 1.312557544008519e+000	 9.998463350503296e-001	 1.338207897776690e+001
 1.302177402306237e+000	 1.013328186214498e+000	 1.328440289203816e+001
 1.291652000639415e+000	 1.026710820680821e+000	 1.316619777254708e+001
 1.280982759508765e+000	 1.039991908576176e+000	 1.302697057434305e+001
 1.401967481289294e+000	 9.165763369012980e-001	 1.350660652066810e+001
 1.392498326848202e+000	 9.308992478786984e-001	 1.353573186562825e+001
 1.382873071027735e+000	 9.451386508958403e-001	 1.354437617648797e+001
 1.373092789201091e+000	 9.592920265738814e-001	 1.353204501435249e+001
 1.363158610396335e+000	 9.733568733607738e-001	 1.349823445260395e+001
 1.353071716944887e+000	 9.873307089475988e-001	 1.344243139900608e+001
 1.342833344085465e+000	 1.001211071677212e+000	 1.336411396614642e+001
 1.332444779523624e+000	 1.014995521943572e+000	 1.326275189040851e+001
 1.321907362947162e+000	 1.028681643580132e+000	 1.313780699949804e+001
 1.311222485497666e+000	 1.042267045235669e+000	 1.298873372837652e+001
 1.300391589198583e+000	 1.055749361735952e+000	 1.281497968328111e+001
 1.422892369070492e+000	 9.302565807366219e-001	 1.348799226072622e+001
 1.413281883965611e+000	 9.447932665040006e-001	 1.351028279336283e+001
 1.403512967610108e+000	 9.592451979237721e-001	 1.350911624387107e+001
 1.393586711427527e+000	 9.736098180144253e-001	 1.348392701828398e+001
 1.383504261297098e+000	 9.878845878873157e-001	 1.343414160093279e+001
 1.373266817196979e+000	 1.002066988184137e+000	 1.335917895528375e+001
 1.362875632802286e+000	 1.016154520506594e+000	 1.325845097293390e+001
 1.352332015038063e+000	 1.030144708836616e+000	 1.313136297084398e+001
 1.341637323587446e+000	 1.044035100945469e+000	 1.297731423671503e+001
 1.330792970355330e+000	 1.057823269790119e+000	 1.279569862224201e+001
 1.319800418887901e+000	 1.071506814895229e+000	 1.258590518379940e+001
 1.443817256851695e+000	 9.439368245724484e-001	 1.347145424794346e+001
 1.434065441082840e+000	 9.586872851297054e-001	 1.348408890798567e+001
 1.424152864192146e+000	 9.733517449520064e-001	 1.347043853119470e+001
 1.414080633653502e+000	 9.879276094551719e-001	 1.342986806748086e+001
 1.403849912197303e+000	 1.002412302413959e+000	 1.336173598158935e+001
 1.393461917448448e+000	 1.016803267420677e+000	 1.326539473031849e+001
 1.382917921518449e+000	 1.031097969335878e+000	 1.314019128791399e+001
 1.372219250551837e+000	 1.045293895729462e+000	 1.298546771960976e+001
 1.361367284227090e+000	 1.059388558310506e+000	 1.280056180310859e+001
 1.350363455212408e+000	 1.073379494344171e+000	 1.258480769762038e+001
 1.339209248576718e+000	 1.087264268054008e+000	 1.233753665989340e+001
 1.464742144632903e+000	 9.576170684087775e-001	 1.345392517466880e+001
 1.454848998199890e+000	 9.725813037558125e-001	 1.345418185830055e+001
 1.444792760773848e+000	 9.874582919805433e-001	 1.342547063264722e+001
 1.434574555879015e+000	 1.002245400896121e+000	 1.336708863573899e+001
 1.424195563096952e+000	 1.016940016940706e+000	 1.327832782859529e+001
 1.413657017699293e+000	 1.031539546657219e+000	 1.315847554652312e+001
 1.402960210233953e+000	 1.046041418165064e+000	 1.300681509880530e+001
 1.392106486064946e+000	 1.060443082622109e+000	 1.282262641664468e+001
 1.381097244866093e+000	 1.074742015675245e+000	 1.260518674905176e+001
 1.369933940068900e+000	 1.088935718897823e+000	 1.235377140618022e+001
 1.358618078265032e+000	 1.103021721212288e+000	 1.206765454943196e+001
 1.164529781359323e+000	 9.454471896070471e-001	 1.321275179792769e+001
 1.154701044472046e+000	 9.574264973867980e-001	 1.316068757192326e+001
 1.144744261621738e+000	 9.693093291010766e-001	 1.309710389955527e+001
 1.134660857414088e+000	 9.810936441778934e-001	 1.302202127241016e+001
 1.124452299591371e+000	 9.927774302097261e-001	 1.293546593993101e+001
 1.114120098332699e+000	 1.004358704088371e+000	 1.283747003751628e+001
 1.103665805518577e+000	 1.015835513118795e+000	 1.272807171037321e+001
 1.093091013960509e+000	 1.027205936110678e+000	 1.260731523267249e+001
 1.082397356596456e+000	 1.038468084446386e+000	 1.247525112155335e+001
 1.071586505652984e+000	 1.049620103124114e+000	 1.233193624553124e+001
 1.060660171775000e+000	 1.060660171775000e+000	 1.217743392686809e+001
 1.183938611052150e+000	 9.612046427698152e-001	 1.319341098818116e+001
 1.173946061883105e+000	 9.733836056803343e-001	 1.310872043364573e+001
 1.163823332651751e+000	 9.854644845907676e-001	 1.301583422532509e+001
 1.153571871707206e+000	 9.974452049195919e-001	 1.291479926035343e+001
 1.143193171254116e+000	 1.009323720719159e+000	 1.280566472578947e+001
 1.132688766641246e+000	 1.021098015829463e+000	 1.268848220186136e+001
 1.122060235613774e+000	 1.032766105010550e+000	 1.256330576575350e+001
 1.111309197530064e+000	 1.044326035052265e+000	 1.243019209551716e+001
 1.100437312543711e+000	 1.055775885860012e+000	 1.228920057367779e+001
 1.089446280751720e+000	 1.067113771515287e+000	 1.214039339010718e+001
 1.078337841309750e+000	 1.078337841309750e+000	 1.198383564372364e+001
 1.203347440744476e+000	 9.769620959320846e-001	 1.320171877574026e+001
 1.193191079293752e+000	 9.893407139732818e-001	 1.308589839032118e+001
 1.182902403681423e+000	 1.001619640079800e+000	 1.296507524757872e+001
 1.172482886000033e+000	 1.013796765660581e+000	 1.283932147830726e+001
 1.161934042916601e+000	 1.025870011227853e+000	 1.270870811445263e+001
 1.151257434949542e+000	 1.037837327569805e+000	 1.257330516896004e+001
 1.140454665708711e+000	 1.049696696901566e+000	 1.243318172086136e+001
 1.129527381099330e+000	 1.061446133993143e+000	 1.228840600521747e+001
 1.118477268490625e+000	 1.073083687272977e+000	 1.213904550750930e+001
 1.107306055850047e+000	 1.084607439905870e+000	 1.198516706205862e+001
 1.096015510844000e+000	 1.096015510844000e+000	 1.182683695404341e+001
 1.222756270436300e+000	 9.927195490938553e-001	 1.323778810950821e+001
 1.212436096703989e+000	 1.005297822265641e+000	 1.309227674320275e+001
 1.201981474710754e+000	 1.017774795568173e+000	 1.294483063365102e+001
 1.191393900292569e+000	 1.030148326400861e+000	 1.279554600097413e+001
 1.180674914578825e+000	 1.042416301735808e+000	 1.264451465294819e+001
 1.169826103257588e+000	 1.054576639309397e+000	 1.249182404288571e+001
 1.158849095803388e+000	 1.066627288791843e+000	 1.233755733737123e+001
 1.147745564668305e+000	 1.078566232933310e+000	 1.218179349349398e+001
 1.136517224437199e+000	 1.090391488685283e+000	 1.202460734519363e+001
 1.125165830947963e+000	 1.102101108295863e+000	 1.186606969830769e+001
 1.113693180377750e+000	 1.113693180377750e+000	 1.170624743388518e+001
 1.242165100127623e+000	 1.008477002255128e+000	 1.330171741998957e+001
 1.231681114113813e+000	 1.021254930557411e+000	 1.312790021210337e+001
 1.221060545739743e+000	 1.033929951055887e+000	 1.295509703734704e+001
 1.210304914584815e+000	 1.046499887140433e+000	 1.278342708616785e+001
 1.199415786240788e+000	 1.058962592243023e+000	 1.261300189479960e+001
 1.188394771565383e+000	 1.071315951048240e+000	 1.244392538258592e+001
 1.177243525897804e+000	 1.083557880681380e+000	 1.227629390369125e+001
 1.165963748236990e+000	 1.095686331872768e+000	 1.211019631287061e+001
 1.154557180383433e+000	 1.107699290096928e+000	 1.194571404492995e+001
 1.143025606045469e+000	 1.119594776685267e+000	 1.178292120747295e+001
 1.131370849911000e+000	 1.131370849911000e+000	 1.162188468649647e+001
 1.261573929818444e+000	 1.024234455415901e+000	 1.322407842331483e+001
 1.250926131523227e+000	 1.037212038848592e+000	 1.317904992288078e+001
 1.240139616768392e+000	 1.050085106542942e+000	 1.299586463844428e+001
 1.229215928876769e+000	 1.062851447879295e+000	 1.280291546841994e+001
 1.218156657902490e+000	 1.075508882749499e+000	 1.261408647644968e+001
 1.206963439872927e+000	 1.088055262786333e+000	 1.242949708996874e+001
 1.195637955991960e+000	 1.100488472570177e+000	 1.224925596367623e+001
 1.184181931805385e+000	 1.112806430811516e+000	 1.207346103507474e+001
 1.172597136329328e+000	 1.125007091507914e+000	 1.190219959819741e+001
 1.160885381142566e+000	 1.137088445074080e+000	 1.173554839512358e+001
 1.149048519443750e+000	 1.149048519443750e+000	 1.157357372483856e+001
 1.280982759508765e+000	 1.039991908576176e+000	 1.302697057434305e+001
 1.270171148932229e+000	 1.053169147139185e+000	 1.296579244494698e+001
 1.259218687796699e+000	 1.066240262029339e+000	 1.291836583634942e+001
 1.248126943168433e+000	 1.079203008617448e+000	 1.285395862589548e+001
 1.236897529563932e+000	 1.092055173255236e+000	 1.264768418673644e+001
 1.225532108180222e+000	 1.104794574523678e+000	 1.244842830816372e+001
 1.214032386085856e+000	 1.117419064458234e+000	 1.225631107000291e+001
 1.202400115373490e+000	 1.129926529749554e+000	 1.207143868594562e+001
 1.190637092274882e+000	 1.142314892918240e+000	 1.189390357268854e+001
 1.178745156239252e+000	 1.154582113462304e+000	 1.172378444128307e+001
 1.166726188976000e+000	 1.166726188976000e+000	 1.156114641024445e+001
 1.300391589198583e+000	 1.055749361735952e+000	 1.281497968328111e+001
 1.289416166340821e+000	 1.069126255429189e+000	 1.273898201143873e+001
 1.278297758824665e+000	 1.082395417515077e+000	 1.268023932580191e+001
 1.267037957459805e+000	 1.095554569354892e+000	 1.263862852596080e+001
 1.255638401225113e+000	 1.108601463760233e+000	 1.261398131495755e+001
 1.244100776487265e+000	 1.121533886260272e+000	 1.250060932889294e+001
 1.232426816179491e+000	 1.134349656345551e+000	 1.229732955963078e+001
 1.220618298941304e+000	 1.147046628686883e+000	 1.210398441303836e+001
 1.208677048220096e+000	 1.159622694327905e+000	 1.192067069617383e+001
 1.196604931335528e+000	 1.172075781849937e+000	 1.174746842472373e+001
 1.184403858507750e+000	 1.184403858507750e+000	 1.158444094134627e+001
 1.319800418887901e+000	 1.071506814895229e+000	 1.258590518379940e+001
 1.308661183749000e+000	 1.085083363718604e+000	 1.249637146452004e+001
 1.297376829852291e+000	 1.098550573000156e+000	 1.242754733114557e+001
 1.285948971750886e+000	 1.111906130091627e+000	 1.237931982216269e+001
 1.274379272886033e+000	 1.125147754264491e+000	 1.235152598587896e+001
 1.262669444794058e+000	 1.138273197996117e+000	 1.234395310087955e+001
 1.250821246272866e+000	 1.151280248232129e+000	 1.235633900130556e+001
 1.238836482508829e+000	 1.164166727623501e+000	 1.217095718255632e+001
 1.226717004164970e+000	 1.176930495736912e+000	 1.198235047708453e+001
 1.214464706431394e+000	 1.189569450236980e+000	 1.180644488923528e+001
 1.202081528039000e+000	 1.202081528039000e+000	 1.164330138809775e+001
 1.339209248576718e+000	 1.087264268054008e+000	 1.233753665989340e+001
 1.327906201156769e+000	 1.101040472007430e+000	 1.223570646761950e+001
 1.316455900879575e+000	 1.114705728484575e+000	 1.215799700258582e+001
 1.304859986041677e+000	 1.128257690827653e+000	 1.210430437360157e+001
 1.293120144546693e+000	 1.141694044768010e+000	 1.207446989028890e+001
 1.281238113100601e+000	 1.155012509731212e+000	 1.206828027415369e+001
 1.269215676365981e+000	 1.168210840117968e+000	 1.208546798264015e+001
 1.257054666076063e+000	 1.181286826559410e+000	 1.212571164569219e+001
 1.244756960109504e+000	 1.194238297145257e+000	 1.207879685808754e+001
 1.232324481526851e+000	 1.207063118623434e+000	 1.190056344760874e+001
 1.219759197569750e+000	 1.219759197569750e+000	 1.173757726631574e+001
 1.358618078265032e+000	 1.103021721212288e+000	 1.206765454943196e+001
 1.347151218564126e+000	 1.116997580295668e+000	 1.195472601819707e+001
 1.335534971906517e+000	 1.130860883968336e+000	 1.186929107202884e+001
 1.323771000332177e+000	 1.144609251562969e+000	 1.181125383962838e+001
 1.311861016207092e+000	 1.158240335270790e+000	 1.178045882220841e+001
 1.299806781406892e+000	 1.171751821465558e+000	 1.177669109638716e+001
 1.287610106458835e+000	 1.185141432003066e+000	 1.179967663830941e+001
 1.275272849643007e+000	 1.198406925494608e+000	 1.184908276852928e+001
 1.262796916053697e+000	 1.211546098552944e+000	 1.192451871684887e+001
 1.250184256621897e+000	 1.224556787009297e+000	 1.202553630596588e+001
 1.237436867100000e+000	 1.237436867100000e+000	 1.186712314869020e+001
 1.060660171775000e+000	 1.060660171775000e+000	 1.217743392686809e+001
 1.049620103124114e+000	 1.071586505652983e+000	 1.205883008007877e+001
 1.038468084446386e+000	 1.082397356596456e+000	 1.192581846506818e+001
 1.027205936110678e+000	 1.093091013960508e+000	 1.177842441158517e+001
 1.015835513118795e+000	 1.103665805518576e+000	 1.161668372302536e+001
 1.004358704088372e+000	 1.114120098332699e+000	 1.144064279353974e+001
 9.927774302097264e-001	 1.124452299591371e+000	 1.125035871154690e+001
 9.810936441778938e-001	 1.134660857414088e+000	 1.104589934923508e+001
 9.693093291010769e-001	 1.144744261621738e+000	 1.082734343766656e+001
 9.574264973867984e-001	 1.154701044472046e+000	 1.059478062713137e+001
 9.454471896070471e-001	 1.164529781359323e+000	 1.034831153243020e+001
 1.078337841309750e+000	 1.078337841309750e+000	 1.198383564372364e+001
 1.067113771515287e+000	 1.089446280751720e+000	 1.186581887814381e+001
 1.055775885860012e+000	 1.100437312543710e+000	 1.173783230215733e+001
 1.044326035052265e+000	 1.111309197530064e+000	 1.159995253748278e+001
 1.032766105010551e+000	 1.122060235613774e+000	 1.145226217397820e+001
 1.021098015829463e+000	 1.132688766641246e+000	 1.129484984754236e+001
 1.009323720719160e+000	 1.143193171254116e+000	 1.112781031058104e+001
 9.974452049195923e-001	 1.153571871707205e+000	 1.095124449465632e+001
 9.854644845907680e-001	 1.163823332651751e+000	 1.076525956495267e+001
 9.733836056803347e-001	 1.173946061883104e+000	 1.056996896621526e+001
 9.612046427698152e-001	 1.183938611052150e+000	 1.036549245983455e+001
 1.096015510844000e+000	 1.096015510844000e+000	 1.182683695404341e+001
 1.084607439905871e+000	 1.107306055850046e+000	 1.171263017906759e+001
 1.073083687272977e+000	 1.118477268490624e+000	 1.159272061931121e+001
 1.061446133993143e+000	 1.129527381099329e+000	 1.146723440068378e+001
 1.049696696901567e+000	 1.140454665708711e+000	 1.133629922341562e+001
 1.037837327569805e+000	 1.151257434949542e+000	 1.120004440248056e+001
 1.025870011227854e+000	 1.161934042916601e+000	 1.105860090660527e+001
 1.013796765660582e+000	 1.172482886000033e+000	 1.091210139551381e+001
 1.001619640079800e+000	 1.182902403681422e+000	 1.076068025505948e+001
 9.893407139732823e-001	 1.193191079293752e+000	 1.060447362990474e+001
 9.769620959320847e-001	 1.203347440744476e+000	 1.044361945341600e+001
 1.113693180377750e+000	 1.113693180377750e+000	 1.170624743388518e+001
 1.102101108295864e+000	 1.125165830947962e+000	 1.159893023150080e+001
 1.090391488685283e+000	 1.136517224437199e+000	 1.149001397574175e+001
 1.078566232933311e+000	 1.147745564668305e+000	 1.137967256669566e+001
 1.066627288791843e+000	 1.158849095803387e+000	 1.126807719165859e+001
 1.054576639309398e+000	 1.169826103257588e+000	 1.115539632976991e+001
 1.042416301735808e+000	 1.180674914578824e+000	 1.104179576112210e+001
 1.030148326400862e+000	 1.191393900292569e+000	 1.092743858002291e+001
 1.017774795568173e+000	 1.201981474710753e+000	 1.081248521207662e+001
 1.005297822265641e+000	 1.212436096703988e+000	 1.069709343474942e+001
 9.927195490938553e-001	 1.222756270436300e+000	 1.058141840107625e+001
 1.131370849911000e+000	 1.131370849911000e+000	 1.162188468649647e+001
 1.119594776685267e+000	 1.143025606045469e+000	 1.152440264801327e+001
 1.107699290096929e+000	 1.154557180383433e+000	 1.142926915546564e+001
 1.095686331872769e+000	 1.165963748236990e+000	 1.133670420671263e+001
 1.083557880681380e+000	 1.177243525897803e+000	 1.124692090174432e+001
 1.071315951048240e+000	 1.188394771565382e+000	 1.116012541318437e+001
 1.058962592243023e+000	 1.199415786240788e+000	 1.107651696702931e+001
 1.046499887140433e+000	 1.210304914584814e+000	 1.099628783332602e+001
 1.033929951055888e+000	 1.221060545739743e+000	 1.091962332646998e+001
 1.021254930557411e+000	 1.231681114113813e+000	 1.084670181478703e+001
 1.008477002255128e+000	 1.242165100127623e+000	 1.077769473904831e+001
 1.149048519443750e+000	 1.149048519443750e+000	 1.157357372483856e+001
 1.137088445074080e+000	 1.160885381142565e+000	 1.148874706940776e+001
 1.125007091507914e+000	 1.172597136329327e+000	 1.141006715001137e+001
 1.112806430811517e+000	 1.184181931805385e+000	 1.133779843563964e+001
 1.100488472570177e+000	 1.195637955991959e+000	 1.127219440998657e+001
 1.088055262786334e+000	 1.206963439872927e+000	 1.121349750944446e+001
 1.075508882749499e+000	 1.218156657902490e+000	 1.116193907697384e+001
 1.062851447879295e+000	 1.229215928876768e+000	 1.111773933157502e+001
 1.050085106542943e+000	 1.240139616768392e+000	 1.108110735305247e+001
 1.037212038848592e+000	 1.250926131523227e+000	 1.103312288657970e+001
 1.024234455415901e+000	 1.261573929818444e+000	 1.080092954870012e+001
 1.166726188976000e+000	 1.166726188976000e+000	 1.156114641024445e+001
 1.154582113462304e+000	 1.178745156239252e+000	 1.149167795046006e+001
 1.142314892918240e+000	 1.190637092274882e+000	 1.143201132451719e+001
 1.129926529749554e+000	 1.202400115373489e+000	 1.138245389211440e+001
 1.117419064458234e+000	 1.214032386085855e+000	 1.134329803375800e+001
 1.104794574523678e+000	 1.225532108180221e+000	 1.131482105784218e+001
 1.092055173255236e+000	 1.236897529563932e+000	 1.129728512912865e+001
 1.079203008617448e+000	 1.248126943168432e+000	 1.129093721836971e+001
 1.066240262029339e+000	 1.259218687796699e+000	 1.108660914782618e+001
 1.053169147139185e+000	 1.270171148932229e+000	 1.086921329004070e+001
 1.039991908576176e+000	 1.280982759508765e+000	 1.068328239392250e+001
 1.184403858507750e+000	 1.184403858507750e+000	 1.158444094134627e+001
 1.172075781849937e+000	 1.196604931335528e+000	 1.153292345439856e+001
 1.159622694327906e+000	 1.208677048220096e+000	 1.149472574805840e+001
 1.147046628686883e+000	 1.220618298941304e+000	 1.147019653524374e+001
 1.134349656345552e+000	 1.232426816179490e+000	 1.145966564544060e+001
 1.121533886260272e+000	 1.244100776487265e+000	 1.146344390243742e+001
 1.108601463760234e+000	 1.255638401225113e+000	 1.133800180200720e+001
 1.095554569354892e+000	 1.267037957459804e+000	 1.109230323748342e+001
 1.082395417515077e+000	 1.278297758824665e+000	 1.088158624121842e+001
 1.069126255429189e+000	 1.289416166340820e+000	 1.070660795806942e+001
 1.055749361735952e+000	 1.300391589198583e+000	 1.056807201403210e+001
 1.202081528039000e+000	 1.202081528039000e+000	 1.164330138809775e+001
 1.189569450236981e+000	 1.214464706431394e+000	 1.161222444492972e+001
 1.176930495736912e+000	 1.226717004164969e+000	 1.159785367129928e+001
 1.164166727623502e+000	 1.238836482508828e+000	 1.160057763574557e+001
 1.151280248232130e+000	 1.250821246272865e+000	 1.159754145450269e+001
 1.138273197996117e+000	 1.262669444794058e+000	 1.130883998625552e+001
 1.125147754264492e+000	 1.274379272886033e+000	 1.105814869213359e+001
 1.111906130091627e+000	 1.285948971750886e+000	 1.084638363746374e+001
 1.098550573000156e+000	 1.297376829852290e+000	 1.067440353441876e+001
 1.085083363718604e+000	 1.308661183749000e+000	 1.054300876110158e+001
 1.071506814895229e+000	 1.319800418887901e+000	 1.045294048444888e+001
 1.219759197569750e+000	 1.219759197569750e+000	 1.173757726631574e+001
 1.207063118623434e+000	 1.232324481526850e+000	 1.172933356591386e+001
 1.194238297145258e+000	 1.244756960109503e+000	 1.174105613652283e+001
 1.181286826559410e+000	 1.257054666076062e+000	 1.155876804089692e+001
 1.168210840117968e+000	 1.269215676365980e+000	 1.125440476437170e+001
 1.155012509731213e+000	 1.281238113100600e+000	 1.099163271643393e+001
 1.141694044768011e+000	 1.293120144546692e+000	 1.077148413668949e+001
 1.128257690827653e+000	 1.304859986041676e+000	 1.059492948737706e+001
 1.114705728484576e+000	 1.316455900879574e+000	 1.046287630988338e+001
 1.101040472007431e+000	 1.327906201156768e+000	 1.037616819209983e+001
 1.087264268054008e+000	 1.339209248576718e+000	 1.033558384833784e+001
 1.237436867100000e+000	 1.237436867100000e+000	 1.186712314869020e+001
 1.224556787009298e+000	 1.250184256621897e+000	 1.187791116822155e+001
 1.211546098552944e+000	 1.262796916053697e+000	 1.150778276243299e+001
 1.198406925494609e+000	 1.275272849643007e+000	 1.118133769866483e+001
 1.185141432003066e+000	 1.287610106458834e+000	 1.089979848468666e+001
 1.171751821465559e+000	 1.299806781406892e+000	 1.066432312872529e+001
 1.158240335270790e+000	 1.311861016207091e+000	 1.047600370278867e+001
 1.144609251562970e+000	 1.323771000332176e+000	 1.033586502098944e+001
 1.130860883968337e+000	 1.335534971906517e+000	 1.024486343527409e+001
 1.116997580295668e+000	 1.347151218564126e+000	 1.020388575065950e+001
 1.103021721212288e+000	 1.358618078265032e+000	 1.021374826177002e+001
 9.454471896070471e-001	 1.164529781359323e+000	 1.034831153243020e+001
 9.333734733433584e-001	 1.174229091477602e+000	 1.015797347779192e+001
 9.212074420144205e-001	 1.183797638447231e+000	 9.971674650105600e+000
 9.089512136867101e-001	 1.193234130903926e+000	 9.789719741216311e+000
 8.966069298687867e-001	 1.202537323049252e+000	 9.612406652219963e+000
 8.841767542918881e-001	 1.211706015162792e+000	 9.440026366404796e+000
 8.716628716778435e-001	 1.220739054075391e+000	 9.272862830262842e+000
 8.590674864957391e-001	 1.229635333603122e+000	 9.111192842493736e+000
 8.463928217087883e-001	 1.238393794941727e+000	 8.955285950912897e+000
 8.336411175128573e-001	 1.247013427021299e+000	 8.805404357168733e+000
 8.208146300681053e-001	 1.255493266821059e+000	 8.629039487235199e+000
 9.612046427698152e-001	 1.183938611052150e+000	 1.036549245983455e+001
 9.489296979005989e-001	 1.193799576339370e+000	 1.022660439857673e+001
 9.365608993818463e-001	 1.203527599092000e+000	 1.008604450248871e+001
 9.241004005811428e-001	 1.213121366423021e+000	 9.944066473728622e+000
 9.115503786988564e-001	 1.222579611770688e+000	 9.800922747707894e+000
 8.989130335284120e-001	 1.231901115419247e+000	 9.656864394185000e+000
 8.861905862036696e-001	 1.241084704980054e+000	 9.512141018853908e+000
 8.733852779348668e-001	 1.250129255832787e+000	 9.365768014630257e+000
 8.604993687346023e-001	 1.259033691526449e+000	 9.143010302748861e+000
 8.475351361353412e-001	 1.267796984139967e+000	 8.936467722911669e+000
 8.344948738999105e-001	 1.276418154602220e+000	 8.746470048471352e+000
 9.769620959320847e-001	 1.203347440744476e+000	 1.044361945341600e+001
 9.644859224574407e-001	 1.213370061200551e+000	 1.035327897947424e+001
 9.519143567489734e-001	 1.223257559736129e+000	 1.025571091873167e+001
 9.392495874753768e-001	 1.233008601941451e+000	 1.015111867117910e+001
 9.264938275288280e-001	 1.242621900491466e+000	 1.003970979508448e+001
 9.136493127649386e-001	 1.252096215675078e+000	 9.895923654822429e+000
 9.007183007295984e-001	 1.261430355884161e+000	 9.666013079904602e+000
 8.877030693741965e-001	 1.270623178061991e+000	 9.446926059833157e+000
 8.746059157607192e-001	 1.279673588110835e+000	 9.239036452642049e+000
 8.614291547582276e-001	 1.288580541258456e+000	 9.042692314512918e+000
 8.481751177322187e-001	 1.297343042383386e+000	 8.858215725261879e+000
 9.927195490938553e-001	 1.222756270436300e+000	 1.058141840107625e+001
 9.800421470138834e-001	 1.232940546061146e+000	 1.053686526408719e+001
 9.672678141158025e-001	 1.242987520379617e+000	 1.047967594742014e+001
 9.543987743694129e-001	 1.252895837459215e+000	 1.036636055363527e+001
 9.414372763587012e-001	 1.262664189211584e+000	 1.014713631352219e+001
 9.283855920014668e-001	 1.272291315930287e+000	 9.933506593506021e+000
 9.152460152556292e-001	 1.281776006787710e+000	 9.725873688324944e+000
 9.020208608137288e-001	 1.291117100290733e+000	 9.524618335048890e+000
 8.887124627871383e-001	 1.300313484694886e+000	 9.330099429045561e+000
 8.753231733815166e-001	 1.309364098376765e+000	 9.142653789024822e+000
 8.618553615650291e-001	 1.318267930164557e+000	 8.962595971047717e+000
 1.008477002255128e+000	 1.242165100127623e+000	 1.077769473904831e+001
 9.955983715699281e-001	 1.252511030921155e+000	 1.073146277624040e+001
 9.826212714823328e-001	 1.262717481022464e+000	 1.053962790296218e+001
 9.695479612632505e-001	 1.272783072976315e+000	 1.034835731678519e+001
 9.563807251884761e-001	 1.282706477931042e+000	 1.015806652921787e+001
 9.431218712379967e-001	 1.292486416184872e+000	 9.969153791537485e+000
 9.297737297817622e-001	 1.302121657690702e+000	 9.781999717398177e+000
 9.163386522534633e-001	 1.311611022519015e+000	 9.596966950411970e+000
 9.028190098138601e-001	 1.320953381278601e+000	 9.414399876891272e+000
 8.892171920052082e-001	 1.330147655494893e+000	 9.234624383805855e+000
 8.755356053983423e-001	 1.339192817945733e+000	 9.057947661874653e+000
 1.024234455415901e+000	 1.261573929818444e+000	 1.080092954870012e+001
 1.011154596125574e+000	 1.272081515780578e+000	 1.064776264465256e+001
 9.979747288485645e-001	 1.282447441664671e+000	 1.049077673572199e+001
 9.846971481568897e-001	 1.292670308492750e+000	 1.033037290418817e+001
 9.713241740181531e-001	 1.302748766649843e+000	 1.016693882420058e+001
 9.578581504745288e-001	 1.312681516438834e+000	 1.000084834777957e+001
 9.443014443079975e-001	 1.322467308593137e+000	 9.832461131742189e+000
 9.306564436934005e-001	 1.332104944746835e+000	 9.662122305893641e+000
 9.169255568408845e-001	 1.341593277861981e+000	 9.490162182693878e+000
 9.031112106293027e-001	 1.350931212612843e+000	 9.316896008479358e+000
 8.892158492321584e-001	 1.360117705726915e+000	 9.142623756192659e+000
 1.039991908576176e+000	 1.280982759508765e+000	 1.068328239392250e+001
 1.026710820680821e+000	 1.291652000639415e+000	 1.056640971360657e+001
 1.013328186214498e+000	 1.302177402306237e+000	 1.044194022096750e+001
 9.998463350503301e-001	 1.312557544008519e+000	 1.031024485290782e+001
 9.862676228477316e-001	 1.322791055367983e+000	 1.017168442793697e+001
 9.725944297110630e-001	 1.332876616692172e+000	 1.002660923975075e+001
 9.588291588343346e-001	 1.342812959495014e+000	 9.875358688218659e+000
 9.449742351335400e-001	 1.352598866974193e+000	 9.718260948132414e+000
 9.310321038682112e-001	 1.362233174445025e+000	 9.555632675945605e+000
 9.170052292537995e-001	 1.371714769730612e+000	 9.387778754610197e+000
 9.028960930664768e-001	 1.381042593508102e+000	 9.214992076492155e+000
 1.055749361735952e+000	 1.300391589198583e+000	 1.056807201403210e+001
 1.042267045235670e+000	 1.311222485497665e+000	 1.048509249630346e+001
 1.028681643580133e+000	 1.321907362947162e+000	 1.039090604241081e+001
 1.014995521943573e+000	 1.332444779523623e+000	 1.028585453340492e+001
 1.001211071677212e+000	 1.342833344085464e+000	 1.017027288456626e+001
 9.873307089475990e-001	 1.353071716944887e+000	 1.004448864611391e+001
 9.733568733607741e-001	 1.363158610396334e+000	 9.908821638004710e+000
 9.592920265738816e-001	 1.373092789201090e+000	 9.763583619190358e+000
 9.451386508958405e-001	 1.382873071027734e+000	 9.609077991580902e+000
 9.308992478786990e-001	 1.392498326848201e+000	 9.445599538843583e+000
 9.165763369012980e-001	 1.401967481289294e+000	 9.273434200047225e+000
 1.071506814895229e+000	 1.319800418887901e+000	 1.045294048444888e+001
 1.057823269790120e+000	 1.330792970355330e+000	 1.040155146158103e+001
 1.044035100945469e+000	 1.341637323587446e+000	 1.033550798081804e+001
 1.030144708836617e+000	 1.352332015038063e+000	 1.025512392649323e+001
 1.016154520506595e+000	 1.362875632802286e+000	 1.016070923564486e+001
 1.002066988184138e+000	 1.373266817196979e+000	 1.005256950541558e+001
 9.878845878873158e-001	 1.383504261297097e+000	 9.931005631422261e+000
 9.736098180144259e-001	 1.393586711427526e+000	 9.796313477477641e+000
 9.592451979237725e-001	 1.403512967610107e+000	 9.648783576929290e+000
 9.447932665040012e-001	 1.413281883965611e+000	 9.488700865766969e+000
 9.302565807366219e-001	 1.422892369070492e+000	 9.316344447534217e+000
 1.087264268054008e+000	 1.339209248576718e+000	 1.033558384833784e+001
 1.073379494344171e+000	 1.350363455212408e+000	 1.031357526901256e+001
 1.059388558310507e+000	 1.361367284227090e+000	 1.027362257364310e+001
 1.045293895729462e+000	 1.372219250551837e+000	 1.021601268056066e+001
 1.031097969335878e+000	 1.382917921518449e+000	 1.014103144786974e+001
 1.016803267420678e+000	 1.393461917448448e+000	 1.004896328710898e+001
 1.002412302413960e+000	 1.403849912197303e+000	 9.940090804957027e+000
 9.879276094551726e-001	 1.414080633653502e+000	 9.814694473379698e+000
 9.733517449520069e-001	 1.424152864192145e+000	 9.673052328497965e+000
 9.586872851297061e-001	 1.434065441082840e+000	 9.515439698348612e+000
 9.439368245724484e-001	 1.443817256851695e+000	 9.342128959597151e+000
 1.103021721212288e+000	 1.358618078265032e+000	 1.021374826177002e+001
 1.088935718897824e+000	 1.369933940068900e+000	 1.021899732671159e+001
 1.074742015675246e+000	 1.381097244866093e+000	 1.020316606097829e+001
 1.060443082622109e+000	 1.392106486064946e+000	 1.016651542102788e+001
 1.046041418165064e+000	 1.402960210233953e+000	 1.010930806128284e+001
 1.031539546657220e+000	 1.413657017699293e+000	 1.003180795363192e+001
 1.016940016940706e+000	 1.424195563096951e+000	 9.934280032246287e+000
 1.002245400896121e+000	 1.434574555879014e+000	 9.816989864115973e+000
 9.874582919805436e-001	 1.444792760773847e+000	 9.680203345602367e+000
 9.725813037558133e-001	 1.454848998199890e+000	 9.524186425196476e+000
 9.576170684087774e-001	 1.464742144632903e+000	 9.349204852564100e+000
 8.208146300681053e-001	 1.255493266821059e+000	 8.629039487235199e+000
 8.079156302257311e-001	 1.263832399644536e+000	 8.455348905603618e+000
 7.949464022496643e-001	 1.272029959353938e+000	 8.285116591017474e+000
 7.819092425357329e-001	 1.280085128564544e+000	 8.118576607520645e+000
 7.688064583308102e-001	 1.287997138799943e+000	 7.955948367509746e+000
 7.556403664517630e-001	 1.295765270607128e+000	 7.797436608070326e+000
 7.424132920061470e-001	 1.303388853632028e+000	 7.643231400587569e+000
 7.291275671160530e-001	 1.310867266655738e+000	 7.493508192958093e+000
 7.157855296464771e-001	 1.318199937591758e+000	 7.348427883648100e+000
 7.023895219395795e-001	 1.325386343444616e+000	 7.208136926760632e+000
 6.889418895561570e-001	 1.332426010230286e+000	 7.072767467201297e+000
 8.344948738999105e-001	 1.276418154602220e+000	 8.746470048471352e+000
 8.213808907269712e-001	 1.284896272971888e+000	 8.572704391229266e+000
 8.081955089514598e-001	 1.293230458675645e+000	 8.403439911391507e+000
 7.949410632424677e-001	 1.301419880705692e+000	 8.238879733489293e+000
 7.816198993009832e-001	 1.309463757777676e+000	 8.079211080360173e+000
 7.682343725574871e-001	 1.317361358447709e+000	 7.924605297168221e+000
 7.547868468713279e-001	 1.325112001189150e+000	 7.775217910559620e+000
 7.412796932332975e-001	 1.332715054429446e+000	 7.631188722163214e+000
 7.277152884728088e-001	 1.340169936547322e+000	 7.492641935560610e+000
 7.140960139710576e-001	 1.347476115830715e+000	 7.359686315765543e+000
 7.004242543815207e-001	 1.354633110395864e+000	 7.232415380176116e+000
 8.481751177322187e-001	 1.297343042383386e+000	 8.858215725261879e+000
 8.348461512288039e-001	 1.305960146299434e+000	 8.682935262876073e+000
 8.214446156539169e-001	 1.314430957997715e+000	 8.513213079378703e+000
 8.079728839499137e-001	 1.322754632847353e+000	 8.349222043965405e+000
 7.944333402718966e-001	 1.330930376756053e+000	 8.191117837430829e+000
 7.808283786639609e-001	 1.338957446289043e+000	 8.039039023736713e+000
 7.671604017372472e-001	 1.346835148747114e+000	 7.893107158648502e+000
 7.534318193512495e-001	 1.354562842204065e+000	 7.753426934532579e+000
 7.396450472997973e-001	 1.362139935503848e+000	 7.620086360316046e+000
 7.258025060031219e-001	 1.369565888217805e+000	 7.493156975525204e+000
 7.119066192073804e-001	 1.376840210562442e+000	 7.372694097237387e+000
 8.618553615650291e-001	 1.318267930164557e+000	 8.962595971047717e+000
 8.483114117312290e-001	 1.327024019627176e+000	 8.784444593267068e+000
 8.346937223570364e-001	 1.335631457320152e+000	 8.612924389403913e+000
 8.210047046580712e-001	 1.344089384989528e+000	 8.448178612795987e+000
 8.072467812435505e-001	 1.352396995735073e+000	 8.290332003883549e+000
 7.934223847711839e-001	 1.360553534131129e+000	 8.139490909239934e+000
 7.795339566039050e-001	 1.368558296305920e+000	 7.995743439677386e+000
 7.655839454699093e-001	 1.376410629979596e+000	 7.859159666402447e+000
 7.515748061274427e-001	 1.384109934461334e+000	 7.729791854098195e+000
 7.375089980357725e-001	 1.391655660605884e+000	 7.607674729723608e+000
 7.233889840337364e-001	 1.399047310730021e+000	 7.492825785735136e+000
 8.755356053983423e-001	 1.339192817945733e+000	 9.057947661874653e+000
 8.617766722342464e-001	 1.348087892955113e+000	 8.875648097592812e+000
 8.479428290608178e-001	 1.356831956642953e+000	 8.701069949878074e+000
 8.340365253669401e-001	 1.365424137132218e+000	 8.534327453432125e+000
 8.200602222159450e-001	 1.373863614714737e+000	 8.375514966660898e+000
 8.060163908791564e-001	 1.382149621973968e+000	 8.224707138130338e+000
 7.919075114713015e-001	 1.390281443865568e+000	 8.081959114180549e+000
 7.777360715892765e-001	 1.398258417756038e+000	 7.947306786551359e+000
 7.635045649557446e-001	 1.406079933419779e+000	 7.820767078772002e+000
 7.492154900690093e-001	 1.413745432994954e+000	 7.702338269976944e+000
 7.348713488605884e-001	 1.421254410898599e+000	 7.592000354721058e+000
 8.892158492321584e-001	 1.360117705726915e+000	 9.142623756192659e+000
 8.752419327378564e-001	 1.369151766283244e+000	 8.954973161013740e+000
 8.611919357652612e-001	 1.378032455966118e+000	 8.776153082122189e+000
 8.470683460765203e-001	 1.386758889275422e+000	 8.606249292805442e+000
 8.328736631890796e-001	 1.395330233695044e+000	 8.445326286656441e+000
 8.186103969878785e-001	 1.403745709817559e+000	 8.293427491464909e+000
 8.042810663394364e-001	 1.412004591426058e+000	 8.150575526425929e+000
 7.898881977093513e-001	 1.420106205533392e+000	 8.016772501397158e+000
 7.754343237847035e-001	 1.428049932379187e+000	 7.892000356831496e+000
 7.609219821028326e-001	 1.435835205385014e+000	 7.776221242915820e+000
 7.463537136879365e-001	 1.443461511068178e+000	 7.669377936356242e+000
 9.028960930664768e-001	 1.381042593508102e+000	 9.214992076492155e+000
 8.887071932420589e-001	 1.390215639611572e+000	 9.020857954571476e+000
 8.744410424703669e-001	 1.399232955289649e+000	 8.836683773934979e+000
 8.601001667868117e-001	 1.408093641419141e+000	 8.662527365761438e+000
 8.456871041629551e-001	 1.416796852675995e+000	 8.498423837052160e+000
 8.312044030973503e-001	 1.425341797661905e+000	 8.344385832010975e+000
 8.166546212083098e-001	 1.433727738987390e+000	 8.200403838980382e+000
 8.020403238301337e-001	 1.441953993311656e+000	 8.066446541539049e+000
 7.873640826143192e-001	 1.450019931339554e+000	 7.942461212260890e+000
 7.726284741372420e-001	 1.457924977776063e+000	 7.828374147532575e+000
 7.578360785157806e-001	 1.465668611238756e+000	 7.724091141735827e+000
 9.165763369012980e-001	 1.401967481289294e+000	 9.273434200047225e+000
 9.021724537468538e-001	 1.411279512940094e+000	 9.071750630272511e+000
 8.876901491761343e-001	 1.420433454613544e+000	 8.881178182094272e+000
 8.731319874978147e-001	 1.429428393563373e+000	 8.701747227901844e+000
 8.585005451375708e-001	 1.438263471657590e+000	 8.533463929266803e+000
 8.437984092075715e-001	 1.446937885507002e+000	 8.376310545909460e+000
 8.290281760779218e-001	 1.455450886549564e+000	 8.230245792538300e+000
 8.141924499516240e-001	 1.463801781090832e+000	 8.095205242042928e+000
 7.992938414445915e-001	 1.471989930300882e+000	 7.971101773408560e+000
 7.843349661722376e-001	 1.480014750168104e+000	 7.857826062617001e+000
 7.693184433441208e-001	 1.487875711410334e+000	 7.755247114700162e+000
 9.302565807366219e-001	 1.422892369070492e+000	 9.316344447534217e+000
 9.156377142522415e-001	 1.432343386268811e+000	 9.106108587193514e+000
 9.009392558825640e-001	 1.441633953937804e+000	 8.908158178755718e+000
 8.861638082095286e-001	 1.450763145708120e+000	 8.722496584940544e+000
 8.713139861129269e-001	 1.459730090639827e+000	 8.549101427791561e+000
 8.563924153185423e-001	 1.468533973352852e+000	 8.387924945367926e+000
 8.414017309482723e-001	 1.477174034112580e+000	 8.238894398706311e+000
 8.263445760738215e-001	 1.485649568870919e+000	 8.101912527406629e+000
 8.112236002755208e-001	 1.493959929263171e+000	 7.976858052077815e+000
 7.960414582078198e-001	 1.502104522561134e+000	 7.863586221771019e+000
 7.808008081729572e-001	 1.510082811582913e+000	 7.761929404426856e+000
 9.439368245724484e-001	 1.443817256851695e+000	 9.342128959597151e+000
 9.291029747582215e-001	 1.453407259597724e+000	 9.122397801403938e+000
 9.141883625896556e-001	 1.462834453262429e+000	 8.916150937295022e+000
 8.991956289219543e-001	 1.472097897853381e+000	 8.723365136898412e+000
 8.841274270890238e-001	 1.481196709622709e+000	 8.543989855039717e+000
 8.689864214302624e-001	 1.490130061199455e+000	 8.377947636337028e+000
 8.537752858193614e-001	 1.498897181676438e+000	 8.225134572545693e+000
 8.384967021967265e-001	 1.507497356651917e+000	 8.085420810876801e+000
 8.231533591071070e-001	 1.515929928226420e+000	 7.958651111392564e+000
 8.077479502439880e-001	 1.524194294955155e+000	 7.844645451465888e+000
 7.922831730022893e-001	 1.532289911756491e+000	 7.743199675188923e+000
 9.576170684087774e-001	 1.464742144632903e+000	 9.349204852564100e+000
 9.425682352647938e-001	 1.474471132926832e+000	 9.119092213323505e+000
 9.274374692974090e-001	 1.484034952587418e+000	 8.903688553649207e+000
 9.122274496350911e-001	 1.493432649999157e+000	 8.702944435652825e+000
 8.969408680658608e-001	 1.502663328606234e+000	 8.516781487209423e+000
 8.815804275427319e-001	 1.511726149046811e+000	 8.345092854671666e+000
 8.661488406911886e-001	 1.520620329241137e+000	 8.187743710897109e+000
 8.506488283203394e-001	 1.529345144433827e+000	 8.044571816680723e+000
 8.350831179393496e-001	 1.537899927190630e+000	 7.915388133559810e+000
 8.194544422807425e-001	 1.546284067350165e+000	 7.799977485837175e+000
 8.037655378321177e-001	 1.554497011931069e+000	 7.698099269562236e+000
 6.889418895561570e-001	 1.332426010230286e+000	 7.072767467201297e+000
 6.754449800253557e-001	 1.339318512858777e+000	 6.849319008275109e+000
 6.619011416047155e-001	 1.346063474979750e+000	 6.619856492297071e+000
 6.483127220513681e-001	 1.352660568791450e+000	 6.384549132713802e+000
 6.346820674049272e-001	 1.359109514813409e+000	 6.143562796640144e+000
 6.210115207841035e-001	 1.365410081623910e+000	 5.943893058567560e+000
 6.073034211979440e-001	 1.371562085562787e+000	 5.854516373012213e+000
 5.935601023727936e-001	 1.377565390400310e+000	 5.762278637286350e+000
 5.797838915960681e-001	 1.383419906972935e+000	 5.666766142817947e+000
 5.659771085778672e-001	 1.389125592786738e+000	 5.567591620405117e+000
 5.521420643314210e-001	 1.394682451589383e+000	 5.464394796668873e+000
 7.004242543815207e-001	 1.354633110395864e+000	 7.232415380176116e+000
 6.867023963587897e-001	 1.361640488067934e+000	 7.018042332129848e+000
 6.729328272979888e-001	 1.368497866224071e+000	 6.798452170679421e+000
 6.591179340855368e-001	 1.375204911599155e+000	 6.573786374879017e+000
 6.452601018617067e-001	 1.381761340054712e+000	 6.344182246595116e+000
 6.313617127971893e-001	 1.388166916311995e+000	 6.109773027659679e+000
 6.174251448845152e-001	 1.394421453649835e+000	 5.959769002797281e+000
 6.034527707454689e-001	 1.400524813568007e+000	 5.881390477791940e+000
 5.894469564555904e-001	 1.406476905416907e+000	 5.799716068817784e+000
 5.754100603868146e-001	 1.412277685994379e+000	 5.714298568698757e+000
 5.613444320692591e-001	 1.417927159110548e+000	 5.624719276567777e+000
 7.119066192073804e-001	 1.376840210562442e+000	 7.372694097237387e+000
 6.979598126926294e-001	 1.383962463278092e+000	 7.166857404411658e+000
 6.839645129915994e-001	 1.390932257469392e+000	 6.956615212556407e+000
 6.699231461199932e-001	 1.397749254407861e+000	 6.742081274112322e+000
 6.558381363187456e-001	 1.404413165297015e+000	 6.523364304082360e+000
 6.417119048105255e-001	 1.410923751001080e+000	 6.300568145565761e+000
 6.275468685713481e-001	 1.417280821737884e+000	 6.073791949970095e+000
 6.133454391184371e-001	 1.423484236736704e+000	 5.979336862023880e+000
 5.991100213154569e-001	 1.429533903861879e+000	 5.911258704223900e+000
 5.848430121961767e-001	 1.435429779203020e+000	 5.839320256942450e+000
 5.705467998076025e-001	 1.441171866632713e+000	 5.763043293991413e+000
 7.233889840337364e-001	 1.399047310730021e+000	 7.492825785735136e+000
 7.092172290268761e-001	 1.406284438489250e+000	 7.295049024613164e+000
 6.949961986855466e-001	 1.413366648715713e+000	 7.093694384902327e+000
 6.807283581547381e-001	 1.420293597217566e+000	 6.888847861513224e+000
 6.664161707760437e-001	 1.427064990540319e+000	 6.680589521437381e+000
 6.520620968241124e-001	 1.433680585691165e+000	 6.468993718438932e+000
 6.376685922584429e-001	 1.440140189826932e+000	 6.254129323420473e+000
 6.232381074916989e-001	 1.446443659906401e+000	 6.056409543034210e+000
 6.087730861756673e-001	 1.452590902307851e+000	 6.001771126555780e+000
 5.942759640059538e-001	 1.458581872412662e+000	 5.943118795941763e+000
 5.797491675464509e-001	 1.464416574155878e+000	 5.879913641667484e+000
 7.348713488605884e-001	 1.421254410898599e+000	 7.592000354721058e+000
 7.204746453615288e-001	 1.428606413701408e+000	 7.401866761438778e+000
 7.060278843798309e-001	 1.435801039963035e+000	 7.209000213922218e+000
 6.915335701897702e-001	 1.442837940028272e+000	 7.013458881510658e+000
 6.769942052336008e-001	 1.449716815784622e+000	 6.815294084085581e+000
 6.624122888379498e-001	 1.456437420382251e+000	 6.614550556744030e+000
 6.477903159457995e-001	 1.462999557916980e+000	 6.411266731187946e+000
 6.331307758652532e-001	 1.469403083077098e+000	 6.205475032542666e+000
 6.184361510362220e-001	 1.475647900754824e+000	 6.071573413982891e+000
 6.037089158161457e-001	 1.481733965623303e+000	 6.026096069194941e+000
 5.889515352858046e-001	 1.487661281680043e+000	 5.975813632341611e+000
 7.463537136879365e-001	 1.443461511068178e+000	 7.669377936356242e+000
 7.317320616965880e-001	 1.450928388914566e+000	 7.486527662865544e+000
 7.170595700744522e-001	 1.458235431211356e+000	 7.301807926649382e+000
 7.023387822250906e-001	 1.465382282839978e+000	 7.115248967760821e+000
 6.875722396914171e-001	 1.472368641029925e+000	 6.926873223381506e+000
 6.727624808520373e-001	 1.479194255074336e+000	 6.736695643347691e+000
 6.579120396334179e-001	 1.485858926008029e+000	 6.544724023479695e+000
 6.430234442391010e-001	 1.492362506248795e+000	 6.350959355302275e+000
 6.280992158971209e-001	 1.498704899202796e+000	 6.155396190714478e+000
 6.131418676267526e-001	 1.504886058834944e+000	 6.088598365763091e+000
 5.981539030256632e-001	 1.510905989205208e+000	 6.051167981852757e+000
 7.578360785157806e-001	 1.465668611238756e+000	 7.724091141735827e+000
 7.429894780320530e-001	 1.473250364128723e+000	 7.548218719834331e+000
 7.280912557694106e-001	 1.480669822460677e+000	 7.371360125125317e+000
 7.131439942606987e-001	 1.487926625652684e+000	 7.193517530326867e+000
 6.981502741494928e-001	 1.495020466276228e+000	 7.014684319190002e+000
 6.831126728663755e-001	 1.501951089767421e+000	 6.834845453790947e+000
 6.680337633212983e-001	 1.508718294100077e+000	 6.653977860765178e+000
 6.529161126132418e-001	 1.515321929421492e+000	 6.472050834935240e+000
 6.377622807583638e-001	 1.521761897651768e+000	 6.289026458763352e+000
 6.225748194377742e-001	 1.528038152047585e+000	 6.130920591969646e+000
 6.073562707660272e-001	 1.534150696731373e+000	 6.106347248292918e+000
 7.693184433441208e-001	 1.487875711410334e+000	 7.755247114700162e+000
 7.542468943679248e-001	 1.495572339343881e+000	 7.586099109312522e+000
 7.391229414647058e-001	 1.503104213710998e+000	 7.416869221100001e+000
 7.239492062965953e-001	 1.510470968466390e+000	 7.247531384305352e+000
 7.087283086078272e-001	 1.517672291523531e+000	 7.078049724623989e+000
 6.934628648809641e-001	 1.524707924461506e+000	 6.908378979224011e+000
 6.781554870094404e-001	 1.531577662193125e+000	 6.738464936890726e+000
 6.628087809876758e-001	 1.538281352595190e+000	 6.568244896615338e+000
 6.474253456199510e-001	 1.544818896101740e+000	 6.397648142922722e+000
 6.320077712492108e-001	 1.551190245261226e+000	 6.226596436213336e+000
 6.165586385068961e-001	 1.557395404258538e+000	 6.141671873629996e+000
 7.808008081729572e-001	 1.510082811582913e+000	 7.761929404426856e+000
 7.655043107042029e-001	 1.517894314560039e+000	 7.599302239438537e+000
 7.501546271603380e-001	 1.525538604962319e+000	 7.437519655906794e+000
 7.347544183327793e-001	 1.533015311281095e+000	 7.276527146514659e+000
 7.193063430664211e-001	 1.540324116771835e+000	 7.116259341541143e+000
 7.038130568958033e-001	 1.547464759156591e+000	 6.956640482611252e+000
 6.882772106978444e-001	 1.554437030287173e+000	 6.797584917801989e+000
 6.727014493624028e-001	 1.561240775769887e+000	 6.638997616288456e+000
 6.570884104818823e-001	 1.567875894552712e+000	 6.480774700684680e+000
 6.414407230610622e-001	 1.574342338475868e+000	 6.322803995218036e+000
 6.257610062482705e-001	 1.580640111786703e+000	 6.164965587861227e+000
 7.922831730022893e-001	 1.532289911756491e+000	 7.743199675188923e+000
 7.767617270408872e-001	 1.540216289777197e+000	 7.586937616828732e+000
 7.611863128563070e-001	 1.547972996214641e+000	 7.432469927303970e+000
 7.455596303692516e-001	 1.555559654096801e+000	 7.279713423776213e+000
 7.298843775252740e-001	 1.562975942021138e+000	 7.128572972084026e+000
 7.141632489108930e-001	 1.570221593852676e+000	 6.978942015266509e+000
 6.983989343865104e-001	 1.577296398382222e+000	 6.830703124725074e+000
 6.825941177374227e-001	 1.584200198945583e+000	 6.683728572065787e+000
 6.667514753441579e-001	 1.590932893004684e+000	 6.537880919636123e+000
 6.508736748733286e-001	 1.597494431691509e+000	 6.393013627751969e+000
 6.349633739901497e-001	 1.603884819315868e+000	 6.248971676597981e+000
 8.037655378321177e-001	 1.554497011931069e+000	 7.698099269562236e+000
 7.880191433779774e-001	 1.562538264995355e+000	 7.548092553828903e+000
 7.722179985526132e-001	 1.570407387467961e+000	 7.400854442587059e+000
 7.563648424060114e-001	 1.578103996913506e+000	 7.256272813628404e+000
 7.404624119843860e-001	 1.585627767271441e+000	 7.114222468659713e+000
 7.245134409262329e-001	 1.592978428549761e+000	 6.974565717685403e+000
 7.085206580754382e-001	 1.600155766478270e+000	 6.837152987360761e+000
 6.924867861127358e-001	 1.607159622122280e+000	 6.701823451212342e+000
 6.764145402067773e-001	 1.613989891457657e+000	 6.568405679595144e+000
 6.603066266860097e-001	 1.620646524908149e+000	 6.436718307236547e+000
 6.441657417325339e-001	 1.627129526846032e+000	 6.306570716205115e+000
 5.521420643314210e-001	 1.394682451589383e+000	 5.464394796668873e+000
 5.382810600734966e-001	 1.400090532911170e+000	 5.265521253208070e+000
 5.243963861452564e-001	 1.405349931577071e+000	 5.076955559871592e+000
 5.104903209545469e-001	 1.410460787190097e+000	 4.898209914903863e+000
 4.965651299408994e-001	 1.415423283586218e+000	 4.728814856464497e+000
 4.826230645635714e-001	 1.420237648262862e+000	 4.568319859463338e+000
 4.686663613134737e-001	 1.424904151781650e+000	 4.416293873355463e+000
 4.546972407496678e-001	 1.429423107146426e+000	 4.272325800965962e+000
 4.407179065610668e-001	 1.433794869157610e+000	 4.136024918582438e+000
 4.267305446539302e-001	 1.438019833743952e+000	 4.007021237713000e+000
 4.127373222656903e-001	 1.442098437272754e+000	 3.884965809065025e+000
 5.613444320692591e-001	 1.417927159110548e+000	 5.624719276567777e+000
 5.472524110733930e-001	 1.423425375121222e+000	 5.432873219170295e+000
 5.331363259128185e-001	 1.428772430431791e+000	 5.249952408143783e+000
 5.189984929688458e-001	 1.433968466971983e+000	 5.075449958273587e+000
 5.048412154383313e-001	 1.439013671641701e+000	 4.908879525273974e+000
 4.906667823048524e-001	 1.443908275729996e+000	 4.749775909455140e+000
 4.764774673341679e-001	 1.448652554307849e+000	 4.597695596237066e+000
 4.622755280946558e-001	 1.453246825595834e+000	 4.452217233642117e+000
 4.480632050033773e-001	 1.457691450307712e+000	 4.312942047073895e+000
 4.338427203983615e-001	 1.461986830971045e+000	 4.179494191860285e+000
 4.196162776376646e-001	 1.466133411225922e+000	 4.051521044203771e+000
 5.705467998076025e-001	 1.441171866632713e+000	 5.763043293991413e+000
 5.562237620738787e-001	 1.446760217332268e+000	 5.579378349411736e+000
 5.418762656810238e-001	 1.452194929287489e+000	 5.403250822754464e+000
 5.275066649838113e-001	 1.457476146754822e+000	 5.234132938717628e+000
 5.131173009364223e-001	 1.462604059698101e+000	 5.071519719727941e+000
 4.987105000467548e-001	 1.467578903198001e+000	 4.914929598022611e+000
 4.842885733554156e-001	 1.472400956834864e+000	 4.763904960327028e+000
 4.698538154401000e-001	 1.477070544045993e+000	 4.618012625320477e+000
 4.554085034460169e-001	 1.481588031458489e+000	 4.476844254269538e+000
 4.409548961429659e-001	 1.485953828198727e+000	 4.340016695385908e+000
 4.264952330096262e-001	 1.490168385179584e+000	 4.207172262642098e+000
 5.797491675464509e-001	 1.464416574155878e+000	 5.879913641667484e+000
 5.651951130749543e-001	 1.470095059544309e+000	 5.705595941845559e+000
 5.506162054498724e-001	 1.475617428144168e+000	 5.537420519415843e+000
 5.360148369994429e-001	 1.480983826538615e+000	 5.374836889226205e+000
 5.213933864351722e-001	 1.486194447755420e+000	 5.217319678393620e+000
 5.067542177892787e-001	 1.491249530666879e+000	 5.064369248381460e+000
 4.920996793772173e-001	 1.496149359362695e+000	 4.915512245280495e+000
 4.774321027860006e-001	 1.500894262496902e+000	 4.770302078546278e+000
 4.627538018889859e-001	 1.505484612609940e+000	 4.628319328643149e+000
 4.480670718877432e-001	 1.509920825426997e+000	 4.489172084234400e+000
 4.333741883815754e-001	 1.514203359133739e+000	 4.352496209739905e+000
 5.889515352858046e-001	 1.487661281680043e+000	 5.975813632341611e+000
 5.741664640766192e-001	 1.493429901757344e+000	 5.812023024026780e+000
 5.593561452193646e-001	 1.499039927001826e+000	 5.652970232832702e+000
 5.445230090157411e-001	 1.504491506323362e+000	 5.498080229777765e+000
 5.296694719345811e-001	 1.509784835813656e+000	 5.346805472347516e+000
 5.147979355324239e-001	 1.514920158136628e+000	 5.198626538148115e+000
 4.999107853995727e-001	 1.519897761891342e+000	 5.053052682226771e+000
 4.850103901323574e-001	 1.524717980948560e+000	 4.909622318372103e+000
 4.700991003322840e-001	 1.529381193762066e+000	 4.767903424917124e+000
 4.551792476326934e-001	 1.533887822655857e+000	 4.627493875765261e+000
 4.402531437535119e-001	 1.538238333088388e+000	 4.488021697552855e+000
 5.981539030256632e-001	 1.510905989205208e+000	 6.051167981852757e+000
 5.831378150788742e-001	 1.516764743971375e+000	 5.899099143179443e+000
 5.680960849894999e-001	 1.522462425860463e+000	 5.750352407549014e+000
 5.530311810327057e-001	 1.527999186109062e+000	 5.604326352955146e+000
 5.379455574346491e-001	 1.533375223872810e+000	 5.460449479597468e+000
 5.228416532761906e-001	 1.538590785607250e+000	 5.318180856693320e+000
 5.077218914224817e-001	 1.543646164420804e+000	 5.177010688270828e+000
 4.925886774791707e-001	 1.548541699400969e+000	 5.036460798319075e+000
 4.774443987759117e-001	 1.553277774914866e+000	 4.896085035889484e+000
 4.622914233778167e-001	 1.557854819885305e+000	 4.755469600951683e+000
 4.471320991254359e-001	 1.562273307043531e+000	 4.614233292009631e+000
 6.073562707660272e-001	 1.534150696731373e+000	 6.106347248292918e+000
 5.921091660817187e-001	 1.540099586186401e+000	 5.967210720767450e+000
 5.768360247602784e-001	 1.545884924720079e+000	 5.829967462354198e+000
 5.615393530503368e-001	 1.551506865895717e+000	 5.693987792687552e+000
 5.462216429353762e-001	 1.556965611932881e+000	 5.558674452739474e+000
 5.308853710205788e-001	 1.562261413078743e+000	 5.423463266373005e+000
 5.155329974459447e-001	 1.567394566951083e+000	 5.287823716040963e+000
 5.001669648264403e-001	 1.572365417854128e+000	 5.151259433068444e+000
 4.847896972198684e-001	 1.577174356068340e+000	 5.013308603185633e+000
 4.694035991231128e-001	 1.581821817115343e+000	 4.873544288197693e+000
 4.540110544973472e-001	 1.586308280999167e+000	 4.731574664891104e+000
 6.165586385068961e-001	 1.557395404258538e+000	 6.141671873629996e+000
 6.010805170851529e-001	 1.563434428402422e+000	 6.016695017103403e+000
 5.855759645317007e-001	 1.569307423580675e+000	 5.892167672802136e+000
 5.700475250686342e-001	 1.575014545683324e+000	 5.767430019672609e+000
 5.544977284367622e-001	 1.580555999993871e+000	 5.641857222346585e+000
 5.389290887655882e-001	 1.585932040551108e+000	 5.514860109021917e+000
 5.233441034699614e-001	 1.591142969482178e+000	 5.385885758500257e+000
 5.077452521741661e-001	 1.596189136308037e+000	 5.254417996882446e+000
 4.921349956641547e-001	 1.601070937222489e+000	 5.119977804659151e+000
 4.765157748685817e-001	 1.605788814345969e+000	 4.982123635171414e+000
 4.608900098692462e-001	 1.610343254955298e+000	 4.840451645632474e+000
 6.257610062482705e-001	 1.580640111786703e+000	 6.164965587861227e+000
 6.100518680891768e-001	 1.586769270619437e+000	 6.047843746139182e+000
 5.943159043037662e-001	 1.592729922442250e+000	 5.937260711154660e+000
 5.785556970875980e-001	 1.598522225471885e+000	 5.824974901908112e+000
 5.627738139388073e-001	 1.604146388055779e+000	 5.710332073588234e+000
 5.469728065112193e-001	 1.609602668024345e+000	 5.592716294226844e+000
 5.311552094945318e-001	 1.614891372014088e+000	 5.471550544510285e+000
 5.153235395223486e-001	 1.620012854762697e+000	 5.346297222164434e+000
 4.994802941087702e-001	 1.624967518377312e+000	 5.216458551728129e+000
 4.836279506142236e-001	 1.629755811577184e+000	 5.081576900771180e+000
 4.677689652411324e-001	 1.634378228911922e+000	 4.941235003848425e+000
 6.349633739901497e-001	 1.603884819315868e+000	 6.248971676597981e+000
 6.190232190937902e-001	 1.610104112837447e+000	 6.060906375926919e+000
 6.030558440764752e-001	 1.616152421304804e+000	 5.965512878504648e+000
 5.870638691072284e-001	 1.622029905261401e+000	 5.866903864307872e+000
 5.710498994415116e-001	 1.627736776118604e+000	 5.764393829230468e+000
 5.550165242574715e-001	 1.633273295498454e+000	 5.657338301664074e+000
 5.389663155196562e-001	 1.638639774546815e+000	 5.545134456519410e+000
 5.229018268709871e-001	 1.643836573218106e+000	 5.427221628579243e+000
 5.068255925537150e-001	 1.648864099532809e+000	 5.303081726073097e+000
 4.907401263600386e-001	 1.653722808808989e+000	 5.172239545615780e+000
 4.746479206130062e-001	 1.658413202869040e+000	 5.034262989899979e+000
 6.441657417325339e-001	 1.627129526846032e+000	 6.306570716205115e+000
 6.279945700989932e-001	 1.633438955056451e+000	 6.082573619196146e+000
 6.117957838498271e-001	 1.639574920168338e+000	 5.977152059859129e+000
 5.955720411275249e-001	 1.645537585051869e+000	 5.893460777493471e+000
 5.793259849448746e-001	 1.651327164182347e+000	 5.804300668379029e+000
 5.630602420043452e-001	 1.656943922973434e+000	 5.708996926092344e+000
 5.467774215453343e-001	 1.662388177080357e+000	 5.606919198163855e+000
 5.304801142200819e-001	 1.667660291674264e+000	 5.497482109677161e+000
 5.141708909989889e-001	 1.672760680688981e+000	 5.380145681761304e+000
 4.978523021060263e-001	 1.677689806041381e+000	 5.254415646207537e+000
 4.815268759848673e-001	 1.682448176826651e+000	 5.119843657698197e+000
 4.127373222656903e-001	 1.442098437272754e+000	 3.884965809065025e+000
 3.987403871052226e-001	 1.446031155840163e+000	 3.755047134041374e+000
 3.847418665210725e-001	 1.449818504541092e+000	 3.629728935102574e+000
 3.707438666974945e-001	 1.453461036720863e+000	 3.508818363696541e+000
 3.567484718777408e-001	 1.456959343210722e+000	 3.392144973543179e+000
 3.427577436160290e-001	 1.460314051546807e+000	 3.279560640627041e+000
 3.287737200581077e-001	 1.463525825174172e+000	 3.170939432919301e+000
 3.147984152506362e-001	 1.466595362636951e+000	 3.066177431426375e+000
 3.008338184795510e-001	 1.469523396755786e+000	 2.965192504257258e+000
 2.868818936375487e-001	 1.472310693793589e+000	 2.867924035482899e+000
 2.729445786207708e-001	 1.474958052610726e+000	 2.774332610639106e+000
 4.196162776376646e-001	 1.466133411225922e+000	 4.051521044203771e+000
 4.053860602251623e-001	 1.470131675103331e+000	 3.919842040949266e+000
 3.911542309650638e-001	 1.473982146283010e+000	 3.793536134154950e+000
 3.769229311446958e-001	 1.477685387332699e+000	 3.672397162717654e+000
 3.626942797446992e-001	 1.481241998930835e+000	 3.556241715303467e+000
 3.484703726785305e-001	 1.484652619072495e+000	 3.444909066998057e+000
 3.342532820610354e-001	 1.487917922260148e+000	 3.338261063732186e+000
 3.200450555063190e-001	 1.491038618680334e+000	 3.236181956113694e+000
 3.058477154550850e-001	 1.494015453367372e+000	 3.138578184395078e+000
 2.916632585315764e-001	 1.496849205355224e+000	 3.045378116391754e+000
 2.774936549302054e-001	 1.499540686818598e+000	 2.956531740248484e+000
 4.264952330096262e-001	 1.490168385179584e+000	 4.207172262642098e+000
 4.120317333449102e-001	 1.494232194366904e+000	 4.074899168983503e+000
 3.975665954087251e-001	 1.498145788025262e+000	 3.948677916587711e+000
 3.831019955914701e-001	 1.501909737944822e+000	 3.828288373769603e+000
 3.686400876111748e-001	 1.505524654651208e+000	 3.713533607966602e+000
 3.541830017405331e-001	 1.508991186598434e+000	 3.604239838261473e+000
 3.397328440634883e-001	 1.512310019346387e+000	 3.500256333582100e+000
 3.252916957615905e-001	 1.515481874724010e+000	 3.401455258247863e+000
 3.108616124303107e-001	 1.518507509979303e+000	 3.307731466632551e+000
 2.964446234254379e-001	 1.521387716917276e+000	 3.219002248807865e+000
 2.820427312396547e-001	 1.524123321026976e+000	 3.135207029116035e+000
 4.333741883815754e-001	 1.514203359133739e+000	 4.352496209739905e+000
 4.186774064644662e-001	 1.518332713630881e+000	 4.220779910270742e+000
 4.039789598520567e-001	 1.522309429767849e+000	 4.095701678038219e+000
 3.892810600378178e-001	 1.526134088557231e+000	 3.977026733193230e+000
 3.745858954771670e-001	 1.529807310371839e+000	 3.864544046292555e+000
 3.598956308020366e-001	 1.533329754124622e+000	 3.758066305929035e+000
 3.452124060654659e-001	 1.536702116432889e+000	 3.657429829795222e+000
 3.305383360164507e-001	 1.539925130767982e+000	 3.562494420890971e+000
 3.158755094052283e-001	 1.542999566591581e+000	 3.473143170694638e+000
 3.012259883191334e-001	 1.545926228479745e+000	 3.389282211212630e+000
 2.865918075491187e-001	 1.548705955235862e+000	 3.310840417914087e+000
 4.402531437535119e-001	 1.538238333088388e+000	 4.488021697552855e+000
 4.253230795838304e-001	 1.542433232895262e+000	 4.358000091871008e+000
 4.103913242950587e-001	 1.546473071510771e+000	 4.235111466705867e+000
 3.954601244837387e-001	 1.550358439169926e+000	 4.119105697120413e+000
 3.805317033426763e-001	 1.554089966092728e+000	 4.009757061956934e+000
 3.656082598630410e-001	 1.557668321651062e+000	 3.906864225828198e+000
 3.506919680669687e-001	 1.561094213519652e+000	 3.810250162150670e+000
 3.357849762708998e-001	 1.564368386812248e+000	 3.719762018977441e+000
 3.208894063798377e-001	 1.567491623204204e+000	 3.635270929503379e+000
 3.060073532126628e-001	 1.570464740042630e+000	 3.556671769215571e+000
 2.911408838585973e-001	 1.573288589445256e+000	 3.483882861758107e+000
 4.471320991254359e-001	 1.562273307043531e+000	 4.614233292009631e+000
 4.319687527030028e-001	 1.566533752160047e+000	 4.487033480782708e+000
 4.168036887377308e-001	 1.570636713254029e+000	 4.367371317770390e+000
 4.016391889292327e-001	 1.574582789782909e+000	 4.254980616874788e+000
 3.864775112077025e-001	 1.578372621813876e+000	 4.149620351480536e+000
 3.713208889235464e-001	 1.582006889177752e+000	 4.051074650077331e+000
 3.561715300679963e-001	 1.585486310606679e+000	 3.959152730384135e+000
 3.410316165249374e-001	 1.588811642856808e+000	 3.873688773785367e+000
 3.259033033541388e-001	 1.591983679817174e+000	 3.794541742008863e+000
 3.107887181060262e-001	 1.595003251605934e+000	 3.721595138083273e+000
 2.956899601680905e-001	 1.597871223655156e+000	 3.654756713711082e+000
 4.540110544973472e-001	 1.586308280999167e+000	 4.731574664891104e+000
 4.386144258219834e-001	 1.590634271425237e+000	 4.608314970310894e+000
 4.232160531800732e-001	 1.594800354997621e+000	 4.492908284681253e+000
 4.078182533743002e-001	 1.598807140396178e+000	 4.385071625699711e+000
 3.924233190722454e-001	 1.602655277535282e+000	 4.284548028892560e+000
 3.770335179835526e-001	 1.606345456704692e+000	 4.191106556154689e+000
 3.616510920685490e-001	 1.609878407693967e+000	 4.104542240100249e+000
 3.462782567785638e-001	 1.613254898901663e+000	 4.024675966092362e+000
 3.309172003281319e-001	 1.616475736430489e+000	 3.951354293944696e+000
 3.155700829992234e-001	 1.619541763169653e+000	 3.884449221401506e+000
 3.002390364775985e-001	 1.622453857865564e+000	 3.823857891605831e+000
 4.608900098692462e-001	 1.610343254955298e+000	 4.840451645632474e+000
 4.452600989407723e-001	 1.614734790690830e+000	 4.722243481089125e+000
 4.296284176220858e-001	 1.618963996741549e+000	 4.612115198988109e+000
 4.139973178189407e-001	 1.623031491009734e+000	 4.509766266973059e+000
 3.983691269363054e-001	 1.626937933256947e+000	 4.414923131886724e+000
 3.827461470430598e-001	 1.630684024231883e+000	 4.327339240528467e+000
 3.671306540686266e-001	 1.634270504781519e+000	 4.246794993379463e+000
 3.515248970317790e-001	 1.637698154946812e+000	 4.173097633227930e+000
 3.359310973018168e-001	 1.640967793044150e+000	 4.106081070754817e+000
 3.203514478922546e-001	 1.644080274733790e+000	 4.045605649260569e+000
 3.047881127871212e-001	 1.647036492076480e+000	 3.991557850823243e+000
 4.677689652411324e-001	 1.634378228911922e+000	 4.941235003848425e+000
 4.519057720593694e-001	 1.638835309956827e+000	 4.829184606128862e+000
 4.360407820637686e-001	 1.643127638485812e+000	 4.725353186657088e+000
 4.201763822631546e-001	 1.647255841623576e+000	 4.629421890520835e+000
 4.043149347998824e-001	 1.651220588978870e+000	 4.541099906845947e+000
 3.884587761020679e-001	 1.655022591759324e+000	 4.460124501083831e+000
 3.726102160682291e-001	 1.658662601869333e+000	 4.386260977272385e+000
 3.567715372845828e-001	 1.662141410992255e+000	 4.319302572268173e+000
 3.409449942751933e-001	 1.665459849658157e+000	 4.259070284085084e+000
 3.251328127851196e-001	 1.668618786298344e+000	 4.205412636600469e+000
 3.093371890966585e-001	 1.671619126287902e+000	 4.158205383002191e+000
 4.746479206130062e-001	 1.658413202869040e+000	 5.034262989899979e+000
 4.585514451777746e-001	 1.662935829223229e+000	 4.929473025864354e+000
 4.424531465051217e-001	 1.667291280230410e+000	 4.832953965576681e+000
 4.263554467069418e-001	 1.671480192237705e+000	 4.744367840555989e+000
 4.102607426629760e-001	 1.675503244701051e+000	 4.663405895169109e+000
 3.941714051605769e-001	 1.679361159287015e+000	 4.589788629773992e+000
 3.780897780673568e-001	 1.683054698957408e+000	 4.523265770686161e+000
 3.620181775369755e-001	 1.686584667037993e+000	 4.463616169039472e+000
 3.459588912482618e-001	 1.689951906272510e+000	 4.410647630754580e+000
 3.299141776778187e-001	 1.693157297863315e+000	 4.364196679961141e+000
 3.138862654062104e-001	 1.696201760499832e+000	 4.324128258339710e+000
 4.815268759848673e-001	 1.682448176826651e+000	 5.119843657698197e+000
 4.651971182959880e-001	 1.687036348490034e+000	 5.023414716193948e+000
 4.488655109461449e-001	 1.691454921975343e+000	 4.935221946134720e+000
 4.325345111503020e-001	 1.695704542852121e+000	 4.854907456078972e+000
 4.162065505255868e-001	 1.699785900423492e+000	 4.782143840770157e+000
 3.998840342185868e-001	 1.703699726814957e+000	 4.716634234472379e+000
 3.835693400660092e-001	 1.707446796045747e+000	 4.658112287823175e+000
 3.672648177889567e-001	 1.711027923084024e+000	 4.606342070351076e+000
 3.509727882210220e-001	 1.714443962887209e+000	 4.561117900957147e+000
 3.346955425703515e-001	 1.717695809428702e+000	 4.522264108796462e+000
 3.184353417157770e-001	 1.720784394712270e+000	 4.489634727122394e+000
 2.729445786207708e-001	 1.474958052610726e+000	 2.774332610639106e+000
 2.590237847553507e-001	 1.477466303810354e+000	 2.656544879321202e+000
 2.451213962520330e-001	 1.479836308875993e+000	 2.545039568904350e+000
 2.312392696899346e-001	 1.482068959301720e+000	 2.439803224561267e+000
 2.173792335306684e-001	 1.484165175715299e+000	 2.340840689633539e+000
 2.035430876609112e-001	 1.486125906996327e+000	 2.248174662405106e+000
 1.897326029638498e-001	 1.487952129390018e+000	 2.161845221803862e+000
 1.759495209193238e-001	 1.489644845617649e+000	 2.081909324096706e+000
 1.621955532324469e-001	 1.491205083984588e+000	 2.008440272657698e+000
 1.484723814904559e-001	 1.492633897486894e+000	 1.941527162896162e+000
 1.347816568475081e-001	 1.493932362917365e+000	 1.881274304433823e+000
 2.774936549302054e-001	 1.499540686818598e+000	 2.956531740248484e+000
 2.633408478327074e-001	 1.502090742204176e+000	 2.843786366877848e+000
 2.492067528535041e-001	 1.504500247353678e+000	 2.737895126207496e+000
 2.350932575146959e-001	 1.506770108619411e+000	 2.638853984156916e+000
 2.210022207522551e-001	 1.508901261972938e+000	 2.546677348418241e+000
 2.069354724509681e-001	 1.510894672108512e+000	 2.461397612474257e+000
 1.928948130087403e-001	 1.512751331542102e+000	 2.383064667723886e+000
 1.788820129300739e-001	 1.514472259707000e+000	 2.311745385846783e+000
 1.648988124484995e-001	 1.516058502047001e+000	 2.247523073555241e+000
 1.509469211777067e-001	 1.517511129108093e+000	 2.190496901888476e+000
 1.370280177910873e-001	 1.518831235629623e+000	 2.140781312206061e+000
 2.820427312396547e-001	 1.524123321026976e+000	 3.135207029116035e+000
 2.676579109102633e-001	 1.526715180598594e+000	 3.028815107224018e+000
 2.532921094553274e-001	 1.529164185832027e+000	 2.929752734896040e+000
 2.389472453399321e-001	 1.531471257937816e+000	 2.838025159722872e+000
 2.246252079744084e-001	 1.533637348231319e+000	 2.753656309444925e+000
 2.103278572416534e-001	 1.535663437221447e+000	 2.676688321460173e+000
 1.960570230542908e-001	 1.537550533694922e+000	 2.607181039517019e+000
 1.818145049414857e-001	 1.539299673797057e+000	 2.545211479798266e+000
 1.676020716651864e-001	 1.540911920110067e+000	 2.490873268617800e+000
 1.534214608655350e-001	 1.542388360729875e+000	 2.444276053959389e+000
 1.392743787351581e-001	 1.543730108342372e+000	 2.405544893089503e+000
 2.865918075491187e-001	 1.548705955235862e+000	 3.310840417914087e+000
 2.719749739880180e-001	 1.551339618993610e+000	 3.212057950071245e+000
 2.573774660575030e-001	 1.553828124311042e+000	 3.120985334661356e+000
 2.428012331656429e-001	 1.556172407256935e+000	 3.037636965140583e+000
 2.282481951971284e-001	 1.558373434490442e+000	 2.962046248166638e+000
 2.137202420329668e-001	 1.560432202335132e+000	 2.894265116838664e+000
 1.992192331005010e-001	 1.562349735848479e+000	 2.834363510098447e+000
 1.847469969535592e-001	 1.564127087887819e+000	 2.782428820579096e+000
 1.703053308825072e-001	 1.565765338173787e+000	 2.738565313203063e+000
 1.558960005539406e-001	 1.567265592352239e+000	 2.702893516840525e+000
 1.415207396797206e-001	 1.568628981055612e+000	 2.675549591338124e+000
 2.911408838585973e-001	 1.573288589445256e+000	 3.483882861758107e+000
 2.762920370659718e-001	 1.575964057389222e+000	 3.393914918506357e+000
 2.614628226600309e-001	 1.578492062790723e+000	 3.311943051769743e+000
 2.466552209918285e-001	 1.580873556576769e+000	 3.237990667993322e+000
 2.318711824204150e-001	 1.583109520750306e+000	 3.172100614540497e+000
 2.171126268249085e-001	 1.585200967449566e+000	 3.114334674902165e+000
 2.023814431473711e-001	 1.587148938002775e+000	 3.064773028942220e+000
 1.876794889662944e-001	 1.588954501979286e+000	 3.023513680551097e+000
 1.730085901004622e-001	 1.590618756238159e+000	 2.990671855097075e+000
 1.583705402429235e-001	 1.592142823975185e+000	 2.966379369070897e+000
 1.437671006247749e-001	 1.593527853769345e+000	 2.950783974322994e+000
 2.956899601680905e-001	 1.597871223655156e+000	 3.654756713711082e+000
 2.806091001441247e-001	 1.600588495785431e+000	 3.574761272577983e+000
 2.655481792629111e-001	 1.603156001271070e+000	 3.502954953941163e+000
 2.505092088184888e-001	 1.605574705897316e+000	 3.439370046973839e+000
 2.354941696442682e-001	 1.607845607010912e+000	 3.384058804220012e+000
 2.205050116174784e-001	 1.609969732564750e+000	 3.337092917004660e+000
 2.055436531949010e-001	 1.611948140157806e+000	 3.298562954653290e+000
 1.906119809796914e-001	 1.613781916071458e+000	 3.268577769984594e+000
 1.757118493190514e-001	 1.615472174303186e+000	 3.247263873557893e+000
 1.608450799324837e-001	 1.617020055598714e+000	 3.234764779165684e+000
 1.460134615703208e-001	 1.618426726483569e+000	 3.231240323061780e+000
 3.002390364775985e-001	 1.622453857865564e+000	 3.823857891605831e+000
 2.849261632224765e-001	 1.625212934182237e+000	 3.754949385284357e+000
 2.696335358661434e-001	 1.627819939752082e+000	 3.694330645693712e+000
 2.543631966456239e-001	 1.630275855218577e+000	 3.642042716800221e+000
 2.391171568686881e-001	 1.632581693272261e+000	 3.598147223274853e+000
 2.238973964106766e-001	 1.634738497680683e+000	 3.562725824329668e+000
 2.087058632430907e-001	 1.636747342313575e+000	 3.535879630033886e+000
 1.935444729937499e-001	 1.638609330164335e+000	 3.517728582671195e+000
 1.784151085382746e-001	 1.640325592368866e+000	 3.508410805719540e+000
 1.633196196226213e-001	 1.641897287222824e+000	 3.508081923042283e+000
 1.482598225163585e-001	 1.643325599198285e+000	 3.516914350881908e+000
 3.047881127871212e-001	 1.647036492076480e+000	 3.991557850823243e+000
 2.892432263010272e-001	 1.649837372579640e+000	 3.934810450562350e+000
 2.737188924697281e-001	 1.652483878233760e+000	 3.886361720821402e+000
 2.582171844732336e-001	 1.654977004540552e+000	 3.846261334482616e+000
 2.427401440936745e-001	 1.657317779534351e+000	 3.814580257562769e+000
 2.272897812045030e-001	 1.659507262797366e+000	 3.791410179694058e+000
 2.118680732919404e-001	 1.661546544470082e+000	 3.776862905650447e+000
 1.964769650084701e-001	 1.663436744257918e+000	 3.771069710586653e+000
 1.811183677581319e-001	 1.665179010435199e+000	 3.774180661675751e+000
 1.657941593133362e-001	 1.666774518847516e+000	 3.786363908841024e+000
 1.505061834628878e-001	 1.668224471913492e+000	 3.807804947277886e+000
 3.093371890966585e-001	 1.671619126287902e+000	 4.158205383002191e+000
 2.935602893797771e-001	 1.674461810977640e+000	 4.114656040571136e+000
 2.778042490736651e-001	 1.677147816716104e+000	 4.079323086712332e+000
 2.620711723013180e-001	 1.679678153863241e+000	 4.052264699154971e+000
 2.463631313192277e-001	 1.682053865797183e+000	 4.033561156568952e+000
 2.306821659989576e-001	 1.684276027914798e+000	 4.023314243898612e+000
 2.150302833414497e-001	 1.686345746627326e+000	 4.021646617204083e+000
 1.994094570238521e-001	 1.688264158352205e+000	 4.028701130788671e+000
 1.838216269786233e-001	 1.690032428502185e+000	 4.044640129409359e+000
 1.682686990046285e-001	 1.691651750472792e+000	 4.069644708379418e+000
 1.527525444099089e-001	 1.693123344629191e+000	 4.103913944369912e+000
 3.138862654062104e-001	 1.696201760499832e+000	 4.324128258339710e+000
 2.978773524587259e-001	 1.699086249376236e+000	 4.294779527560408e+000
 2.818896056779544e-001	 1.701811755199113e+000	 4.273474173508234e+000
 2.659251601298772e-001	 1.704379303186644e+000	 4.260278756268739e+000
 2.499861185453474e-001	 1.706789952060757e+000	 4.255282840389309e+000
 2.340745507940405e-001	 1.709044793032980e+000	 4.258598373265235e+000
 2.181924933916190e-001	 1.711144948785307e+000	 4.270359021390410e+000
 2.023419490398958e-001	 1.713091572447198e+000	 4.290719467367880e+000
 1.865248861997488e-001	 1.714885846569825e+000	 4.319854670597604e+000
 1.707432386964981e-001	 1.716528982098648e+000	 4.357959094566726e+000
 1.549989053574216e-001	 1.718022217345382e+000	 4.405245903669810e+000
 3.184353417157770e-001	 1.720784394712270e+000	 4.489634727122394e+000
 3.021944155378737e-001	 1.723710687775430e+000	 4.475457383863811e+000
 2.859749622825958e-001	 1.726475693682788e+000	 4.469060039622272e+000
 2.697791479589111e-001	 1.729080452510761e+000	 4.470517515712990e+000
 2.536091057720337e-001	 1.731526038325072e+000	 4.479928637543966e+000
 2.374669355897515e-001	 1.733813558151911e+000	 4.497415584242860e+000
 2.213547034424480e-001	 1.735944150944025e+000	 4.523123194399793e+000
 2.052744410566011e-001	 1.737918986542895e+000	 4.557218230945274e+000
 1.892281454215084e-001	 1.739739264638118e+000	 4.599888608205134e+000
 1.732177783889451e-001	 1.741406213725087e+000	 4.651342584183189e+000
 1.572452663054261e-001	 1.742921090062064e+000	 4.711807921124681e+000
 1.347816568475081e-001	 1.493932362917365e+000	 1.881274304433823e+000
 1.211249997365069e-001	 1.495101579972037e+000	 1.794761179688307e+000
 1.075039996094458e-001	 1.496142670357773e+000	 1.712981580404095e+000
 9.392021470467529e-002	 1.497056776901965e+000	 1.636080588269466e+000
 8.037517183948741e-002	 1.497845062665274e+000	 1.564218085670497e+000
 6.687036622943428e-002	 1.498508710058030e+000	 1.497568047223788e+000
 5.340726133332961e-002	 1.499048919961125e+000	 1.436317819557451e+000
 3.998728872347090e-002	 1.499466910852138e+000	 1.380667391372609e+000
 2.661184798060256e-002	 1.499763917937433e+000	 1.330828655772656e+000
 1.328230661312030e-002	 1.499941192290897e+000	 1.287024666799320e+000
 0.000000000000000e+000	 1.500000000000000e+000	 1.249488892060757e+000
 1.370280177910873e-001	 1.518831235629623e+000	 2.140781312206061e+000
 1.231437497286795e-001	 1.520019939635790e+000	 2.063851285940358e+000
 1.092957329332651e-001	 1.521078381528475e+000	 1.992489073160758e+000
 9.548555161383368e-002	 1.522007723182194e+000	 1.926857940303860e+000
 8.171475803463210e-002	 1.522809147041951e+000	 1.867135664068027e+000
 6.798487233147189e-002	 1.523483855224919e+000	 1.813513803864812e+000
 5.429738235414697e-002	 1.524033068626668e+000	 1.766196962712663e+000
 4.065374353449325e-002	 1.524458026032741e+000	 1.725402038659218e+000
 2.705537877960094e-002	 1.524759983236272e+000	 1.691357468770444e+000
 1.350367838967245e-002	 1.524940212162382e+000	 1.664302467674363e+000
 0.000000000000000e+000	 1.525000000000000e+000	 1.644486262591789e+000
 1.392743787351581e-001	 1.543730108342372e+000	 2.405544893089503e+000
 1.251624997212492e-001	 1.544938299299939e+000	 2.339197459291893e+000
 1.110874662573970e-001	 1.546014092699489e+000	 2.279151306590289e+000
 9.705088852323057e-002	 1.546958669462661e+000	 2.225588428892730e+000
 8.305434422995146e-002	 1.547773231418804e+000	 2.178705120130847e+000
 6.909937843363034e-002	 1.548459000391928e+000	 2.138711225140324e+000
 5.518750337504139e-002	 1.549017217292288e+000	 2.105829379131223e+000
 4.132019834555879e-002	 1.549449141213386e+000	 2.080294237893728e+000
 2.749890957861846e-002	 1.549756048535131e+000	 2.062351700834860e+000
 1.372505016622937e-002	 1.549939232033873e+000	 2.052258128888067e+000
 0.000000000000000e+000	 1.550000000000000e+000	 2.050279559280209e+000
 1.415207396797206e-001	 1.568628981055612e+000	 2.675549591338124e+000
 1.271812497142158e-001	 1.569856658964486e+000	 2.620710305233648e+000
 1.128791995818416e-001	 1.570949803870817e+000	 2.572806497586814e+000
 9.861622543286597e-002	 1.571909615743367e+000	 2.532039442995058e+000
 8.439393042544542e-002	 1.572737315795831e+000	 2.498624585573077e+000
 7.021388453590964e-002	 1.573434145559058e+000	 2.472790765766403e+000
 5.607762439601290e-002	 1.574001365957986e+000	 2.454779435856999e+000
 4.198665315666754e-002	 1.574440256394076e+000	 2.444843866370075e+000
 2.794244037765511e-002	 1.574752113834009e+000	 2.443248345540646e+000
 1.394642194279106e-002	 1.574938251905368e+000	 2.450267373942043e+000
 0.000000000000000e+000	 1.575000000000000e+000	 2.466184856319962e+000
 1.437671006247749e-001	 1.593527853769345e+000	 2.950783974322994e+000
 1.291999997075793e-001	 1.594775018629429e+000	 2.908309073424393e+000
 1.146709329065987e-001	 1.595885515042456e+000	 2.873305961576941e+000
 1.001815623427399e-001	 1.596860562024310e+000	 2.845995757728706e+000
 8.573351662111400e-002	 1.597701400173032e+000	 2.826613699195437e+000
 7.132839063830979e-002	 1.598409290726309e+000	 2.815408341905277e+000
 5.696774541706148e-002	 1.598985514623761e+000	 2.812640749390375e+000
 4.265310796781948e-002	 1.599431371574808e+000	 2.818583672804615e+000
 2.838597117671090e-002	 1.599748179132905e+000	 2.833520724196005e+000
 1.416779371935751e-002	 1.599937271776867e+000	 2.857745545200895e+000
 0.000000000000000e+000	 1.600000000000000e+000	 2.891560973267765e+000
 1.460134615703208e-001	 1.618426726483569e+000	 3.231240323061780e+000
 1.312187497013398e-001	 1.619693378294770e+000	 3.201920992754762e+000
 1.164626662316684e-001	 1.620821226214409e+000	 3.180513104940659e+000
 1.017468992528523e-001	 1.621811508305493e+000	 3.167258196973651e+000
 8.707310281695728e-002	 1.622665484550408e+000	 3.162411952494165e+000
 7.244289674083079e-002	 1.623384435893682e+000	 3.166243372592957e+000
 5.785786643818713e-002	 1.623969663289613e+000	 3.179033935729994e+000
 4.331956277901462e-002	 1.624422486755583e+000	 3.201076748765058e+000
 2.882950197578580e-002	 1.624744244431821e+000	 3.232675691402020e+000
 1.438916549592873e-002	 1.624936291648372e+000	 3.274144556287333e+000
 0.000000000000000e+000	 1.625000000000000e+000	 3.325806186938317e+000
 1.482598225163585e-001	 1.643325599198285e+000	 3.516914350881908e+000
 1.332374996954973e-001	 1.644611737960508e+000	 3.501480666860047e+000
 1.182543995570507e-001	 1.645756937386673e+000	 3.494302509029743e+000
 1.033122361632033e-001	 1.646762454586914e+000	 3.495642417556641e+000
 8.841268901297512e-002	 1.647629568927959e+000	 3.505777185668860e+000
 7.355740284347266e-002	 1.648359581061175e+000	 3.524996999218121e+000
 5.874798745938984e-002	 1.648953811955541e+000	 3.553604564956245e+000
 4.398601759025297e-002	 1.649413601936402e+000	 3.591914229969550e+000
 2.927303277487985e-002	 1.649740309730756e+000	 3.640251094651381e+000
 1.461053727250472e-002	 1.649935311519882e+000	 3.698950121532339e+000
 0.000000000000000e+000	 1.650000000000000e+000	 3.768355242218158e+000
 1.505061834628878e-001	 1.668224471913492e+000	 3.807804947277886e+000
 1.352562496900517e-001	 1.669530097626642e+000	 3.806929523766200e+000
 1.200461328827456e-001	 1.670692648559252e+000	 3.814559096214752e+000
 1.048775730737928e-001	 1.671713400868574e+000	 3.830977802314767e+000
 8.975227520916763e-002	 1.672593653305685e+000	 3.856484218316413e+000
 7.467190894623535e-002	 1.673334726228788e+000	 3.891390464451296e+000
 5.963810848066963e-002	 1.673937960621547e+000	 3.936021298986399e+000
 4.465247240153452e-002	 1.674404717117263e+000	 3.990713203439785e+000
 2.971656357399303e-002	 1.674736375029710e+000	 4.055813461426132e+000
 1.483190904908547e-002	 1.674934331391396e+000	 4.131679233534157e+000
 0.000000000000000e+000	 1.675000000000000e+000	 4.218676630567677e+000
 1.527525444099089e-001	 1.693123344629191e+000	 4.103913944369912e+000
 1.372749996850031e-001	 1.694448457293173e+000	 4.118215314096228e+000
 1.218378662087531e-001	 1.695628359732141e+000	 4.141177369516050e+000
 1.064429099846207e-001	 1.696664347150472e+000	 4.173106450830349e+000
 9.109186140553478e-002	 1.697557737683585e+000	 4.214323600945693e+000
 7.578641504911890e-002	 1.698309871396523e+000	 4.265163634209348e+000
 6.052822950202649e-002	 1.698922109287630e+000	 4.325974193645392e+000
 4.531892721285927e-002	 1.699395832298169e+000	 4.397114799316916e+000
 3.016009437312533e-002	 1.699732440328683e+000	 4.478955890374932e+000
 1.505328082567098e-002	 1.699933351262914e+000	 4.571877863285948e+000
 0.000000000000000e+000	 1.700000000000000e+000	 4.676270108655476e+000
 1.549989053574216e-001	 1.718022217345382e+000	 4.405245903669810e+000
 1.392937496803514e-001	 1.719366816960102e+000	 4.435291652911277e+000
 1.236295995350731e-001	 1.720564070905344e+000	 4.474060718353667e+000
 1.080082468956872e-001	 1.721615293432609e+000	 4.521882257927278e+000
 9.243144760207650e-002	 1.722521822061659e+000	 4.579100475056530e+000
 7.690092115212330e-002	 1.723285016564378e+000	 4.646073648144808e+000
 6.141835052346044e-002	 1.723906257953790e+000	 4.723173148382694e+000
 4.598538202422721e-002	 1.724386947479116e+000	 4.810782448606394e+000
 3.060362517227677e-002	 1.724728505627675e+000	 4.909296125866268e+000
 1.527465260226126e-002	 1.724932371134438e+000	 5.019118860291814e+000
 0.000000000000000e+000	 1.725000000000000e+000	 5.140664432763448e+000
 1.572452663054261e-001	 1.742921090062064e+000	 4.711807921124681e+000
 1.413124996760967e-001	 1.744285176627427e+000	 4.758117600821840e+000
 1.254213328617058e-001	 1.745499782078859e+000	 4.813120783804757e+000
 1.095735838069922e-001	 1.746566239714984e+000	 4.877170071153979e+000
 9.377103379879290e-002	 1.747485906439909e+000	 4.950633530926116e+000
 7.801542725524854e-002	 1.748260161732354e+000	 5.033893685807898e+000
 6.230847154497145e-002	 1.748890406620027e+000	 5.127346488870605e+000
 4.665183683563836e-002	 1.749378062660108e+000	 5.231400290259263e+000
 3.104715597144734e-002	 1.749724570926687e+000	 5.346474797579703e+000
 1.549602437885631e-002	 1.749931391005967e+000	 5.473000032673372e+000
 0.000000000000000e+000	 1.750000000000000e+000	 5.611415287386033e+000
 1.750000000000000e+000	 0.000000000000000e+000	 1.275719865485315e+001
 1.749931391005967e+000	 1.549602437885581e-002	 1.284145203390727e+001
 1.749724570926687e+000	 3.104715597144690e-002	 1.291431286938523e+001
 1.749378062660108e+000	 4.665183683563796e-002	 1.297578490536799e+001
 1.748890406620027e+000	 6.230847154497111e-002	 1.302587960130589e+001
 1.748260161732354e+000	 7.801542725524825e-002	 1.306461614354427e+001
 1.747485906439909e+000	 9.377103379879266e-002	 1.309202144588714e+001
 1.746566239714984e+000	 1.095735838069920e-001	 1.310813013904008e+001
 1.745499782078859e+000	 1.254213328617057e-001	 1.311298454879734e+001
 1.744285176627427e+000	 1.413124996760966e-001	 1.310663466286482e+001
 1.742921090062065e+000	 1.572452663054261e-001	 1.308913808623725e+001
 1.775000000000000e+000	 0.000000000000000e+000	 1.285941168983277e+001
 1.774930410877498e+000	 1.571739615545324e-002	 1.293505708127423e+001
 1.774720636225708e+000	 3.149068677062703e-002	 1.299950836695986e+001
 1.774369177841122e+000	 4.731829164707072e-002	 1.305275693304547e+001
 1.773874555286303e+000	 6.319859256652066e-002	 1.309480143104780e+001
 1.773235306900391e+000	 7.912993335843395e-002	 1.312564778475345e+001
 1.772449990818246e+000	 9.511061999559638e-002	 1.314530918648588e+001
 1.771517185997479e+000	 1.111389207184163e-001	 1.315380608259436e+001
 1.770435493252530e+000	 1.272130661884946e-001	 1.315116614805396e+001
 1.769203536294951e+000	 1.433312496720404e-001	 1.313742425009189e+001
 1.767819962778993e+000	 1.594916272536765e-001	 1.311262240078321e+001
 1.800000000000000e+000	 0.000000000000000e+000	 1.299892661673709e+001
 1.799929430749029e+000	 1.593876793205066e-002	 1.306420953692452e+001
 1.799716701524729e+000	 3.193421756980716e-002	 1.311848770463497e+001
 1.799360293022134e+000	 4.798474645850345e-002	 1.316174092398818e+001
 1.798858703952579e+000	 6.408871358807020e-002	 1.319395583040624e+001
 1.798210452068427e+000	 8.024443946161962e-002	 1.321512589240126e+001
 1.797414075196582e+000	 9.645020619240008e-002	 1.322525140300905e+001
 1.796468132279973e+000	 1.127042576298405e-001	 1.322433946075520e+001
 1.795371204426202e+000	 1.290047995152835e-001	 1.321240394006652e+001
 1.794121895962474e+000	 1.453499996679842e-001	 1.318946545106759e+001
 1.792718835495921e+000	 1.617379882019268e-001	 1.315555128872995e+001
 1.825000000000000e+000	 0.000000000000000e+000	 1.317489001726798e+001
 1.824928450620559e+000	 1.616013970864808e-002	 1.322809886203912e+001
 1.824712766823750e+000	 3.237774836898728e-002	 1.327048366868555e+001
 1.824351408203147e+000	 4.865120126993620e-002	 1.330201342665861e+001
 1.823842852618855e+000	 6.497883460961976e-002	 1.332266353819994e+001
 1.823185597236464e+000	 8.135894556480529e-002	 1.333241581449902e+001
 1.822378159574919e+000	 9.778979238920375e-002	 1.333125846175193e+001
 1.821419078562467e+000	 1.142695945412647e-001	 1.331918605703126e+001
 1.820306915599873e+000	 1.307965328420725e-001	 1.329619951390384e+001
 1.819040255629999e+000	 1.473687496639279e-001	 1.326230603776041e+001
 1.817617708212850e+000	 1.639843491501772e-001	 1.321751907084990e+001
 1.850000000000000e+000	 0.000000000000000e+000	 1.338649460384605e+001
 1.849927470492090e+000	 1.638151148524551e-002	 1.342595765248338e+001
 1.849708832122770e+000	 3.282127916816741e-002	 1.345476916142412e+001
 1.849342523384160e+000	 4.931765608136893e-002	 1.347288806518902e+001
 1.848827001285130e+000	 6.586895563116929e-002	 1.348027930774746e+001
 1.848160742404501e+000	 8.247345166799099e-002	 1.347691383253068e+001
 1.847342243953256e+000	 9.912937858600747e-002	 1.346276856256952e+001
 1.846370024844962e+000	 1.158349314526890e-001	 1.343782637069027e+001
 1.845242626773545e+000	 1.325882661688615e-001	 1.340207603972914e+001
 1.843958615297522e+000	 1.493874996598717e-001	 1.335551221275405e+001
 1.842516580929779e+000	 1.662307100984275e-001	 1.329813533331205e+001
 1.875000000000000e+000	 0.000000000000000e+000	 1.363297614422941e+001
 1.874926490363621e+000	 1.660288326184293e-002	 1.365705876316137e+001
 1.874704897421792e+000	 3.326480996734755e-002	 1.367065452679819e+001
 1.874333638565173e+000	 4.998411089280167e-002	 1.367371306767016e+001
 1.873811149951406e+000	 6.675907665271885e-002	 1.366618963923389e+001
 1.873135887572538e+000	 8.358795777117666e-002	 1.364804509922134e+001
 1.872306328331592e+000	 1.004689647828112e-001	 1.361924588330597e+001
 1.871320971127457e+000	 1.174002683641133e-001	 1.357976396904178e+001
 1.870178337947217e+000	 1.343799994956504e-001	 1.352957683006039e+001
 1.868876974965046e+000	 1.514062496558155e-001	 1.346866738053984e+001
 1.867415453646707e+000	 1.684770710466778e-001	 1.339702390998900e+001
 1.900000000000000e+000	 0.000000000000000e+000	 1.326239450026605e+001
 1.899925510235152e+000	 1.682425503844034e-002	 1.330165938133298e+001
 1.899700962720813e+000	 3.370834076652769e-002	 1.333328825871099e+001
 1.899324753746186e+000	 5.065056570423442e-002	 1.335672896947585e+001
 1.898795298617682e+000	 6.764919767426840e-002	 1.337145276608433e+001
 1.898111032740575e+000	 8.470246387436234e-002	 1.337695569043341e+001
 1.897270412709929e+000	 1.018085509796149e-001	 1.337275993595866e+001
 1.896271917409951e+000	 1.189656052755375e-001	 1.335841519442075e+001
 1.895114049120888e+000	 1.361717328224393e-001	 1.333349998395198e+001
 1.893795334632570e+000	 1.534249996517592e-001	 1.329762295486487e+001
 1.892314326363635e+000	 1.707234319949282e-001	 1.325042416966253e+001
 1.925000000000000e+000	 0.000000000000000e+000	 1.289764975760968e+001
 1.924924530106683e+000	 1.704562681503777e-002	 1.294988337255620e+001
 1.924697028019834e+000	 3.415187156570781e-002	 1.299403080666587e+001
 1.924315868927199e+000	 5.131702051566717e-002	 1.302950197725645e+001
 1.923779447283957e+000	 6.853931869581795e-002	 1.305573089631122e+001
 1.923086177908611e+000	 8.581696997754799e-002	 1.307217710702472e+001
 1.922234497088266e+000	 1.031481371764186e-001	 1.307832710839616e+001
 1.921222863692445e+000	 1.205309421869617e-001	 1.307369576438914e+001
 1.920049760294560e+000	 1.379634661492283e-001	 1.305782769409468e+001
 1.918713694300094e+000	 1.554437496477030e-001	 1.303029863926166e+001
 1.917213199080564e+000	 1.729697929431785e-001	 1.299071680549271e+001
 1.950000000000000e+000	 0.000000000000000e+000	 1.253809071757929e+001
 1.949923549978213e+000	 1.726699859163519e-002	 1.260290936943790e+001
 1.949693093318855e+000	 3.459540236488794e-002	 1.265914610300765e+001
 1.949306984108212e+000	 5.198347532709990e-002	 1.270617260487612e+001
 1.948763595950233e+000	 6.942943971736748e-002	 1.274338538643113e+001
 1.948061323076648e+000	 8.693147608073368e-002	 1.277020728459587e+001
 1.947198581466602e+000	 1.044877233732223e-001	 1.278608895058485e+001
 1.946173809974940e+000	 1.220962790983860e-001	 1.279051032306399e+001
 1.944985471468231e+000	 1.397551994760172e-001	 1.278298208201273e+001
 1.943632053967617e+000	 1.574624996436467e-001	 1.276304707950945e+001
 1.942112071797492e+000	 1.752161538914288e-001	 1.273028174359199e+001
 1.975000000000000e+000	 0.000000000000000e+000	 1.218309915357895e+001
 1.974922569849744e+000	 1.748837036823261e-002	 1.226016009767477e+001
 1.974689158617876e+000	 3.503893316406807e-002	 1.232809729742623e+001
 1.974298099289225e+000	 5.264993013853264e-002	 1.238624387702887e+001
 1.973747744616509e+000	 7.031956073891704e-002	 1.243395856681859e+001
 1.973036468244684e+000	 8.804598218391935e-002	 1.247062726992800e+001
 1.972162665844939e+000	 1.058273095700260e-001	 1.249566461690121e+001
 1.971124756257434e+000	 1.236616160098102e-001	 1.250851550451004e+001
 1.969921182641903e+000	 1.415469328028062e-001	 1.250865661492650e+001
 1.968550413635141e+000	 1.594812496395905e-001	 1.249559791132470e+001
 1.967010944514421e+000	 1.774625148396792e-001	 1.246888410591355e+001
 2.000000000000000e+000	 0.000000000000000e+000	 1.183208775034251e+001
 1.999921589721275e+000	 1.770974214483003e-002	 1.192108718670678e+001
 1.999685223916896e+000	 3.548246396324820e-002	 1.200037442061618e+001
 1.999289214470237e+000	 5.331638494996539e-002	 1.206924366211997e+001
 1.998731893282784e+000	 7.120968176046656e-002	 1.212701556032672e+001
 1.998011613412721e+000	 8.916048828710502e-002	 1.217303883774236e+001
 1.997126750223276e+000	 1.071668957668297e-001	 1.220669191246834e+001
 1.996075702539929e+000	 1.252269529212345e-001	 1.222738450435884e+001
 1.994856893815574e+000	 1.433386661295951e-001	 1.223455922114306e+001
 1.993468773302665e+000	 1.614999996355342e-001	 1.222769312043358e+001
 1.991909817231349e+000	 1.797088757879295e-001	 1.220629924346666e+001
 1.742921090062065e+000	 1.572452663054261e-001	 1.308913808623725e+001
 1.741406213725087e+000	 1.732177783889446e-001	 1.316504588761263e+001
 1.739739264638117e+000	 1.892281454215080e-001	 1.322965049913550e+001
 1.737918986542895e+000	 2.052744410566007e-001	 1.328296020268463e+001
 1.735944150944025e+000	 2.213547034424478e-001	 1.332498970993820e+001
 1.733813558151911e+000	 2.374669355897513e-001	 1.335576010595360e+001
 1.731526038325072e+000	 2.536091057720335e-001	 1.337529878345102e+001
 1.729080452510761e+000	 2.697791479589111e-001	 1.338363936791564e+001
 1.726475693682788e+000	 2.859749622825958e-001	 1.338082163366218e+001
 1.723710687775430e+000	 3.021944155378738e-001	 1.336689141103497e+001
 1.720784394712270e+000	 3.184353417157770e-001	 1.334190048494520e+001
 1.767819962778993e+000	 1.594916272536765e-001	 1.311262240078321e+001
 1.766283445351817e+000	 1.756923180816826e-001	 1.317888346232259e+001
 1.764592682706736e+000	 1.919314046435942e-001	 1.323431430558071e+001
 1.762746400638945e+000	 2.082069330736586e-001	 1.327892442367772e+001
 1.760743353103111e+000	 2.245169134936454e-001	 1.331272924243576e+001
 1.758582323271217e+000	 2.408593203858372e-001	 1.333575004580001e+001
 1.756262124589759e+000	 2.572320929990908e-001	 1.334801389214281e+001
 1.753781601835235e+000	 2.736331357883019e-001	 1.334955352160943e+001
 1.751139632166797e+000	 2.900603188875702e-001	 1.334040725469405e+001
 1.748335126174922e+000	 3.065114786173201e-001	 1.332061888226441e+001
 1.745367028924961e+000	 3.229844180255974e-001	 1.329023754728451e+001
 1.792718835495921e+000	 1.617379882019268e-001	 1.315555128872995e+001
 1.791160676978547e+000	 1.781668577744254e-001	 1.321115546849902e+001
 1.789446100775357e+000	 1.946346638656997e-001	 1.325639261753015e+001
 1.787573814734995e+000	 2.111394250907599e-001	 1.329127394478364e+001
 1.785542555262198e+000	 2.276791235449205e-001	 1.331581610354287e+001
 1.783351088390523e+000	 2.442517051820444e-001	 1.333004109816809e+001
 1.780998210854445e+000	 2.608550802263233e-001	 1.333397618189177e+001
 1.778482751159709e+000	 2.774871236179322e-001	 1.332765374585841e+001
 1.775803570650804e+000	 2.941456754928580e-001	 1.331111119964193e+001
 1.772959564574414e+000	 3.108285416971645e-001	 1.328439084350676e+001
 1.769949663137651e+000	 3.275334943359103e-001	 1.324753973270824e+001
 1.817617708212850e+000	 1.639843491501772e-001	 1.321751907084990e+001
 1.816037908605277e+000	 1.806413974671730e-001	 1.326147031583158e+001
 1.814299518843976e+000	 1.973379230878244e-001	 1.329550864966383e+001
 1.812401228831045e+000	 2.140719171079046e-001	 1.331964750562242e+001
 1.810341757421285e+000	 2.308413335962730e-001	 1.333390528123850e+001
 1.808119853509829e+000	 2.476440899783729e-001	 1.333830522586273e+001
 1.805734297119132e+000	 2.644780674537310e-001	 1.333287531940873e+001
 1.803183900484183e+000	 2.813411114478015e-001	 1.331764814252275e+001
 1.800467509134812e+000	 2.982310320984592e-001	 1.329266073845983e+001
 1.797584002973906e+000	 3.151456047774064e-001	 1.325795446697839e+001
 1.794532297350343e+000	 3.320825706467159e-001	 1.321357485059859e+001
 1.842516580929779e+000	 1.662307100984275e-001	 1.329813533331205e+001
 1.840915140232007e+000	 1.831159371599254e-001	 1.332945027427420e+001
 1.839152936912596e+000	 2.000411823099683e-001	 1.335129803904482e+001
 1.837228642927096e+000	 2.170044091250926e-001	 1.336369479781795e+001
 1.835140959580371e+000	 2.340035436477028e-001	 1.336666121290168e+001
 1.832888618629135e+000	 2.510364747748227e-001	 1.336022230655639e+001
 1.830470383383819e+000	 2.681010546813140e-001	 1.334440732012871e+001
 1.827885049808657e+000	 2.851950992779102e-001	 1.331924956477412e+001
 1.825131447618820e+000	 3.023163887043739e-001	 1.328478626409439e+001
 1.822208441373397e+000	 3.194626678580462e-001	 1.324105838905052e+001
 1.819114931563034e+000	 3.366316469580142e-001	 1.318811048554539e+001
 1.867415453646707e+000	 1.684770710466778e-001	 1.339702390998900e+001
 1.865792371858737e+000	 1.855904768526825e-001	 1.341473055002746e+001
 1.864006354981215e+000	 2.027444415321316e-001	 1.342340801696023e+001
 1.862056057023146e+000	 2.199369011423241e-001	 1.342307573486426e+001
 1.859940161739459e+000	 2.371657536992101e-001	 1.341375715535159e+001
 1.857657383748441e+000	 2.544288595713938e-001	 1.339547960513119e+001
 1.855206469648505e+000	 2.717240419090723e-001	 1.336827412496288e+001
 1.852586199133131e+000	 2.890490871082582e-001	 1.333217530034149e+001
 1.849795386102829e+000	 3.064017453106021e-001	 1.328722108428537e+001
 1.846832879772890e+000	 3.237797309390840e-001	 1.323345261263885e+001
 1.843697565775724e+000	 3.411807232698052e-001	 1.317091401233240e+001
 1.892314326363635e+000	 1.707234319949282e-001	 1.325042416966253e+001
 1.890669603485467e+000	 1.880650165454445e-001	 1.329293613351568e+001
 1.888859773049835e+000	 2.054477007543140e-001	 1.332559497168931e+001
 1.886883471119196e+000	 2.228693931595990e-001	 1.334817421618331e+001
 1.884739363898545e+000	 2.403279637507948e-001	 1.336048258664715e+001
 1.882426148867748e+000	 2.578212443680863e-001	 1.336236502947608e+001
 1.879942555913192e+000	 2.753470291370057e-001	 1.335370370874358e+001
 1.877287348457605e+000	 2.929030749388453e-001	 1.333441894532487e+001
 1.874459324586836e+000	 3.104871019171435e-001	 1.329970122980296e+001
 1.871457318172382e+000	 3.280967940205198e-001	 1.323488841729922e+001
 1.868280199988416e+000	 3.457297995820888e-001	 1.316175260974026e+001
 1.917213199080564e+000	 1.729697929431785e-001	 1.299071680549271e+001
 1.915546835112197e+000	 1.905395562382112e-001	 1.304200419467156e+001
 1.913713191118454e+000	 2.081509599765156e-001	 1.308301653902090e+001
 1.911710885215246e+000	 2.258018851769173e-001	 1.311351506852314e+001
 1.909538566057631e+000	 2.434901738024568e-001	 1.313329746665540e+001
 1.907194913987054e+000	 2.612136291649000e-001	 1.314219894961449e+001
 1.904678642177878e+000	 2.789700163651144e-001	 1.314009329559227e+001
 1.901988497782079e+000	 2.967570627696717e-001	 1.312689382031713e+001
 1.899123263070844e+000	 3.145724585239985e-001	 1.310255429509978e+001
 1.896081756571874e+000	 3.324138571023534e-001	 1.306706980365907e+001
 1.892862834201107e+000	 3.502788758948651e-001	 1.302047753405149e+001
 1.942112071797492e+000	 1.752161538914288e-001	 1.273028174359199e+001
 1.940424066738927e+000	 1.930140959309828e-001	 1.279012367864490e+001
 1.938566609187074e+000	 2.108542191987364e-001	 1.283921532278887e+001
 1.936538299311296e+000	 2.287343771942789e-001	 1.287730555601396e+001
 1.934337768216718e+000	 2.466523838541962e-001	 1.290418104278417e+001
 1.931963679106360e+000	 2.646060139618351e-001	 1.291966735277128e+001
 1.929414728442565e+000	 2.825930035933983e-001	 1.292363002977659e+001
 1.926689647106553e+000	 3.006110506007373e-001	 1.291597560491199e+001
 1.923787201554852e+000	 3.186578151311670e-001	 1.289665255013578e+001
 1.920706194971366e+000	 3.367309201845848e-001	 1.286565216827690e+001
 1.917445468413798e+000	 3.548279522081341e-001	 1.282300941573183e+001
 1.967010944514421e+000	 1.774625148396792e-001	 1.246888410591355e+001
 1.965301298365657e+000	 1.954886356237591e-001	 1.253707072351513e+001
 1.963420027255694e+000	 2.135574784209764e-001	 1.259397803260548e+001
 1.961365713407346e+000	 2.316668692116840e-001	 1.263934251138926e+001
 1.959136970375806e+000	 2.498145939060131e-001	 1.267293981931757e+001
 1.956732444225666e+000	 2.679983987588914e-001	 1.269458596072782e+001
 1.954150814707251e+000	 2.862159908218574e-001	 1.270413839473134e+001
 1.951390796431027e+000	 3.044650384320423e-001	 1.270149708727133e+001
 1.948451140038860e+000	 3.227431717386489e-001	 1.268660550129884e+001
 1.945330633370858e+000	 3.410479832672143e-001	 1.265945152105344e+001
 1.942028102626488e+000	 3.593770285218957e-001	 1.262006830648868e+001
 1.991909817231349e+000	 1.797088757879295e-001	 1.220629924346666e+001
 1.990178529992387e+000	 1.979631753165402e-001	 1.228263075486491e+001
 1.988273445324313e+000	 2.162607376432357e-001	 1.234709970208891e+001
 1.986193127503396e+000	 2.345993612291324e-001	 1.239943010611494e+001
 1.983936172534892e+000	 2.529768039579074e-001	 1.243938663240561e+001
 1.981501209344972e+000	 2.713907835560692e-001	 1.246677579886987e+001
 1.978886900971938e+000	 2.898389780504917e-001	 1.248144712805246e+001
 1.976091945755501e+000	 3.083190262635864e-001	 1.248329423932171e+001
 1.973115078522868e+000	 3.268285283464442e-001	 1.247225587685008e+001
 1.969955071770350e+000	 3.453650463502415e-001	 1.244831686922311e+001
 1.966610736839180e+000	 3.639261048361500e-001	 1.241150901656707e+001
 1.720784394712270e+000	 3.184353417157770e-001	 1.334190048494520e+001
 1.717695809428702e+000	 3.346955425703510e-001	 1.342495023482987e+001
 1.714443962887209e+000	 3.509727882210215e-001	 1.349765539409437e+001
 1.711027923084025e+000	 3.672648177889563e-001	 1.356018205119561e+001
 1.707446796045747e+000	 3.835693400660090e-001	 1.361270298466183e+001
 1.703699726814957e+000	 3.998840342185867e-001	 1.365539744065520e+001
 1.699785900423492e+000	 4.162065505255865e-001	 1.368845090039214e+001
 1.695704542852120e+000	 4.325345111503019e-001	 1.371205483787839e+001
 1.691454921975343e+000	 4.488655109461449e-001	 1.372640646844984e+001
 1.687036348490034e+000	 4.651971182959881e-001	 1.373170848864276e+001
 1.682448176826651e+000	 4.815268759848673e-001	 1.372816880794896e+001
 1.745367028924961e+000	 3.229844180255974e-001	 1.329023754728451e+001
 1.742234320994296e+000	 3.394769074630900e-001	 1.337364730691681e+001
 1.738936019502071e+000	 3.559866851939452e-001	 1.344691730507329e+001
 1.735471179130182e+000	 3.725114580410630e-001	 1.351019379252380e+001
 1.731838893134178e+000	 3.890489020647538e-001	 1.356362902740027e+001
 1.728038294342963e+000	 4.055966632766609e-001	 1.360738105304022e+001
 1.724068556145973e+000	 4.221523583882386e-001	 1.364161346665455e+001
 1.719928893466559e+000	 4.387135755936855e-001	 1.366649517931194e+001
 1.715618563720287e+000	 4.552778753871787e-001	 1.368220016776449e+001
 1.711136867756843e+000	 4.718427914142042e-001	 1.368890721867179e+001
 1.706483150784262e+000	 4.884058313567285e-001	 1.368679966581036e+001
 1.769949663137651e+000	 3.275334943359103e-001	 1.324753973270824e+001
 1.766772832559885e+000	 3.442582723564071e-001	 1.332951254698446e+001
 1.763428076116914e+000	 3.610005821675034e-001	 1.340155138226321e+001
 1.759914435176295e+000	 3.777580982938316e-001	 1.346378356092314e+001
 1.756230990222532e+000	 3.945284640641586e-001	 1.351634173400053e+001
 1.752376861870848e+000	 4.113092923353629e-001	 1.355936365836617e+001
 1.748351211868279e+000	 4.280981662514562e-001	 1.359299196567510e+001
 1.744153244080758e+000	 4.448926400375424e-001	 1.361737392361696e+001
 1.739782205464916e+000	 4.616902398285627e-001	 1.363266119002854e+001
 1.735237387023252e+000	 4.784884645326172e-001	 1.363900956045891e+001
 1.730518124741380e+000	 4.952847867286022e-001	 1.363657870980866e+001
 1.794532297350343e+000	 3.320825706467159e-001	 1.321357485059859e+001
 1.791311344125469e+000	 3.490396372503026e-001	 1.329236442222423e+001
 1.787920132731737e+000	 3.660144791416965e-001	 1.336142726506615e+001
 1.784357691222366e+000	 3.830047385472624e-001	 1.342087266751009e+001
 1.780623087310807e+000	 4.000080260642229e-001	 1.347081457130930e+001
 1.776715429398611e+000	 4.170219213946926e-001	 1.351137134714706e+001
 1.772633867590408e+000	 4.340439741152394e-001	 1.354266556290193e+001
 1.768377594694716e+000	 4.510717044818725e-001	 1.356482374518231e+001
 1.763945847209231e+000	 4.681026042702975e-001	 1.357797613472826e+001
 1.759337906289262e+000	 4.851341376512273e-001	 1.358225643630794e+001
 1.754553098698004e+000	 5.021637421004885e-001	 1.357780156376471e+001
 1.819114931563034e+000	 3.366316469580142e-001	 1.318811048554539e+001
 1.815849855691049e+000	 3.538210021447762e-001	 1.326201787341159e+001
 1.812412189346542e+000	 3.710283761165244e-001	 1.332640774754083e+001
 1.808800947268393e+000	 3.882513788013551e-001	 1.338137224306749e+001
 1.805015184399005e+000	 4.054875880649472e-001	 1.342700747605356e+001
 1.801053996926252e+000	 4.227345504546500e-001	 1.346341331648712e+001
 1.796916523312362e+000	 4.399897819795883e-001	 1.349069315489660e+001
 1.792601945308435e+000	 4.572507689266762e-001	 1.350895366318717e+001
 1.788109488953231e+000	 4.745149687123827e-001	 1.351830455033545e+001
 1.783438425554874e+000	 4.917798107700344e-001	 1.351885831360824e+001
 1.778588072654134e+000	 5.090426974723874e-001	 1.351072998599820e+001
 1.843697565775724e+000	 3.411807232698052e-001	 1.317091401233240e+001
 1.840388367256623e+000	 3.586023670398280e-001	 1.323828455000049e+001
 1.836904245961327e+000	 3.760422730919869e-001	 1.329634923475884e+001
 1.833244203314375e+000	 3.934980190561099e-001	 1.334518391673357e+001
 1.829407281487125e+000	 4.109671500663312e-001	 1.338486775684848e+001
 1.825392564453771e+000	 4.284471795152351e-001	 1.341548299630806e+001
 1.821199179034139e+000	 4.459355898445029e-001	 1.343711472059302e+001
 1.816826295921914e+000	 4.634298333719530e-001	 1.344985061861508e+001
 1.812273130696917e+000	 4.809273331548185e-001	 1.345378073770847e+001
 1.807538944820086e+000	 4.984254838890383e-001	 1.344899723516256e+001
 1.802623046609771e+000	 5.159216528442988e-001	 1.343559412702796e+001
 1.868280199988416e+000	 3.457297995820888e-001	 1.316175260974026e+001
 1.864926878822192e+000	 3.633837319354581e-001	 1.322097302665767e+001
 1.861396302576093e+000	 3.810561700680843e-001	 1.327110216313284e+001
 1.857687459360315e+000	 3.987446593115267e-001	 1.331220044111017e+001
 1.853799378575167e+000	 4.164467120683749e-001	 1.334433092499430e+001
 1.849731131981168e+000	 4.341598085764481e-001	 1.336755908666390e+001
 1.845481834755741e+000	 4.518813977099830e-001	 1.338195256587832e+001
 1.841050646535153e+000	 4.696088978177034e-001	 1.338758092676686e+001
 1.836436772440289e+000	 4.873396975976047e-001	 1.338451541111950e+001
 1.831639464084900e+000	 5.050711570082394e-001	 1.337282868922563e+001
 1.826658020564913e+000	 5.228006082162227e-001	 1.335259460903248e+001
 1.892862834201107e+000	 3.502788758948651e-001	 1.302047753405149e+001
 1.889465390387757e+000	 3.681650968316664e-001	 1.310490967148115e+001
 1.885888359190838e+000	 3.860700670448166e-001	 1.317734771687892e+001
 1.882130715406210e+000	 4.039912995676054e-001	 1.323795604028103e+001
 1.878191475663132e+000	 4.219262740710784e-001	 1.328694468806035e+001
 1.874069699508444e+000	 4.398724376382887e-001	 1.331960651422564e+001
 1.869764490477167e+000	 4.578272055760289e-001	 1.332521247119324e+001
 1.865274997148151e+000	 4.757879622639268e-001	 1.332219161659053e+001
 1.860600414183346e+000	 4.937520620407415e-001	 1.331059722985106e+001
 1.855739983349315e+000	 5.117168301276374e-001	 1.329048333382539e+001
 1.850692994519563e+000	 5.296795635881593e-001	 1.326190444327475e+001
 1.917445468413798e+000	 3.548279522081341e-001	 1.282300941573183e+001
 1.914003901953317e+000	 3.729464617284529e-001	 1.291171657770105e+001
 1.910380415805565e+000	 3.910839640221834e-001	 1.298767290546406e+001
 1.906573971452062e+000	 4.092379398243463e-001	 1.305103218011701e+001
 1.902583572751019e+000	 4.274058360744414e-001	 1.310199549448077e+001
 1.898408267035597e+000	 4.455850667007568e-001	 1.314081171270004e+001
 1.894047146198417e+000	 4.637730134426404e-001	 1.316777784050096e+001
 1.889499347760909e+000	 4.819670267106236e-001	 1.318323930298336e+001
 1.884764055926089e+000	 5.001644264842287e-001	 1.318759012699069e+001
 1.879840502613331e+000	 5.183625032472325e-001	 1.318127302528184e+001
 1.874727968473718e+000	 5.365585189601085e-001	 1.316367080003268e+001
 1.942028102626488e+000	 3.593770285218957e-001	 1.262006830648868e+001
 1.938542413518873e+000	 3.777278266258178e-001	 1.271177131064730e+001
 1.934872472420273e+000	 3.960978610001851e-001	 1.278991960549094e+001
 1.931017227497871e+000	 4.144845800817492e-001	 1.285465730038773e+001
 1.926975669838828e+000	 4.328853980784646e-001	 1.290617752845207e+001
 1.922746834562629e+000	 4.512976957638528e-001	 1.294472293590270e+001
 1.918329801919491e+000	 4.697188213098174e-001	 1.297058607902075e+001
 1.913723698373428e+000	 4.881460911577938e-001	 1.298410972545412e+001
 1.908927697668517e+000	 5.065767909280665e-001	 1.298568705678641e+001
 1.903941021876948e+000	 5.250081763670246e-001	 1.297576176947645e+001
 1.898762942427380e+000	 5.434374743320701e-001	 1.295482807147648e+001
 1.966610736839180e+000	 3.639261048361500e-001	 1.241150901656707e+001
 1.963080925084422e+000	 3.825091915237607e-001	 1.250495416382589e+001
 1.959364529034961e+000	 4.011117579788214e-001	 1.258399297118410e+001
 1.955460483543635e+000	 4.197312203398140e-001	 1.264876078755325e+001
 1.951367766926559e+000	 4.383649600831473e-001	 1.269944377501341e+001
 1.947085402089539e+000	 4.570103248275765e-001	 1.273627942815678e+001
 1.942612457640389e+000	 4.756646291775601e-001	 1.275955699784419e+001
 1.937948048985706e+000	 4.943251556054373e-001	 1.276961781598780e+001
 1.933091339410632e+000	 5.129891553722548e-001	 1.276685551814969e+001
 1.928041541140166e+000	 5.316538494870136e-001	 1.275171616094179e+001
 1.922797916380548e+000	 5.503164297040443e-001	 1.272469823141956e+001
 1.682448176826651e+000	 4.815268759848673e-001	 1.372816880794896e+001
 1.677689806041381e+000	 4.978523021060258e-001	 1.374916617978425e+001
 1.672760680688981e+000	 5.141708909989885e-001	 1.376332873270815e+001
 1.667660291674265e+000	 5.304801142200817e-001	 1.377043853426911e+001
 1.662388177080357e+000	 5.467774215453340e-001	 1.377027361002174e+001
 1.656943922973434e+000	 5.630602420043450e-001	 1.376260796141498e+001
 1.651327164182347e+000	 5.793259849448745e-001	 1.374721159523999e+001
 1.645537585051869e+000	 5.955720411275248e-001	 1.372385056515581e+001
 1.639574920168338e+000	 6.117957838498270e-001	 1.369228702579389e+001
 1.633438955056452e+000	 6.279945700989933e-001	 1.370736671910387e+001
 1.627129526846032e+000	 6.441657417325339e-001	 1.395599843581313e+001
 1.706483150784262e+000	 4.884058313567285e-001	 1.368679966581036e+001
 1.701656803273777e+000	 5.049644778520136e-001	 1.368894999125062e+001
 1.696657261845163e+000	 5.215161894442626e-001	 1.368522331889269e+001
 1.691484010130446e+000	 5.380584015691766e-001	 1.367543313510545e+001
 1.686136579613939e+000	 5.545885275710121e-001	 1.365938810161137e+001
 1.680614550448476e+000	 5.711039597512188e-001	 1.363689202451538e+001
 1.674917552246178e+000	 5.876020704482378e-001	 1.360774383535572e+001
 1.669045264842459e+000	 6.040802131478213e-001	 1.357173758479671e+001
 1.662997419032029e+000	 6.205357236231794e-001	 1.352866244956639e+001
 1.656773797275656e+000	 6.369659211041965e-001	 1.369091131238022e+001
 1.650374234376445e+000	 6.533681094749184e-001	 1.392435965537518e+001
 1.730518124741380e+000	 4.952847867286022e-001	 1.363657870980866e+001
 1.725623800505588e+000	 5.120766535978284e-001	 1.362077188050115e+001
 1.720553843000689e+000	 5.288614878892073e-001	 1.360003422100186e+001
 1.715307728585921e+000	 5.456366889178151e-001	 1.357421023714856e+001
 1.709884982146783e+000	 5.623996335961364e-001	 1.354313882049102e+001
 1.704285177922769e+000	 5.791476774974712e-001	 1.350665316849233e+001
 1.698507940309269e+000	 5.958781559509419e-001	 1.346458071723174e+001
 1.692552944632335e+000	 6.125883851674518e-001	 1.341674308733111e+001
 1.686419917895057e+000	 6.292756633958881e-001	 1.343605802601605e+001
 1.680108639494266e+000	 6.459372721088099e-001	 1.366085347671643e+001
 1.673618941906352e+000	 6.625704772167977e-001	 1.387884637221594e+001
 1.754553098698004e+000	 5.021637421004885e-001	 1.357780156376471e+001
 1.749590797736816e+000	 5.191888293434703e-001	 1.354487419836737e+001
 1.744450424155561e+000	 5.362067863338228e-001	 1.350795175016273e+001
 1.739131447040689e+000	 5.532149762659974e-001	 1.346690937795462e+001
 1.733633384678889e+000	 5.702107396207069e-001	 1.342161582909982e+001
 1.727955805396312e+000	 5.871913952431020e-001	 1.337193331087633e+001
 1.722098328371618e+000	 6.041542414529870e-001	 1.331771737484943e+001
 1.716060624421499e+000	 6.210965571864155e-001	 1.325881681506061e+001
 1.709842416757420e+000	 6.380156031679537e-001	 1.340809411838883e+001
 1.703443481712281e+000	 6.549086231128336e-001	 1.361572095454353e+001
 1.696863649435754e+000	 6.717728449581719e-001	 1.381791391324482e+001
 1.778588072654134e+000	 5.090426974723874e-001	 1.351072998599820e+001
 1.773557794967459e+000	 5.263010050889394e-001	 1.346146787020639e+001
 1.768347005309778e+000	 5.435520847781091e-001	 1.340913717990235e+001
 1.762955165494752e+000	 5.607932636137234e-001	 1.335364339177275e+001
 1.757381787210256e+000	 5.780218456447236e-001	 1.329488476586898e+001
 1.751626432869105e+000	 5.952351129881116e-001	 1.323275216809993e+001
 1.745688716433225e+000	 6.124303269543731e-001	 1.316712890623643e+001
 1.739568304209950e+000	 6.296047292047130e-001	 1.316969502946812e+001
 1.733264915619120e+000	 6.467555429393755e-001	 1.336399025796160e+001
 1.726778323929702e+000	 6.638799741162679e-001	 1.355402758773067e+001
 1.720108356964651e+000	 6.809752126990409e-001	 1.374000562555787e+001
 1.802623046609771e+000	 5.159216528442988e-001	 1.343559412702796e+001
 1.797524792197518e+000	 5.334131808342354e-001	 1.337073449093258e+001
 1.792243586463340e+000	 5.508973832220659e-001	 1.330372468198759e+001
 1.786778883948108e+000	 5.683715509609929e-001	 1.323450018976560e+001
 1.781130189740887e+000	 5.858329516681865e-001	 1.316298847348904e+001
 1.775297060341149e+000	 6.032788307324997e-001	 1.308910873557073e+001
 1.769279104494092e+000	 6.207064124551002e-001	 1.301277170919690e+001
 1.763075983997688e+000	 6.381129012223440e-001	 1.312743005585483e+001
 1.756687414480155e+000	 6.554954827101545e-001	 1.330231786052549e+001
 1.750113166146527e+000	 6.728513251191123e-001	 1.347427424428911e+001
 1.743353064493043e+000	 6.901775804394048e-001	 1.364355367509198e+001
 1.826658020564913e+000	 5.228006082162227e-001	 1.335259460903248e+001
 1.821491789426993e+000	 5.405253565793585e-001	 1.327282825465210e+001
 1.816140167616247e+000	 5.582426816656935e-001	 1.319182310943599e+001
 1.810602602400758e+000	 5.759498383078062e-001	 1.310954439968600e+001
 1.804878592270779e+000	 5.936440576910959e-001	 1.302594849862952e+001
 1.798967687812443e+000	 6.113225484762663e-001	 1.294098265089683e+001
 1.792869492554217e+000	 6.289824979551679e-001	 1.290988907662150e+001
 1.786583663784714e+000	 6.466210732393086e-001	 1.306672280082373e+001
 1.780109913340527e+000	 6.642354224802899e-001	 1.322163449182166e+001
 1.773448008362758e+000	 6.818226761213672e-001	 1.337494967191576e+001
 1.766597772020930e+000	 6.993799481792635e-001	 1.352697978222754e+001
 1.850692994519563e+000	 5.296795635881593e-001	 1.326190444327475e+001
 1.845458786655884e+000	 5.476375323243089e-001	 1.316787773393605e+001
 1.840036748768498e+000	 5.655879801089916e-001	 1.307351764059020e+001
 1.834426320852702e+000	 5.835281256541631e-001	 1.297881887778692e+001
 1.828626994799934e+000	 6.014551637134511e-001	 1.288376647479767e+001
 1.822638315282988e+000	 6.193662662194114e-001	 1.278833545088674e+001
 1.816459880613602e+000	 6.372585834545771e-001	 1.285125228122623e+001
 1.810091343571027e+000	 6.551292452556068e-001	 1.298618676763819e+001
 1.803532412200234e+000	 6.729753622497819e-001	 1.312048476689551e+001
 1.796782850578394e+000	 6.907940271230323e-001	 1.325453128502644e+001
 1.789842479548311e+000	 7.085823159186171e-001	 1.338869590007122e+001
 1.874727968473718e+000	 5.365585189601085e-001	 1.316367080003268e+001
 1.869425783884192e+000	 5.547497080690862e-001	 1.305598752222674e+001
 1.863933329920095e+000	 5.729332785519605e-001	 1.294887129672556e+001
 1.858250039303940e+000	 5.911064130000637e-001	 1.284234610443023e+001
 1.852375397328350e+000	 6.092662697352527e-001	 1.273642539882306e+001
 1.846308942752784e+000	 6.274099839619354e-001	 1.265998091580706e+001
 1.840050268672244e+000	 6.455346689533270e-001	 1.277210196101496e+001
 1.833599023356627e+000	 6.636374172712385e-001	 1.288442177817344e+001
 1.826954911059278e+000	 6.817153020186307e-001	 1.299740118026933e+001
 1.820117692793435e+000	 6.997653781241080e-001	 1.311148589124826e+001
 1.813087187075188e+000	 7.177846836574655e-001	 1.322710484056351e+001
 1.898762942427380e+000	 5.434374743320701e-001	 1.295482807147648e+001
 1.893392781111915e+000	 5.618618838136904e-001	 1.286055851117045e+001
 1.887829911071037e+000	 5.802785769946003e-001	 1.276611904285931e+001
 1.882073757754471e+000	 5.986847003455078e-001	 1.267219325156556e+001
 1.876123799856030e+000	 6.170773757565005e-001	 1.257950463737351e+001
 1.869979570221829e+000	 6.354537017038378e-001	 1.258361387477632e+001
 1.863640656730146e+000	 6.538107544514178e-001	 1.267109253334927e+001
 1.857106703141514e+000	 6.721455892862038e-001	 1.276001483882731e+001
 1.850377409917658e+000	 6.904552417868360e-001	 1.285090487306408e+001
 1.843452535007881e+000	 7.087367291245937e-001	 1.294427036273554e+001
 1.836331894601559e+000	 7.269870513958089e-001	 1.304060085303327e+001
 1.922797916380548e+000	 5.503164297040443e-001	 1.272469823141956e+001
 1.917359778339054e+000	 5.689740595581219e-001	 1.262347086114853e+001
 1.911726492221324e+000	 5.876238754369104e-001	 1.252203226042439e+001
 1.905897476204296e+000	 6.062629876904957e-001	 1.242112400746392e+001
 1.899872202382971e+000	 6.248884817771945e-001	 1.232152936976112e+001
 1.893650197690125e+000	 6.434974194451186e-001	 1.240712416742111e+001
 1.887231044787307e+000	 6.620868399488499e-001	 1.249635437760430e+001
 1.880614382925689e+000	 6.806537613005027e-001	 1.258860286375328e+001
 1.873799908775373e+000	 6.991951815543979e-001	 1.267950634258707e+001
 1.866787377221733e+000	 7.177080801244901e-001	 1.275133225713675e+001
 1.859576602127425e+000	 7.361894191336469e-001	 1.282757015936121e+001
 1.627129526846032e+000	 6.441657417325339e-001	 1.395599843581313e+001
 1.620646524908150e+000	 6.603066266860092e-001	 1.395600174157217e+001
 1.613989891457657e+000	 6.764145402067767e-001	 1.394728025959718e+001
 1.607159622122281e+000	 6.924867861127354e-001	 1.392977899001678e+001
 1.600155766478270e+000	 7.085206580754373e-001	 1.390343188986802e+001
 1.592978428549762e+000	 7.245134409262325e-001	 1.386816111448259e+001
 1.585627767271442e+000	 7.404624119843857e-001	 1.382387627998352e+001
 1.578103996913506e+000	 7.563648424060108e-001	 1.377047374982411e+001
 1.570407387467962e+000	 7.722179985526128e-001	 1.370783594828856e+001
 1.562538264995355e+000	 7.880191433779770e-001	 1.363583070385253e+001
 1.554497011931069e+000	 8.037655378321177e-001	 1.355431062526923e+001
 1.650374234376445e+000	 6.533681094749184e-001	 1.392435965537518e+001
 1.643798618125084e+000	 6.697395784986904e-001	 1.390939235693645e+001
 1.637046889910957e+000	 6.860776050693964e-001	 1.388736506094677e+001
 1.630119045299331e+000	 7.023794544880483e-001	 1.385833151065168e+001
 1.623015134574688e+000	 7.186423817643651e-001	 1.382233324331087e+001
 1.615735263247222e+000	 7.348636329415725e-001	 1.377939867592412e+001
 1.608279592522115e+000	 7.510404464434977e-001	 1.372954221225983e+001
 1.600648339730568e+000	 7.671700544427710e-001	 1.367276337443571e+001
 1.592841778721614e+000	 7.832496842489189e-001	 1.360904596229293e+001
 1.584860240213809e+000	 7.992765597150675e-001	 1.353835724378770e+001
 1.576704112105899e+000	 8.152479026619461e-001	 1.346064717959149e+001
 1.673618941906352e+000	 6.625704772167977e-001	 1.387884637221594e+001
 1.666950711341602e+000	 6.791725303109569e-001	 1.385143941770905e+001
 1.660103888363913e+000	 6.957406699316718e-001	 1.381864151723882e+001
 1.653078468476089e+000	 7.122721228630687e-001	 1.378061472771456e+001
 1.645874502670843e+000	 7.287641054530311e-001	 1.373750770331783e+001
 1.638492097944431e+000	 7.452138249566624e-001	 1.368945462453995e+001
 1.630931417772529e+000	 7.616184809023505e-001	 1.363657414876430e+001
 1.623192682547342e+000	 7.779752664792431e-001	 1.357896838596452e+001
 1.615276169974930e+000	 7.942813699448880e-001	 1.351672190308713e+001
 1.607182215431858e+000	 8.105339760517517e-001	 1.344990076067043e+001
 1.598911212280233e+000	 8.267302674912782e-001	 1.337855158522306e+001
 1.696863649435754e+000	 6.717728449581719e-001	 1.381791391324482e+001
 1.690102804557706e+000	 6.886054821228079e-001	 1.378041278529976e+001
 1.683160886816524e+000	 7.054037347936031e-001	 1.373919608157966e+001
 1.676037891652553e+000	 7.221647912377956e-001	 1.369453384847480e+001
 1.668733870766737e+000	 7.388858291414350e-001	 1.364668149829957e+001
 1.661248932641390e+000	 7.555640169715013e-001	 1.359587858049988e+001
 1.653583243022685e+000	 7.721965153609443e-001	 1.354234757469717e+001
 1.645737025363828e+000	 7.887804785154274e-001	 1.348629270946677e+001
 1.637710561227909e+000	 8.053130556405201e-001	 1.342789881074952e+001
 1.629504190649500e+000	 8.217913923880298e-001	 1.336733018378238e+001
 1.621118312454071e+000	 8.382126323201146e-001	 1.330472953240610e+001
 1.720108356964651e+000	 6.809752126990409e-001	 1.374000562555787e+001
 1.713254897773396e+000	 6.980384339342446e-001	 1.369457841790179e+001
 1.706217885268792e+000	 7.150667996551902e-001	 1.364711931599899e+001
 1.698997314828725e+000	 7.320574596122293e-001	 1.359800613278885e+001
 1.691593238862369e+000	 7.490075528295770e-001	 1.354760078042745e+001
 1.684005767338098e+000	 7.659142089860900e-001	 1.349624788241302e+001
 1.676235068272581e+000	 7.827745498192790e-001	 1.344427340788952e+001
 1.668281368180025e+000	 7.995856905513236e-001	 1.339198333235742e+001
 1.660144952480550e+000	 8.163447413358156e-001	 1.333966232902547e+001
 1.651826165866736e+000	 8.330488087239013e-001	 1.328757249502738e+001
 1.643325412627414e+000	 8.496949971484549e-001	 1.323595211670150e+001
 1.743353064493043e+000	 6.901775804394048e-001	 1.364355367509198e+001
 1.736406990988670e+000	 7.074713857452664e-001	 1.359219863070634e+001
 1.729274883720715e+000	 7.247298645164332e-001	 1.354050561752175e+001
 1.721956738004603e+000	 7.419501279863704e-001	 1.348896008959454e+001
 1.714452606957739e+000	 7.591292765174572e-001	 1.343803029738291e+001
 1.706762602034556e+000	 7.762644010004284e-001	 1.338816573943200e+001
 1.698886893522218e+000	 7.933525842773546e-001	 1.333979563662787e+001
 1.690825710995935e+000	 8.103909025869319e-001	 1.329332743358630e+001
 1.682579343732855e+000	 8.273764270307737e-001	 1.324914533174940e+001
 1.674148141083565e+000	 8.443062250593668e-001	 1.320760885875679e+001
 1.665532512800260e+000	 8.611773619762990e-001	 1.316905147863417e+001
 1.766597772020930e+000	 6.993799481792635e-001	 1.352697978222754e+001
 1.759559084203529e+000	 7.169043375558731e-001	 1.347153233557379e+001
 1.752331882172295e+000	 7.343929293773318e-001	 1.341745296586584e+001
 1.744916161180188e+000	 7.518427963602180e-001	 1.336533473683986e+001
 1.737311975052847e+000	 7.692510002050759e-001	 1.331575216896857e+001
 1.729519436730764e+000	 7.866145930145161e-001	 1.326925952924336e+001
 1.721538718771596e+000	 8.039306187351709e-001	 1.322638914396626e+001
 1.713370053811557e+000	 8.211961146222522e-001	 1.318764973945831e+001
 1.705013734984823e+000	 8.384081127253951e-001	 1.315352481560233e+001
 1.696470116299988e+000	 8.555636413944259e-001	 1.312447105713465e+001
 1.687739612972610e+000	 8.726597268036471e-001	 1.310091678757727e+001
 1.789842479548311e+000	 7.085823159186171e-001	 1.338869590007122e+001
 1.782711177417973e+000	 7.263372893660650e-001	 1.333083526202926e+001
 1.775388880623530e+000	 7.440559942378868e-001	 1.327606269079963e+001
 1.767875584355480e+000	 7.617354647337726e-001	 1.322507891907972e+001
 1.760171343147694e+000	 7.793727238924327e-001	 1.317856475904839e+001
 1.752276271426721e+000	 7.969647850283533e-001	 1.313717922868237e+001
 1.744190544020715e+000	 8.145086531927280e-001	 1.310155770157261e+001
 1.735914396626891e+000	 8.320013266572844e-001	 1.307231008549325e+001
 1.727448126236454e+000	 8.494397984196793e-001	 1.305001903499176e+001
 1.718792091516005e+000	 8.668210577290787e-001	 1.303523820326675e+001
 1.709946713144463e+000	 8.841420916304991e-001	 1.302849053858003e+001
 1.813087187075188e+000	 7.177846836574655e-001	 1.322710484056351e+001
 1.805863270632003e+000	 7.357702411758422e-001	 1.316836016125838e+001
 1.798445879074421e+000	 7.537190590980972e-001	 1.311443925739531e+001
 1.790835007530478e+000	 7.716281331070339e-001	 1.306615067756535e+001
 1.783030711242278e+000	 7.894944475795275e-001	 1.302428163426183e+001
 1.775033106122427e+000	 8.073149770419399e-001	 1.298959596506965e+001
 1.766842369269575e+000	 8.250866876500260e-001	 1.296283211789443e+001
 1.758458739441937e+000	 8.428065386920290e-001	 1.294470116583533e+001
 1.749882517487748e+000	 8.604714841136268e-001	 1.293588485732569e+001
 1.741114066731615e+000	 8.780784740633248e-001	 1.293703370716599e+001
 1.732153813315821e+000	 8.956244564568551e-001	 1.294876513405516e+001
 1.836331894601559e+000	 7.269870513958089e-001	 1.304060085303327e+001
 1.829015363845618e+000	 7.452031929852042e-001	 1.298235699460986e+001
 1.821502877524968e+000	 7.633821239579637e-001	 1.293069006759184e+001
 1.813794430705184e+000	 7.815208014800023e-001	 1.288651666817486e+001
 1.805890079336600e+000	 7.996161712663601e-001	 1.285073060182277e+001
 1.797789940817883e+000	 8.176651690552761e-001	 1.282420067757282e+001
 1.789494194518175e+000	 8.356647221070649e-001	 1.280776852697035e+001
 1.781003082256695e+000	 8.536117507264855e-001	 1.280224645359330e+001
 1.772316908738705e+000	 8.715031698072372e-001	 1.280841531915185e+001
 1.763436041946819e+000	 8.893358903971650e-001	 1.282702247215063e+001
 1.754360913486683e+000	 9.071068212827148e-001	 1.285877972508513e+001
 1.859576602127425e+000	 7.361894191336469e-001	 1.282757015936121e+001
 1.852167457058817e+000	 7.546361447941515e-001	 1.277107310796037e+001
 1.844559875975170e+000	 7.730451888174859e-001	 1.272292527664078e+001
 1.836753853879597e+000	 7.914134698526776e-001	 1.268415162299913e+001
 1.828749447430661e+000	 8.097378949529311e-001	 1.265575281948370e+001
 1.820546775513088e+000	 8.280153610683618e-001	 1.263870287896610e+001
 1.812146019766516e+000	 8.462427565638447e-001	 1.263394680558056e+001
 1.803547425071165e+000	 8.644169627606541e-001	 1.264239827715527e+001
 1.794751299989325e+000	 8.825348555005105e-001	 1.266493736558649e+001
 1.785758017161617e+000	 9.005933067305987e-001	 1.270240830151263e+001
 1.776568013657048e+000	 9.185891861080785e-001	 1.275561728963009e+001
 1.554497011931069e+000	 8.037655378321177e-001	 1.355431062526923e+001
 1.546284067350165e+000	 8.194544422807419e-001	 1.355947218085169e+001
 1.537899927190630e+000	 8.350831179393492e-001	 1.356068360814015e+001
 1.529345144433827e+000	 8.506488283203388e-001	 1.355819592173812e+001
 1.520620329241138e+000	 8.661488406911879e-001	 1.355224039982581e+001
 1.511726149046811e+000	 8.815804275427315e-001	 1.354302766122808e+001
 1.502663328606235e+000	 8.969408680658605e-001	 1.353074678948830e+001
 1.493432649999157e+000	 9.122274496350905e-001	 1.351556450708272e+001
 1.484034952587419e+000	 9.274374692974083e-001	 1.349762440279646e+001
 1.474471132926832e+000	 9.425682352647933e-001	 1.347704621515521e+001
 1.464742144632903e+000	 9.576170684087775e-001	 1.345392517466880e+001
 1.576704112105899e+000	 8.152479026619461e-001	 1.346064717959149e+001
 1.568373839745379e+000	 8.311609343174989e-001	 1.348682714073679e+001
 1.559869926154992e+000	 8.470128767716021e-001	 1.350737665754539e+001
 1.551192932215838e+000	 8.628009544439739e-001	 1.352246402730972e+001
 1.542343476805890e+000	 8.785223955630550e-001	 1.353223781977056e+001
 1.533322236894169e+000	 8.941744336552630e-001	 1.353682601972352e+001
 1.524129947589711e+000	 9.097543090427865e-001	 1.353633521847622e+001
 1.514767402144834e+000	 9.252592703483488e-001	 1.353084985724867e+001
 1.505235451912260e+000	 9.406865760053209e-001	 1.352043152548889e+001
 1.495535006255741e+000	 9.560334957715670e-001	 1.350511831694381e+001
 1.485667032413862e+000	 9.712973122453554e-001	 1.348492424618068e+001
 1.598911212280233e+000	 8.267302674912782e-001	 1.337855158522306e+001
 1.590463612140005e+000	 8.428674263536746e-001	 1.342113734491027e+001
 1.581839925118697e+000	 8.589426356032173e-001	 1.345652018472298e+001
 1.573040719997142e+000	 8.749530805669454e-001	 1.348478866036608e+001
 1.564066624369903e+000	 8.908959504342626e-001	 1.350601152211834e+001
 1.554918324740777e+000	 9.067684397671686e-001	 1.352023691896435e+001
 1.545596566572447e+000	 9.225677500191506e-001	 1.352749165353216e+001
 1.536102154289799e+000	 9.382910910611385e-001	 1.352778049089497e+001
 1.526435951236439e+000	 9.539356827128889e-001	 1.352108552417082e+001
 1.516598879584057e+000	 9.694987562781504e-001	 1.350736559971292e+001
 1.506591920194319e+000	 9.849775560819279e-001	 1.348655580453325e+001
 1.621118312454071e+000	 8.382126323201146e-001	 1.330472953240610e+001
 1.612553384534045e+000	 8.545739183892687e-001	 1.335924256495304e+001
 1.603809924081746e+000	 8.708723944341962e-001	 1.340508660438775e+001
 1.594888507777738e+000	 8.871052066892541e-001	 1.344227337767894e+001
 1.585789771933177e+000	 9.032695053048107e-001	 1.347079464173567e+001
 1.576514412586635e+000	 9.193624458784482e-001	 1.349062144509608e+001
 1.567063185554443e+000	 9.353811909949523e-001	 1.350170344248747e+001
 1.557436906434054e+000	 9.513229117734600e-001	 1.350396826529269e+001
 1.547636450559956e+000	 9.671847894201124e-001	 1.349732095082453e+001
 1.537662752911782e+000	 9.829640167845439e-001	 1.348164343316452e+001
 1.527516807974274e+000	 9.986577999184951e-001	 1.345679409816248e+001
 1.643325412627414e+000	 8.496949971484549e-001	 1.323595211670150e+001
 1.634643156927498e+000	 8.662804104242817e-001	 1.329803931937584e+001
 1.625779923044137e+000	 8.828021532645375e-001	 1.335009655908262e+001
 1.616736295557627e+000	 8.992573328108996e-001	 1.339206158863507e+001
 1.607512919495713e+000	 9.156430601746988e-001	 1.342385193932148e+001
 1.598110500431744e+000	 9.319564519891018e-001	 1.344536423622247e+001
 1.588529804535698e+000	 9.481946319701918e-001	 1.345647356857726e+001
 1.578771658577597e+000	 9.643547324853128e-001	 1.345703291821917e+001
 1.568836949882811e+000	 9.804338961269918e-001	 1.344687264895967e+001
 1.558726626238913e+000	 9.964292772907476e-001	 1.342580005964796e+001
 1.548441695753725e+000	 1.012338043755057e+000	 1.339359900346580e+001
 1.665532512800260e+000	 8.611773619762990e-001	 1.316905147863417e+001
 1.656732929320366e+000	 8.779869024587131e-001	 1.323447709049036e+001
 1.647749922005872e+000	 8.947319120942417e-001	 1.328861570399028e+001
 1.638584083336808e+000	 9.114094589318817e-001	 1.333133389839543e+001
 1.629236067057512e+000	 9.280166150439279e-001	 1.336247769301832e+001
 1.619706588276104e+000	 9.445504580991297e-001	 1.338187191227530e+001
 1.609996423516214e+000	 9.610080729448691e-001	 1.338931960808007e+001
 1.600106410720428e+000	 9.773865531966970e-001	 1.338460154259083e+001
 1.590037449205004e+000	 9.936830028335263e-001	 1.336747573417803e+001
 1.579790499565453e+000	 1.009894537796761e+000	 1.333767706931697e+001
 1.569366583532674e+000	 1.026018287591614e+000	 1.329491698293795e+001
 1.687739612972610e+000	 8.726597268036471e-001	 1.310091678757727e+001
 1.678822701712647e+000	 8.896933944925635e-001	 1.316555483994879e+001
 1.669719920966950e+000	 9.066616709233090e-001	 1.321775174557510e+001
 1.660431871115281e+000	 9.235615850522007e-001	 1.325730566080472e+001
 1.650959214618570e+000	 9.403901699124974e-001	 1.328399375647524e+001
 1.641302676119713e+000	 9.571444642085318e-001	 1.329757162884136e+001
 1.631463042495988e+000	 9.738215139189842e-001	 1.329777277024922e+001
 1.621441162862548e+000	 9.904183739076128e-001	 1.328430810257266e+001
 1.611237948526535e+000	 1.006932109539717e+000	 1.325686557627295e+001
 1.600854372891400e+000	 1.023359798302584e+000	 1.321510983777393e+001
 1.590291471311120e+000	 1.039698531428165e+000	 1.315868196766450e+001
 1.709946713144463e+000	 8.841420916304991e-001	 1.302849053858003e+001
 1.700912474104342e+000	 9.013998865258321e-001	 1.308831779579974e+001
 1.691689919927371e+000	 9.185914297517391e-001	 1.313465171098075e+001
 1.682279658893047e+000	 9.357137111718562e-001	 1.316722472198347e+001
 1.672682362178891e+000	 9.527637247804072e-001	 1.318574776823062e+001
 1.662898763962574e+000	 9.697384703173078e-001	 1.318990974367841e+001
 1.652929661475022e+000	 9.866349548925372e-001	 1.317937701205486e+001
 1.642775915003957e+000	 1.003450194618061e+000	 1.315379298739306e+001
 1.632438447847404e+000	 1.020181216245562e+000	 1.311277778272326e+001
 1.621918246216754e+000	 1.036825058808218e+000	 1.305592792961244e+001
 1.611216359089064e+000	 1.053378775264711e+000	 1.298281617104978e+001
 1.732153813315821e+000	 8.956244564568551e-001	 1.294876513405516e+001
 1.723002246495451e+000	 9.131063785585198e-001	 1.299985448669342e+001
 1.713659918887135e+000	 9.305211885795318e-001	 1.303649942747356e+001
 1.704127446670105e+000	 9.478658372908486e-001	 1.305836933748970e+001
 1.694405509738473e+000	 9.651372796476575e-001	 1.306511149883468e+001
 1.684494851804685e+000	 9.823324764254580e-001	 1.305635058580683e+001
 1.674396280453315e+000	 9.994483958655275e-001	 1.303168822102261e+001
 1.664110667144655e+000	 1.016482015328040e+000	 1.299070259948095e+001
 1.653638947167611e+000	 1.033430322951064e+000	 1.293294818345711e+001
 1.642982119541516e+000	 1.050290319313661e+000	 1.285795547091758e+001
 1.632141246866505e+000	 1.067059019101252e+000	 1.276523083995026e+001
 1.754360913486683e+000	 9.071068212827148e-001	 1.285877972508513e+001
 1.745092018885974e+000	 9.248128705906259e-001	 1.289729400133732e+001
 1.735629917846242e+000	 9.424509474066877e-001	 1.292051319332106e+001
 1.725975234446456e+000	 9.600179634091780e-001	 1.292804624767132e+001
 1.716128657297317e+000	 9.775108345142484e-001	 1.291947932350686e+001
 1.706090939646046e+000	 9.949264825329820e-001	 1.289437531808805e+001
 1.695862899430868e+000	 1.012261836837956e+000	 1.285227346013517e+001
 1.685445419284641e+000	 1.029513836037550e+000	 1.279268897388354e+001
 1.674839446487155e+000	 1.046679429656221e+000	 1.271511281677301e+001
 1.664045992865685e+000	 1.063755579818914e+000	 1.261901149347566e+001
 1.653066134643443e+000	 1.080739262937787e+000	 1.250382694875993e+001
 1.776568013657048e+000	 9.185891861080785e-001	 1.275561728963009e+001
 1.767181791275910e+000	 9.365193626221506e-001	 1.277780345349272e+001
 1.757599916804693e+000	 9.543807062332064e-001	 1.278394362335439e+001
 1.747823022222099e+000	 9.721700895268440e-001	 1.277358889736641e+001
 1.737851804855421e+000	 9.898843893801794e-001	 1.274626680934428e+001
 1.727687027486658e+000	 1.007520488639880e+000	 1.270148088510944e+001
 1.717329518407681e+000	 1.025075277809822e+000	 1.263871026936624e+001
 1.706780171423916e+000	 1.042545656746592e+000	 1.255740942622760e+001
 1.696039945806038e+000	 1.059928536361033e+000	 1.245700791631644e+001
 1.685109866189261e+000	 1.077220840323977e+000	 1.233691025316759e+001
 1.673991022419878e+000	 1.094419506774317e+000	 1.219649584143911e+001
 1.464742144632903e+000	 9.576170684087775e-001	 1.345392517466880e+001
 1.454848998199890e+000	 9.725813037558125e-001	 1.345418185830055e+001
 1.444792760773848e+000	 9.874582919805433e-001	 1.342547063264722e+001
 1.434574555879015e+000	 1.002245400896121e+000	 1.336708863573899e+001
 1.424195563096952e+000	 1.016940016940706e+000	 1.327832782859529e+001
 1.413657017699293e+000	 1.031539546657219e+000	 1.315847554652312e+001
 1.402960210233953e+000	 1.046041418165064e+000	 1.300681509880530e+001
 1.392106486064946e+000	 1.060443082622109e+000	 1.282262641664468e+001
 1.381097244866093e+000	 1.074742015675245e+000	 1.260518674905176e+001
 1.369933940068900e+000	 1.088935718897823e+000	 1.235377140618022e+001
 1.358618078265032e+000	 1.103021721212288e+000	 1.206765454943196e+001
 1.485667032413862e+000	 9.712973122453554e-001	 1.348492424618068e+001
 1.475632555316646e+000	 9.864753223822117e-001	 1.346351616817212e+001
 1.465432657355221e+000	 1.001564839009399e+000	 1.341898917190450e+001
 1.455068478104174e+000	 1.016563192337402e+000	 1.335074073332492e+001
 1.444541213996231e+000	 1.031467731467781e+000	 1.325815699741304e+001
 1.433852117949764e+000	 1.046275825894073e+000	 1.314061318474419e+001
 1.423002498949086e+000	 1.060984866994530e+000	 1.299747405546013e+001
 1.411993721577700e+000	 1.075592269514989e+000	 1.282809443083075e+001
 1.400827205504765e+000	 1.090095473040156e+000	 1.263181977239032e+001
 1.389504424925096e+000	 1.104491943451570e+000	 1.240798681842757e+001
 1.378026907953097e+000	 1.118779174370570e+000	 1.215592427740436e+001
 1.506591920194319e+000	 9.849775560819279e-001	 1.348655580453325e+001
 1.496416112432994e+000	 1.000369341008790e+000	 1.344736408909941e+001
 1.486072553936272e+000	 1.015671386038590e+000	 1.339081190622737e+001
 1.475562400329086e+000	 1.030880983779144e+000	 1.331639498751396e+001
 1.464886864895328e+000	 1.045995445995414e+000	 1.322359158613165e+001
 1.454047218200109e+000	 1.061012105131552e+000	 1.311186274027154e+001
 1.443044787664139e+000	 1.075928315824656e+000	 1.298065260306721e+001
 1.431880957090409e+000	 1.090741456408535e+000	 1.282938883949826e+001
 1.420557166143417e+000	 1.105448930405707e+000	 1.265748309055142e+001
 1.409074909781288e+000	 1.120048168005903e+000	 1.246433150469237e+001
 1.397435737641161e+000	 1.134536627529352e+000	 1.224931533647218e+001
 1.527516807974274e+000	 9.986577999184951e-001	 1.345679409816248e+001
 1.517199669548935e+000	 1.014263359635549e+000	 1.340351704999775e+001
 1.506712450517001e+000	 1.029777933068117e+000	 1.333855457940377e+001
 1.496056322553752e+000	 1.045198775221347e+000	 1.326149869588441e+001
 1.485232515794244e+000	 1.060523160523605e+000	 1.317191778479937e+001
 1.474242318450327e+000	 1.075748384369653e+000	 1.306935672918360e+001
 1.463087076379111e+000	 1.090871764655440e+000	 1.295333710718258e+001
 1.451768192603072e+000	 1.105890643302745e+000	 1.282335746591570e+001
 1.440287126782049e+000	 1.120802387771898e+000	 1.267889367233939e+001
 1.428645394637474e+000	 1.135604392560821e+000	 1.251939934143335e+001
 1.416844567329225e+000	 1.150294080688636e+000	 1.234430634178346e+001
 1.548441695753725e+000	 1.012338043755057e+000	 1.339359900346580e+001
 1.537983226664468e+000	 1.028157378262487e+000	 1.332976124112661e+001
 1.527352347097408e+000	 1.043884480097980e+000	 1.325983651495917e+001
 1.516550244778170e+000	 1.059516566664011e+000	 1.318351123402939e+001
 1.505578166692978e+000	 1.075050875052352e+000	 1.310044203469448e+001
 1.494437418700419e+000	 1.090484663608378e+000	 1.301025576218323e+001
 1.483129365094002e+000	 1.105815213486884e+000	 1.291254953699352e+001
 1.471655428115689e+000	 1.121039830197621e+000	 1.280689090723272e+001
 1.460017087420660e+000	 1.136155845138731e+000	 1.269281808776378e+001
 1.448215879493655e+000	 1.151160617116326e+000	 1.256984028675109e+001
 1.436253397017289e+000	 1.166051533848422e+000	 1.243743811992566e+001
 1.569366583532674e+000	 1.026018287591614e+000	 1.329491698293795e+001
 1.558766783779593e+000	 1.042051396889605e+000	 1.322387796333344e+001
 1.547992243677491e+000	 1.057991027128177e+000	 1.315228037750761e+001
 1.537044167002341e+000	 1.073834358107137e+000	 1.307990325035570e+001
 1.525923817591530e+000	 1.089578589581657e+000	 1.300648967824310e+001
 1.514632518950384e+000	 1.105220942847725e+000	 1.293174667162275e+001
 1.503171653808812e+000	 1.120758662318988e+000	 1.285534509174343e+001
 1.491542663628261e+000	 1.136189017093162e+000	 1.277691968288771e+001
 1.479747048059252e+000	 1.151509302506204e+000	 1.269606920129190e+001
 1.467786364349831e+000	 1.166716841672417e+000	 1.261235664161156e+001
 1.455662226705354e+000	 1.181808987008709e+000	 1.252530956149663e+001
 1.590291471311120e+000	 1.039698531428165e+000	 1.315868196766450e+001
 1.579550340894311e+000	 1.055945415516904e+000	 1.308364394972553e+001
 1.568632140257253e+000	 1.072097574158711e+000	 1.301351195294321e+001
 1.557538089226265e+000	 1.088152149550724e+000	 1.294815592445149e+001
 1.546269468489901e+000	 1.104106304111519e+000	 1.288740371552279e+001
 1.534827619200224e+000	 1.119957222087696e+000	 1.283104078639538e+001
 1.523213942523541e+000	 1.135702111151750e+000	 1.277881001454375e+001
 1.511429899140787e+000	 1.151338203989368e+000	 1.273041160814173e+001
 1.499477008697823e+000	 1.166862759874318e+000	 1.268550312616123e+001
 1.487356849206002e+000	 1.182273066229095e+000	 1.264369960623675e+001
 1.475071056393418e+000	 1.197566440169497e+000	 1.260457380110370e+001
 1.611216359089064e+000	 1.053378775264711e+000	 1.298281617104978e+001
 1.600333898008621e+000	 1.069839434144381e+000	 1.290683166227639e+001
 1.589272036836692e+000	 1.086204121189579e+000	 1.284115994575959e+001
 1.578032011449943e+000	 1.102469940994773e+000	 1.278576028324334e+001
 1.566615119388090e+000	 1.118634018641939e+000	 1.274054365766184e+001
 1.555022719449937e+000	 1.134693501328291e+000	 1.270537234125102e+001
 1.543256231238190e+000	 1.150645559985172e+000	 1.268005957653836e+001
 1.531317134653268e+000	 1.166487390886239e+000	 1.266436937227155e+001
 1.519206969336374e+000	 1.182216217243073e+000	 1.265801641601734e+001
 1.506927334062168e+000	 1.197829290786359e+000	 1.266066610482808e+001
 1.494479886081482e+000	 1.213323893330786e+000	 1.267193469502545e+001
 1.632141246866505e+000	 1.067059019101252e+000	 1.276523083995026e+001
 1.621117455122524e+000	 1.083733452772039e+000	 1.269120956561662e+001
 1.609911933415809e+000	 1.100310668220784e+000	 1.263285579196015e+001
 1.598525933673372e+000	 1.116787732439283e+000	 1.259021656975640e+001
 1.586960770286098e+000	 1.133161733172915e+000	 1.256328446843826e+001
 1.575217819699524e+000	 1.149429780569508e+000	 1.255199700847160e+001
 1.563298519952757e+000	 1.165589008819253e+000	 1.255623621613236e+001
 1.551204370165704e+000	 1.181636577783775e+000	 1.257582830305606e+001
 1.538936929974905e+000	 1.197569674612468e+000	 1.261054347258029e+001
 1.526497818918329e+000	 1.213385515344208e+000	 1.266009585454213e+001
 1.513888715769546e+000	 1.229081346492577e+000	 1.272414356982251e+001
 1.653066134643443e+000	 1.080739262937787e+000	 1.250382694875993e+001
 1.641901012236020e+000	 1.097627471399877e+000	 1.243454238002994e+001
 1.630551829994604e+000	 1.114417215252323e+000	 1.238623348617781e+001
 1.619019855896555e+000	 1.131105523884254e+000	 1.235903365981726e+001
 1.607306421183923e+000	 1.147689447704449e+000	 1.235301558626437e+001
 1.595412919948985e+000	 1.164166059811349e+000	 1.236819054106569e+001
 1.583340808667244e+000	 1.180532457653993e+000	 1.240450781954496e+001
 1.571091605678093e+000	 1.196785764681976e+000	 1.246185430104805e+001
 1.558666890613415e+000	 1.212923131982505e+000	 1.254005415019657e+001
 1.546068303774485e+000	 1.228941739902644e+000	 1.263886865707574e+001
 1.533297545457611e+000	 1.244838799654869e+000	 1.275799621788911e+001
 1.673991022419878e+000	 1.094419506774317e+000	 1.219649584143911e+001
 1.662684569349107e+000	 1.111521490027895e+000	 1.213459131547526e+001
 1.651191726573076e+000	 1.128523762284198e+000	 1.209892942176057e+001
 1.639513778119492e+000	 1.145423315329686e+000	 1.208972852250382e+001
 1.627652072081568e+000	 1.162217162236540e+000	 1.210714001952191e+001
 1.615608020198319e+000	 1.178902339053813e+000	 1.215124751772291e+001
 1.603383097381650e+000	 1.195475906489392e+000	 1.222206613032127e+001
 1.590978841190437e+000	 1.211934951580842e+000	 1.231954192877591e+001
 1.578396851251905e+000	 1.228276589353181e+000	 1.244355154005018e+001
 1.565638788630636e+000	 1.244497964461666e+000	 1.259390189338213e+001
 1.552706375145675e+000	 1.260596252817663e+000	 1.228241477387387e+001
 1.358618078265032e+000	 1.103021721212288e+000	 1.206765454943196e+001
 1.347151218564126e+000	 1.116997580295668e+000	 1.195472601819707e+001
 1.335534971906517e+000	 1.130860883968336e+000	 1.186929107202884e+001
 1.323771000332177e+000	 1.144609251562969e+000	 1.181125383962838e+001
 1.311861016207092e+000	 1.158240335270790e+000	 1.178045882220841e+001
 1.299806781406892e+000	 1.171751821465558e+000	 1.177669109638716e+001
 1.287610106458835e+000	 1.185141432003066e+000	 1.179967663830941e+001
 1.275272849643007e+000	 1.198406925494608e+000	 1.184908276852928e+001
 1.262796916053697e+000	 1.211546098552944e+000	 1.192451871684887e+001
 1.250184256621897e+000	 1.224556787009297e+000	 1.202553630596588e+001
 1.237436867100000e+000	 1.237436867100000e+000	 1.186712314869020e+001
 1.378026907953097e+000	 1.118779174370570e+000	 1.215592427740436e+001
 1.366396235971277e+000	 1.132954688583815e+000	 1.210633148849819e+001
 1.354614042933290e+000	 1.147016039451929e+000	 1.208053763656868e+001
 1.342682014622530e+000	 1.160960812298055e+000	 1.207843634186124e+001
 1.330601887867360e+000	 1.174786625773290e+000	 1.209986368291415e+001
 1.318375449713060e+000	 1.188491133199592e+000	 1.214459841751715e+001
 1.306004536551559e+000	 1.202072023887835e+000	 1.221236232391325e+001
 1.293491033209806e+000	 1.215527024429475e+000	 1.230282066173744e+001
 1.280836871997721e+000	 1.228853899960310e+000	 1.241558275184241e+001
 1.268044031716739e+000	 1.242050455394868e+000	 1.255020267382154e+001
 1.255114536630000e+000	 1.255114536630000e+000	 1.252590475855011e+001
 1.397435737641161e+000	 1.134536627529352e+000	 1.224931533647218e+001
 1.385641253378430e+000	 1.148911796872367e+000	 1.226409680436623e+001
 1.373693113960062e+000	 1.163171194935842e+000	 1.229915574953664e+001
 1.361593028912885e+000	 1.177312373033386e+000	 1.235437448436942e+001
 1.349342759527628e+000	 1.191332916275971e+000	 1.242957970923602e+001
 1.336944118019226e+000	 1.205230444933751e+000	 1.252454275231229e+001
 1.324398966644283e+000	 1.219002615772684e+000	 1.263897992890309e+001
 1.311709216776605e+000	 1.232647123364387e+000	 1.277255301972430e+001
 1.298876827941744e+000	 1.246161701367696e+000	 1.292486986724720e+001
 1.285903806811580e+000	 1.259544123780444e+000	 1.274006395952325e+001
 1.272792206160000e+000	 1.272792206160000e+000	 1.244657860922202e+001
 1.416844567329225e+000	 1.150294080688636e+000	 1.234430634178346e+001
 1.404886270785581e+000	 1.164868905161327e+000	 1.242446902119141e+001
 1.392772184986834e+000	 1.179326350420076e+000	 1.252155718553927e+001
 1.380504043203239e+000	 1.193663933768963e+000	 1.263544104547295e+001
 1.368083631187897e+000	 1.207879206778833e+000	 1.276593697501149e+001
 1.355512786325393e+000	 1.221969756668037e+000	 1.291280777102347e+001
 1.342793396737007e+000	 1.235933207657614e+000	 1.307576303171718e+001
 1.329927400343404e+000	 1.249767222299344e+000	 1.325445965355263e+001
 1.316916783885769e+000	 1.263469502775102e+000	 1.292267966774354e+001
 1.303763581906421e+000	 1.277037792166025e+000	 1.261382431888908e+001
 1.290469875690000e+000	 1.290469875690000e+000	 1.233750864897337e+001
 1.436253397017289e+000	 1.166051533848422e+000	 1.243743811992566e+001
 1.424131288192732e+000	 1.180826013450692e+000	 1.258395908374716e+001
 1.411851256013606e+000	 1.195481505904632e+000	 1.274421956001360e+001
 1.399415057493593e+000	 1.210015494504787e+000	 1.291807686870757e+001
 1.386824502848165e+000	 1.224425497281876e+000	 1.310533611587473e+001
 1.374081454631560e+000	 1.238709068402448e+000	 1.330575047355638e+001
 1.361187826829731e+000	 1.252863799542624e+000	 1.340162326429206e+001
 1.348145583910203e+000	 1.266887321234346e+000	 1.305849490399797e+001
 1.334956739829792e+000	 1.280777304182528e+000	 1.274347581410389e+001
 1.321623357001262e+000	 1.294531460551611e+000	 1.245705410189747e+001
 1.308147545220000e+000	 1.308147545220000e+000	 1.219970055401479e+001
 1.455662226705354e+000	 1.181808987008709e+000	 1.252530956149663e+001
 1.443376305599884e+000	 1.196783121740464e+000	 1.273913756689798e+001
 1.430930327040378e+000	 1.211636661389509e+000	 1.296368193983832e+001
 1.418326071783947e+000	 1.226367055240856e+000	 1.319878632514367e+001
 1.405565374508434e+000	 1.240971787785099e+000	 1.344424362513670e+001
 1.392650122937726e+000	 1.255448380136983e+000	 1.346912840299554e+001
 1.379582256922455e+000	 1.269794391427715e+000	 1.313288889320012e+001
 1.366363767477002e+000	 1.284007420169393e+000	 1.282075240879225e+001
 1.352996695773816e+000	 1.298085105589975e+000	 1.253325344532545e+001
 1.339483132096104e+000	 1.312025128937202e+000	 1.227091442586737e+001
 1.325825214750000e+000	 1.325825214750000e+000	 1.203424511466464e+001
 1.475071056393418e+000	 1.197566440169497e+000	 1.260457380110370e+001
 1.462621323007036e+000	 1.212740230030642e+000	 1.288663075256660e+001
 1.450009398067151e+000	 1.227791816874707e+000	 1.317654080047565e+001
 1.437237086074301e+000	 1.242718615977171e+000	 1.347413313394314e+001
 1.424306246168702e+000	 1.257518078288503e+000	 1.345229338228224e+001
 1.411218791243894e+000	 1.272187691871646e+000	 1.313182810396835e+001
 1.397976687015180e+000	 1.286724983312886e+000	 1.283146352026469e+001
 1.384581951043801e+000	 1.301127519104486e+000	 1.255176992361188e+001
 1.371036651717840e+000	 1.315392906997442e+000	 1.229331082006183e+001
 1.357342907190945e+000	 1.329518797322798e+000	 1.205664234391767e+001
 1.343502884280000e+000	 1.343502884280000e+000	 1.184231263573667e+001
 1.494479886081482e+000	 1.213323893330786e+000	 1.267193469502545e+001
 1.481866340414187e+000	 1.228697338321226e+000	 1.302311701239302e+001
 1.469088469093923e+000	 1.243946972360226e+000	 1.337944629814154e+001
 1.456148100364656e+000	 1.259070176713732e+000	 1.333779428222145e+001
 1.443047117828971e+000	 1.274064368792089e+000	 1.304182205008845e+001
 1.429787459550060e+000	 1.288927003606433e+000	 1.276196324474551e+001
 1.416371117107904e+000	 1.303655575198137e+000	 1.249881333388220e+001
 1.402800134610599e+000	 1.318247618039624e+000	 1.225296629932629e+001
 1.389076607661863e+000	 1.332700708404929e+000	 1.202501407085149e+001
 1.375202682285786e+000	 1.347012465708399e+000	 1.181554591407101e+001
 1.361180553810000e+000	 1.361180553810000e+000	 1.162514777326111e+001
 1.513888715769546e+000	 1.229081346492577e+000	 1.272414356982251e+001
 1.501111357821339e+000	 1.244654446612217e+000	 1.314532346864976e+001
 1.488167540120695e+000	 1.260102127846067e+000	 1.311281018943127e+001
 1.475059114655010e+000	 1.275421737450539e+000	 1.284988351588616e+001
 1.461787989489239e+000	 1.290610659295854e+000	 1.259910941674374e+001
 1.448356127856227e+000	 1.305666315341346e+000	 1.236109790394613e+001
 1.434765547200628e+000	 1.320586167083468e+000	 1.213646279462659e+001
 1.421018318177399e+000	 1.335367716974807e+000	 1.192582118234505e+001
 1.407116563605887e+000	 1.350008509812436e+000	 1.172979285322791e+001
 1.393062457380627e+000	 1.364506134094006e+000	 1.154899964765751e+001
 1.378858223340000e+000	 1.378858223340000e+000	 1.138406476838103e+001
 1.533297545457611e+000	 1.244838799654869e+000	 1.275799621788911e+001
 1.520356375228491e+000	 1.260611554903613e+000	 1.276498862874785e+001
 1.507246611147468e+000	 1.276257283332228e+000	 1.254349289879323e+001
 1.493970128945364e+000	 1.291773298187593e+000	 1.233022684379673e+001
 1.480528861149507e+000	 1.307156949799801e+000	 1.212580440165459e+001
 1.466924796162394e+000	 1.322405627076385e+000	 1.193084857280419e+001
 1.453159977293352e+000	 1.337516758968881e+000	 1.174599094713676e+001
 1.439236501744198e+000	 1.352487815910036e+000	 1.157187116679902e+001
 1.425156519549911e+000	 1.367316311219963e+000	 1.140913632527672e+001
 1.410922232475468e+000	 1.381999802479617e+000	 1.125844030340894e+001
 1.396535892870000e+000	 1.396535892870000e+000	 1.112044304323137e+001
 1.552706375145675e+000	 1.260596252817663e+000	 1.228241477387387e+001
 1.539601392635642e+000	 1.276568663195416e+000	 1.211056638967674e+001
 1.526325682174240e+000	 1.292412438818711e+000	 1.194307443582672e+001
 1.512881143235718e+000	 1.308124858924892e+000	 1.178054619369560e+001
 1.499269732809776e+000	 1.323703240303929e+000	 1.162360320636464e+001
 1.485493464468560e+000	 1.339144938811549e+000	 1.147288087938074e+001
 1.471554407386076e+000	 1.354447350854373e+000	 1.132902800861257e+001
 1.457454685310996e+000	 1.369607914845309e+000	 1.119270623530779e+001
 1.443196475493935e+000	 1.384624112627510e+000	 1.106458942872599e+001
 1.428782007570310e+000	 1.399493470865233e+000	 1.094536299699658e+001
 1.414213562400000e+000	 1.414213562400000e+000	 1.083572312712670e+001
 1.237436867100000e+000	 1.237436867100000e+000	 1.186712314869020e+001
 1.224556787009298e+000	 1.250184256621897e+000	 1.187791116822155e+001
 1.211546098552944e+000	 1.262796916053697e+000	 1.150778276243299e+001
 1.198406925494609e+000	 1.275272849643007e+000	 1.118133769866483e+001
 1.185141432003066e+000	 1.287610106458834e+000	 1.089979848468666e+001
 1.171751821465559e+000	 1.299806781406892e+000	 1.066432312872529e+001
 1.158240335270790e+000	 1.311861016207091e+000	 1.047600370278867e+001
 1.144609251562970e+000	 1.323771000332176e+000	 1.033586502098944e+001
 1.130860883968337e+000	 1.335534971906517e+000	 1.024486343527409e+001
 1.116997580295668e+000	 1.347151218564126e+000	 1.020388575065950e+001
 1.103021721212288e+000	 1.358618078265032e+000	 1.021374826177002e+001
 1.255114536630000e+000	 1.255114536630000e+000	 1.252590475855011e+001
 1.242050455394869e+000	 1.268044031716738e+000	 1.224546218856082e+001
 1.228853899960310e+000	 1.280836871997720e+000	 1.188045659535675e+001
 1.215527024429475e+000	 1.293491033209806e+000	 1.155514483941434e+001
 1.202072023887835e+000	 1.306004536551558e+000	 1.127066274214864e+001
 1.188491133199593e+000	 1.318375449713059e+000	 1.102808465405662e+001
 1.174786625773290e+000	 1.330601887867360e+000	 1.082842209110075e+001
 1.160960812298055e+000	 1.342682014622530e+000	 1.067262248292500e+001
 1.147016039451929e+000	 1.354614042933289e+000	 1.056156803521549e+001
 1.132954688583815e+000	 1.366396235971277e+000	 1.049607470822072e+001
 1.118779174370570e+000	 1.378026907953097e+000	 1.047689131313877e+001
 1.272792206160000e+000	 1.272792206160000e+000	 1.244657860922202e+001
 1.259544123780445e+000	 1.285903806811580e+000	 1.238186564839314e+001
 1.246161701367696e+000	 1.298876827941744e+000	 1.226002723843069e+001
 1.232647123364387e+000	 1.311709216776605e+000	 1.193018838455325e+001
 1.219002615772685e+000	 1.324398966644283e+000	 1.163726946958807e+001
 1.205230444933752e+000	 1.336944118019226e+000	 1.138226431108041e+001
 1.191332916275972e+000	 1.349342759527628e+000	 1.116610685606865e+001
 1.177312373033386e+000	 1.361593028912884e+000	 1.098966999628389e+001
 1.163171194935842e+000	 1.373693113960061e+000	 1.085376449444254e+001
 1.148911796872368e+000	 1.385641253378429e+000	 1.075913802356364e+001
 1.134536627529353e+000	 1.397435737641161e+000	 1.070647432093740e+001
 1.290469875690000e+000	 1.290469875690000e+000	 1.233750864897337e+001
 1.277037792166026e+000	 1.303763581906420e+000	 1.229085465314016e+001
 1.263469502775103e+000	 1.316916783885768e+000	 1.228167488009808e+001
 1.249767222299344e+000	 1.329927400343403e+000	 1.230404654401622e+001
 1.235933207657615e+000	 1.342793396737007e+000	 1.199739933323719e+001
 1.221969756668037e+000	 1.355512786325393e+000	 1.172484043105858e+001
 1.207879206778833e+000	 1.368083631187896e+000	 1.148722911858905e+001
 1.193663933768964e+000	 1.380504043203238e+000	 1.128536651494665e+001
 1.179326350420077e+000	 1.392772184986834e+000	 1.111999456484594e+001
 1.164868905161327e+000	 1.404886270785581e+000	 1.099179513628438e+001
 1.150294080688636e+000	 1.416844567329225e+000	 1.090138922987941e+001
 1.308147545220000e+000	 1.308147545220000e+000	 1.219970055401479e+001
 1.294531460551612e+000	 1.321623357001262e+000	 1.216611932190090e+001
 1.280777304182529e+000	 1.334956739829792e+000	 1.216622249789558e+001
 1.266887321234347e+000	 1.348145583910202e+000	 1.220025491867273e+001
 1.252863799542625e+000	 1.361187826829731e+000	 1.226843849434416e+001
 1.238709068402448e+000	 1.374081454631559e+000	 1.205382449736263e+001
 1.224425497281876e+000	 1.386824502848165e+000	 1.178998244164484e+001
 1.210015494504787e+000	 1.399415057493592e+000	 1.155808303616000e+001
 1.195481505904632e+000	 1.411851256013606e+000	 1.135880195894618e+001
 1.180826013450693e+000	 1.424131288192732e+000	 1.119275768432593e+001
 1.166051533848422e+000	 1.436253397017289e+000	 1.106051074545004e+001
 1.325825214750000e+000	 1.325825214750000e+000	 1.203424511466464e+001
 1.312025128937203e+000	 1.339483132096103e+000	 1.200894865331488e+001
 1.298085105589976e+000	 1.352996695773815e+000	 1.201362848020624e+001
 1.284007420169394e+000	 1.366363767477001e+000	 1.204842650948118e+001
 1.269794391427715e+000	 1.379582256922455e+000	 1.211346670642580e+001
 1.255448380136984e+000	 1.392650122937726e+000	 1.220885471526553e+001
 1.240971787785099e+000	 1.405565374508433e+000	 1.207258133416619e+001
 1.226367055240856e+000	 1.418326071783947e+000	 1.180620179764580e+001
 1.211636661389510e+000	 1.430930327040378e+000	 1.156873221918495e+001
 1.196783121740464e+000	 1.443376305599884e+000	 1.136073002408799e+001
 1.181808987008709e+000	 1.455662226705354e+000	 1.118269748318854e+001
 1.343502884280000e+000	 1.343502884280000e+000	 1.184231263573667e+001
 1.329518797322799e+000	 1.357342907190944e+000	 1.182070053236698e+001
 1.315392906997442e+000	 1.371036651717839e+000	 1.182543243152510e+001
 1.301127519104487e+000	 1.384581951043800e+000	 1.185654977878038e+001
 1.286724983312886e+000	 1.397976687015179e+000	 1.191408104354636e+001
 1.272187691871646e+000	 1.411218791243893e+000	 1.199804143446262e+001
 1.257518078288504e+000	 1.424306246168701e+000	 1.210843258843915e+001
 1.242718615977171e+000	 1.437237086074301e+000	 1.202811553809586e+001
 1.227791816874708e+000	 1.450009398067151e+000	 1.174833259753550e+001
 1.212740230030642e+000	 1.462621323007035e+000	 1.149440970947621e+001
 1.197566440169497e+000	 1.475071056393418e+000	 1.126679302723677e+001
 1.361180553810000e+000	 1.361180553810000e+000	 1.162514777326111e+001
 1.347012465708400e+000	 1.375202682285786e+000	 1.160279725724850e+001
 1.332700708404929e+000	 1.389076607661863e+000	 1.160322866380620e+001
 1.318247618039624e+000	 1.402800134610599e+000	 1.162638534612896e+001
 1.303655575198137e+000	 1.416371117107903e+000	 1.167220265327992e+001
 1.288927003606434e+000	 1.429787459550060e+000	 1.174060773068340e+001
 1.274064368792089e+000	 1.443047117828970e+000	 1.183151928539941e+001
 1.259070176713732e+000	 1.456148100364655e+000	 1.194484731726689e+001
 1.243946972360227e+000	 1.469088469093923e+000	 1.189615194449396e+001
 1.228697338321226e+000	 1.481866340414187e+000	 1.159248793362234e+001
 1.213323893330786e+000	 1.494479886081482e+000	 1.131162690640435e+001
 1.378858223340000e+000	 1.378858223340000e+000	 1.138406476838103e+001
 1.364506134094007e+000	 1.393062457380627e+000	 1.135672141030509e+001
 1.350008509812436e+000	 1.407116563605887e+000	 1.134866268957414e+001
 1.335367716974808e+000	 1.421018318177398e+000	 1.135973616977643e+001
 1.320586167083469e+000	 1.434765547200628e+000	 1.138978638590044e+001
 1.305666315341347e+000	 1.448356127856226e+000	 1.143865472751797e+001
 1.290610659295855e+000	 1.461787989489238e+000	 1.150617927780646e+001
 1.275421737450540e+000	 1.475059114655009e+000	 1.159219460941247e+001
 1.260102127846067e+000	 1.488167540120695e+000	 1.169653153835402e+001
 1.244654446612217e+000	 1.501111357821338e+000	 1.165364993662642e+001
 1.229081346492577e+000	 1.513888715769546e+000	 1.131601549515134e+001
 1.396535892870000e+000	 1.396535892870000e+000	 1.112044304323137e+001
 1.381999802479617e+000	 1.410922232475468e+000	 1.108401204258410e+001
 1.367316311219963e+000	 1.425156519549910e+000	 1.106342798138197e+001
 1.352487815910036e+000	 1.439236501744197e+000	 1.105844486699921e+001
 1.337516758968881e+000	 1.453159977293351e+000	 1.106881866129932e+001
 1.322405627076385e+000	 1.466924796162393e+000	 1.109430724413750e+001
 1.307156949799802e+000	 1.480528861149507e+000	 1.113467032369286e+001
 1.291773298187593e+000	 1.493970128945363e+000	 1.118966929455346e+001
 1.276257283332229e+000	 1.507246611147467e+000	 1.125906704469251e+001
 1.260611554903614e+000	 1.520356375228490e+000	 1.134262771269152e+001
 1.244838799654869e+000	 1.533297545457611e+000	 1.127876284614200e+001
 1.414213562400000e+000	 1.414213562400000e+000	 1.083572312712670e+001
 1.399493470865234e+000	 1.428782007570309e+000	 1.078626114454080e+001
 1.384624112627510e+000	 1.443196475493934e+000	 1.074926297430902e+001
 1.369607914845310e+000	 1.457454685310996e+000	 1.072439123541130e+001
 1.354447350854374e+000	 1.471554407386076e+000	 1.071131549588440e+001
 1.339144938811550e+000	 1.485493464468560e+000	 1.070971231432017e+001
 1.323703240303929e+000	 1.499269732809775e+000	 1.071926521911253e+001
 1.308124858924892e+000	 1.512881143235717e+000	 1.073966462629969e+001
 1.292412438818711e+000	 1.526325682174239e+000	 1.077060769708878e+001
 1.276568663195417e+000	 1.539601392635642e+000	 1.081179813638897e+001
 1.260596252817662e+000	 1.552706375145675e+000	 1.086294593391045e+001
 1.103021721212288e+000	 1.358618078265032e+000	 1.021374826177002e+001
 1.088935718897824e+000	 1.369933940068900e+000	 1.021899732671159e+001
 1.074742015675246e+000	 1.381097244866093e+000	 1.020316606097829e+001
 1.060443082622109e+000	 1.392106486064946e+000	 1.016651542102788e+001
 1.046041418165064e+000	 1.402960210233953e+000	 1.010930806128284e+001
 1.031539546657220e+000	 1.413657017699293e+000	 1.003180795363192e+001
 1.016940016940706e+000	 1.424195563096951e+000	 9.934280032246287e+000
 1.002245400896121e+000	 1.434574555879014e+000	 9.816989864115973e+000
 9.874582919805436e-001	 1.444792760773847e+000	 9.680203345602367e+000
 9.725813037558133e-001	 1.454848998199890e+000	 9.524186425196476e+000
 9.576170684087774e-001	 1.464742144632903e+000	 9.349204852564100e+000
 1.118779174370570e+000	 1.378026907953097e+000	 1.047689131313877e+001
 1.104491943451570e+000	 1.389504424925096e+000	 1.043232405698304e+001
 1.090095473040156e+000	 1.400827205504764e+000	 1.037471848495105e+001
 1.075592269514990e+000	 1.411993721577700e+000	 1.030437242708605e+001
 1.060984866994531e+000	 1.423002498949086e+000	 1.022157704213168e+001
 1.046275825894074e+000	 1.433852117949764e+000	 1.012661644189172e+001
 1.031467731467782e+000	 1.444541213996230e+000	 1.001976735302026e+001
 1.016563192337402e+000	 1.455068478104174e+000	 9.901298816543063e+000
 1.001564839009400e+000	 1.465432657355220e+000	 9.771471925276856e+000
 9.864753223822118e-001	 1.475632555316645e+000	 9.630539599180114e+000
 9.712973122453553e-001	 1.485667032413862e+000	 9.478746398535140e+000
 1.134536627529353e+000	 1.397435737641161e+000	 1.070647432093740e+001
 1.120048168005903e+000	 1.409074909781287e+000	 1.061354841966954e+001
 1.105448930405707e+000	 1.420557166143416e+000	 1.051545896689370e+001
 1.090741456408535e+000	 1.431880957090408e+000	 1.041254070863702e+001
 1.075928315824656e+000	 1.443044787664139e+000	 1.030511342925733e+001
 1.061012105131552e+000	 1.454047218200108e+000	 1.019348158010002e+001
 1.045995445995415e+000	 1.464886864895328e+000	 1.007793395764546e+001
 1.030880983779144e+000	 1.475562400329086e+000	 9.958743431346685e+000
 1.015671386038591e+000	 1.486072553936272e+000	 9.836166721194507e+000
 1.000369341008791e+000	 1.496416112432994e+000	 9.710444224889272e+000
 9.849775560819279e-001	 1.506591920194319e+000	 9.581799894338781e+000
 1.150294080688636e+000	 1.416844567329225e+000	 1.090138922987941e+001
 1.135604392560822e+000	 1.428645394637474e+000	 1.076149509018406e+001
 1.120802387771899e+000	 1.440287126782048e+000	 1.062415417254596e+001
 1.105890643302746e+000	 1.451768192603071e+000	 1.048973819709390e+001
 1.090871764655441e+000	 1.463087076379111e+000	 1.035859570444120e+001
 1.075748384369654e+000	 1.474242318450326e+000	 1.023105168809244e+001
 1.060523160523605e+000	 1.485232515794243e+000	 1.010740728835483e+001
 1.045198775221347e+000	 1.496056322553752e+000	 9.987939547853253e+000
 1.029777933068118e+000	 1.506712450517000e+000	 9.872901228558870e+000
 1.014263359635549e+000	 1.517199669548935e+000	 9.762520690055963e+000
 9.986577999184951e-001	 1.527516807974274e+000	 9.657001828588962e+000
 1.166051533848422e+000	 1.436253397017289e+000	 1.106051074545004e+001
 1.151160617116327e+000	 1.448215879493655e+000	 1.087497507278216e+001
 1.136155845138731e+000	 1.460017087420660e+000	 1.069956020915407e+001
 1.121039830197622e+000	 1.471655428115689e+000	 1.053467492197988e+001
 1.105815213486885e+000	 1.483129365094001e+000	 1.038069664775848e+001
 1.090484663608378e+000	 1.494437418700418e+000	 1.023797112769587e+001
 1.075050875052353e+000	 1.505578166692977e+000	 1.010681211680843e+001
 1.059516566664012e+000	 1.516550244778170e+000	 9.987501166505517e+000
 1.043884480097980e+000	 1.527352347097407e+000	 9.880287480435316e+000
 1.028157378262487e+000	 1.537983226664467e+000	 9.785387843165267e+000
 1.012338043755057e+000	 1.548441695753725e+000	 9.702986621062394e+000
 1.181808987008709e+000	 1.455662226705354e+000	 1.118269748318854e+001
 1.166716841672418e+000	 1.467786364349831e+000	 1.095278661197269e+001
 1.151509302506204e+000	 1.479747048059251e+000	 1.074042332937012e+001
 1.136189017093163e+000	 1.491542663628261e+000	 1.054605353772081e+001
 1.120758662318988e+000	 1.503171653808811e+000	 1.037008371769210e+001
 1.105220942847726e+000	 1.514632518950384e+000	 1.021288056659594e+001
 1.089578589581658e+000	 1.525923817591530e+000	 1.007477072213181e+001
 1.073834358107138e+000	 1.537044167002341e+000	 9.956040571454862e+000
 1.057991027128178e+000	 1.547992243677491e+000	 9.856936145227090e+000
 1.042051396889606e+000	 1.558766783779593e+000	 9.777663096072038e+000
 1.026018287591614e+000	 1.569366583532674e+000	 9.718386760620881e+000
 1.197566440169497e+000	 1.475071056393418e+000	 1.126679302723677e+001
 1.182273066229095e+000	 1.487356849206002e+000	 1.099371603197468e+001
 1.166862759874319e+000	 1.499477008697823e+000	 1.074548057958093e+001
 1.151338203989369e+000	 1.511429899140787e+000	 1.052256980884901e+001
 1.135702111151751e+000	 1.523213942523541e+000	 1.032541940123736e+001
 1.119957222087697e+000	 1.534827619200224e+000	 1.015441722137242e+001
 1.104106304111520e+000	 1.546269468489901e+000	 1.000990305489846e+001
 1.088152149550725e+000	 1.557538089226265e+000	 9.892168443475066e+000
 1.072097574158711e+000	 1.568632140257253e+000	 9.801456616455518e+000
 1.055945415516904e+000	 1.579550340894311e+000	 9.737962518515593e+000
 1.039698531428165e+000	 1.590291471311120e+000	 9.701832932245337e+000
 1.213323893330786e+000	 1.494479886081482e+000	 1.131162690640435e+001
 1.197829290786359e+000	 1.506927334062168e+000	 1.099653851076202e+001
 1.182216217243073e+000	 1.519206969336373e+000	 1.071346039771720e+001
 1.166487390886240e+000	 1.531317134653268e+000	 1.046291305739900e+001
 1.150645559985173e+000	 1.543256231238189e+000	 1.024536153672595e+001
 1.134693501328291e+000	 1.555022719449937e+000	 1.006121508159715e+001
 1.118634018641939e+000	 1.566615119388090e+000	 9.910826888334430e+000
 1.102469940994773e+000	 1.578032011449942e+000	 9.794493964077907e+000
 1.086204121189580e+000	 1.589272036836692e+000	 9.712457095544600e+000
 1.069839434144382e+000	 1.600333898008622e+000	 9.664900925270425e+000
 1.053378775264711e+000	 1.611216359089064e+000	 9.651954134170905e+000
 1.229081346492577e+000	 1.513888715769546e+000	 1.131601549515134e+001
 1.213385515344209e+000	 1.526497818918328e+000	 1.096001879456671e+001
 1.197569674612469e+000	 1.538936929974904e+000	 1.064308316507769e+001
 1.181636577783776e+000	 1.551204370165703e+000	 1.036576657588794e+001
 1.165589008819253e+000	 1.563298519952757e+000	 1.012856361181686e+001
 1.149429780569509e+000	 1.575217819699524e+000	 9.931905116693303e+000
 1.133161733172916e+000	 1.586960770286097e+000	 9.776157957891869e+000
 1.116787732439283e+000	 1.598525933673372e+000	 9.661624911619482e+000
 1.100310668220784e+000	 1.609911933415809e+000	 9.588544668237798e+000
 1.083733452772040e+000	 1.621117455122524e+000	 9.557091956592634e+000
 1.067059019101252e+000	 1.632141246866505e+000	 9.567377786011488e+000
 1.244838799654869e+000	 1.533297545457611e+000	 1.127876284614200e+001
 1.228941739902645e+000	 1.546068303774485e+000	 1.088291185811524e+001
 1.212923131982505e+000	 1.558666890613415e+000	 1.053306171624283e+001
 1.196785764681977e+000	 1.571091605678093e+000	 1.022980800893080e+001
 1.180532457653993e+000	 1.583340808667244e+000	 9.973675038855841e+000
 1.164166059811349e+000	 1.595412919948984e+000	 9.765115467084396e+000
 1.147689447704450e+000	 1.607306421183923e+000	 9.604510090222270e+000
 1.131105523884254e+000	 1.619019855896555e+000	 9.492167750107768e+000
 1.114417215252324e+000	 1.630551829994604e+000	 9.428325375210099e+000
 1.097627471399878e+000	 1.641901012236019e+000	 9.413148152556371e+000
 1.080739262937787e+000	 1.653066134643443e+000	 9.446729828672773e+000
 1.260596252817662e+000	 1.552706375145675e+000	 1.086294593391045e+001
 1.244497964461667e+000	 1.565638788630635e+000	 1.076396351534799e+001
 1.228276589353182e+000	 1.578396851251904e+000	 1.038210181074425e+001
 1.211934951580843e+000	 1.590978841190437e+000	 1.005370970623414e+001
 1.195475906489393e+000	 1.603383097381649e+000	 9.779341409582276e+000
 1.178902339053814e+000	 1.615608020198319e+000	 9.559471621006374e+000
 1.162217162236541e+000	 1.627652072081567e+000	 9.394495322476125e+000
 1.145423315329686e+000	 1.639513778119491e+000	 9.284727711349134e+000
 1.128523762284199e+000	 1.651191726573076e+000	 9.230404277385517e+000
 1.111521490027896e+000	 1.662684569349107e+000	 9.231681021815373e+000
 1.094419506774317e+000	 1.673991022419878e+000	 9.288634816771388e+000
 9.576170684087774e-001	 1.464742144632903e+000	 9.349204852564100e+000
 9.425682352647938e-001	 1.474471132926832e+000	 9.119092213323505e+000
 9.274374692974090e-001	 1.484034952587418e+000	 8.903688553649207e+000
 9.122274496350911e-001	 1.493432649999157e+000	 8.702944435652825e+000
 8.969408680658608e-001	 1.502663328606234e+000	 8.516781487209423e+000
 8.815804275427319e-001	 1.511726149046811e+000	 8.345092854671666e+000
 8.661488406911886e-001	 1.520620329241137e+000	 8.187743710897109e+000
 8.506488283203394e-001	 1.529345144433827e+000	 8.044571816680723e+000
 8.350831179393496e-001	 1.537899927190630e+000	 7.915388133559810e+000
 8.194544422807425e-001	 1.546284067350165e+000	 7.799977485837175e+000
 8.037655378321177e-001	 1.554497011931069e+000	 7.698099269562236e+000
 9.712973122453553e-001	 1.485667032413862e+000	 9.478746398535140e+000
 9.560334957715676e-001	 1.495535006255741e+000	 9.266787714819833e+000
 9.406865760053216e-001	 1.505235451912260e+000	 9.066332179495262e+000
 9.252592703483492e-001	 1.514767402144833e+000	 8.877350849997479e+000
 9.097543090427870e-001	 1.524129947589711e+000	 8.699788022334303e+000
 8.941744336552635e-001	 1.533322236894168e+000	 8.533561647336477e+000
 8.785223955630558e-001	 1.542343476805889e+000	 8.378563800715149e+000
 8.628009544439745e-001	 1.551192932215838e+000	 8.234661205075154e+000
 8.470128767716024e-001	 1.559869926154992e+000	 8.101695801908276e+000
 8.311609343174995e-001	 1.568373839745378e+000	 7.979485371473165e+000
 8.152479026619462e-001	 1.576704112105899e+000	 7.867824198358968e+000
 9.849775560819279e-001	 1.506591920194319e+000	 9.581799894338781e+000
 9.694987562781512e-001	 1.516598879584058e+000	 9.388639194807995e+000
 9.539356827128893e-001	 1.526435951236438e+000	 9.203924382177799e+000
 9.382910910611391e-001	 1.536102154289799e+000	 9.027646198253969e+000
 9.225677500191511e-001	 1.545596566572447e+000	 8.859770679816892e+000
 9.067684397671690e-001	 1.554918324740777e+000	 8.700239540236455e+000
 8.908959504342631e-001	 1.564066624369902e+000	 8.548970603538823e+000
 8.749530805669461e-001	 1.573040719997142e+000	 8.405858289127540e+000
 8.589426356032184e-001	 1.581839925118697e+000	 8.270774145235095e+000
 8.428674263536748e-001	 1.590463612140004e+000	 8.143567429064678e+000
 8.267302674912782e-001	 1.598911212280233e+000	 8.024065731473090e+000
 9.986577999184951e-001	 1.527516807974274e+000	 9.657001828588962e+000
 9.829640167845446e-001	 1.537662752911782e+000	 9.483273583320916e+000
 9.671847894201128e-001	 1.547636450559955e+000	 9.315078847852012e+000
 9.513229117734604e-001	 1.557436906434054e+000	 9.152427257199639e+000
 9.353811909949530e-001	 1.567063185554443e+000	 8.995305683176570e+000
 9.193624458784487e-001	 1.576514412586635e+000	 8.843678583167316e+000
 9.032695053048110e-001	 1.585789771933177e+000	 8.697488400153500e+000
 8.871052066892549e-001	 1.594888507777738e+000	 8.556656012238134e+000
 8.708723944341967e-001	 1.603809924081746e+000	 8.421081229792446e+000
 8.545739183892692e-001	 1.612553384534044e+000	 8.290643338231417e+000
 8.382126323201147e-001	 1.621118312454072e+000	 8.165201684316191e+000
 1.012338043755057e+000	 1.548441695753725e+000	 9.702986621062394e+000
 9.964292772907482e-001	 1.558726626238913e+000	 9.549316644022978e+000
 9.804338961269921e-001	 1.568836949882811e+000	 9.398409242784407e+000
 9.643547324853132e-001	 1.578771658577596e+000	 9.250292172841345e+000
 9.481946319701927e-001	 1.588529804535699e+000	 9.104972255399982e+000
 9.319564519891026e-001	 1.598110500431744e+000	 8.962435695086727e+000
 9.156430601746997e-001	 1.607512919495713e+000	 8.822648447854251e+000
 8.992573328109000e-001	 1.616736295557627e+000	 8.685556637376005e+000
 8.828021532645382e-001	 1.625779923044137e+000	 8.551087018094345e+000
 8.662804104242823e-001	 1.634643156927498e+000	 8.419147482970811e+000
 8.496949971484549e-001	 1.643325412627414e+000	 8.289627613876771e+000
 1.026018287591614e+000	 1.569366583532674e+000	 9.718386760620881e+000
 1.009894537796761e+000	 1.579790499565452e+000	 9.585393051967570e+000
 9.936830028335265e-001	 1.590037449205004e+000	 9.452529214678464e+000
 9.773865531966977e-001	 1.600106410720428e+000	 9.319840369133596e+000
 9.610080729448698e-001	 1.609996423516213e+000	 9.187352418976420e+000
 9.445504580991302e-001	 1.619706588276103e+000	 9.055072339503340e+000
 9.280166150439284e-001	 1.629236067057511e+000	 8.922988515345553e+000
 9.114094589318823e-001	 1.638584083336807e+000	 8.791071125774927e+000
 8.947319120942425e-001	 1.647749922005872e+000	 8.659272575832674e+000
 8.779869024587137e-001	 1.656732929320365e+000	 8.527527971366485e+000
 8.611773619762990e-001	 1.665532512800259e+000	 8.395755635948675e+000
 1.039698531428165e+000	 1.590291471311120e+000	 9.701832932245337e+000
 1.023359798302585e+000	 1.600854372891399e+000	 9.590126465216514e+000
 1.006932109539717e+000	 1.611237948526535e+000	 9.476052393896380e+000
 9.904183739076136e-001	 1.621441162862548e+000	 9.359672463902934e+000
 9.738215139189849e-001	 1.631463042495988e+000	 9.241030811720554e+000
 9.571444642085323e-001	 1.641302676119713e+000	 9.120154225493479e+000
 9.403901699124980e-001	 1.650959214618570e+000	 8.997052454358832e+000
 9.235615850522011e-001	 1.660431871115281e+000	 8.871718564678735e+000
 9.066616709233094e-001	 1.669719920966950e+000	 8.744129341404802e+000
 8.896933944925638e-001	 1.678822701712647e+000	 8.614245732687643e+000
 8.726597268036471e-001	 1.687739612972610e+000	 8.482013335735699e+000
 1.053378775264711e+000	 1.611216359089064e+000	 9.651954134170905e+000
 1.036825058808218e+000	 1.621918246216753e+000	 9.562139590878427e+000
 1.020181216245563e+000	 1.632438447847403e+000	 9.467592394584621e+000
 1.003450194618061e+000	 1.642775915003957e+000	 9.368390191324023e+000
 9.866349548925376e-001	 1.652929661475022e+000	 9.264594516945452e+000
 9.697384703173085e-001	 1.662898763962574e+000	 9.156251032014827e+000
 9.527637247804079e-001	 1.672682362178890e+000	 9.043389804650779e+000
 9.357137111718568e-001	 1.682279658893047e+000	 8.926025639678718e+000
 9.185914297517397e-001	 1.691689919927371e+000	 8.804158452361426e+000
 9.013998865258328e-001	 1.700912474104342e+000	 8.677773684844775e+000
 8.841420916304991e-001	 1.709946713144463e+000	 8.546842763344801e+000
 1.067059019101252e+000	 1.632141246866505e+000	 9.567377786011488e+000
 1.050290319313661e+000	 1.642982119541515e+000	 9.500054246067188e+000
 1.033430322951064e+000	 1.653638947167610e+000	 9.425762815713730e+000
 1.016482015328040e+000	 1.664110667144654e+000	 9.344596330358762e+000
 9.994483958655279e-001	 1.674396280453315e+000	 9.256632906700379e+000
 9.823324764254585e-001	 1.684494851804685e+000	 9.161936153426716e+000
 9.651372796476582e-001	 1.694405509738473e+000	 9.060555429386476e+000
 9.478658372908494e-001	 1.704127446670105e+000	 8.952526147639732e+000
 9.305211885795325e-001	 1.713659918887135e+000	 8.837870123665887e+000
 9.131063785585204e-001	 1.723002246495451e+000	 8.716595965886800e+000
 8.956244564568551e-001	 1.732153813315821e+000	 8.588699506548458e+000
 1.080739262937787e+000	 1.653066134643443e+000	 9.446729828672773e+000
 1.063755579818914e+000	 1.664045992865685e+000	 9.402491414230870e+000
 1.046679429656221e+000	 1.674839446487155e+000	 9.349177242038781e+000
 1.029513836037550e+000	 1.685445419284640e+000	 9.286894638630301e+000
 1.012261836837956e+000	 1.695862899430868e+000	 9.215737496913940e+000
 9.949264825329828e-001	 1.706090939646046e+000	 9.135786464338365e+000
 9.775108345142489e-001	 1.716128657297317e+000	 9.047109178214763e+000
 9.600179634091784e-001	 1.725975234446455e+000	 8.949760546619892e+000
 9.424509474066884e-001	 1.735629917846242e+000	 8.843783073174592e+000
 9.248128705906267e-001	 1.745092018885973e+000	 8.729207223865913e+000
 9.071068212827147e-001	 1.754360913486683e+000	 8.606051833970534e+000
 1.094419506774317e+000	 1.673991022419878e+000	 9.288634816771388e+000
 1.077220840323977e+000	 1.685109866189261e+000	 9.268071297255659e+000
 1.059928536361034e+000	 1.696039945806038e+000	 9.236449244987863e+000
 1.042545656746593e+000	 1.706780171423916e+000	 9.193889791257265e+000
 1.025075277809822e+000	 1.717329518407680e+000	 9.140501813401613e+000
 1.007520488639881e+000	 1.727687027486658e+000	 9.076382102093268e+000
 9.898843893801801e-001	 1.737851804855421e+000	 9.001615575612908e+000
 9.721700895268447e-001	 1.747823022222098e+000	 8.916275539545863e+000
 9.543807062332069e-001	 1.757599916804693e+000	 8.820423990205974e+000
 9.365193626221513e-001	 1.767181791275909e+000	 8.714111959962366e+000
 9.185891861080785e-001	 1.776568013657048e+000	 8.597379902533101e+000
 8.037655378321177e-001	 1.554497011931069e+000	 7.698099269562236e+000
 7.880191433779774e-001	 1.562538264995355e+000	 7.548092553828903e+000
 7.722179985526132e-001	 1.570407387467961e+000	 7.400854442587059e+000
 7.563648424060114e-001	 1.578103996913506e+000	 7.256272813628404e+000
 7.404624119843860e-001	 1.585627767271441e+000	 7.114222468659713e+000
 7.245134409262329e-001	 1.592978428549761e+000	 6.974565717685403e+000
 7.085206580754382e-001	 1.600155766478270e+000	 6.837152987360761e+000
 6.924867861127358e-001	 1.607159622122280e+000	 6.701823451212342e+000
 6.764145402067773e-001	 1.613989891457657e+000	 6.568405679595144e+000
 6.603066266860097e-001	 1.620646524908149e+000	 6.436718307236547e+000
 6.441657417325339e-001	 1.627129526846032e+000	 6.306570716205115e+000
 8.152479026619462e-001	 1.576704112105899e+000	 7.867824198358968e+000
 7.992765597150681e-001	 1.584860240213809e+000	 7.712019966717951e+000
 7.832496842489194e-001	 1.592841778721614e+000	 7.560687203844299e+000
 7.671700544427715e-001	 1.600648339730568e+000	 7.413668943101414e+000
 7.510404464434982e-001	 1.608279592522115e+000	 7.270793555981846e+000
 7.348636329415733e-001	 1.615735263247221e+000	 7.131875415383025e+000
 7.186423817643659e-001	 1.623015134574687e+000	 6.996715584456356e+000
 7.023794544880492e-001	 1.630119045299331e+000	 6.865102528740030e+000
 6.860776050693970e-001	 1.637046889910957e+000	 6.736812849256444e+000
 6.697395784986909e-001	 1.643798618125083e+000	 6.611612034236933e+000
 6.533681094749184e-001	 1.650374234376445e+000	 6.489255227124109e+000
 8.267302674912782e-001	 1.598911212280233e+000	 8.024065731473090e+000
 8.105339760517525e-001	 1.607182215431857e+000	 7.861826478108190e+000
 7.942813699448886e-001	 1.615276169974930e+000	 7.705772508165969e+000
 7.779752664792438e-001	 1.623192682547341e+000	 7.555702057256679e+000
 7.616184809023511e-001	 1.630931417772529e+000	 7.411397082608687e+000
 7.452138249566628e-001	 1.638492097944430e+000	 7.272624006013746e+000
 7.287641054530316e-001	 1.645874502670843e+000	 7.139134483997328e+000
 7.122721228630690e-001	 1.653078468476089e+000	 7.010666202734523e+000
 6.957406699316725e-001	 1.660103888363913e+000	 6.886943695201095e+000
 6.791725303109573e-001	 1.666950711341602e+000	 6.767679178031381e+000
 6.625704772167977e-001	 1.673618941906352e+000	 6.652573405543733e+000
 8.382126323201147e-001	 1.621118312454072e+000	 8.165201684316191e+000
 8.217913923880305e-001	 1.629504190649500e+000	 7.995956260503446e+000
 8.053130556405208e-001	 1.637710561227909e+000	 7.834622593456442e+000
 7.887804785154281e-001	 1.645737025363827e+000	 7.680954125287266e+000
 7.721965153609450e-001	 1.653583243022685e+000	 7.534686371453272e+000
 7.555640169715022e-001	 1.661248932641390e+000	 7.395537744202423e+000
 7.388858291414354e-001	 1.668733870766737e+000	 7.263210404946027e+000
 7.221647912377962e-001	 1.676037891652553e+000	 7.137391142883915e+000
 7.054037347936036e-001	 1.683160886816524e+000	 7.017752277179693e+000
 6.886054821228086e-001	 1.690102804557707e+000	 6.903952579961927e+000
 6.717728449581719e-001	 1.696863649435754e+000	 6.795638217417775e+000
 8.496949971484549e-001	 1.643325412627414e+000	 8.289627613876771e+000
 8.330488087239021e-001	 1.651826165866735e+000	 8.112868455833805e+000
 8.163447413358160e-001	 1.660144952480551e+000	 7.945761842310092e+000
 7.995856905513242e-001	 1.668281368180025e+000	 7.788016385315109e+000
 7.827745498192797e-001	 1.676235068272581e+000	 7.639321089151046e+000
 7.659142089860909e-001	 1.684005767338098e+000	 7.499346255243000e+000
 7.490075528295777e-001	 1.691593238862368e+000	 7.367744417647510e+000
 7.320574596122300e-001	 1.698997314828724e+000	 7.244151306369525e+000
 7.150667996551907e-001	 1.706217885268792e+000	 7.128186835586241e+000
 6.980384339342454e-001	 1.713254897773396e+000	 7.019456113856981e+000
 6.809752126990409e-001	 1.720108356964651e+000	 6.917550473388737e+000
 8.611773619762990e-001	 1.665532512800259e+000	 8.395755635948675e+000
 8.443062250593676e-001	 1.674148141083565e+000	 8.211036177493956e+000
 8.273764270307743e-001	 1.682579343732855e+000	 8.037725972365497e+000
 8.103909025869325e-001	 1.690825710995935e+000	 7.875488726462391e+000
 7.933525842773551e-001	 1.698886893522218e+000	 7.723966823145276e+000
 7.762644010004290e-001	 1.706762602034556e+000	 7.582782310387055e+000
 7.591292765174580e-001	 1.714452606957739e+000	 7.451537920404146e+000
 7.419501279863707e-001	 1.721956738004602e+000	 7.329818118699601e+000
 7.247298645164338e-001	 1.729274883720715e+000	 7.217190179414344e+000
 7.074713857452670e-001	 1.736406990988670e+000	 7.113205283865910e+000
 6.901775804394048e-001	 1.743353064493043e+000	 7.017399639142038e+000
 8.726597268036471e-001	 1.687739612972610e+000	 8.482013335735699e+000
 8.555636413944262e-001	 1.696470116299987e+000	 8.288945591167718e+000
 8.384081127253956e-001	 1.705013734984823e+000	 8.109061290578836e+000
 8.211961146222528e-001	 1.713370053811557e+000	 7.941979119706886e+000
 8.039306187351715e-001	 1.721538718771596e+000	 7.787294692160102e+000
 7.866145930145165e-001	 1.729519436730763e+000	 7.644581619873052e+000
 7.692510002050765e-001	 1.737311975052847e+000	 7.513392617899519e+000
 7.518427963602187e-001	 1.744916161180187e+000	 7.393260640266794e+000
 7.343929293773328e-001	 1.752331882172295e+000	 7.283700043586840e+000
 7.169043375558738e-001	 1.759559084203529e+000	 7.184207775095425e+000
 6.993799481792635e-001	 1.766597772020930e+000	 7.094264581784612e+000
 8.841420916304991e-001	 1.709946713144463e+000	 8.546842763344801e+000
 8.668210577290790e-001	 1.718792091516004e+000	 8.345095067277153e+000
 8.494397984196800e-001	 1.727448126236454e+000	 8.158324005605698e+000
 8.320013266572854e-001	 1.735914396626891e+000	 7.986103093086229e+000
 8.145086531927285e-001	 1.744190544020715e+000	 7.827980987026461e+000
 7.969647850283537e-001	 1.752276271426720e+000	 7.683482642083203e+000
 7.793727238924332e-001	 1.760171343147693e+000	 7.552110501303279e+000
 7.617354647337733e-001	 1.767875584355479e+000	 7.433345719927109e+000
 7.440559942378873e-001	 1.775388880623529e+000	 7.326649418440680e+000
 7.263372893660658e-001	 1.782711177417974e+000	 7.231463961339915e+000
 7.085823159186171e-001	 1.789842479548311e+000	 7.147214258064464e+000
 8.956244564568551e-001	 1.732153813315821e+000	 8.588699506548458e+000
 8.780784740633255e-001	 1.741114066731615e+000	 8.377994398627008e+000
 8.604714841136274e-001	 1.749882517487748e+000	 8.184079593076991e+000
 8.428065386920298e-001	 1.758458739441937e+000	 8.006483247270809e+000
 8.250866876500265e-001	 1.766842369269574e+000	 7.844706839136778e+000
 8.073149770419406e-001	 1.775033106122427e+000	 7.698226407379949e+000
 7.894944475795278e-001	 1.783030711242278e+000	 7.566493829906987e+000
 7.716281331070347e-001	 1.790835007530478e+000	 7.448938136765179e+000
 7.537190590980979e-001	 1.798445879074421e+000	 7.344966853867069e+000
 7.357702411758429e-001	 1.805863270632003e+000	 7.253967373755291e+000
 7.177846836574655e-001	 1.813087187075188e+000	 7.175308349649940e+000
 9.071068212827147e-001	 1.754360913486683e+000	 8.606051833970534e+000
 8.893358903971655e-001	 1.763436041946819e+000	 8.386164077469685e+000
 8.715031698072377e-001	 1.772316908738705e+000	 8.184902209081493e+000
 8.536117507264862e-001	 1.781003082256695e+000	 8.001748807928854e+000
 8.356647221070654e-001	 1.789494194518175e+000	 7.836157914080381e+000
 8.176651690552768e-001	 1.797789940817883e+000	 7.687556355322763e+000
 7.996161712663609e-001	 1.805890079336600e+000	 7.555345114154205e+000
 7.815208014800029e-001	 1.813794430705184e+000	 7.438900731092100e+000
 7.633821239579643e-001	 1.821502877524968e+000	 7.337576740352264e+000
 7.452031929852050e-001	 1.829015363845618e+000	 7.250705133937220e+000
 7.269870513958089e-001	 1.836331894601559e+000	 7.177597850160203e+000
 9.185891861080785e-001	 1.776568013657048e+000	 8.597379902533101e+000
 9.005933067305993e-001	 1.785758017161617e+000	 8.368134626789505e+000
 8.825348555005111e-001	 1.794751299989325e+000	 8.159374147636941e+000
 8.644169627606548e-001	 1.803547425071165e+000	 7.970535211664235e+000
 8.462427565638451e-001	 1.812146019766516e+000	 7.801024128256219e+000
 8.280153610683624e-001	 1.820546775513088e+000	 7.650218184093410e+000
 8.097378949529320e-001	 1.828749447430661e+000	 7.517467099943493e+000
 7.914134698526782e-001	 1.836753853879596e+000	 7.402094525619260e+000
 7.730451888174862e-001	 1.844559875975170e+000	 7.303399568940696e+000
 7.546361447941521e-001	 1.852167457058817e+000	 7.220658354518822e+000
 7.361894191336470e-001	 1.859576602127425e+000	 7.153125608168232e+000
 6.441657417325339e-001	 1.627129526846032e+000	 6.306570716205115e+000
 6.279945700989932e-001	 1.633438955056451e+000	 6.082573619196146e+000
 6.117957838498271e-001	 1.639574920168338e+000	 5.977152059859129e+000
 5.955720411275249e-001	 1.645537585051869e+000	 5.893460777493471e+000
 5.793259849448746e-001	 1.651327164182347e+000	 5.804300668379029e+000
 5.630602420043452e-001	 1.656943922973434e+000	 5.708996926092344e+000
 5.467774215453343e-001	 1.662388177080357e+000	 5.606919198163855e+000
 5.304801142200819e-001	 1.667660291674264e+000	 5.497482109677161e+000
 5.141708909989889e-001	 1.672760680688981e+000	 5.380145681761304e+000
 4.978523021060263e-001	 1.677689806041381e+000	 5.254415646207537e+000
 4.815268759848673e-001	 1.682448176826651e+000	 5.119843657698197e+000
 6.533681094749184e-001	 1.650374234376445e+000	 6.489255227124109e+000
 6.369659211041965e-001	 1.656773797275656e+000	 6.279555115600959e+000
 6.205357236231793e-001	 1.662997419032029e+000	 6.111285181738252e+000
 6.040802131478216e-001	 1.669045264842459e+000	 6.036720209393785e+000
 5.876020704482378e-001	 1.674917552246178e+000	 5.954720609435579e+000
 5.711039597512191e-001	 1.680614550448476e+000	 5.864558636835556e+000
 5.545885275710125e-001	 1.686136579613939e+000	 5.765554543144699e+000
 5.380584015691770e-001	 1.691484010130446e+000	 5.657077122505701e+000
 5.215161894442632e-001	 1.696657261845163e+000	 5.538544146026864e+000
 5.049644778520140e-001	 1.701656803273777e+000	 5.409422685840851e+000
 4.884058313567285e-001	 1.706483150784262e+000	 5.269229330445130e+000
 6.625704772167977e-001	 1.673618941906352e+000	 6.652573405543733e+000
 6.459372721088099e-001	 1.680108639494266e+000	 6.457151800964512e+000
 6.292756633958880e-001	 1.686419917895057e+000	 6.266893436198262e+000
 6.125883851674518e-001	 1.692552944632335e+000	 6.169489494813369e+000
 5.958781559509421e-001	 1.698507940309268e+000	 6.094740054130793e+000
 5.791476774974713e-001	 1.704285177922769e+000	 6.009794957088370e+000
 5.623996335961367e-001	 1.709884982146782e+000	 5.913923715752655e+000
 5.456366889178155e-001	 1.715307728585921e+000	 5.806448014949813e+000
 5.288614878892080e-001	 1.720553843000689e+000	 5.686742163480542e+000
 5.120766535978290e-001	 1.725623800505588e+000	 5.554233428433348e+000
 4.952847867286022e-001	 1.730518124741380e+000	 5.408402254300659e+000
 6.717728449581719e-001	 1.696863649435754e+000	 6.795638217417775e+000
 6.549086231128336e-001	 1.703443481712282e+000	 6.614537062375968e+000
 6.380156031679536e-001	 1.709842416757420e+000	 6.438191534644580e+000
 6.210965571864157e-001	 1.716060624421499e+000	 6.291730062805788e+000
 6.041542414529870e-001	 1.722098328371618e+000	 6.224384720875316e+000
 5.871913952431023e-001	 1.727955805396312e+000	 6.144793738829234e+000
 5.702107396207071e-001	 1.733633384678889e+000	 6.052174513084232e+000
 5.532149762659978e-001	 1.739131447040690e+000	 5.945800310358901e+000
 5.362067863338235e-001	 1.744450424155561e+000	 5.825000736695016e+000
 5.191888293434709e-001	 1.749590797736816e+000	 5.689162082839666e+000
 5.021637421004885e-001	 1.754553098698004e+000	 5.537727547802634e+000
 6.809752126990409e-001	 1.720108356964651e+000	 6.917550473388737e+000
 6.638799741162675e-001	 1.726778323929701e+000	 6.750870040839272e+000
 6.467555429393755e-001	 1.733264915619120e+000	 6.588592838124277e+000
 6.296047292047130e-001	 1.739568304209950e+000	 6.430464572645044e+000
 6.124303269543733e-001	 1.745688716433226e+000	 6.343660211339630e+000
 5.952351129881119e-001	 1.751626432869105e+000	 6.269620895747146e+000
 5.780218456447240e-001	 1.757381787210257e+000	 6.180431040675748e+000
 5.607932636137237e-001	 1.762955165494752e+000	 6.075314155828560e+000
 5.435520847781096e-001	 1.768347005309777e+000	 5.953553876127082e+000
 5.263010050889398e-001	 1.773557794967459e+000	 5.814494318979579e+000
 5.090426974723873e-001	 1.778588072654134e+000	 5.657540312944096e+000
 6.901775804394048e-001	 1.743353064493043e+000	 7.017399639142038e+000
 6.728513251191122e-001	 1.750113166146527e+000	 6.865296581012198e+000
 6.554954827101545e-001	 1.756687414480155e+000	 6.717299039213967e+000
 6.381129012223440e-001	 1.763075983997688e+000	 6.573116335472697e+000
 6.207064124551003e-001	 1.769279104494092e+000	 6.452553351569940e+000
 6.032788307324999e-001	 1.775297060341149e+000	 6.384321865794283e+000
 5.858329516681867e-001	 1.781130189740887e+000	 6.298795291940465e+000
 5.683715509609933e-001	 1.786778883948108e+000	 6.195146013950691e+000
 5.508973832220664e-001	 1.792243586463339e+000	 6.072610399592407e+000
 5.334131808342359e-001	 1.797524792197518e+000	 5.930489170433623e+000
 5.159216528442988e-001	 1.802623046609771e+000	 5.768147636276493e+000
 6.993799481792635e-001	 1.766597772020930e+000	 7.094264581784612e+000
 6.818226761213673e-001	 1.773448008362758e+000	 6.956950105965873e+000
 6.642354224802897e-001	 1.780109913340527e+000	 6.823497643994298e+000
 6.466210732393085e-001	 1.786583663784714e+000	 6.693579259188521e+000
 6.289824979551683e-001	 1.792869492554218e+000	 6.566856623285033e+000
 6.113225484762667e-001	 1.798967687812443e+000	 6.488922958274172e+000
 5.936440576910962e-001	 1.804878592270780e+000	 6.407348602913761e+000
 5.759498383078067e-001	 1.810602602400758e+000	 6.305430221004716e+000
 5.582426816656939e-001	 1.816140167616246e+000	 6.182355589675955e+000
 5.405253565793593e-001	 1.821491789426993e+000	 6.037380786833773e+000
 5.228006082162227e-001	 1.826658020564913e+000	 5.869830432030758e+000
 7.085823159186171e-001	 1.789842479548311e+000	 7.147214258064464e+000
 6.907940271230324e-001	 1.796782850578394e+000	 7.024952423781431e+000
 6.729753622497819e-001	 1.803532412200234e+000	 6.906362893251108e+000
 6.551292452556069e-001	 1.810091343571026e+000	 6.791079572459783e+000
 6.372585834545771e-001	 1.816459880613601e+000	 6.678726176523523e+000
 6.193662662194119e-001	 1.822638315282988e+000	 6.583432595961465e+000
 6.014551637134514e-001	 1.828626994799934e+000	 6.506152993641184e+000
 5.835281256541633e-001	 1.834426320852701e+000	 6.406280423730892e+000
 5.655879801089923e-001	 1.840036748768498e+000	 6.282952721993748e+000
 5.476375323243092e-001	 1.845458786655884e+000	 6.135380049704308e+000
 5.296795635881594e-001	 1.850692994519563e+000	 5.962845141618895e+000
 7.177846836574655e-001	 1.813087187075188e+000	 7.175308349649940e+000
 6.997653781241079e-001	 1.820117692793435e+000	 7.068414472100567e+000
 6.817153020186306e-001	 1.826954911059278e+000	 6.965056612814614e+000
 6.636374172712387e-001	 1.833599023356627e+000	 6.864829595691983e+000
 6.455346689533271e-001	 1.840050268672244e+000	 6.767318213054517e+000
 6.274099839619357e-001	 1.846308942752784e+000	 6.672098361451823e+000
 6.092662697352529e-001	 1.852375397328350e+000	 6.595252406383120e+000
 5.911064130000641e-001	 1.858250039303940e+000	 6.497790905583062e+000
 5.729332785519611e-001	 1.863933329920095e+000	 6.374544475896183e+000
 5.547497080690866e-001	 1.869425783884191e+000	 6.224676064007338e+000
 5.365585189601084e-001	 1.874727968473718e+000	 6.047425302404143e+000
 7.269870513958089e-001	 1.836331894601559e+000	 7.177597850160203e+000
 7.087367291245936e-001	 1.843452535007881e+000	 7.086437006128151e+000
 6.904552417868359e-001	 1.850377409917658e+000	 6.998728999316441e+000
 6.721455892862039e-001	 1.857106703141514e+000	 6.914028621298249e+000
 6.538107544514182e-001	 1.863640656730146e+000	 6.831880750161194e+000
 6.354537017038380e-001	 1.869979570221829e+000	 6.751821546039596e+000
 6.170773757565008e-001	 1.876123799856030e+000	 6.670193025896249e+000
 5.986847003455083e-001	 1.882073757754471e+000	 6.550377620459315e+000
 5.802785769946008e-001	 1.887829911071037e+000	 6.403349619694430e+000
 5.618618838136911e-001	 1.893392781111914e+000	 6.231627648350140e+000
 5.434374743320700e-001	 1.898762942427380e+000	 6.037573201856440e+000
 7.361894191336470e-001	 1.859576602127425e+000	 7.153125608168232e+000
 7.177080801244898e-001	 1.866787377221733e+000	 7.078111235034524e+000
 6.991951815543979e-001	 1.873799908775373e+000	 7.006519347014211e+000
 6.806537613005028e-001	 1.880614382925689e+000	 6.920493328124037e+000
 6.620868399488499e-001	 1.887231044787306e+000	 6.828876748890602e+000
 6.434974194451190e-001	 1.893650197690125e+000	 6.734485269423342e+000
 6.248884817771947e-001	 1.899872202382971e+000	 6.636840493481219e+000
 6.062629876904960e-001	 1.905897476204296e+000	 6.511363947905278e+000
 5.876238754369109e-001	 1.911726492221324e+000	 6.360579254260867e+000
 5.689740595581225e-001	 1.917359778339053e+000	 6.187108515246616e+000
 5.503164297040443e-001	 1.922797916380548e+000	 5.993409034365235e+000
 4.815268759848673e-001	 1.682448176826651e+000	 5.119843657698197e+000
 4.651971182959880e-001	 1.687036348490034e+000	 5.023414716193948e+000
 4.488655109461449e-001	 1.691454921975343e+000	 4.935221946134720e+000
 4.325345111503020e-001	 1.695704542852121e+000	 4.854907456078972e+000
 4.162065505255868e-001	 1.699785900423492e+000	 4.782143840770157e+000
 3.998840342185868e-001	 1.703699726814957e+000	 4.716634234472379e+000
 3.835693400660092e-001	 1.707446796045747e+000	 4.658112287823175e+000
 3.672648177889567e-001	 1.711027923084024e+000	 4.606342070351076e+000
 3.509727882210220e-001	 1.714443962887209e+000	 4.561117900957147e+000
 3.346955425703515e-001	 1.717695809428702e+000	 4.522264108796462e+000
 3.184353417157770e-001	 1.720784394712270e+000	 4.489634727122394e+000
 4.884058313567285e-001	 1.706483150784262e+000	 5.269229330445130e+000
 4.718427914142042e-001	 1.711136867756843e+000	 5.171009873133279e+000
 4.552778753871787e-001	 1.715618563720287e+000	 5.078152968793727e+000
 4.387135755936855e-001	 1.719928893466559e+000	 4.990301936184163e+000
 4.221523583882387e-001	 1.724068556145973e+000	 4.907134085986090e+000
 4.055966632766611e-001	 1.728038294342963e+000	 4.828360723949349e+000
 3.890489020647542e-001	 1.731838893134178e+000	 4.753727072687288e+000
 3.725114580410633e-001	 1.735471179130182e+000	 4.683012114481272e+000
 3.559866851939456e-001	 1.738936019502071e+000	 4.616028357606970e+000
 3.394769074630905e-001	 1.742234320994296e+000	 4.552621528839482e+000
 3.229844180255973e-001	 1.745367028924961e+000	 4.492670194924692e+000
 4.952847867286022e-001	 1.730518124741380e+000	 5.408402254300659e+000
 4.784884645326171e-001	 1.735237387023252e+000	 5.309349929051232e+000
 4.616902398285628e-001	 1.739782205464916e+000	 5.212777460636714e+000
 4.448926400375425e-001	 1.744153244080758e+000	 5.118327968827012e+000
 4.280981662514563e-001	 1.748351211868279e+000	 5.025682138688498e+000
 4.113092923353631e-001	 1.752376861870848e+000	 4.934558173963812e+000
 3.945284640641589e-001	 1.756230990222532e+000	 4.844711664101413e+000
 3.777580982938320e-001	 1.759914435176295e+000	 4.755935367502038e+000
 3.610005821675038e-001	 1.763428076116914e+000	 4.668058913714249e+000
 3.442582723564077e-001	 1.766772832559885e+000	 4.580948427459290e+000
 3.275334943359103e-001	 1.769949663137652e+000	 4.494506077502674e+000
 5.021637421004885e-001	 1.754553098698004e+000	 5.537727547802634e+000
 4.851341376512272e-001	 1.759337906289263e+000	 5.438807674527384e+000
 4.681026042702975e-001	 1.763945847209230e+000	 5.339472993343035e+000
 4.510717044818727e-001	 1.768377594694717e+000	 5.239365020961872e+000
 4.340439741152395e-001	 1.772633867590408e+000	 5.138166482663531e+000
 4.170219213946927e-001	 1.776715429398610e+000	 5.035601216304043e+000
 4.000080260642233e-001	 1.780623087310807e+000	 4.931433984831408e+000
 3.830047385472627e-001	 1.784357691222365e+000	 4.825470200089341e+000
 3.660144791416969e-001	 1.787920132731738e+000	 4.717555560863306e+000
 3.490396372503031e-001	 1.791311344125469e+000	 4.607575608277085e+000
 3.320825706467159e-001	 1.794532297350343e+000	 4.495455201789066e+000
 5.090426974723873e-001	 1.778588072654134e+000	 5.657540312944096e+000
 4.917798107700342e-001	 1.783438425554874e+000	 5.559726687192745e+000
 4.745149687123827e-001	 1.788109488953231e+000	 5.458588828588451e+000
 4.572507689266763e-001	 1.792601945308435e+000	 5.353765250679621e+000
 4.399897819795885e-001	 1.796916523312362e+000	 5.244939390973907e+000
 4.227345504546504e-001	 1.801053996926252e+000	 5.131839465935022e+000
 4.054875880649476e-001	 1.805015184399005e+000	 5.014238229200543e+000
 3.882513788013554e-001	 1.808800947268392e+000	 4.891952636019117e+000
 3.710283761165248e-001	 1.812412189346542e+000	 4.764843417087572e+000
 3.538210021447767e-001	 1.815849855691048e+000	 4.632814565126370e+000
 3.366316469580142e-001	 1.819114931563034e+000	 4.495812737681431e+000
 5.159216528442988e-001	 1.802623046609771e+000	 5.768147636276493e+000
 4.984254838890382e-001	 1.807538944820087e+000	 5.672423279259920e+000
 4.809273331548185e-001	 1.812273130696917e+000	 5.570447805378451e+000
 4.634298333719531e-001	 1.816826295921914e+000	 5.461855327798896e+000
 4.459355898445030e-001	 1.821199179034140e+000	 5.346328673340351e+000
 4.284471795152355e-001	 1.825392564453771e+000	 5.223599188786361e+000
 4.109671500663315e-001	 1.829407281487125e+000	 5.093446444985240e+000
 3.934980190561102e-001	 1.833244203314375e+000	 4.955697841960627e+000
 3.760422730919875e-001	 1.836904245961326e+000	 4.810228118439126e+000
 3.586023670398286e-001	 1.840388367256622e+000	 4.656958769372079e+000
 3.411807232698052e-001	 1.843697565775724e+000	 4.495857375177653e+000
 5.228006082162227e-001	 1.826658020564913e+000	 5.869830432030758e+000
 5.050711570082394e-001	 1.831639464084900e+000	 5.777188291300606e+000
 4.873396975976047e-001	 1.836436772440289e+000	 5.675348078382097e+000
 4.696088978177033e-001	 1.841050646535153e+000	 5.563938110725920e+000
 4.518813977099832e-001	 1.845481834755741e+000	 5.442639285572108e+000
 4.341598085764483e-001	 1.849731131981168e+000	 5.311184837873156e+000
 4.164467120683752e-001	 1.853799378575167e+000	 5.169359990425193e+000
 3.987446593115271e-001	 1.857687459360315e+000	 5.017001499654367e+000
 3.810561700680848e-001	 1.861396302576093e+000	 4.853997100698415e+000
 3.633837319354587e-001	 1.864926878822192e+000	 4.680284855599217e+000
 3.457297995820888e-001	 1.868280199988415e+000	 4.495852408579841e+000
 5.296795635881594e-001	 1.850692994519563e+000	 5.962845141618895e+000
 5.117168301276374e-001	 1.855739983349315e+000	 5.874288746248256e+000
 4.937520620407415e-001	 1.860600414183346e+000	 5.773564720810847e+000
 4.757879622639269e-001	 1.865274997148151e+000	 5.660294192650311e+000
 4.578272055760290e-001	 1.869764490477168e+000	 5.534154813587053e+000
 4.398724376382889e-001	 1.874069699508444e+000	 5.394880469718994e+000
 4.219262740710786e-001	 1.878191475663132e+000	 5.255353987883379e+000
 4.039912995676059e-001	 1.882130715406210e+000	 5.117863320250079e+000
 3.860700670448169e-001	 1.885888359190839e+000	 4.981124506989397e+000
 3.681650968316670e-001	 1.889465390387757e+000	 4.846057278510027e+000
 3.502788758948651e-001	 1.892862834201107e+000	 4.713428875900275e+000
 5.365585189601084e-001	 1.874727968473718e+000	 6.047425302404143e+000
 5.183625032472324e-001	 1.879840502613331e+000	 5.951973466551985e+000
 5.001644264842287e-001	 1.884764055926089e+000	 5.849019571799748e+000
 4.819670267106238e-001	 1.889499347760909e+000	 5.741362717525932e+000
 4.637730134426404e-001	 1.894047146198417e+000	 5.630793093405589e+000
 4.455850667007572e-001	 1.898408267035597e+000	 5.518933990066899e+000
 4.274058360744420e-001	 1.902583572751019e+000	 5.407242652586553e+000
 4.092379398243468e-001	 1.906573971452062e+000	 5.297011468007662e+000
 3.910839640221839e-001	 1.910380415805565e+000	 5.189369475200769e+000
 3.729464617284536e-001	 1.914003901953317e+000	 5.085284184850865e+000
 3.548279522081341e-001	 1.917445468413798e+000	 4.985563696868153e+000
 5.434374743320700e-001	 1.898762942427380e+000	 6.037573201856440e+000
 5.250081763670245e-001	 1.903941021876948e+000	 5.958276714754063e+000
 5.065767909280665e-001	 1.908927697668517e+000	 5.873915511718055e+000
 4.881460911577939e-001	 1.913723698373428e+000	 5.786539432554759e+000
 4.697188213098175e-001	 1.918329801919491e+000	 5.698023452452828e+000
 4.512976957638532e-001	 1.922746834562629e+000	 5.610068201147350e+000
 4.328853980784649e-001	 1.926975669838828e+000	 5.524200841860534e+000
 4.144845800817497e-001	 1.931017227497871e+000	 5.441776298495558e+000
 3.960978610001855e-001	 1.934872472420273e+000	 5.363978818937728e+000
 3.777278266258183e-001	 1.938542413518873e+000	 5.291823861757264e+000
 3.593770285218957e-001	 1.942028102626488e+000	 5.226160293104235e+000
 5.503164297040443e-001	 1.922797916380548e+000	 5.993409034365235e+000
 5.316538494870134e-001	 1.928041541140166e+000	 5.930408516204254e+000
 5.129891553722548e-001	 1.933091339410632e+000	 5.864134835224305e+000
 4.943251556054373e-001	 1.937948048985706e+000	 5.796731929613992e+000
 4.756646291775603e-001	 1.942612457640389e+000	 5.730161132589784e+000
 4.570103248275768e-001	 1.947085402089539e+000	 5.666201704534039e+000
 4.383649600831476e-001	 1.951367766926559e+000	 5.606451740023446e+000
 4.197312203398145e-001	 1.955460483543635e+000	 5.552329437766550e+000
 4.011117579788219e-001	 1.959364529034961e+000	 5.505074720825677e+000
 3.825091915237612e-001	 1.963080925084422e+000	 5.465751193911147e+000
 3.639261048361499e-001	 1.966610736839179e+000	 5.435248424012703e+000
 3.184353417157770e-001	 1.720784394712270e+000	 4.489634727122394e+000
 3.021944155378737e-001	 1.723710687775430e+000	 4.475457383863811e+000
 2.859749622825958e-001	 1.726475693682788e+000	 4.469060039622272e+000
 2.697791479589111e-001	 1.729080452510761e+000	 4.470517515712990e+000
 2.536091057720337e-001	 1.731526038325072e+000	 4.479928637543966e+000
 2.374669355897515e-001	 1.733813558151911e+000	 4.497415584242860e+000
 2.213547034424480e-001	 1.735944150944025e+000	 4.523123194399793e+000
 2.052744410566011e-001	 1.737918986542895e+000	 4.557218230945274e+000
 1.892281454215084e-001	 1.739739264638118e+000	 4.599888608205134e+000
 1.732177783889451e-001	 1.741406213725087e+000	 4.651342584183189e+000
 1.572452663054261e-001	 1.742921090062064e+000	 4.711807921124681e+000
 3.229844180255973e-001	 1.745367028924961e+000	 4.492670194924692e+000
 3.065114786173200e-001	 1.748335126174922e+000	 4.455514470541491e+000
 2.900603188875702e-001	 1.751139632166796e+000	 4.422753662328720e+000
 2.736331357883021e-001	 1.753781601835235e+000	 4.394470293455845e+000
 2.572320929990909e-001	 1.756262124589759e+000	 4.370774737073580e+000
 2.408593203858374e-001	 1.758582323271217e+000	 4.351804480091498e+000
 2.245169134936457e-001	 1.760743353103111e+000	 4.337723339184284e+000
 2.082069330736590e-001	 1.762746400638945e+000	 4.328720632313751e+000
 1.919314046435947e-001	 1.764592682706737e+000	 4.325010309076981e+000
 1.756923180816831e-001	 1.766283445351817e+000	 4.326830043201072e+000
 1.594916272536765e-001	 1.767819962778993e+000	 4.334440290503727e+000
 3.275334943359103e-001	 1.769949663137652e+000	 4.494506077502674e+000
 3.108285416971643e-001	 1.772959564574414e+000	 4.433434777169219e+000
 2.941456754928580e-001	 1.775803570650804e+000	 4.373376275673530e+000
 2.774871236179322e-001	 1.778482751159709e+000	 4.314420568848472e+000
 2.608550802263234e-001	 1.780998210854445e+000	 4.256689394156183e+000
 2.442517051820447e-001	 1.783351088390523e+000	 4.200335407808828e+000
 2.276791235449207e-001	 1.785542555262198e+000	 4.145541310154109e+000
 2.111394250907602e-001	 1.787573814734995e+000	 4.092518922887283e+000
 1.946346638657002e-001	 1.789446100775357e+000	 4.041508221672330e+000
 1.781668577744259e-001	 1.791160676978547e+000	 3.992776327766183e+000
 1.617379882019268e-001	 1.792718835495921e+000	 3.946616462237548e+000
 3.320825706467159e-001	 1.794532297350343e+000	 4.495455201789066e+000
 3.151456047774062e-001	 1.797584002973905e+000	 4.409582256879255e+000
 2.982310320984593e-001	 1.800467509134812e+000	 4.321339268395342e+000
 2.813411114478016e-001	 1.803183900484183e+000	 4.230823480978613e+000
 2.644780674537312e-001	 1.805734297119132e+000	 4.138167820954596e+000
 2.476440899783732e-001	 1.808119853509829e+000	 4.043539985932463e+000
 2.308413335962732e-001	 1.810341757421284e+000	 3.947141478630055e+000
 2.140719171079049e-001	 1.812401228831045e+000	 3.849206588762050e+000
 1.973379230878249e-001	 1.814299518843976e+000	 3.750001326852785e+000
 1.806413974671735e-001	 1.816037908605277e+000	 3.649822313845033e+000
 1.639843491501772e-001	 1.817617708212850e+000	 3.548995630372609e+000
 3.366316469580142e-001	 1.819114931563034e+000	 4.495812737681431e+000
 3.194626678580462e-001	 1.822208441373398e+000	 4.384301061214640e+000
 3.023163887043739e-001	 1.825131447618820e+000	 4.267032220376457e+000
 2.851950992779102e-001	 1.827885049808657e+000	 4.144110489692596e+000
 2.681010546813142e-001	 1.830470383383819e+000	 4.015679816408054e+000
 2.510364747748229e-001	 1.832888618629136e+000	 3.881922821649185e+000
 2.340035436477032e-001	 1.835140959580372e+000	 3.743059741691762e+000
 2.170044091250931e-001	 1.837228642927095e+000	 3.599347313454665e+000
 2.000411823099688e-001	 1.839152936912596e+000	 3.451077608363769e+000
 1.831159371599259e-001	 1.840915140232007e+000	 3.298576818738449e+000
 1.662307100984275e-001	 1.842516580929779e+000	 3.142204000851418e+000
 3.411807232698052e-001	 1.843697565775724e+000	 4.495857375177653e+000
 3.237797309390840e-001	 1.846832879772890e+000	 4.357916860234850e+000
 3.064017453106021e-001	 1.849795386102829e+000	 4.210824356566926e+000
 2.890490871082581e-001	 1.852586199133131e+000	 4.054690954211266e+000
 2.717240419090724e-001	 1.855206469648505e+000	 3.889671460447135e+000
 2.544288595713941e-001	 1.857657383748441e+000	 3.715963311551457e+000
 2.371657536992104e-001	 1.859940161739458e+000	 3.533805420460073e+000
 2.199369011423246e-001	 1.862056057023146e+000	 3.343476964740682e+000
 2.027444415321320e-001	 1.864006354981216e+000	 3.145296119308510e+000
 1.855904768526831e-001	 1.865792371858737e+000	 2.939618738325708e+000
 1.684770710466778e-001	 1.867415453646707e+000	 2.726836990719734e+000
 3.457297995820888e-001	 1.868280199988415e+000	 4.495852408579841e+000
 3.280967940205198e-001	 1.871457318172382e+000	 4.330738058403254e+000
 3.104871019171435e-001	 1.874459324586836e+000	 4.153065886124471e+000
 2.929030749388453e-001	 1.877287348457605e+000	 4.010200566691892e+000
 2.753470291370059e-001	 1.879942555913192e+000	 3.877223413866489e+000
 2.578212443680865e-001	 1.882426148867748e+000	 3.744495915848335e+000
 2.403279637507950e-001	 1.884739363898545e+000	 3.611917216768410e+000
 2.228693931595993e-001	 1.886883471119196e+000	 3.479262976880133e+000
 2.054477007543144e-001	 1.888859773049835e+000	 3.346189030542534e+000
 1.880650165454450e-001	 1.890669603485467e+000	 3.212235198465468e+000
 1.707234319949282e-001	 1.892314326363635e+000	 3.076829240826960e+000
 3.502788758948651e-001	 1.892862834201107e+000	 4.713428875900275e+000
 3.324138571023533e-001	 1.896081756571874e+000	 4.611454327733685e+000
 3.145724585239986e-001	 1.899123263070844e+000	 4.510497731816352e+000
 2.967570627696717e-001	 1.901988497782079e+000	 4.410847358321911e+000
 2.789700163651145e-001	 1.904678642177878e+000	 4.312652733348520e+000
 2.612136291649003e-001	 1.907194913987054e+000	 4.215927880119994e+000
 2.434901738024571e-001	 1.909538566057632e+000	 4.120554762324214e+000
 2.258018851769177e-001	 1.911710885215246e+000	 4.026286915709553e+000
 2.081509599765160e-001	 1.913713191118455e+000	 3.932753254003231e+000
 1.905395562382118e-001	 1.915546835112197e+000	 3.839462035202065e+000
 1.729697929431785e-001	 1.917213199080564e+000	 3.745804974313786e+000
 3.548279522081341e-001	 1.917445468413798e+000	 4.985563696868153e+000
 3.367309201845848e-001	 1.920706194971366e+000	 4.914682124704470e+000
 3.186578151311670e-001	 1.923787201554852e+000	 4.846274709998414e+000
 3.006110506007374e-001	 1.926689647106553e+000	 4.780627722929991e+000
 2.825930035933985e-001	 1.929414728442565e+000	 4.717883091044858e+000
 2.646060139618354e-001	 1.931963679106360e+000	 4.658041772611385e+000
 2.466523838541966e-001	 1.934337768216718e+000	 4.600967340089706e+000
 2.287343771942794e-001	 1.936538299311297e+000	 4.546389759286875e+000
 2.108542191987369e-001	 1.938566609187074e+000	 4.493909349711498e+000
 1.930140959309833e-001	 1.940424066738927e+000	 4.443000911628369e+000
 1.752161538914289e-001	 1.942112071797492e+000	 4.393018005340831e+000
 3.593770285218957e-001	 1.942028102626488e+000	 5.226160293104235e+000
 3.410479832672141e-001	 1.945330633370858e+000	 5.186402030242111e+000
 3.227431717386489e-001	 1.948451140038860e+000	 5.150791190300487e+000
 3.044650384320423e-001	 1.951390796431027e+000	 5.119611576340109e+000
 2.862159908218576e-001	 1.954150814707252e+000	 5.092996794911713e+000
 2.679983987588918e-001	 1.956732444225666e+000	 5.070933767357558e+000
 2.498145939060134e-001	 1.959136970375805e+000	 5.053266459478716e+000
 2.316668692116844e-001	 1.961365713407346e+000	 5.039699814575357e+000
 2.135574784209770e-001	 1.963420027255694e+000	 5.029803874804609e+000
 1.954886356237597e-001	 1.965301298365657e+000	 5.023018075783418e+000
 1.774625148396792e-001	 1.967010944514421e+000	 5.018655699401031e+000
 3.639261048361499e-001	 1.966610736839179e+000	 5.435248424012703e+000
 3.453650463502414e-001	 1.969955071770350e+000	 5.426650334876219e+000
 3.268285283464441e-001	 1.973115078522868e+000	 5.424091558757153e+000
 3.083190262635864e-001	 1.976091945755501e+000	 5.427852967360474e+000
 2.898389780504919e-001	 1.978886900971938e+000	 5.438059123980711e+000
 2.713907835560694e-001	 1.981501209344972e+000	 5.454681938593699e+000
 2.529768039579077e-001	 1.983936172534892e+000	 5.477544549849700e+000
 2.345993612291328e-001	 1.986193127503396e+000	 5.506325418388727e+000
 2.162607376432362e-001	 1.988273445324313e+000	 5.540562615833051e+000
 1.979631753165408e-001	 1.990178529992387e+000	 5.579658293795530e+000
 1.797088757879294e-001	 1.991909817231349e+000	 5.622883317277196e+000
 1.572452663054261e-001	 1.742921090062064e+000	 4.711807921124681e+000
 1.413124996760967e-001	 1.744285176627427e+000	 4.758117600821840e+000
 1.254213328617058e-001	 1.745499782078859e+000	 4.813120783804757e+000
 1.095735838069922e-001	 1.746566239714984e+000	 4.877170071153979e+000
 9.377103379879290e-002	 1.747485906439909e+000	 4.950633530926116e+000
 7.801542725524854e-002	 1.748260161732354e+000	 5.033893685807898e+000
 6.230847154497145e-002	 1.748890406620027e+000	 5.127346488870605e+000
 4.665183683563836e-002	 1.749378062660108e+000	 5.231400290259263e+000
 3.104715597144734e-002	 1.749724570926687e+000	 5.346474797579703e+000
 1.549602437885631e-002	 1.749931391005967e+000	 5.473000032673372e+000
 0.000000000000000e+000	 1.750000000000000e+000	 5.611415287386033e+000
 1.594916272536765e-001	 1.767819962778993e+000	 4.334440290503727e+000
 1.433312496720404e-001	 1.769203536294951e+000	 4.328751938521196e+000
 1.272130661884947e-001	 1.770435493252530e+000	 4.330261610853996e+000
 1.111389207184165e-001	 1.771517185997479e+000	 4.339339121592792e+000
 9.511061999559660e-002	 1.772449990818245e+000	 4.356371714991903e+000
 7.912993335843424e-002	 1.773235306900391e+000	 4.381762983641403e+000
 6.319859256652100e-002	 1.773874555286303e+000	 4.415931773357614e+000
 4.731829164707111e-002	 1.774369177841121e+000	 4.459311077810100e+000
 3.149068677062747e-002	 1.774720636225708e+000	 4.512346925829911e+000
 1.571739615545374e-002	 1.774930410877497e+000	 4.575497264264365e+000
 0.000000000000000e+000	 1.775000000000000e+000	 4.649230839157285e+000
 1.617379882019268e-001	 1.792718835495921e+000	 3.946616462237548e+000
 1.453499996679842e-001	 1.794121895962475e+000	 3.887610092027499e+000
 1.290047995152837e-001	 1.795371204426202e+000	 3.834263971605615e+000
 1.127042576298407e-001	 1.796468132279973e+000	 3.786965939648472e+000
 9.645020619240032e-002	 1.797414075196582e+000	 3.746123277495982e+000
 8.024443946161992e-002	 1.798210452068428e+000	 3.712161555702824e+000
 6.408871358807056e-002	 1.798858703952579e+000	 3.685523465899493e+000
 4.798474645850386e-002	 1.799360293022134e+000	 3.666667641169315e+000
 3.193421756980761e-002	 1.799716701524729e+000	 3.656067468072791e+000
 1.593876793205117e-002	 1.799929430749029e+000	 3.654209893364193e+000
 0.000000000000000e+000	 1.800000000000000e+000	 3.661594228358701e+000
 1.639843491501772e-001	 1.817617708212850e+000	 3.548995630372609e+000
 1.473687496639280e-001	 1.819040255629999e+000	 3.435382765271487e+000
 1.307965328420726e-001	 1.820306915599874e+000	 3.325848400606989e+000
 1.142695945412649e-001	 1.821419078562467e+000	 3.220799214518380e+000
 9.778979238920400e-002	 1.822378159574919e+000	 3.120663391039280e+000
 8.135894556480561e-002	 1.823185597236464e+000	 3.025889392851820e+000
 6.497883460962012e-002	 1.823842852618855e+000	 2.936944717912345e+000
 4.865120126993660e-002	 1.824351408203147e+000	 2.854314643351309e+000
 3.237774836898775e-002	 1.824712766823750e+000	 2.778500959965945e+000
 1.616013970864860e-002	 1.824928450620560e+000	 2.710020700540194e+000
 0.000000000000000e+000	 1.825000000000000e+000	 2.649404865130805e+000
 1.662307100984275e-001	 1.842516580929779e+000	 3.142204000851418e+000
 1.493874996598718e-001	 1.843958615297522e+000	 2.972725970737813e+000
 1.325882661688616e-001	 1.845242626773545e+000	 2.805699068019993e+000
 1.158349314526892e-001	 1.846370024844962e+000	 2.641549628821564e+000
 9.912937858600771e-002	 1.847342243953256e+000	 2.480727610520084e+000
 8.247345166799128e-002	 1.848160742404501e+000	 2.323705288488347e+000
 6.586895563116967e-002	 1.848827001285130e+000	 2.170975935241348e+000
 4.931765608136935e-002	 1.849342523384160e+000	 2.023052485588918e+000
 3.282127916816788e-002	 1.849708832122771e+000	 1.880466191310737e+000
 1.638151148524603e-002	 1.849927470492090e+000	 1.743765268778285e+000
 0.000000000000000e+000	 1.850000000000000e+000	 1.613513542849779e+000
 1.684770710466778e-001	 1.867415453646707e+000	 2.726836990719734e+000
 1.514062496558155e-001	 1.868876974965046e+000	 2.500263342227956e+000
 1.343799994956505e-001	 1.870178337947216e+000	 2.274466203913458e+000
 1.174002683641134e-001	 1.871320971127456e+000	 2.049892392371019e+000
 1.004689647828114e-001	 1.872306328331592e+000	 1.827014514314197e+000
 8.358795777117696e-002	 1.873135887572538e+000	 1.606329585050475e+000
 6.675907665271923e-002	 1.873811149951406e+000	 1.388357627865129e+000
 4.998411089280209e-002	 1.874333638565173e+000	 1.173640258118641e+000
 3.326480996734802e-002	 1.874704897421792e+000	 9.627392557760381e-001
 1.660288326184346e-002	 1.874926490363621e+000	 7.562351299883705e-001
 0.000000000000000e+000	 1.875000000000000e+000	 5.547256792452115e-001
 1.707234319949282e-001	 1.892314326363635e+000	 3.076829240826960e+000
 1.534249996517593e-001	 1.893795334632570e+000	 2.934339868283916e+000
 1.361717328224395e-001	 1.895114049120888e+000	 2.797370885353091e+000
 1.189656052755377e-001	 1.896271917409951e+000	 2.664971306231322e+000
 1.018085509796151e-001	 1.897270412709929e+000	 2.536089535775118e+000
 8.470246387436264e-002	 1.898111032740574e+000	 2.409578018849145e+000
 6.764919767426876e-002	 1.898795298617682e+000	 2.284197954275619e+000
 5.065056570423484e-002	 1.899324753746186e+000	 2.158624060891270e+000
 3.370834076652816e-002	 1.899700962720813e+000	 2.031449383516469e+000
 1.682425503844089e-002	 1.899925510235152e+000	 1.901190126970276e+000
 0.000000000000000e+000	 1.900000000000000e+000	 1.766290506612161e+000
 1.729697929431785e-001	 1.917213199080564e+000	 3.745804974313786e+000
 1.554437496477031e-001	 1.918713694300094e+000	 3.647941773276184e+000
 1.379634661492284e-001	 1.920049760294560e+000	 3.558007231186593e+000
 1.205309421869620e-001	 1.921222863692446e+000	 3.474980606426340e+000
 1.031481371764188e-001	 1.922234497088265e+000	 3.397735946580523e+000
 8.581696997754833e-002	 1.923086177908611e+000	 3.325046956529956e+000
 6.853931869581832e-002	 1.923779447283957e+000	 3.255591933550161e+000
 5.131702051566758e-002	 1.924315868927198e+000	 3.187958756384985e+000
 3.415187156570829e-002	 1.924697028019833e+000	 3.120649915577152e+000
 1.704562681503832e-002	 1.924924530106682e+000	 3.052087572677790e+000
 0.000000000000000e+000	 1.925000000000000e+000	 2.980618636324283e+000
 1.752161538914289e-001	 1.942112071797492e+000	 4.393018005340831e+000
 1.574624996436468e-001	 1.943632053967618e+000	 4.341589595935312e+000
 1.397551994760174e-001	 1.944985471468231e+000	 4.300663158579540e+000
 1.220962790983862e-001	 1.946173809974940e+000	 4.269145977989044e+000
 1.044877233732226e-001	 1.947198581466602e+000	 4.245835352738593e+000
 8.693147608073400e-002	 1.948061323076647e+000	 4.229423689115188e+000
 6.942943971736786e-002	 1.948763595950233e+000	 4.218503664473708e+000
 5.198347532710035e-002	 1.949306984108212e+000	 4.211573446508883e+000
 3.459540236488842e-002	 1.949693093318854e+000	 4.207041955185347e+000
 1.726699859163575e-002	 1.949923549978214e+000	 4.203234154424099e+000
 0.000000000000000e+000	 1.950000000000000e+000	 4.198396361021957e+000
 1.774625148396792e-001	 1.967010944514421e+000	 5.018655699401031e+000
 1.594812496395906e-001	 1.968550413635142e+000	 5.015505358914643e+000
 1.415469328028063e-001	 1.969921182641903e+000	 5.025598076184004e+000
 1.236616160098104e-001	 1.971124756257434e+000	 5.047766905150421e+000
 1.058273095700262e-001	 1.972162665844939e+000	 5.080729961971328e+000
 8.804598218391967e-002	 1.973036468244684e+000	 5.123095751753263e+000
 7.031956073891740e-002	 1.973747744616508e+000	 5.173368567375158e+000
 5.264993013853308e-002	 1.974298099289225e+000	 5.229953946244044e+000
 3.503893316406856e-002	 1.974689158617875e+000	 5.291164171169105e+000
 1.748837036823317e-002	 1.974922569849744e+000	 5.355223801909911e+000
 0.000000000000000e+000	 1.975000000000000e+000	 5.420275224351157e+000
 1.797088757879294e-001	 1.991909817231349e+000	 5.622883317277196e+000
 1.614999996355343e-001	 1.993468773302665e+000	 5.669887838779681e+000
 1.433386661295952e-001	 1.994856893815574e+000	 5.733047025559090e+000
 1.252269529212347e-001	 1.996075702539929e+000	 5.811117404646251e+000
 1.071668957668299e-001	 1.997126750223276e+000	 5.902735434921135e+000
 8.916048828710535e-002	 1.998011613412721e+000	 6.006423073947448e+000
 7.120968176046696e-002	 1.998731893282784e+000	 6.120593419577320e+000
 5.331638494996584e-002	 1.999289214470238e+000	 6.243556411581754e+000
 3.548246396324870e-002	 1.999685223916897e+000	 6.373524578916034e+000
 1.770974214483060e-002	 1.999921589721275e+000	 6.508618818621868e+000
 0.000000000000000e+000	 2.000000000000000e+000	 6.646874192775578e+000
 2.000000000000000e+000	 0.000000000000000e+000	 1.183208775034251e+001
 1.999921589721275e+000	 1.770974214483003e-002	 1.192108718670678e+001
 1.999685223916896e+000	 3.548246396324820e-002	 1.200037442061618e+001
 1.999289214470237e+000	 5.331638494996539e-002	 1.206924366211997e+001
 1.998731893282784e+000	 7.120968176046656e-002	 1.212701556032672e+001
 1.998011613412721e+000	 8.916048828710502e-002	 1.217303883774236e+001
 1.997126750223276e+000	 1.071668957668297e-001	 1.220669191246834e+001
 1.996075702539929e+000	 1.252269529212345e-001	 1.222738450435884e+001
 1.994856893815574e+000	 1.433386661295951e-001	 1.223455922114306e+001
 1.993468773302665e+000	 1.614999996355342e-001	 1.222769312043358e+001
 1.991909817231349e+000	 1.797088757879295e-001	 1.220629924346666e+001
 2.025000000000000e+000	 0.000000000000000e+000	 1.185298742432432e+001
 2.024920609592803e+000	 1.793111392142746e-002	 1.192839347612389e+001
 2.024681289215908e+000	 3.592599476242833e-002	 1.199466475740882e+001
 2.024280329651229e+000	 5.398283976139813e-002	 1.205111386705615e+001
 2.023716041949021e+000	 7.209980278201611e-002	 1.209708083709217e+001
 2.022986758580697e+000	 9.027499439029069e-002	 1.213193478568738e+001
 2.022090834601524e+000	 1.085064819636334e-001	 1.215507555645954e+001
 2.021026648822303e+000	 1.267922898326587e-001	 1.216593534006941e+001
 2.019792604989089e+000	 1.451303994563840e-001	 1.216398027400063e+001
 2.018387132969990e+000	 1.635187496314780e-001	 1.214871201632983e+001
 2.016808689948031e+000	 1.819552367361798e-001	 1.211966928921809e+001
 2.050000000000000e+000	 0.000000000000000e+000	 1.187182777147616e+001
 2.049919629464327e+000	 1.815248569802488e-002	 1.193552626421479e+001
 2.049677354514900e+000	 3.636952556160845e-002	 1.199059441164855e+001
 2.049271444832177e+000	 5.464929457283087e-002	 1.203636174744128e+001
 2.048700190615181e+000	 7.298992380356564e-002	 1.207218628130253e+001
 2.047961903748552e+000	 9.138950049347637e-002	 1.209745617320306e+001
 2.047054918979599e+000	 1.098460681604371e-001	 1.211159139233228e+001
 2.045977595104440e+000	 1.283576267440829e-001	 1.211404535666285e+001
 2.044728316162292e+000	 1.469221327831730e-001	 1.210430654889355e+001
 2.043305492636919e+000	 1.655374996274218e-001	 1.208190010445658e+001
 2.041707562664222e+000	 1.842015976844301e-001	 1.204638936719986e+001
 2.075000000000000e+000	 0.000000000000000e+000	 1.188828222778914e+001
 2.074918649335845e+000	 1.837385747462230e-002	 1.194211608905161e+001
 2.074673419813873e+000	 3.681305636078857e-002	 1.198775135242978e+001
 2.074262560013082e+000	 5.531574938426360e-002	 1.202453305227178e+001
 2.073684339281263e+000	 7.388004482511519e-002	 1.205183579122403e+001
 2.072937048916287e+000	 9.250400659666204e-002	 1.206906543823246e+001
 2.072019003357499e+000	 1.111856543572408e-001	 1.207566080970467e+001
 2.070928541386338e+000	 1.299229636555072e-001	 1.207109532957311e+001
 2.069664027335182e+000	 1.487138661099619e-001	 1.205487866390543e+001
 2.068223852303450e+000	 1.675562496233655e-001	 1.202655832562190e+001
 2.066606435379921e+000	 1.864479586326804e-001	 1.198572124480532e+001
 2.100000000000000e+000	 0.000000000000000e+000	 1.190203977992147e+001
 2.099917669207360e+000	 1.859522925121972e-002	 1.194781112025362e+001
 2.099669485112827e+000	 3.725658715996871e-002	 1.198574320602256e+001
 2.099253675193943e+000	 5.598220419569634e-002	 1.201519515673089e+001
 2.098668487947270e+000	 7.477016584666474e-002	 1.203555680234572e+001
 2.097912194083901e+000	 9.361851269984770e-002	 1.204625040765378e+001
 2.096983087735225e+000	 1.125252405540445e-001	 1.204673237817996e+001
 2.095879487667998e+000	 1.314883005669314e-001	 1.203649494328017e+001
 2.094599738507760e+000	 1.505055994367509e-001	 1.201506781192328e+001
 2.093142211969584e+000	 1.695749996193093e-001	 1.198201979659110e+001
 2.091505308095129e+000	 1.886943195809308e-001	 1.193696040065075e+001
 2.125000000000000e+000	 0.000000000000000e+000	 1.191280405045328e+001
 2.124916689078869e+000	 1.881660102781714e-002	 1.195227612183743e+001
 2.124665550411762e+000	 3.770011795914884e-002	 1.198419609956809e+001
 2.124244790374762e+000	 5.664865900712907e-002	 1.200793579005989e+001
 2.123652636613199e+000	 7.566028686821429e-002	 1.202289890283702e+001
 2.122887339251394e+000	 9.473301880303341e-002	 1.202852280381366e+001
 2.121947172112776e+000	 1.138648267508482e-001	 1.202428024852406e+001
 2.120830433949419e+000	 1.330536374783557e-001	 1.200968109077794e+001
 2.119535449680023e+000	 1.522973327635398e-001	 1.198427396211965e+001
 2.118060571635321e+000	 1.715937496152530e-001	 1.194764791738345e+001
 2.116404180809845e+000	 1.909406805291811e-001	 1.189943404156224e+001
 2.150000000000000e+000	 0.000000000000000e+000	 1.192029244696101e+001
 2.149915708950374e+000	 1.903797280441457e-002	 1.195519148742644e+001
 2.149661615710677e+000	 3.814364875832895e-002	 1.198275358544669e+001
 2.149235905555537e+000	 5.731511381856181e-002	 1.200236185218281e+001
 2.148636785279050e+000	 7.655040788976383e-002	 1.201343254560121e+001
 2.147862484418765e+000	 9.584752490621905e-002	 1.201541685525572e+001
 2.146911256490152e+000	 1.152044129476518e-001	 1.200780266538846e+001
 2.145781380230602e+000	 1.346189743897799e-001	 1.199011629168382e+001
 2.144471160851976e+000	 1.540890660903287e-001	 1.196192418691278e+001
 2.142978931300662e+000	 1.736124996111968e-001	 1.192283461061782e+001
 2.141303053524069e+000	 1.931870414774315e-001	 1.187249925791232e+001
 2.175000000000000e+000	 0.000000000000000e+000	 1.192423536977615e+001
 2.174914728821873e+000	 1.925934458101199e-002	 1.195625234199761e+001
 2.174657681009575e+000	 3.858717955750909e-002	 1.198107563982724e+001
 2.174227020736269e+000	 5.798156862999455e-002	 1.199809831194293e+001
 2.173620933944825e+000	 7.744052891131338e-002	 1.200674784915269e+001
 2.172837629586016e+000	 9.696203100940472e-002	 1.200648800326101e+001
 2.171875340867353e+000	 1.165439991444556e-001	 1.199682058260434e+001
 2.170732326511546e+000	 1.361843113012042e-001	 1.197728721944434e+001
 2.169406872023616e+000	 1.558807994171177e-001	 1.194747110430889e+001
 2.167897290965605e+000	 1.756312496071405e-001	 1.190699868228284e+001
 2.166201926237801e+000	 1.954334024256818e-001	 1.185554130617481e+001
 2.199999999999999e+000	 0.000000000000000e+000	 1.192437547376058e+001
 2.199913748693369e+000	 1.948071635760941e-002	 1.195516770487263e+001
 2.199653746308452e+000	 3.903071035668922e-002	 1.197883772949743e+001
 2.199218135916958e+000	 5.864802344142729e-002	 1.199478718045971e+001
 2.198605082610522e+000	 7.833064993286290e-002	 1.200245348025286e+001
 2.197812774753146e+000	 9.807653711259042e-002	 1.200131169657877e+001
 2.196839425244380e+000	 1.178835853412592e-001	 1.199087637288809e+001
 2.195683272792251e+000	 1.377496482126284e-001	 1.197070332895850e+001
 2.194342583194942e+000	 1.576725327439066e-001	 1.194039142644815e+001
 2.192815650630152e+000	 1.776499996030843e-001	 1.189958429427271e+001
 2.191100798951041e+000	 1.976797633739321e-001	 1.184797200857811e+001
 2.224999999999999e+000	 0.000000000000000e+000	 1.192046697984979e+001
 2.224912768564859e+000	 1.970208813420683e-002	 1.195165970913688e+001
 2.224649811607310e+000	 3.947424115586935e-002	 1.197572994160425e+001
 2.224209251097604e+000	 5.931447825286004e-002	 1.199208655369745e+001
 2.223589231276142e+000	 7.922077095441245e-002	 1.200017561187363e+001
 2.222787919920156e+000	 9.919104321577607e-002	 1.199948226741144e+001
 2.221803509621232e+000	 1.192231715380629e-001	 1.198953262453332e+001
 2.220634219072718e+000	 1.393149851240526e-001	 1.196989557672085e+001
 2.219278294365958e+000	 1.594642660706956e-001	 1.194018460600179e+001
 2.217734010294301e+000	 1.796687495990280e-001	 1.190005953989811e+001
 2.215999671663790e+000	 1.999261243221825e-001	 1.184922826064710e+001
 2.250000000000000e+000	 0.000000000000000e+000	 1.191227503249322e+001
 2.249911788436345e+000	 1.992345991080426e-002	 1.194546287309695e+001
 2.249645876906150e+000	 3.991777195504948e-002	 1.197145617141174e+001
 2.249200366278207e+000	 5.998093306429280e-002	 1.198966971886290e+001
 2.248573379941687e+000	 8.011089197596204e-002	 1.199955695063026e+001
 2.247763065087045e+000	 1.003055493189618e-001	 1.200061188233384e+001
 2.246767593997911e+000	 1.205627577348667e-001	 1.199237101832308e+001
 2.245585165352948e+000	 1.408803220354769e-001	 1.197441522628840e+001
 2.244214005536660e+000	 1.612559993974846e-001	 1.194637157280921e+001
 2.242652369958055e+000	 1.816874995949719e-001	 1.190791511436308e+001
 2.240898544376048e+000	 2.021724852704328e-001	 1.185877063824218e+001
 1.991909817231349e+000	 1.797088757879295e-001	 1.220629924346666e+001
 1.990178529992387e+000	 1.979631753165402e-001	 1.228263075486491e+001
 1.988273445324313e+000	 2.162607376432357e-001	 1.234709970208891e+001
 1.986193127503396e+000	 2.345993612291324e-001	 1.239943010611494e+001
 1.983936172534892e+000	 2.529768039579074e-001	 1.243938663240561e+001
 1.981501209344972e+000	 2.713907835560692e-001	 1.246677579886987e+001
 1.978886900971938e+000	 2.898389780504917e-001	 1.248144712805246e+001
 1.976091945755501e+000	 3.083190262635864e-001	 1.248329423932171e+001
 1.973115078522868e+000	 3.268285283464442e-001	 1.247225587685008e+001
 1.969955071770350e+000	 3.453650463502415e-001	 1.244831686922311e+001
 1.966610736839180e+000	 3.639261048361500e-001	 1.241150901656707e+001
 2.016808689948031e+000	 1.819552367361798e-001	 1.211966928921809e+001
 2.015055761618825e+000	 2.004377150093213e-001	 1.219242808977232e+001
 2.013126863392606e+000	 2.189639968654950e-001	 1.225372415725031e+001
 2.011020541599093e+000	 2.375318532465809e-001	 1.230329293206711e+001
 2.008735374693610e+000	 2.561390140098016e-001	 1.234091160233428e+001
 2.006269974463903e+000	 2.747831683532467e-001	 1.236640032651599e+001
 2.003622987236254e+000	 2.934619652791262e-001	 1.237962339802307e+001
 2.000793095079617e+000	 3.121730140951304e-001	 1.238049034739632e+001
 1.997779017006543e+000	 3.309138849542394e-001	 1.236895697776026e+001
 1.994579510169543e+000	 3.496821094332687e-001	 1.234502632927083e+001
 1.991193371051617e+000	 3.684751811504042e-001	 1.230874956834075e+001
 2.041707562664222e+000	 1.842015976844301e-001	 1.204638936719986e+001
 2.039932993244682e+000	 2.029122547020977e-001	 1.211599598965082e+001
 2.037980281460246e+000	 2.216672560877351e-001	 1.217446255901621e+001
 2.035847955694086e+000	 2.404643452639859e-001	 1.222153542577076e+001
 2.033534576851590e+000	 2.593012240616184e-001	 1.225700386501498e+001
 2.031038739582085e+000	 2.781755531503032e-001	 1.228070131573939e+001
 2.028359073499827e+000	 2.970849525075852e-001	 1.229250655965830e+001
 2.025494244403021e+000	 3.160270019264354e-001	 1.229234483514237e+001
 2.022442955489553e+000	 3.349992415617212e-001	 1.228018888181060e+001
 2.019203948568140e+000	 3.539991725158980e-001	 1.225605991138943e+001
 2.015776005263546e+000	 3.730242574641658e-001	 1.222002850050865e+001
 2.066606435379921e+000	 1.864479586326804e-001	 1.198572124480532e+001
 2.064810224869957e+000	 2.053867943948692e-001	 1.205258201705504e+001
 2.062833699527232e+000	 2.243705153099559e-001	 1.210854853274007e+001
 2.060675369788373e+000	 2.433968372813476e-001	 1.215337755597159e+001
 2.058333779008834e+000	 2.624634341133578e-001	 1.218687002663632e+001
 2.055807504699518e+000	 2.815679379472383e-001	 1.220887231818166e+001
 2.053095159762659e+000	 3.007079397358692e-001	 1.221927743252456e+001
 2.050195393725710e+000	 3.198809897575009e-001	 1.221802612748522e+001
 2.047106893971896e+000	 3.390845981688897e-001	 1.220510797218092e+001
 2.043828386966140e+000	 3.583162355981295e-001	 1.218056232586513e+001
 2.040358639474969e+000	 3.775733337774347e-001	 1.214447923576305e+001
 2.091505308095129e+000	 1.886943195809308e-001	 1.193696040065075e+001
 2.089687456494649e+000	 2.078613340876359e-001	 1.200146775004396e+001
 2.087687117593565e+000	 2.270737745321575e-001	 1.205524996874586e+001
 2.085502783881955e+000	 2.463293292986658e-001	 1.209807375039817e+001
 2.083132981165341e+000	 2.656256441650199e-001	 1.212975129031156e+001
 2.080576269816199e+000	 2.849603227440519e-001	 1.215014156368606e+001
 2.077831246024749e+000	 3.043309269639778e-001	 1.215915153843113e+001
 2.074896543047685e+000	 3.237349775883274e-001	 1.215673731785224e+001
 2.071770832453574e+000	 3.431699547757446e-001	 1.214290520850873e+001
 2.068452825363542e+000	 3.626332986799630e-001	 1.211771270859913e+001
 2.064941273685884e+000	 3.821224100902110e-001	 1.208126941230170e+001
 2.116404180809845e+000	 1.909406805291811e-001	 1.189943404156224e+001
 2.114564688118759e+000	 2.103358737803979e-001	 1.196196678126888e+001
 2.112540535659244e+000	 2.297770337543399e-001	 1.201386700674152e+001
 2.110330197974832e+000	 2.492618213159407e-001	 1.205491086876300e+001
 2.107932183321110e+000	 2.687878542166046e-001	 1.208492142096551e+001
 2.105345034932133e+000	 2.883527075407444e-001	 1.210376992040333e+001
 2.102567332286097e+000	 3.079539141919112e-001	 1.211137706012174e+001
 2.099597692368946e+000	 3.275889654189145e-001	 1.210771412884914e+001
 2.096434770934586e+000	 3.472553113822861e-001	 1.209280409297988e+001
 2.093077263760348e+000	 3.669503617613986e-001	 1.206672259607126e+001
 2.089523907896292e+000	 3.866714864024947e-001	 1.202959887115107e+001
 2.141303053524069e+000	 1.931870414774315e-001	 1.187249925791232e+001
 2.139441919742287e+000	 2.128104134731551e-001	 1.193342285665988e+001
 2.137393953724271e+000	 2.324802929765031e-001	 1.198373016085480e+001
 2.135157612067005e+000	 2.521943133331722e-001	 1.202320631718203e+001
 2.132731385476141e+000	 2.719500642681119e-001	 1.205168485220584e+001
 2.130113800047317e+000	 2.917450923373155e-001	 1.206904899721556e+001
 2.127303418546704e+000	 3.115769014196695e-001	 1.207523294238312e+001
 2.124298841689493e+000	 3.314429532492624e-001	 1.207022301521461e+001
 2.121098709414933e+000	 3.513406679885143e-001	 1.205405877832003e+001
 2.117701702156558e+000	 3.712674248424365e-001	 1.202683404158552e+001
 2.114106542106193e+000	 3.912205627142856e-001	 1.198869778390874e+001
 2.166201926237801e+000	 1.954334024256818e-001	 1.185554130617481e+001
 2.164319151365234e+000	 2.152849531659074e-001	 1.191520814247880e+001
 2.162247371788643e+000	 2.351835521986470e-001	 1.196419857397692e+001
 2.159985026158471e+000	 2.551268053503602e-001	 1.200230629263414e+001
 2.157530587630436e+000	 2.751122743195417e-001	 1.202937492375513e+001
 2.154882565161751e+000	 2.951374771337653e-001	 1.204529937702752e+001
 2.152039504806568e+000	 3.151998886472524e-001	 1.205002712411134e+001
 2.148999991009326e+000	 3.352969410793710e-001	 1.204355939760589e+001
 2.145762647894613e+000	 3.554260245944289e-001	 1.202595230626924e+001
 2.142326140552169e+000	 3.755844879230764e-001	 1.199731786142945e+001
 2.138689176315586e+000	 3.957696390255839e-001	 1.195782490960721e+001
 2.191100798951041e+000	 1.976797633739321e-001	 1.184797200857811e+001
 2.189196382987598e+000	 2.177594928586550e-001	 1.190672161052764e+001
 2.187100789852364e+000	 2.378868114207717e-001	 1.195465839112831e+001
 2.184812440249234e+000	 2.580592973675049e-001	 1.199158414711679e+001
 2.182329789783993e+000	 2.782744843708941e-001	 1.201735223905801e+001
 2.179651330275435e+000	 2.985298619300938e-001	 1.203186897051537e+001
 2.176775591065690e+000	 3.188228758746602e-001	 1.203509489091927e+001
 2.173701140328445e+000	 3.391509289092404e-001	 1.202704601680782e+001
 2.170426586373629e+000	 3.595113812000301e-001	 1.200779496616067e+001
 2.166950578947184e+000	 3.799015510033184e-001	 1.197747200061378e+001
 2.163271810524472e+000	 4.003187153363895e-001	 1.193626597042765e+001
 2.215999671663790e+000	 1.999261243221825e-001	 1.184922826064710e+001
 2.214073614609379e+000	 2.202340325513978e-001	 1.190738753221929e+001
 2.211954207915429e+000	 2.405900706428772e-001	 1.195452124248500e+001
 2.209639854339290e+000	 2.609917893846062e-001	 1.199043886208304e+001
 2.207128991936814e+000	 2.814366944221692e-001	 1.201500313361128e+001
 2.204420095388370e+000	 3.019222467263009e-001	 1.202813148085861e+001
 2.201511677324071e+000	 3.224458631018926e-001	 1.202979733880419e+001
 2.198402289646850e+000	 3.430049167388706e-001	 1.202003139889425e+001
 2.195090524851978e+000	 3.635967378053179e-001	 1.199892276415703e+001
 2.191575017341603e+000	 3.842186140831626e-001	 1.196662000878678e+001
 2.187854444732851e+000	 4.048677916467026e-001	 1.192333213691638e+001
 2.240898544376048e+000	 2.021724852704328e-001	 1.185877063824218e+001
 2.238950846230580e+000	 2.227085722441359e-001	 1.191665407304373e+001
 2.236807625977843e+000	 2.432933298649636e-001	 1.196322282753668e+001
 2.234467268428643e+000	 2.639242814016641e-001	 1.199829362458300e+001
 2.231928194088898e+000	 2.845989044733670e-001	 1.202173824540553e+001
 2.229188860500555e+000	 3.053146315223869e-001	 1.203348497082316e+001
 2.226247763581711e+000	 3.260688503289499e-001	 1.203351994023750e+001
 2.223103438964543e+000	 3.468589045682617e-001	 1.202188842271193e+001
 2.219754463329662e+000	 3.676820944102924e-001	 1.199869599453765e+001
 2.216199455735425e+000	 3.885356771626091e-001	 1.196410961775441e+001
 2.212437078940723e+000	 4.094168679565229e-001	 1.191835861418674e+001
 1.966610736839180e+000	 3.639261048361500e-001	 1.241150901656707e+001
 1.963080925084422e+000	 3.825091915237607e-001	 1.250495416382589e+001
 1.959364529034961e+000	 4.011117579788214e-001	 1.258399297118410e+001
 1.955460483543635e+000	 4.197312203398140e-001	 1.264876078755325e+001
 1.951367766926559e+000	 4.383649600831473e-001	 1.269944377501341e+001
 1.947085402089539e+000	 4.570103248275765e-001	 1.273627942815678e+001
 1.942612457640389e+000	 4.756646291775601e-001	 1.275955699784419e+001
 1.937948048985706e+000	 4.943251556054373e-001	 1.276961781598780e+001
 1.933091339410632e+000	 5.129891553722548e-001	 1.276685551814969e+001
 1.928041541140166e+000	 5.316538494870136e-001	 1.275171616094179e+001
 1.922797916380548e+000	 5.503164297040443e-001	 1.272469823141956e+001
 1.991193371051617e+000	 3.684751811504042e-001	 1.230874956834075e+001
 1.987619436649766e+000	 3.872905564217012e-001	 1.240283056915141e+001
 1.983856585649486e+000	 4.061256549574481e-001	 1.248332164118053e+001
 1.979903739589275e+000	 4.249778605978572e-001	 1.255037310496149e+001
 1.975759864014198e+000	 4.438445220877912e-001	 1.260418688381516e+001
 1.971423969616384e+000	 4.627229538912394e-001	 1.264501701178442e+001
 1.966895113361246e+000	 4.816104370452150e-001	 1.267317004315746e+001
 1.962172399597961e+000	 5.005042200529608e-001	 1.268900536013212e+001
 1.957254981152735e+000	 5.194015198162859e-001	 1.269293537535688e+001
 1.952142060403382e+000	 5.382995226068031e-001	 1.268542562628589e+001
 1.946832890333715e+000	 5.571953850757715e-001	 1.266699475850209e+001
 2.015776005263546e+000	 3.730242574641658e-001	 1.222002850050865e+001
 2.012157948214703e+000	 3.920719213190587e-001	 1.231394226867341e+001
 2.008348642263703e+000	 4.111395519354208e-001	 1.239499628685759e+001
 2.004346995634707e+000	 4.302245008551946e-001	 1.246335627249678e+001
 2.000151961101730e+000	 4.493240840916975e-001	 1.251924043011417e+001
 1.995762537143223e+000	 4.684355829541525e-001	 1.256291994873896e+001
 1.991177769082197e+000	 4.875562449121282e-001	 1.259471939795293e+001
 1.986396750210409e+000	 5.066832844997707e-001	 1.261501701905170e+001
 1.981418622895133e+000	 5.258138842596520e-001	 1.262424490799720e+001
 1.976242579666991e+000	 5.449451957259967e-001	 1.262288908704742e+001
 1.970867864287377e+000	 5.640743404469928e-001	 1.261148946217389e+001
 2.040358639474969e+000	 3.775733337774347e-001	 1.214447923576305e+001
 2.036696459779233e+000	 3.968532862158332e-001	 1.223742764598357e+001
 2.032840698877614e+000	 4.161534489127393e-001	 1.231816094403938e+001
 2.028790251679932e+000	 4.354711411118264e-001	 1.238686068302852e+001
 2.024544058189155e+000	 4.548036460948663e-001	 1.244376188236396e+001
 2.020101104670055e+000	 4.741482120163162e-001	 1.248915351555847e+001
 2.015460424803240e+000	 4.935020527783000e-001	 1.252337889353975e+001
 2.010621100823051e+000	 5.128623489458675e-001	 1.254683593991103e+001
 2.005582264637823e+000	 5.322262487023534e-001	 1.255997735477109e+001
 2.000343098930994e+000	 5.515908688445946e-001	 1.256331066392341e+001
 1.994902838241532e+000	 5.709532958177074e-001	 1.255739815053742e+001
 2.064941273685884e+000	 3.821224100902110e-001	 1.208126941230170e+001
 2.061234971343355e+000	 4.016346511120246e-001	 1.217245827577868e+001
 2.057332755491217e+000	 4.211673458894039e-001	 1.225199174219863e+001
 2.053233507724950e+000	 4.407177813677525e-001	 1.232006765238970e+001
 2.048936155276472e+000	 4.602832080972976e-001	 1.237693838793614e+001
 2.044439672196880e+000	 4.798608410777304e-001	 1.242291135020262e+001
 2.039743080524377e+000	 4.994478606437301e-001	 1.245834933165240e+001
 2.034845451435886e+000	 5.190414133912505e-001	 1.248367077579854e+001
 2.029745906380808e+000	 5.386386131443898e-001	 1.249934992233425e+001
 2.024443618195390e+000	 5.582365419625964e-001	 1.250591683421200e+001
 2.018937812196181e+000	 5.778322511879159e-001	 1.250395730368367e+001
 2.089523907896292e+000	 3.866714864024947e-001	 1.202959887115107e+001
 2.085773482907070e+000	 4.064160160076331e-001	 1.211823697144271e+001
 2.081824812104512e+000	 4.261812428654142e-001	 1.219569501659504e+001
 2.077676763769761e+000	 4.459644216229730e-001	 1.226218760037915e+001
 2.073328252363684e+000	 4.657627700989915e-001	 1.231798502730172e+001
 2.068778239723697e+000	 4.855734701383950e-001	 1.236341378373354e+001
 2.064025736245607e+000	 5.053936685084186e-001	 1.239885689795509e+001
 2.059069802048916e+000	 5.252204778359207e-001	 1.242475418537824e+001
 2.053909548124086e+000	 5.450509775857614e-001	 1.244160237541779e+001
 2.048544137460180e+000	 5.648822150800023e-001	 1.244995511671834e+001
 2.042972786151324e+000	 5.847112065576181e-001	 1.245042285769266e+001
 2.114106542106193e+000	 3.912205627142856e-001	 1.198869778390874e+001
 2.110311994470377e+000	 4.111973809026583e-001	 1.207399596884398e+001
 2.106316868717501e+000	 4.311951398407705e-001	 1.214850555212489e+001
 2.102120019814364e+000	 4.512110618774879e-001	 1.221245835867033e+001
 2.097720349450787e+000	 4.712423320999477e-001	 1.226614319001365e+001
 2.093116807250510e+000	 4.912860991983101e-001	 1.230990628839147e+001
 2.088308391966931e+000	 5.113394763723658e-001	 1.234415168623191e+001
 2.083294152662138e+000	 5.313995422798772e-001	 1.236934143721658e+001
 2.078073189867658e+000	 5.514633420264680e-001	 1.238599572531248e+001
 2.072644656725364e+000	 5.715278881968123e-001	 1.239469284841113e+001
 2.067007760106961e+000	 5.915901619268141e-001	 1.239606907347139e+001
 2.138689176315586e+000	 3.957696390255839e-001	 1.195782490960721e+001
 2.134850506033278e+000	 4.159787457971007e-001	 1.203899523538784e+001
 2.130808925330182e+000	 4.362090368154726e-001	 1.210968494828436e+001
 2.126563275858762e+000	 4.564577021312971e-001	 1.217014359541639e+001
 2.122112446537784e+000	 4.767218941001665e-001	 1.222067906269071e+001
 2.117455374777314e+000	 4.969987282574755e-001	 1.226165803269931e+001
 2.112591047688348e+000	 5.172852842355713e-001	 1.229350632435696e+001
 2.107518503275554e+000	 5.375786067231203e-001	 1.231670911036296e+001
 2.102236831611523e+000	 5.578757064665098e-001	 1.233181100880194e+001
 2.096745175990942e+000	 5.781735613130266e-001	 1.233941604544771e+001
 2.091042734063091e+000	 5.984691172955039e-001	 1.234018748360294e+001
 2.163271810524472e+000	 4.003187153363895e-001	 1.193626597042765e+001
 2.159389017595771e+000	 4.207601106909599e-001	 1.201252089436108e+001
 2.155300981942557e+000	 4.412229337895208e-001	 1.207852009561280e+001
 2.151006531902950e+000	 4.617043423844006e-001	 1.213453134726822e+001
 2.146504543624674e+000	 4.822014560996478e-001	 1.218088222009322e+001
 2.141793942304112e+000	 5.027113573158918e-001	 1.221796053508312e+001
 2.136873703409858e+000	 5.232310920980353e-001	 1.224621469394832e+001
 2.131742853889163e+000	 5.437576711656501e-001	 1.226615388352671e+001
 2.126400473355683e+000	 5.642880709058867e-001	 1.227834815035067e+001
 2.120845695256914e+000	 5.848192344286449e-001	 1.228342834185658e+001
 2.115077708019714e+000	 6.053480726636871e-001	 1.228208591100110e+001
 2.187854444732851e+000	 4.048677916467026e-001	 1.192333213691638e+001
 2.183927529157856e+000	 4.255414755842361e-001	 1.199388375550041e+001
 2.179793038554623e+000	 4.462368307629148e-001	 1.205432175484751e+001
 2.175449787946933e+000	 4.669509826367986e-001	 1.210493265035787e+001
 2.170896640711458e+000	 4.876810180983917e-001	 1.214606431118255e+001
 2.166132509830903e+000	 5.084239863735581e-001	 1.217812640825931e+001
 2.161156359131462e+000	 5.291768999597577e-001	 1.220159073633754e+001
 2.155967204502966e+000	 5.499367356074666e-001	 1.221699140588278e+001
 2.150564115100135e+000	 5.707004353445987e-001	 1.222492490099825e+001
 2.144946214523279e+000	 5.914649075436672e-001	 1.222604999976932e+001
 2.139112681976832e+000	 6.122270280313643e-001	 1.222108755372351e+001
 2.212437078940723e+000	 4.094168679565229e-001	 1.191835861418674e+001
 2.208466040719535e+000	 4.303228404769294e-001	 1.198241794352295e+001
 2.204285095166384e+000	 4.512507277356548e-001	 1.203642323080167e+001
 2.199893043990709e+000	 4.721976228884912e-001	 1.208068026254943e+001
 2.195288737798134e+000	 4.931605800963981e-001	 1.211555783277659e+001
 2.190471077357688e+000	 5.141366154304753e-001	 1.214148818732991e+001
 2.185439014853160e+000	 5.351227078207387e-001	 1.215896733814106e+001
 2.180191555116964e+000	 5.561158000485698e-001	 1.216855524315698e+001
 2.174727756844882e+000	 5.771127997826461e-001	 1.217087584799427e+001
 2.169046733790038e+000	 5.981105806580940e-001	 1.216661698563718e+001
 2.163147655934445e+000	 6.191059833985354e-001	 1.215653013079673e+001
 1.922797916380548e+000	 5.503164297040443e-001	 1.272469823141956e+001
 1.917359778339054e+000	 5.689740595581219e-001	 1.262347086114853e+001
 1.911726492221324e+000	 5.876238754369104e-001	 1.252203226042439e+001
 1.905897476204296e+000	 6.062629876904957e-001	 1.242112400746392e+001
 1.899872202382971e+000	 6.248884817771945e-001	 1.232152936976112e+001
 1.893650197690125e+000	 6.434974194451186e-001	 1.240712416742111e+001
 1.887231044787307e+000	 6.620868399488499e-001	 1.249635437760430e+001
 1.880614382925689e+000	 6.806537613005027e-001	 1.258860286375328e+001
 1.873799908775373e+000	 6.991951815543979e-001	 1.267950634258707e+001
 1.866787377221733e+000	 7.177080801244901e-001	 1.275133225713675e+001
 1.859576602127425e+000	 7.361894191336469e-001	 1.282757015936121e+001
 1.946832890333715e+000	 5.571953850757715e-001	 1.266699475850209e+001
 1.941326775566192e+000	 5.760862353022611e-001	 1.257582239678591e+001
 1.935623073371612e+000	 5.949691738788934e-001	 1.248414219414591e+001
 1.929721194654121e+000	 6.138412750351303e-001	 1.239273754634298e+001
 1.923620604909912e+000	 6.326995877975195e-001	 1.237064960935701e+001
 1.917320825158421e+000	 6.515411371860248e-001	 1.244984196450349e+001
 1.910821432844467e+000	 6.703629254459109e-001	 1.253228066486909e+001
 1.904122062709863e+000	 6.891619333144453e-001	 1.261846833383054e+001
 1.897222407633088e+000	 7.079351213216277e-001	 1.270890327448218e+001
 1.890122219435584e+000	 7.266794311240886e-001	 1.280407899893584e+001
 1.882821309653291e+000	 7.453917868712325e-001	 1.290448375910060e+001
 1.970867864287377e+000	 5.640743404469928e-001	 1.261148946217389e+001
 1.965293772793916e+000	 5.831984110459895e-001	 1.252994199826500e+001
 1.959519654522553e+000	 6.023144723205506e-001	 1.244754729987691e+001
 1.953544913104652e+000	 6.214195623795153e-001	 1.236513168965725e+001
 1.947369007437591e+000	 6.405106938176606e-001	 1.240530331067196e+001
 1.940991452627468e+000	 6.595848549268031e-001	 1.247682248872263e+001
 1.934411820902369e+000	 6.786390109428899e-001	 1.255230137786137e+001
 1.927629742494751e+000	 6.976701053283415e-001	 1.263225853135526e+001
 1.920644906491468e+000	 7.166750610888373e-001	 1.271720774031718e+001
 1.913457061650030e+000	 7.356507821236823e-001	 1.280765754747245e+001
 1.906066017179662e+000	 7.545941546088181e-001	 1.290411076280413e+001
 1.994902838241532e+000	 5.709532958177074e-001	 1.255739815053742e+001
 1.989260770022222e+000	 5.903105867893066e-001	 1.248501444013797e+001
 1.983416235674150e+000	 6.096597707618821e-001	 1.241140089441744e+001
 1.977368631555889e+000	 6.289978497236504e-001	 1.236455749990652e+001
 1.971117409966007e+000	 6.483217998376175e-001	 1.242410364856445e+001
 1.964662080097263e+000	 6.676285726674529e-001	 1.248778279310047e+001
 1.958002208961012e+000	 6.869150964397870e-001	 1.255613400104625e+001
 1.951137422280351e+000	 7.061782773421914e-001	 1.262969163852898e+001
 1.944067405350511e+000	 7.254150008560257e-001	 1.270898486713441e+001
 1.936791903865071e+000	 7.446221331232709e-001	 1.279453714242360e+001
 1.929310724706539e+000	 7.637965223464036e-001	 1.288686571473394e+001
 2.018937812196181e+000	 5.778322511879159e-001	 1.250395730368367e+001
 2.013227767251113e+000	 5.974227625322126e-001	 1.244024548464936e+001
 2.007312816826402e+000	 6.170050692028881e-001	 1.237487758509231e+001
 2.001192350007833e+000	 6.365761370675351e-001	 1.237594515131044e+001
 1.994865812495163e+000	 6.561329058573907e-001	 1.242678936820271e+001
 1.988332707567807e+000	 6.756722904079746e-001	 1.248246205020777e+001
 1.981592597020396e+000	 6.951911819366017e-001	 1.254351838756678e+001
 1.974645102066663e+000	 7.146864493559949e-001	 1.261050844140834e+001
 1.967489904210219e+000	 7.341549406231938e-001	 1.268397662525485e+001
 1.960126746080707e+000	 7.535934841228539e-001	 1.276446118857352e+001
 1.952555432233920e+000	 7.729988900839893e-001	 1.285249370302500e+001
 2.042972786151324e+000	 5.847112065576181e-001	 1.245042285769266e+001
 2.037194764480589e+000	 6.045349382747075e-001	 1.239486064716583e+001
 2.031209397979309e+000	 6.243503676435684e-001	 1.233717201736736e+001
 2.025016068460483e+000	 6.441544244111702e-001	 1.237114285243549e+001
 2.018614215025055e+000	 6.639440118769794e-001	 1.241311978574062e+001
 2.012003335039101e+000	 6.837160081483685e-001	 1.246062025101423e+001
 2.005182985080521e+000	 7.034672674333341e-001	 1.251421544343930e+001
 1.998152781853689e+000	 7.231946213697521e-001	 1.257447100026648e+001
 1.990912403070590e+000	 7.428948803903412e-001	 1.264194646724150e+001
 1.983461588296937e+000	 7.625648351224319e-001	 1.271719476747627e+001
 1.975800139761806e+000	 7.822012578215748e-001	 1.280076167343801e+001
 2.067007760106961e+000	 5.915901619268141e-001	 1.239606907347139e+001
 2.061161761710647e+000	 6.116471140167914e-001	 1.234810404773883e+001
 2.055105979132871e+000	 6.316956660839231e-001	 1.232260954578066e+001
 2.048839786913839e+000	 6.517327117545554e-001	 1.234992861568381e+001
 2.042362617555685e+000	 6.717551178963843e-001	 1.238287359233032e+001
 2.035673962511146e+000	 6.917597258886343e-001	 1.242203699451646e+001
 2.028773373141387e+000	 7.117433529299844e-001	 1.246800590354924e+001
 2.021660461641427e+000	 7.317027933834631e-001	 1.252136141272000e+001
 2.014334901931625e+000	 7.516348201574681e-001	 1.258267807893186e+001
 2.006796430513763e+000	 7.715361861220048e-001	 1.265252337717831e+001
 1.999044847290198e+000	 7.914036255591603e-001	 1.273145715856743e+001
 2.091042734063091e+000	 5.984691172955039e-001	 1.234018748360294e+001
 2.085128758941291e+000	 6.187592897584642e-001	 1.229923734187001e+001
 2.079002560287087e+000	 6.390409645239521e-001	 1.229465388954403e+001
 2.072663505367901e+000	 6.593109990976909e-001	 1.231209848400348e+001
 2.066111020087053e+000	 6.795662239156053e-001	 1.233584774061646e+001
 2.059344589983939e+000	 6.998034436287719e-001	 1.236651036083982e+001
 2.052363761202996e+000	 7.200194384265527e-001	 1.240468919206096e+001
 2.045168141429878e+000	 7.402109653971275e-001	 1.245098066215754e+001
 2.037757400793325e+000	 7.603747599245742e-001	 1.250597421660612e+001
 2.030131272731183e+000	 7.805075371215727e-001	 1.257025175885693e+001
 2.022289554819095e+000	 8.006059932967460e-001	 1.264438709468996e+001
 2.115077708019714e+000	 6.053480726636871e-001	 1.228208591100110e+001
 2.109095756172518e+000	 6.258714654997258e-001	 1.224900461665269e+001
 2.102899141441959e+000	 6.463862629636555e-001	 1.225005839448994e+001
 2.096487223822670e+000	 6.668892864405762e-001	 1.225746550642580e+001
 2.089859422619159e+000	 6.873773299346420e-001	 1.227185640715142e+001
 2.083015217457482e+000	 7.078471613687812e-001	 1.229385586117444e+001
 2.075954149265345e+000	 7.282955239230388e-001	 1.232408236052684e+001
 2.068675821219042e+000	 7.487191374107458e-001	 1.236314754468449e+001
 2.061179899655689e+000	 7.691146996916598e-001	 1.241165562343921e+001
 2.053466114949198e+000	 7.894788881211352e-001	 1.247020280346062e+001
 2.045534262348497e+000	 8.098083610343312e-001	 1.253937671928276e+001
 2.139112681976832e+000	 6.122270280313643e-001	 1.222108755372351e+001
 2.133062753404329e+000	 6.329836412405763e-001	 1.219845995147467e+001
 2.126795722597485e+000	 6.537315614030334e-001	 1.218865102568428e+001
 2.120310942278145e+000	 6.744675737832117e-001	 1.218585878266733e+001
 2.113607825152002e+000	 6.951884359534949e-001	 1.219073002476014e+001
 2.106685844931774e+000	 7.158908791086627e-001	 1.220390545850180e+001
 2.099544537328434e+000	 7.365716094194424e-001	 1.222601909758465e+001
 2.092183501008918e+000	 7.572273094243178e-001	 1.225769766840872e+001
 2.084602398518715e+000	 7.778546394587246e-001	 1.229956001900121e+001
 2.076800957167808e+000	 7.984502391206926e-001	 1.235221653205887e+001
 2.068778969878404e+000	 8.190107287719171e-001	 1.241626854286599e+001
 2.163147655934445e+000	 6.191059833985354e-001	 1.215653013079673e+001
 2.157029750636725e+000	 6.400958169810158e-001	 1.213110774632294e+001
 2.150692303753667e+000	 6.610768598420859e-001	 1.211027470365080e+001
 2.144134660734327e+000	 6.820458611255977e-001	 1.209712257142516e+001
 2.137356227685585e+000	 7.029995419721639e-001	 1.209231437941374e+001
 2.130356472406817e+000	 7.239345968484162e-001	 1.209650665360639e+001
 2.123134925392267e+000	 7.448476949157646e-001	 1.211034880467507e+001
 2.115691180799508e+000	 7.657354814378438e-001	 1.213448251944020e+001
 2.108024897382408e+000	 7.865945792257690e-001	 1.216954115612416e+001
 2.100135799387014e+000	 8.074215901202453e-001	 1.221614914416888e+001
 2.092023677408817e+000	 8.282130965095027e-001	 1.227492138938938e+001
 1.859576602127425e+000	 7.361894191336469e-001	 1.282757015936121e+001
 1.852167457058817e+000	 7.546361447941515e-001	 1.277107310796037e+001
 1.844559875975170e+000	 7.730451888174859e-001	 1.272292527664078e+001
 1.836753853879597e+000	 7.914134698526776e-001	 1.268415162299913e+001
 1.828749447430661e+000	 8.097378949529311e-001	 1.265575281948370e+001
 1.820546775513088e+000	 8.280153610683618e-001	 1.263870287896610e+001
 1.812146019766516e+000	 8.462427565638447e-001	 1.263394680558056e+001
 1.803547425071165e+000	 8.644169627606541e-001	 1.264239827715527e+001
 1.794751299989325e+000	 8.825348555005105e-001	 1.266493736558649e+001
 1.785758017161617e+000	 9.005933067305987e-001	 1.270240830151263e+001
 1.776568013657048e+000	 9.185891861080785e-001	 1.275561728963009e+001
 1.882821309653291e+000	 7.453917868712325e-001	 1.290448375910060e+001
 1.875319550272018e+000	 7.640690966028914e-001	 1.289171495235508e+001
 1.867616874425373e+000	 7.827082536768359e-001	 1.285743730521192e+001
 1.859713277054009e+000	 8.013061382252062e-001	 1.283043883564904e+001
 1.851608815524722e+000	 8.198596186393714e-001	 1.281294939257030e+001
 1.843303610208294e+000	 8.383655530813222e-001	 1.280590757496813e+001
 1.834797845014858e+000	 8.568207910204947e-001	 1.281022231316920e+001
 1.826091767885635e+000	 8.752221747946787e-001	 1.282677054293002e+001
 1.817185691239944e+000	 8.935665411936152e-001	 1.285639491932416e+001
 1.808079992376415e+000	 9.118507230638294e-001	 1.289990157689273e+001
 1.798775113827414e+000	 9.300715509331942e-001	 1.295805794251323e+001
 1.906066017179662e+000	 7.545941546088181e-001	 1.290411076280413e+001
 1.898471643485632e+000	 7.735020484116312e-001	 1.290413726173554e+001
 1.890673872875920e+000	 7.923713185361858e-001	 1.291006767416496e+001
 1.882672700228715e+000	 8.111988065977347e-001	 1.292277608241570e+001
 1.874468183619045e+000	 8.299813423258116e-001	 1.294118760149611e+001
 1.866060444903749e+000	 8.487157450942827e-001	 1.294028562439726e+001
 1.857449670263458e+000	 8.673988254771449e-001	 1.294989224761926e+001
 1.848636110700394e+000	 8.860273868287032e-001	 1.297085055084329e+001
 1.839620082490902e+000	 9.045982268867203e-001	 1.300396858838858e+001
 1.830401967591619e+000	 9.231081393970597e-001	 1.305001714059413e+001
 1.820982213998275e+000	 9.415539157583098e-001	 1.310972752006698e+001
 1.929310724706539e+000	 7.637965223464036e-001	 1.288686571473394e+001
 1.921623736699662e+000	 7.829350002203711e-001	 1.289678188049093e+001
 1.913730871326810e+000	 8.020343833955359e-001	 1.291147314244273e+001
 1.905632123403714e+000	 8.210914749702637e-001	 1.293175251107671e+001
 1.897327551713629e+000	 8.401030660122518e-001	 1.295843084252705e+001
 1.888817279599456e+000	 8.590659371072432e-001	 1.299231610829706e+001
 1.880101495512317e+000	 8.779768599337948e-001	 1.303421265995591e+001
 1.871180453515440e+000	 8.968325988627278e-001	 1.307281339259682e+001
 1.862054473742195e+000	 9.156299125798251e-001	 1.310589277852561e+001
 1.852723942807230e+000	 9.343655557302906e-001	 1.315104814942802e+001
 1.843189314169633e+000	 9.530362805834256e-001	 1.320897734413833e+001
 1.952555432233920e+000	 7.729988900839893e-001	 1.285249370302500e+001
 1.944775829914107e+000	 7.923679520291109e-001	 1.286949336108356e+001
 1.936787869778046e+000	 8.116974482548859e-001	 1.289017864296844e+001
 1.928591546579005e+000	 8.309841433427923e-001	 1.291530278959223e+001
 1.920186919808476e+000	 8.502247896986920e-001	 1.294561734970140e+001
 1.911574114295413e+000	 8.694161291202035e-001	 1.298187152421692e+001
 1.902753320761436e+000	 8.885548943904447e-001	 1.302481150592645e+001
 1.893724796330773e+000	 9.076378108967522e-001	 1.307517981525140e+001
 1.884488864993826e+000	 9.266615982729300e-001	 1.313371463282615e+001
 1.875045918023246e+000	 9.456229720635210e-001	 1.320114912964046e+001
 1.865396414341487e+000	 9.645186454085410e-001	 1.325413799213461e+001
 1.975800139761806e+000	 7.822012578215748e-001	 1.280076167343801e+001
 1.967927923128965e+000	 8.018009038378509e-001	 1.282213369080447e+001
 1.959844868229625e+000	 8.213605131142361e-001	 1.284613999576076e+001
 1.951550969754591e+000	 8.408768117153211e-001	 1.287347530986133e+001
 1.943046287903584e+000	 8.603465133851320e-001	 1.290483311303953e+001
 1.934330948991621e+000	 8.797663211331642e-001	 1.294090506157077e+001
 1.925405146010814e+000	 8.991329288470951e-001	 1.298238040176669e+001
 1.916269139146395e+000	 9.184430229307767e-001	 1.302994537999519e+001
 1.906923256245794e+000	 9.376932839660348e-001	 1.308428264963350e+001
 1.897367893239669e+000	 9.568803883967515e-001	 1.314607067557169e+001
 1.887603514513837e+000	 9.760010102336569e-001	 1.321598313689380e+001
 1.999044847290198e+000	 7.914036255591603e-001	 1.273145715856743e+001
 1.991080016344239e+000	 8.112338556465905e-001	 1.275458127812074e+001
 1.982901866681548e+000	 8.310235779735861e-001	 1.277932533017602e+001
 1.974510392930469e+000	 8.507694800878495e-001	 1.280632671728843e+001
 1.965905655998954e+000	 8.704682370715721e-001	 1.283622203959665e+001
 1.957087783688078e+000	 8.901165131461245e-001	 1.286964658546189e+001
 1.948056971260451e+000	 9.097109633037451e-001	 1.290723381821941e+001
 1.938813481962305e+000	 9.292482349648014e-001	 1.294961485951037e+001
 1.929357647498098e+000	 9.487249696591398e-001	 1.299741796967233e+001
 1.919689868456498e+000	 9.681378047299820e-001	 1.305126802567299e+001
 1.909810614686682e+000	 9.874833750587725e-001	 1.311178599708069e+001
 2.022289554819095e+000	 8.006059932967460e-001	 1.264438709468996e+001
 2.014232109559929e+000	 8.206668074553304e-001	 1.266673000892950e+001
 2.005958865133815e+000	 8.406866428329360e-001	 1.268971437747508e+001
 1.997469816106640e+000	 8.606621484603783e-001	 1.271392143644404e+001
 1.988765024094585e+000	 8.805899607580122e-001	 1.273993204769006e+001
 1.979844618384787e+000	 9.004667051590849e-001	 1.276832626121775e+001
 1.970708796510347e+000	 9.202889977603952e-001	 1.279968287409358e+001
 1.961357824778503e+000	 9.400534469988258e-001	 1.283457898619611e+001
 1.951792038750740e+000	 9.597566553522445e-001	 1.287358955315424e+001
 1.942011843673734e+000	 9.793952210632124e-001	 1.291728693682803e+001
 1.932017714860024e+000	 9.989657398838882e-001	 1.296624045369202e+001
 2.045534262348497e+000	 8.098083610343312e-001	 1.253937671928276e+001
 2.037384202776032e+000	 8.300997592640702e-001	 1.255848836715884e+001
 2.029015863586428e+000	 8.503497076922864e-001	 1.257729781162411e+001
 2.020429239283104e+000	 8.705548168329070e-001	 1.259633122906658e+001
 2.011624392190480e+000	 8.907116844444527e-001	 1.261611483898655e+001
 2.002601453081745e+000	 9.108168971720454e-001	 1.263717453733168e+001
 1.993360621760502e+000	 9.308670322170453e-001	 1.266003552671518e+001
 1.983902167594988e+000	 9.508586590328503e-001	 1.268522194373529e+001
 1.974226430003719e+000	 9.707883410453497e-001	 1.271325648361792e+001
 1.964333818891376e+000	 9.906526373964433e-001	 1.274466002240643e+001
 1.954224815033862e+000	 1.010448104709004e+000	 1.277995123692634e+001
 2.068778969878404e+000	 8.190107287719171e-001	 1.241626854286599e+001
 2.060536295992551e+000	 8.395327110728100e-001	 1.242977861465336e+001
 2.052072862039383e+000	 8.600127725516362e-001	 1.244207663453587e+001
 2.043388662459861e+000	 8.804474852054356e-001	 1.245363478186195e+001
 2.034483760286635e+000	 9.008334081308929e-001	 1.246492568595453e+001
 2.025358287778955e+000	 9.211670891850060e-001	 1.247642212955481e+001
 2.016012447010917e+000	 9.414450666736953e-001	 1.248859674953851e+001
 2.006446510411761e+000	 9.616638710668748e-001	 1.250192173499985e+001
 1.996660821257035e+000	 9.818200267384545e-001	 1.251686852279836e+001
 1.986655794109424e+000	 1.001910053729674e+000	 1.253390749066314e+001
 1.976431915208197e+000	 1.021930469534119e+000	 1.255350764795201e+001
 2.092023677408817e+000	 8.282130965095027e-001	 1.227492138938938e+001
 2.083688389209485e+000	 8.489656628815500e-001	 1.228053602573463e+001
 2.075129860492684e+000	 8.696758374109868e-001	 1.228406160229505e+001
 2.066348085636912e+000	 8.903401535779647e-001	 1.228591732178324e+001
 2.057343128383053e+000	 9.109551318173331e-001	 1.228652323348637e+001
 2.048115122476415e+000	 9.315172811979668e-001	 1.228630000604832e+001
 2.038664272261591e+000	 9.520231011303459e-001	 1.228566869791692e+001
 2.028990853228824e+000	 9.724690831008999e-001	 1.228505052542934e+001
 2.019095212510688e+000	 9.928517124315597e-001	 1.228486662850483e+001
 2.008977769327879e+000	 1.013167470062905e+000	 1.228553783391180e+001
 1.998639015383027e+000	 1.033412834359236e+000	 1.228748441607536e+001
 1.776568013657048e+000	 9.185891861080785e-001	 1.275561728963009e+001
 1.767181791275910e+000	 9.365193626221506e-001	 1.277780345349272e+001
 1.757599916804693e+000	 9.543807062332064e-001	 1.278394362335439e+001
 1.747823022222099e+000	 9.721700895268440e-001	 1.277358889736641e+001
 1.737851804855421e+000	 9.898843893801794e-001	 1.274626680934428e+001
 1.727687027486658e+000	 1.007520488639880e+000	 1.270148088510944e+001
 1.717329518407681e+000	 1.025075277809822e+000	 1.263871026936624e+001
 1.706780171423916e+000	 1.042545656746592e+000	 1.255740942622760e+001
 1.696039945806038e+000	 1.059928536361033e+000	 1.245700791631644e+001
 1.685109866189261e+000	 1.077220840323977e+000	 1.233691025316759e+001
 1.673991022419878e+000	 1.094419506774317e+000	 1.219649584143911e+001
 1.798775113827414e+000	 9.300715509331942e-001	 1.295805794251323e+001
 1.789271563665848e+000	 9.482258546533824e-001	 1.294903395371743e+001
 1.779569915763154e+000	 9.663104650593967e-001	 1.292893525629047e+001
 1.769670809997764e+000	 9.843222156441562e-001	 1.289744875493668e+001
 1.759574952413566e+000	 1.002257944245742e+000	 1.285423295195951e+001
 1.749283115327332e+000	 1.020114494746404e+000	 1.279891729387168e+001
 1.738796137384582e+000	 1.037888718781317e+000	 1.273110159458788e+001
 1.728114923563312e+000	 1.055577477455278e+000	 1.265035553878455e+001
 1.717240445125080e+000	 1.073177643065514e+000	 1.255621826881613e+001
 1.706173739513039e+000	 1.090686100828743e+000	 1.244819805836305e+001
 1.694915910196563e+000	 1.108099750610596e+000	 1.232577207575752e+001
 1.820982213998275e+000	 9.415539157583098e-001	 1.310972752006698e+001
 1.811361336056378e+000	 9.599323466846091e-001	 1.307249969766817e+001
 1.801539914722290e+000	 9.782402238855672e-001	 1.302913362974544e+001
 1.791518597774181e+000	 9.964743417614238e-001	 1.297945092852625e+001
 1.781298099972528e+000	 1.014631499111225e+000	 1.292323993818435e+001
 1.770879203168879e+000	 1.032708500852804e+000	 1.286025487162794e+001
 1.760262756362403e+000	 1.050702159752635e+000	 1.279021502999632e+001
 1.749449675703662e+000	 1.068609298163722e+000	 1.271280410892544e+001
 1.738440944445101e+000	 1.086426749769678e+000	 1.262766959543523e+001
 1.727237612837812e+000	 1.104151361333108e+000	 1.253442225906754e+001
 1.715840797974247e+000	 1.121779994446377e+000	 1.243263574065940e+001
 1.843189314169633e+000	 9.530362805834256e-001	 1.320897734413833e+001
 1.833451108447498e+000	 9.716388387158305e-001	 1.314638197351687e+001
 1.823509913682104e+000	 9.901699827117181e-001	 1.308255443850407e+001
 1.813366385551350e+000	 1.008626467878647e+000	 1.301745006252428e+001
 1.803021247532308e+000	 1.027005053976628e+000	 1.295098600502543e+001
 1.792475291011298e+000	 1.045302506959080e+000	 1.288304018823315e+001
 1.781729375341142e+000	 1.063515600723774e+000	 1.281345031282172e+001
 1.770784427844967e+000	 1.081641118871923e+000	 1.274201296704145e+001
 1.759641443766102e+000	 1.099675856473525e+000	 1.266848283362142e+001
 1.748301486163579e+000	 1.117616621837070e+000	 1.259257199853267e+001
 1.736765685752931e+000	 1.135460238281661e+000	 1.251394936543675e+001
 1.865396414341487e+000	 9.645186454085410e-001	 1.325413799213461e+001
 1.855540880839211e+000	 9.833453307470476e-001	 1.316884817903489e+001
 1.845479912642594e+000	 1.002099741537849e+000	 1.308720618376690e+001
 1.835214173329271e+000	 1.020778593995827e+000	 1.300930014349824e+001
 1.824744395092904e+000	 1.039378608841954e+000	 1.293517510262011e+001
 1.814071378854591e+000	 1.057896513065233e+000	 1.286483172913787e+001
 1.803195994320799e+000	 1.076329041694735e+000	 1.279822512627316e+001
 1.792119179987226e+000	 1.094672939579880e+000	 1.273526374429679e+001
 1.780841943088082e+000	 1.112924963177053e+000	 1.267580839738357e+001
 1.769365359490343e+000	 1.131081882340629e+000	 1.261967139003014e+001
 1.757690573532616e+000	 1.149140482116448e+000	 1.256661575730662e+001
 1.887603514513837e+000	 9.760010102336569e-001	 1.321598313689380e+001
 1.877630653231514e+000	 9.950518227782595e-001	 1.313275680932425e+001
 1.867449911603760e+000	 1.014029500363961e+000	 1.304109059630219e+001
 1.857061961107944e+000	 1.032930720112961e+000	 1.295285453888926e+001
 1.846467542654319e+000	 1.051752163707200e+000	 1.287351655816966e+001
 1.835667466698758e+000	 1.070490519171262e+000	 1.280319919447084e+001
 1.824662613301375e+000	 1.089142482665518e+000	 1.274197404389270e+001
 1.813453932130439e+000	 1.107704760287595e+000	 1.268986047258329e+001
 1.802042442411042e+000	 1.126174069880264e+000	 1.264682444337607e+001
 1.790429232818100e+000	 1.144547142843786e+000	 1.261277745979180e+001
 1.778615461313300e+000	 1.162820725950737e+000	 1.258757563212140e+001
 1.909810614686682e+000	 9.874833750587725e-001	 1.311178599708069e+001
 1.899720425624409e+000	 1.006758314809467e+000	 1.301193970599834e+001
 1.889419910565603e+000	 1.025959259190052e+000	 1.292154339436958e+001
 1.878909748887369e+000	 1.045082846230051e+000	 1.284108425700524e+001
 1.868190690216551e+000	 1.064125718572367e+000	 1.276372476331948e+001
 1.857263554543797e+000	 1.083084525277167e+000	 1.269572284702270e+001
 1.846129232282870e+000	 1.101955923636123e+000	 1.264214754755945e+001
 1.834788684274607e+000	 1.120736580995067e+000	 1.260312828215236e+001
 1.823242941734981e+000	 1.139423176583158e+000	 1.257873525795459e+001
 1.811493106146852e+000	 1.158012403346541e+000	 1.256897823346530e+001
 1.799540349094984e+000	 1.176500969784529e+000	 1.257380541037835e+001
 1.932017714860024e+000	 9.989657398838882e-001	 1.296624045369202e+001
 1.921810198017894e+000	 1.018464806840669e+000	 1.285291092258989e+001
 1.911389909528122e+000	 1.037889018016124e+000	 1.275288769256692e+001
 1.900757536667546e+000	 1.057234972347097e+000	 1.266676670815889e+001
 1.889913837779600e+000	 1.076499273437455e+000	 1.259513374843904e+001
 1.878859642389709e+000	 1.095678531382949e+000	 1.253856390173146e+001
 1.867595851265284e+000	 1.114769364606549e+000	 1.249621111321705e+001
 1.856123436419728e+000	 1.133768401702296e+000	 1.247241218906576e+001
 1.844443441059901e+000	 1.152672283285734e+000	 1.246876975546886e+001
 1.832556979476600e+000	 1.171477663848893e+000	 1.248539095453848e+001
 1.820465236877668e+000	 1.190181213617824e+000	 1.252231516522843e+001
 1.954224815033862e+000	 1.010448104709004e+000	 1.277995123692634e+001
 1.943899970411971e+000	 1.030171298871866e+000	 1.265616650149503e+001
 1.933359908491318e+000	 1.049818776842177e+000	 1.254947641405034e+001
 1.922605324448474e+000	 1.069387098464099e+000	 1.246058380255092e+001
 1.911636985343467e+000	 1.088872828302464e+000	 1.239017870765462e+001
 1.900455730236494e+000	 1.108272537488608e+000	 1.233893772967882e+001
 1.889062470248616e+000	 1.127582805576797e+000	 1.230752338408798e+001
 1.877458188565804e+000	 1.146800222409282e+000	 1.229658346629628e+001
 1.865643940385800e+000	 1.165921389987992e+000	 1.231418007894500e+001
 1.853620852807342e+000	 1.184942924350843e+000	 1.235916042423474e+001
 1.841390124661353e+000	 1.203861457450621e+000	 1.243014671039368e+001
 1.976431915208197e+000	 1.021930469534119e+000	 1.255350764795201e+001
 1.965989742806639e+000	 1.041877790903058e+000	 1.242219215388784e+001
 1.955329907455190e+000	 1.061748535668210e+000	 1.231169406388932e+001
 1.944453112230156e+000	 1.081539224581056e+000	 1.222282127890813e+001
 1.933360132908153e+000	 1.101246383167394e+000	 1.215636632426586e+001
 1.922051818084153e+000	 1.120866543594142e+000	 1.211310557091487e+001
 1.910529089232867e+000	 1.140396246546867e+000	 1.209379846733894e+001
 1.898792940712833e+000	 1.159832043116026e+000	 1.209918678309907e+001
 1.886844439712678e+000	 1.179170496689932e+000	 1.212999386502069e+001
 1.874684726139079e+000	 1.198408184852390e+000	 1.218745745332575e+001
 1.862315012446037e+000	 1.217541701282921e+000	 1.229437181698904e+001
 1.998639015383027e+000	 1.033412834359236e+000	 1.228748441607536e+001
 1.988079515201900e+000	 1.053584282934246e+000	 1.215146383367725e+001
 1.977299906419740e+000	 1.073678294494223e+000	 1.203992009404445e+001
 1.966300900012589e+000	 1.093691350697970e+000	 1.195376441387285e+001
 1.955083280473654e+000	 1.113619938032245e+000	 1.189389007834762e+001
 1.943647905932685e+000	 1.133460549699554e+000	 1.186117153870546e+001
 1.931995708218038e+000	 1.153209687516760e+000	 1.185646352252505e+001
 1.920127692860818e+000	 1.172863863822527e+000	 1.188060015796482e+001
 1.908044939040537e+000	 1.192419603391556e+000	 1.193439411315480e+001
 1.895748599471812e+000	 1.211873445353536e+000	 1.201863575193744e+001
 1.883239900231722e+000	 1.231221945114724e+000	 1.213409230713634e+001
 1.673991022419878e+000	 1.094419506774317e+000	 1.219649584143911e+001
 1.662684569349107e+000	 1.111521490027895e+000	 1.213459131547526e+001
 1.651191726573076e+000	 1.128523762284198e+000	 1.209892942176057e+001
 1.639513778119492e+000	 1.145423315329686e+000	 1.208972852250382e+001
 1.627652072081568e+000	 1.162217162236540e+000	 1.210714001952191e+001
 1.615608020198319e+000	 1.178902339053813e+000	 1.215124751772291e+001
 1.603383097381650e+000	 1.195475906489392e+000	 1.222206613032127e+001
 1.590978841190437e+000	 1.211934951580842e+000	 1.231954192877591e+001
 1.578396851251905e+000	 1.228276589353181e+000	 1.244355154005018e+001
 1.565638788630636e+000	 1.244497964461666e+000	 1.259390189338213e+001
 1.552706375145675e+000	 1.260596252817663e+000	 1.228241477387387e+001
 1.694915910196563e+000	 1.108099750610596e+000	 1.232577207575752e+001
 1.683468126462488e+000	 1.125415508655709e+000	 1.231754452978118e+001
 1.671831623151878e+000	 1.142630309315913e+000	 1.233614240529826e+001
 1.660007700342781e+000	 1.159741106774995e+000	 1.238181501544452e+001
 1.647997722979581e+000	 1.176744876768540e+000	 1.245474279095193e+001
 1.635803120448028e+000	 1.193638618296214e+000	 1.255503638655732e+001
 1.623425386096425e+000	 1.210419355324751e+000	 1.268273593350867e+001
 1.610866076703136e+000	 1.227084138479685e+000	 1.283781044131519e+001
 1.598126811890726e+000	 1.243630046723848e+000	 1.302015735147726e+001
 1.585209273487082e+000	 1.260054189020686e+000	 1.276529035720531e+001
 1.572115204833990e+000	 1.276353705980456e+000	 1.224730458076253e+001
 1.715840797974247e+000	 1.121779994446377e+000	 1.243263574065940e+001
 1.704251683576865e+000	 1.139309527282935e+000	 1.247911297788510e+001
 1.692471519731658e+000	 1.156736856346968e+000	 1.255308462655989e+001
 1.680501622567027e+000	 1.174058898219595e+000	 1.265483066264649e+001
 1.668343373878515e+000	 1.191272591299802e+000	 1.278456015216404e+001
 1.655998220698613e+000	 1.208374897537865e+000	 1.294241029999564e+001
 1.643467674812023e+000	 1.225362804159370e+000	 1.312844564934824e+001
 1.630753312216592e+000	 1.242233325377818e+000	 1.334265743516432e+001
 1.617856772530227e+000	 1.258983504093854e+000	 1.317070903509668e+001
 1.604779758344124e+000	 1.275610413579114e+000	 1.267133261313986e+001
 1.591524034522806e+000	 1.292111159142748e+000	 1.220216446708350e+001
 1.736765685752931e+000	 1.135460238281661e+000	 1.251394936543675e+001
 1.725035240692236e+000	 1.153203545909574e+000	 1.261609485246407e+001
 1.713111416312420e+000	 1.170843403377367e+000	 1.274649045813129e+001
 1.700995544792228e+000	 1.188376689663488e+000	 1.290544656487363e+001
 1.688689024778370e+000	 1.205800305830324e+000	 1.309320051129597e+001
 1.676193320950074e+000	 1.223111176778767e+000	 1.330991558281917e+001
 1.663509963528440e+000	 1.240306252993248e+000	 1.355568015772007e+001
 1.650640547730804e+000	 1.257382512275240e+000	 1.349208103778370e+001
 1.637586733170410e+000	 1.274336961463198e+000	 1.301463735254059e+001
 1.624350243201763e+000	 1.291166638136951e+000	 1.256651233055944e+001
 1.610932864212123e+000	 1.307868612304539e+000	 1.214817296931289e+001
 1.757690573532616e+000	 1.149140482116448e+000	 1.256661575730662e+001
 1.745818797808603e+000	 1.167097564535626e+000	 1.272533102815235e+001
 1.733751312894162e+000	 1.184949950407107e+000	 1.291313939623413e+001
 1.721489467018384e+000	 1.202694481106671e+000	 1.313038142479875e+001
 1.709034675679145e+000	 1.220328020360107e+000	 1.337732239218384e+001
 1.696388421202410e+000	 1.237847456018919e+000	 1.365415122370649e+001
 1.683552252245679e+000	 1.255249701826387e+000	 1.372281235581447e+001
 1.670527783245771e+000	 1.272531699171952e+000	 1.327072269071906e+001
 1.657316693811275e+000	 1.289690418831882e+000	 1.284699488119606e+001
 1.643920728059999e+000	 1.306722862694197e+000	 1.245211641899152e+001
 1.630341693901942e+000	 1.323626065465828e+000	 1.208657450445156e+001
 1.778615461313300e+000	 1.162820725950737e+000	 1.258757563212140e+001
 1.766602354925964e+000	 1.180991583161090e+000	 1.280370255083846e+001
 1.754391209476884e+000	 1.199056497436190e+000	 1.304985340639422e+001
 1.741983389245496e+000	 1.217012272549147e+000	 1.332639874689142e+001
 1.729380326580841e+000	 1.234855734889152e+000	 1.363363148637971e+001
 1.716583521455622e+000	 1.252583735258322e+000	 1.385629374756508e+001
 1.703594540963738e+000	 1.270193150658785e+000	 1.343307047981412e+001
 1.690415018761496e+000	 1.287680886067953e+000	 1.303719382945072e+001
 1.677046654452820e+000	 1.305043876199905e+000	 1.266916604669560e+001
 1.663491212918830e+000	 1.322279087250851e+000	 1.232949124938718e+001
 1.649750523592262e+000	 1.339383518626616e+000	 1.201867549470039e+001
 1.799540349094984e+000	 1.176500969784529e+000	 1.257380541037835e+001
 1.787385912044321e+000	 1.194885601785967e+000	 1.284812830212667e+001
 1.775031106060586e+000	 1.213163044464614e+000	 1.315349445429597e+001
 1.762477311473562e+000	 1.231330063990914e+000	 1.349030423266210e+001
 1.749725977483457e+000	 1.249383449417458e+000	 1.385887791084258e+001
 1.736778621709710e+000	 1.267320014496975e+000	 1.349513102302570e+001
 1.723636829682618e+000	 1.285136599490444e+000	 1.313065208727067e+001
 1.710302254277976e+000	 1.302830072963244e+000	 1.279296631919423e+001
 1.696776615095046e+000	 1.320397333567267e+000	 1.248258890841797e+001
 1.683061697778258e+000	 1.337835311806915e+000	 1.220003919706147e+001
 1.669159353283084e+000	 1.355140971786903e+000	 1.194584076250682e+001
 1.820465236877668e+000	 1.190181213617824e+000	 1.252231516522843e+001
 1.808169469163672e+000	 1.208779620410255e+000	 1.285556282487101e+001
 1.795671002645267e+000	 1.227269591492381e+000	 1.322096220692253e+001
 1.782971233702585e+000	 1.245647855431973e+000	 1.361894335554507e+001
 1.770071628386994e+000	 1.263911163945024e+000	 1.345031568305340e+001
 1.756973721964674e+000	 1.282056293734879e+000	 1.312086567181827e+001
 1.743679118402320e+000	 1.300080048321362e+000	 1.281710712153527e+001
 1.730189489795212e+000	 1.317979259857823e+000	 1.253956036697668e+001
 1.716506575737955e+000	 1.335750790933968e+000	 1.228875207708925e+001
 1.702632182638282e+000	 1.353391536362387e+000	 1.206521542305202e+001
 1.688568182974407e+000	 1.370898424946689e+000	 1.186949017422895e+001
 1.841390124661353e+000	 1.203861457450621e+000	 1.243014671039368e+001
 1.828953026284019e+000	 1.222673639033957e+000	 1.282299429696751e+001
 1.816310899230930e+000	 1.241376138519491e+000	 1.324919189043678e+001
 1.803465155932562e+000	 1.259965646872323e+000	 1.329199150910999e+001
 1.790417279291451e+000	 1.278438878471852e+000	 1.300127765827032e+001
 1.777168822220513e+000	 1.296792572972033e+000	 1.273511701004826e+001
 1.763721407122842e+000	 1.315023497151540e+000	 1.249402906146187e+001
 1.750076725313204e+000	 1.333128446751693e+000	 1.227854177494279e+001
 1.736236536381544e+000	 1.351104248300008e+000	 1.208919184254711e+001
 1.722202667498902e+000	 1.368947760917267e+000	 1.192652487493043e+001
 1.707977012666231e+000	 1.386655878105973e+000	 1.179109551264074e+001
 1.862315012446037e+000	 1.217541701282921e+000	 1.229437181698904e+001
 1.849736583405360e+000	 1.236567657657071e+000	 1.274744264174516e+001
 1.836950795817573e+000	 1.255482685545942e+000	 1.301347778626473e+001
 1.823959078163495e+000	 1.274283438311966e+000	 1.276527408783274e+001
 1.810762930196829e+000	 1.292966592997942e+000	 1.254045845177238e+001
 1.797363922477228e+000	 1.311528852208438e+000	 1.233954352349236e+001
 1.783763695844185e+000	 1.329966945980979e+000	 1.216305247559259e+001
 1.769963960831952e+000	 1.348277633644851e+000	 1.201151937883186e+001
 1.755966497025814e+000	 1.366457705665387e+000	 1.188548949513912e+001
 1.741773152360120e+000	 1.384503985471557e+000	 1.178551948980569e+001
 1.727385842358557e+000	 1.402413331264755e+000	 1.171217756027930e+001
 1.883239900231722e+000	 1.231221945114724e+000	 1.213409230713634e+001
 1.870520140527698e+000	 1.250461676279598e+000	 1.260804441323171e+001
 1.857590692405196e+000	 1.269589232571736e+000	 1.240618173936758e+001
 1.844453000395384e+000	 1.288601229750900e+000	 1.222652496112239e+001
 1.831108581103128e+000	 1.307494307523292e+000	 1.206957385337510e+001
 1.817559022734820e+000	 1.326265131444094e+000	 1.193584069150531e+001
 1.803805984566350e+000	 1.344910394809677e+000	 1.182585073939736e+001
 1.789851196351457e+000	 1.363426820537300e+000	 1.174014265722187e+001
 1.775696457670766e+000	 1.381811163030105e+000	 1.167926882569431e+001
 1.761343637221934e+000	 1.400060210025256e+000	 1.164379558379464e+001
 1.746794672051384e+000	 1.418170784423037e+000	 1.163430337723610e+001
 1.552706375145675e+000	 1.260596252817663e+000	 1.228241477387387e+001
 1.539601392635642e+000	 1.276568663195416e+000	 1.211056638967674e+001
 1.526325682174240e+000	 1.292412438818711e+000	 1.194307443582672e+001
 1.512881143235718e+000	 1.308124858924892e+000	 1.178054619369560e+001
 1.499269732809776e+000	 1.323703240303929e+000	 1.162360320636464e+001
 1.485493464468560e+000	 1.339144938811549e+000	 1.147288087938074e+001
 1.471554407386076e+000	 1.354447350854373e+000	 1.132902800861257e+001
 1.457454685310996e+000	 1.369607914845309e+000	 1.119270623530779e+001
 1.443196475493935e+000	 1.384624112627510e+000	 1.106458942872599e+001
 1.428782007570310e+000	 1.399493470865233e+000	 1.094536299699658e+001
 1.414213562400000e+000	 1.414213562400000e+000	 1.083572312712670e+001
 1.572115204833990e+000	 1.276353705980456e+000	 1.224730458076253e+001
 1.558846410042997e+000	 1.292525771487219e+000	 1.212850141432490e+001
 1.545404753201172e+000	 1.308567594305193e+000	 1.201193580890717e+001
 1.531792157526195e+000	 1.324476419662191e+000	 1.189801841401732e+001
 1.518010604470134e+000	 1.340249530808056e+000	 1.178717753766058e+001
 1.504062132774790e+000	 1.355884250546713e+000	 1.167985896861309e+001
 1.489948837478841e+000	 1.371377942739865e+000	 1.157652571928869e+001
 1.475672868877818e+000	 1.386728013780582e+000	 1.147765768890074e+001
 1.461236431437968e+000	 1.401931914035057e+000	 1.138375124691257e+001
 1.446641782665153e+000	 1.416987139250849e+000	 1.129531873706451e+001
 1.431891231930000e+000	 1.431891231930000e+000	 1.121288790255940e+001
 1.591524034522806e+000	 1.292111159142748e+000	 1.220216446708350e+001
 1.578091427450757e+000	 1.308482879778616e+000	 1.212979431744893e+001
 1.564483824228426e+000	 1.324722749791354e+000	 1.205755561750715e+001
 1.550703171816918e+000	 1.340827980399244e+000	 1.198566538250687e+001
 1.536751476130674e+000	 1.356795821312002e+000	 1.191436172920458e+001
 1.522630801081145e+000	 1.372623562281752e+000	 1.184390391733782e+001
 1.508343267571685e+000	 1.388308534625277e+000	 1.177457230505983e+001
 1.493891052444684e+000	 1.403848112715810e+000	 1.170666821764102e+001
 1.479276387382022e+000	 1.419239715442583e+000	 1.164051372905276e+001
 1.464501557760002e+000	 1.434480807636460e+000	 1.157645135636406e+001
 1.449568901460000e+000	 1.449568901460000e+000	 1.151484366719583e+001
 1.610932864212123e+000	 1.307868612304539e+000	 1.214817296931289e+001
 1.597336444858925e+000	 1.324439988069607e+000	 1.211588896111181e+001
 1.583562895256002e+000	 1.340877905277195e+000	 1.208163975906181e+001
 1.569614186107887e+000	 1.357179541136051e+000	 1.204545160873255e+001
 1.555492347791394e+000	 1.373342111815768e+000	 1.200737534899021e+001
 1.541199469387626e+000	 1.389362874016665e+000	 1.196748667047912e+001
 1.526737697664610e+000	 1.405239126510609e+000	 1.192588628130366e+001
 1.512109236011597e+000	 1.420968211650994e+000	 1.188269997882185e+001
 1.497316343326096e+000	 1.436547516850090e+000	 1.183807862679387e+001
 1.482361332854856e+000	 1.451974476022066e+000	 1.179219803745932e+001
 1.467246570990000e+000	 1.467246570990000e+000	 1.174525875845469e+001
 1.630341693901942e+000	 1.323626065465828e+000	 1.208657450445156e+001
 1.616581462267498e+000	 1.340397096360191e+000	 1.208828293908232e+001
 1.602641966283898e+000	 1.357033060762714e+000	 1.208593580521889e+001
 1.588525200399102e+000	 1.373531101872612e+000	 1.207937131623538e+001
 1.574233219452296e+000	 1.389888402319353e+000	 1.206845582187485e+001
 1.559768137694232e+000	 1.406102185751452e+000	 1.205308428166806e+001
 1.545132127757616e+000	 1.422169718395861e+000	 1.203318063865838e+001
 1.530327419578553e+000	 1.438088310586131e+000	 1.200869809195569e+001
 1.515356299270190e+000	 1.453855318257577e+000	 1.197961926698767e+001
 1.500221107949715e+000	 1.469468144407667e+000	 1.194595628267373e+001
 1.484924240520000e+000	 1.484924240520000e+000	 1.190775071510259e+001
 1.649750523592262e+000	 1.339383518626616e+000	 1.201867549470039e+001
 1.635826479676479e+000	 1.356354204650368e+000	 1.204852441614652e+001
 1.621721037312115e+000	 1.373188216247912e+000	 1.207223055041440e+001
 1.607436214690563e+000	 1.389882662608927e+000	 1.208944669464871e+001
 1.592974091113377e+000	 1.406434692822757e+000	 1.209985737917625e+001
 1.578336806000964e+000	 1.422841497486114e+000	 1.210317955390630e+001
 1.563526557850702e+000	 1.439100310281031e+000	 1.209916316800785e+001
 1.548545603145556e+000	 1.455208409521224e+000	 1.208759164099716e+001
 1.533396255214304e+000	 1.471163119665044e+000	 1.206828222373690e+001
 1.518080883044578e+000	 1.486961812793264e+000	 1.204108624822228e+001
 1.502601910049999e+000	 1.502601910049999e+000	 1.200588926541018e+001
 1.669159353283084e+000	 1.355140971786903e+000	 1.194584076250682e+001
 1.655071497085865e+000	 1.372311312940140e+000	 1.199820918793240e+001
 1.640800108340654e+000	 1.389343371732789e+000	 1.204234773147803e+001
 1.626347228982270e+000	 1.406234223344997e+000	 1.207772627376233e+001
 1.611714962774640e+000	 1.422980983325981e+000	 1.210385008155236e+001
 1.596905474307821e+000	 1.439580809220650e+000	 1.212026070530105e+001
 1.581920987943868e+000	 1.456030902166122e+000	 1.212653676279250e+001
 1.566763786712603e+000	 1.472328508456272e+000	 1.212229460664248e+001
 1.551436211158439e+000	 1.488470921072490e+000	 1.210718887378775e+001
 1.535940658139447e+000	 1.504455481178854e+000	 1.208091291549663e+001
 1.520279579580000e+000	 1.520279579580000e+000	 1.204319910683216e+001
 1.688568182974407e+000	 1.370898424946689e+000	 1.186949017422895e+001
 1.674316514495657e+000	 1.388268421229506e+000	 1.193897794350513e+001
 1.659879179369514e+000	 1.405498527217344e+000	 1.199814590450721e+001
 1.645258243274223e+000	 1.422585784080819e+000	 1.204628340972077e+001
 1.630455834436083e+000	 1.439527273829023e+000	 1.208271890926946e+001
 1.615474142614804e+000	 1.456320120955061e+000	 1.210682105785144e+001
 1.600315418037115e+000	 1.472961494051132e+000	 1.211799970047190e+001
 1.584981970279696e+000	 1.489448607391274e+000	 1.211570673433315e+001
 1.569476167102593e+000	 1.505778722479917e+000	 1.209943684465398e+001
 1.553800433234321e+000	 1.521949149564441e+000	 1.206872811260675e+001
 1.537957249110000e+000	 1.537957249110000e+000	 1.202316249398522e+001
 1.707977012666231e+000	 1.386655878105973e+000	 1.179109551264074e+001
 1.693561531905856e+000	 1.404225529518465e+000	 1.187251371460383e+001
 1.678958250398695e+000	 1.421653682701579e+000	 1.194151646649946e+001
 1.664169257566422e+000	 1.438937344816397e+000	 1.199721487443455e+001
 1.649196706097708e+000	 1.456073564331885e+000	 1.203876291449685e+001
 1.634042810921913e+000	 1.473059432689346e+000	 1.206535874745522e+001
 1.618709848130441e+000	 1.489892085936061e+000	 1.207624590479618e+001
 1.603200153846835e+000	 1.506568706326231e+000	 1.207071434307704e+001
 1.587516123046768e+000	 1.523086523887323e+000	 1.204810136400483e+001
 1.571660208329200e+000	 1.539442817950021e+000	 1.200779239809016e+001
 1.555634918639999e+000	 1.555634918639999e+000	 1.194922165017291e+001
 1.727385842358557e+000	 1.402413331264755e+000	 1.171217756027930e+001
 1.712806549316460e+000	 1.420182637807017e+000	 1.180053949683950e+001
 1.698037321428197e+000	 1.437808838185492e+000	 1.187438181035829e+001
 1.683080271858867e+000	 1.455288905551728e+000	 1.193263954008805e+001
 1.667937577759513e+000	 1.472619854834566e+000	 1.197429443075087e+001
 1.652611479229147e+000	 1.489798744423506e+000	 1.199837645346466e+001
 1.637104278223849e+000	 1.506822677820911e+000	 1.200396519039652e+001
 1.621418337414018e+000	 1.523688805261142e+000	 1.199019107974248e+001
 1.605556078990962e+000	 1.540394325294709e+000	 1.195623651808334e+001
 1.589519983424084e+000	 1.556936486335597e+000	 1.190133681762927e+001
 1.573312588170000e+000	 1.573312588170000e+000	 1.182478101633586e+001
 1.746794672051384e+000	 1.418170784423037e+000	 1.163430337723610e+001
 1.732051566727472e+000	 1.436139746095164e+000	 1.172481602948011e+001
 1.717116392458021e+000	 1.453963993669085e+000	 1.179869360289817e+001
 1.701991286151559e+000	 1.471640466286814e+000	 1.185469715134634e+001
 1.686678449421500e+000	 1.489166145337067e+000	 1.189163833504198e+001
 1.671180147536507e+000	 1.506538056157540e+000	 1.190838114627258e+001
 1.655498708317338e+000	 1.523753269705680e+000	 1.190384349106962e+001
 1.639636520981248e+000	 1.540808904196010e+000	 1.187699862306589e+001
 1.623596034935177e+000	 1.557702126702076e+000	 1.182687642623015e+001
 1.607379758518974e+000	 1.574430154721169e+000	 1.175256454365488e+001
 1.590990257700000e+000	 1.590990257700000e+000	 1.165320935007188e+001
 1.414213562400000e+000	 1.414213562400000e+000	 1.083572312712670e+001
 1.399493470865234e+000	 1.428782007570309e+000	 1.078626114454080e+001
 1.384624112627510e+000	 1.443196475493934e+000	 1.074926297430902e+001
 1.369607914845310e+000	 1.457454685310996e+000	 1.072439123541130e+001
 1.354447350854374e+000	 1.471554407386076e+000	 1.071131549588440e+001
 1.339144938811550e+000	 1.485493464468560e+000	 1.070971231432017e+001
 1.323703240303929e+000	 1.499269732809775e+000	 1.071926521911253e+001
 1.308124858924892e+000	 1.512881143235717e+000	 1.073966462629969e+001
 1.292412438818711e+000	 1.526325682174239e+000	 1.077060769708878e+001
 1.276568663195417e+000	 1.539601392635642e+000	 1.081179813638897e+001
 1.260596252817662e+000	 1.552706375145675e+000	 1.086294593391045e+001
 1.431891231930000e+000	 1.431891231930000e+000	 1.121288790255940e+001
 1.416987139250849e+000	 1.446641782665152e+000	 1.115117239086332e+001
 1.401931914035057e+000	 1.461236431437968e+000	 1.109847023485284e+001
 1.386728013780583e+000	 1.475672868877817e+000	 1.105453964547941e+001
 1.371377942739866e+000	 1.489948837478840e+000	 1.101915030958106e+001
 1.355884250546714e+000	 1.504062132774790e+000	 1.099208330969867e+001
 1.340249530808056e+000	 1.518010604470134e+000	 1.097313097370202e+001
 1.324476419662191e+000	 1.531792157526194e+000	 1.096209665532747e+001
 1.308567594305194e+000	 1.545404753201172e+000	 1.095879444699291e+001
 1.292525771487220e+000	 1.558846410042996e+000	 1.096304882651349e+001
 1.276353705980456e+000	 1.572115204833990e+000	 1.097469423959017e+001
 1.449568901460000e+000	 1.449568901460000e+000	 1.151484366719583e+001
 1.434480807636461e+000	 1.464501557760002e+000	 1.144421513693820e+001
 1.419239715442584e+000	 1.479276387382022e+000	 1.137918429167240e+001
 1.403848112715812e+000	 1.493891052444684e+000	 1.131960361046696e+001
 1.388308534625278e+000	 1.508343267571685e+000	 1.126534160454105e+001
 1.372623562281752e+000	 1.522630801081144e+000	 1.121628261615486e+001
 1.356795821312003e+000	 1.536751476130674e+000	 1.117232653926649e+001
 1.340827980399244e+000	 1.550703171816918e+000	 1.113338846331432e+001
 1.324722749791355e+000	 1.564483824228426e+000	 1.109939824176935e+001
 1.308482879778617e+000	 1.578091427450757e+000	 1.107029998737844e+001
 1.292111159142748e+000	 1.591524034522806e+000	 1.104605149628606e+001
 1.467246570990000e+000	 1.467246570990000e+000	 1.174525875845469e+001
 1.451974476022067e+000	 1.482361332854855e+000	 1.166893442186636e+001
 1.436547516850091e+000	 1.497316343326095e+000	 1.159482274588425e+001
 1.420968211650994e+000	 1.512109236011596e+000	 1.152286922017446e+001
 1.405239126510610e+000	 1.526737697664610e+000	 1.145303995546052e+001
 1.389362874016665e+000	 1.541199469387625e+000	 1.138532136217282e+001
 1.373342111815769e+000	 1.555492347791394e+000	 1.131971974271471e+001
 1.357179541136051e+000	 1.569614186107886e+000	 1.125626079896120e+001
 1.340877905277195e+000	 1.583562895256001e+000	 1.119498905691294e+001
 1.324439988069607e+000	 1.597336444858925e+000	 1.113596721072520e+001
 1.307868612304539e+000	 1.610932864212123e+000	 1.107927538861646e+001
 1.484924240520000e+000	 1.484924240520000e+000	 1.190775071510259e+001
 1.469468144407668e+000	 1.500221107949714e+000	 1.182883017999173e+001
 1.453855318257577e+000	 1.515356299270189e+000	 1.174876391869841e+001
 1.438088310586132e+000	 1.530327419578553e+000	 1.166758923746121e+001
 1.422169718395861e+000	 1.545132127757615e+000	 1.158536868825130e+001
 1.406102185751453e+000	 1.559768137694231e+000	 1.150218962780014e+001
 1.389888402319354e+000	 1.574233219452295e+000	 1.141816368198187e+001
 1.373531101872613e+000	 1.588525200399102e+000	 1.133342611742427e+001
 1.357033060762715e+000	 1.602641966283897e+000	 1.124813512254971e+001
 1.340397096360191e+000	 1.616581462267498e+000	 1.116247100056393e+001
 1.323626065465828e+000	 1.630341693901942e+000	 1.107663527721912e+001
 1.502601910049999e+000	 1.502601910049999e+000	 1.200588926541018e+001
 1.486961812793264e+000	 1.518080883044577e+000	 1.192735989412222e+001
 1.471163119665044e+000	 1.533396255214303e+000	 1.184434916200122e+001
 1.455208409521225e+000	 1.548545603145556e+000	 1.175698505865325e+001
 1.439100310281032e+000	 1.563526557850701e+000	 1.166542548291024e+001
 1.422841497486115e+000	 1.578336806000964e+000	 1.156985768279107e+001
 1.406434692822758e+000	 1.592974091113377e+000	 1.147049759243954e+001
 1.389882662608928e+000	 1.607436214690562e+000	 1.136758906817031e+001
 1.373188216247913e+000	 1.621721037312115e+000	 1.126140302610512e+001
 1.356354204650370e+000	 1.635826479676478e+000	 1.115223648421666e+001
 1.339383518626616e+000	 1.649750523592262e+000	 1.104041151192614e+001
 1.520279579580000e+000	 1.520279579580000e+000	 1.204319910683216e+001
 1.504455481178855e+000	 1.535940658139447e+000	 1.196794106364217e+001
 1.488470921072491e+000	 1.551436211158438e+000	 1.188488500773468e+001
 1.472328508456273e+000	 1.566763786712603e+000	 1.179424853717925e+001
 1.456030902166122e+000	 1.581920987943867e+000	 1.169628386456087e+001
 1.439580809220651e+000	 1.596905474307821e+000	 1.159127713836810e+001
 1.422980983325981e+000	 1.611714962774640e+000	 1.147954765285881e+001
 1.406234223344997e+000	 1.626347228982270e+000	 1.136144694879560e+001
 1.389343371732789e+000	 1.640800108340653e+000	 1.123735780781036e+001
 1.372311312940141e+000	 1.655071497085864e+000	 1.110769314351975e+001
 1.355140971786903e+000	 1.669159353283084e+000	 1.097289479285764e+001
 1.537957249110000e+000	 1.537957249110000e+000	 1.202316249398522e+001
 1.521949149564441e+000	 1.553800433234320e+000	 1.195395350241037e+001
 1.505778722479917e+000	 1.569476167102593e+000	 1.187364516904278e+001
 1.489448607391275e+000	 1.584981970279696e+000	 1.178254368143819e+001
 1.472961494051132e+000	 1.600315418037114e+000	 1.168099459166465e+001
 1.456320120955062e+000	 1.615474142614804e+000	 1.156938201955073e+001
 1.439527273829024e+000	 1.630455834436083e+000	 1.144812773578965e+001
 1.422585784080820e+000	 1.645258243274223e+000	 1.131769012754769e+001
 1.405498527217345e+000	 1.659879179369513e+000	 1.117856304962138e+001
 1.388268421229506e+000	 1.674316514495656e+000	 1.103127456456464e+001
 1.370898424946689e+000	 1.688568182974407e+000	 1.087638557557736e+001
 1.555634918639999e+000	 1.555634918639999e+000	 1.194922165017291e+001
 1.539442817950022e+000	 1.571660208329199e+000	 1.188874147998306e+001
 1.523086523887323e+000	 1.587516123046767e+000	 1.181387240497566e+001
 1.506568706326231e+000	 1.603200153846834e+000	 1.172500823690322e+001
 1.489892085936062e+000	 1.618709848130441e+000	 1.162258694958103e+001
 1.473059432689347e+000	 1.634042810921912e+000	 1.150708976437245e+001
 1.456073564331886e+000	 1.649196706097707e+000	 1.137904010677785e+001
 1.438937344816397e+000	 1.664169257566422e+000	 1.123900243703803e+001
 1.421653682701580e+000	 1.678958250398694e+000	 1.108758095807539e+001
 1.404225529518465e+000	 1.693561531905855e+000	 1.092541820450169e+001
 1.386655878105973e+000	 1.707977012666231e+000	 1.075319351680626e+001
 1.573312588170000e+000	 1.573312588170000e+000	 1.182478101633586e+001
 1.556936486335598e+000	 1.589519983424083e+000	 1.177561571848487e+001
 1.540394325294709e+000	 1.605556078990961e+000	 1.170878025948380e+001
 1.523688805261143e+000	 1.621418337414017e+000	 1.162475516156685e+001
 1.506822677820911e+000	 1.637104278223849e+000	 1.152406995692184e+001
 1.489798744423506e+000	 1.652611479229146e+000	 1.140730215573291e+001
 1.472619854834567e+000	 1.667937577759512e+000	 1.127507607644401e+001
 1.455288905551728e+000	 1.683080271858867e+000	 1.112806154141255e+001
 1.437808838185493e+000	 1.698037321428196e+000	 1.096697244156172e+001
 1.420182637807018e+000	 1.712806549316460e+000	 1.079256517406472e+001
 1.402413331264755e+000	 1.727385842358557e+000	 1.060563695750366e+001
 1.590990257700000e+000	 1.590990257700000e+000	 1.165320935007188e+001
 1.574430154721170e+000	 1.607379758518973e+000	 1.161785525635495e+001
 1.557702126702076e+000	 1.623596034935176e+000	 1.156155468447908e+001
 1.540808904196010e+000	 1.639636520981247e+000	 1.148487400302347e+001
 1.523753269705680e+000	 1.655498708317337e+000	 1.138843349148132e+001
 1.506538056157541e+000	 1.671180147536507e+000	 1.127290619112826e+001
 1.489166145337068e+000	 1.686678449421499e+000	 1.113901660909050e+001
 1.471640466286814e+000	 1.701991286151559e+000	 1.098753927904440e+001
 1.453963993669085e+000	 1.717116392458020e+000	 1.081929718244079e+001
 1.436139746095165e+000	 1.732051566727472e+000	 1.063516003459422e+001
 1.418170784423037e+000	 1.746794672051384e+000	 1.043604244040938e+001
 1.260596252817662e+000	 1.552706375145675e+000	 1.086294593391045e+001
 1.244497964461667e+000	 1.565638788630635e+000	 1.076396351534799e+001
 1.228276589353182e+000	 1.578396851251904e+000	 1.038210181074425e+001
 1.211934951580843e+000	 1.590978841190437e+000	 1.005370970623414e+001
 1.195475906489393e+000	 1.603383097381649e+000	 9.779341409582276e+000
 1.178902339053814e+000	 1.615608020198319e+000	 9.559471621006374e+000
 1.162217162236541e+000	 1.627652072081567e+000	 9.394495322476125e+000
 1.145423315329686e+000	 1.639513778119491e+000	 9.284727711349134e+000
 1.128523762284199e+000	 1.651191726573076e+000	 9.230404277385517e+000
 1.111521490027896e+000	 1.662684569349107e+000	 9.231681021815373e+000
 1.094419506774317e+000	 1.673991022419878e+000	 9.288634816771388e+000
 1.276353705980456e+000	 1.572115204833990e+000	 1.097469423959017e+001
 1.260054189020686e+000	 1.585209273487081e+000	 1.102980112216055e+001
 1.243630046723849e+000	 1.598126811890726e+000	 1.093170243825926e+001
 1.227084138479686e+000	 1.610866076703136e+000	 1.056749622890618e+001
 1.210419355324752e+000	 1.623425386096425e+000	 1.025687932797091e+001
 1.193638618296214e+000	 1.635803120448028e+000	 1.000034357997788e+001
 1.176744876768541e+000	 1.647997722979580e+000	 9.798300287027217e+000
 1.159741106774995e+000	 1.660007700342781e+000	 9.651080130056601e+000
 1.142630309315913e+000	 1.671831623151877e+000	 9.558933236110109e+000
 1.125415508655710e+000	 1.683468126462488e+000	 9.522029390276037e+000
 1.108099750610596e+000	 1.694915910196563e+000	 9.540458390586087e+000
 1.292111159142748e+000	 1.591524034522806e+000	 1.104605149628606e+001
 1.275610413579115e+000	 1.604779758344124e+000	 1.108157074369346e+001
 1.258983504093854e+000	 1.617856772530227e+000	 1.116279219905364e+001
 1.242233325377819e+000	 1.630753312216591e+000	 1.104670778187420e+001
 1.225362804159370e+000	 1.643467674812022e+000	 1.069958363347233e+001
 1.208374897537865e+000	 1.655998220698612e+000	 1.040620939648285e+001
 1.191272591299802e+000	 1.668343373878515e+000	 1.016701288134885e+001
 1.174058898219596e+000	 1.680501622567026e+000	 9.982340352954697e+000
 1.156736856346969e+000	 1.692471519731658e+000	 9.852456588440095e+000
 1.139309527282936e+000	 1.704251683576865e+000	 9.777545082442472e+000
 1.121779994446377e+000	 1.715840797974247e+000	 9.757708398040501e+000
 1.307868612304539e+000	 1.610932864212123e+000	 1.107927538861646e+001
 1.291166638136952e+000	 1.624350243201763e+000	 1.109449187200681e+001
 1.274336961463199e+000	 1.637586733170410e+000	 1.115393537102717e+001
 1.257382512275241e+000	 1.650640547730803e+000	 1.125792432443274e+001
 1.240306252993249e+000	 1.663509963528439e+000	 1.110582483496172e+001
 1.223111176778767e+000	 1.676193320950074e+000	 1.077544882464837e+001
 1.205800305830324e+000	 1.688689024778369e+000	 1.049902153569246e+001
 1.188376689663488e+000	 1.700995544792228e+000	 1.027690491793052e+001
 1.170843403377367e+000	 1.713111416312419e+000	 1.010937841201042e+001
 1.153203545909575e+000	 1.725035240692236e+000	 9.996639148374307e+000
 1.135460238281661e+000	 1.736765685752931e+000	 9.938802294822779e+000
 1.323626065465828e+000	 1.630341693901942e+000	 1.107663527721912e+001
 1.306722862694197e+000	 1.643920728059998e+000	 1.107082890243227e+001
 1.289690418831883e+000	 1.657316693811274e+000	 1.110777329150160e+001
 1.272531699171953e+000	 1.670527783245771e+000	 1.118781212636294e+001
 1.255249701826388e+000	 1.683552252245678e+000	 1.131126866963065e+001
 1.237847456018920e+000	 1.696388421202410e+000	 1.110645092062783e+001
 1.220328020360108e+000	 1.709034675679144e+000	 1.079272370918516e+001
 1.202694481106672e+000	 1.721489467018384e+000	 1.053317918582771e+001
 1.184949950407108e+000	 1.733751312894161e+000	 1.032811146864720e+001
 1.167097564535627e+000	 1.745818797808602e+000	 1.017773125058848e+001
 1.149140482116448e+000	 1.757690573532615e+000	 1.008216614421296e+001
 1.339383518626616e+000	 1.649750523592262e+000	 1.104041151192614e+001
 1.322279087250852e+000	 1.663491212918830e+000	 1.101285664632707e+001
 1.305043876199906e+000	 1.677046654452820e+000	 1.102657269950870e+001
 1.287680886067954e+000	 1.690415018761495e+000	 1.108192976800243e+001
 1.270193150658786e+000	 1.703594540963737e+000	 1.117928011082006e+001
 1.252583735258323e+000	 1.716583521455622e+000	 1.131895690139011e+001
 1.234855734889153e+000	 1.729380326580840e+000	 1.104652535871901e+001
 1.217012272549147e+000	 1.741983389245495e+000	 1.074957682144905e+001
 1.199056497436191e+000	 1.754391209476883e+000	 1.050707669353254e+001
 1.180991583161090e+000	 1.766602354925964e+000	 1.031924915744386e+001
 1.162820725950737e+000	 1.778615461313300e+000	 1.018623411075378e+001
 1.355140971786903e+000	 1.669159353283084e+000	 1.097289479285764e+001
 1.337835311806915e+000	 1.683061697778258e+000	 1.092285972549074e+001
 1.320397333567268e+000	 1.696776615095046e+000	 1.091260966405429e+001
 1.302830072963244e+000	 1.710302254277975e+000	 1.094254230945078e+001
 1.285136599490445e+000	 1.723636829682618e+000	 1.101304015201680e+001
 1.267320014496976e+000	 1.736778621709710e+000	 1.112446914683260e+001
 1.249383449417458e+000	 1.749725977483456e+000	 1.125884044489494e+001
 1.231330063990914e+000	 1.762477311473562e+000	 1.092451931076824e+001
 1.213163044464615e+000	 1.775031106060585e+000	 1.064470272000966e+001
 1.194885601785967e+000	 1.787385912044320e+000	 1.041962827187139e+001
 1.176500969784529e+000	 1.799540349094984e+000	 1.024944798924759e+001
 1.370898424946689e+000	 1.688568182974407e+000	 1.087638557557736e+001
 1.353391536362387e+000	 1.702632182638281e+000	 1.080313200834703e+001
 1.335750790933969e+000	 1.716506575737954e+000	 1.076816904791239e+001
 1.317979259857824e+000	 1.730189489795211e+000	 1.077192320779869e+001
 1.300080048321363e+000	 1.743679118402319e+000	 1.081480846508555e+001
 1.282056293734880e+000	 1.756973721964673e+000	 1.089722485675600e+001
 1.263911163945025e+000	 1.770071628386993e+000	 1.101955704662609e+001
 1.245647855431973e+000	 1.782971233702584e+000	 1.105643551143722e+001
 1.227269591492382e+000	 1.795671002645267e+000	 1.073942543715982e+001
 1.208779620410256e+000	 1.808169469163672e+000	 1.047731119260573e+001
 1.190181213617824e+000	 1.820465236877668e+000	 1.027025676623505e+001
 1.386655878105973e+000	 1.707977012666231e+000	 1.075319351680626e+001
 1.368947760917268e+000	 1.722202667498902e+000	 1.065597608456710e+001
 1.351104248300009e+000	 1.736236536381543e+000	 1.059554400797976e+001
 1.333128446751693e+000	 1.750076725313203e+000	 1.057235384002637e+001
 1.315023497151541e+000	 1.763721407122842e+000	 1.058685232051245e+001
 1.296792572972034e+000	 1.777168822220513e+000	 1.063947489108350e+001
 1.278438878471853e+000	 1.790417279291451e+000	 1.073064417566019e+001
 1.259965646872324e+000	 1.803465155932562e+000	 1.086076843133239e+001
 1.241376138519492e+000	 1.816310899230930e+000	 1.078968757754434e+001
 1.222673639033957e+000	 1.828953026284018e+000	 1.049074730533267e+001
 1.203861457450621e+000	 1.841390124661353e+000	 1.024711621137400e+001
 1.402413331264755e+000	 1.727385842358557e+000	 1.060563695750366e+001
 1.384503985471558e+000	 1.741773152360119e+000	 1.048370277511220e+001
 1.366457705665388e+000	 1.755966497025814e+000	 1.039703552931368e+001
 1.348277633644852e+000	 1.769963960831952e+000	 1.034612305806565e+001
 1.329966945980980e+000	 1.783763695844185e+000	 1.033144616051639e+001
 1.311528852208439e+000	 1.797363922477228e+000	 1.035347702827826e+001
 1.292966592997942e+000	 1.810762930196829e+000	 1.041267763685694e+001
 1.274283438311966e+000	 1.823959078163494e+000	 1.050949810253324e+001
 1.255482685545943e+000	 1.836950795817572e+000	 1.064437501014202e+001
 1.236567657657072e+000	 1.849736583405360e+000	 1.045839240139947e+001
 1.217541701282921e+000	 1.862315012446037e+000	 1.017848849636538e+001
 1.418170784423037e+000	 1.746794672051384e+000	 1.043604244040938e+001
 1.400060210025256e+000	 1.761343637221932e+000	 1.028863067493933e+001
 1.381811163030106e+000	 1.775696457670766e+000	 1.017495199023412e+001
 1.363426820537300e+000	 1.789851196351457e+000	 1.009552677352513e+001
 1.344910394809678e+000	 1.803805984566350e+000	 1.005087120061912e+001
 1.326265131444095e+000	 1.817559022734820e+000	 1.004149558098095e+001
 1.307494307523293e+000	 1.831108581103128e+000	 1.006790265760147e+001
 1.288601229750901e+000	 1.844453000395383e+000	 1.013058586721650e+001
 1.269589232571737e+000	 1.857590692405196e+000	 1.023002756659673e+001
 1.250461676279599e+000	 1.870520140527698e+000	 1.036669723076803e+001
 1.231221945114724e+000	 1.883239900231722e+000	 1.012898746824296e+001
 1.094419506774317e+000	 1.673991022419878e+000	 9.288634816771388e+000
 1.077220840323977e+000	 1.685109866189261e+000	 9.268071297255659e+000
 1.059928536361034e+000	 1.696039945806038e+000	 9.236449244987863e+000
 1.042545656746593e+000	 1.706780171423916e+000	 9.193889791257265e+000
 1.025075277809822e+000	 1.717329518407680e+000	 9.140501813401613e+000
 1.007520488639881e+000	 1.727687027486658e+000	 9.076382102093268e+000
 9.898843893801801e-001	 1.737851804855421e+000	 9.001615575612908e+000
 9.721700895268447e-001	 1.747823022222098e+000	 8.916275539545863e+000
 9.543807062332069e-001	 1.757599916804693e+000	 8.820423990205974e+000
 9.365193626221513e-001	 1.767181791275909e+000	 8.714111959962366e+000
 9.185891861080785e-001	 1.776568013657048e+000	 8.597379902533101e+000
 1.108099750610596e+000	 1.694915910196563e+000	 9.540458390586087e+000
 1.090686100828744e+000	 1.706173739513039e+000	 9.482347042344953e+000
 1.073177643065515e+000	 1.717240445125080e+000	 9.419237292602217e+000
 1.055577477455279e+000	 1.728114923563312e+000	 9.351232810901834e+000
 1.037888718781318e+000	 1.738796137384582e+000	 9.278418840782750e+000
 1.020114494746405e+000	 1.749283115327332e+000	 9.200862448702399e+000
 1.002257944245742e+000	 1.759574952413566e+000	 9.118612828381902e+000
 9.843222156441568e-001	 1.769670809997763e+000	 9.031701658746318e+000
 9.663104650593971e-001	 1.779569915763153e+000	 8.940143513482756e+000
 9.482258546533831e-001	 1.789271563665848e+000	 8.843936320100015e+000
 9.300715509331942e-001	 1.798775113827414e+000	 8.743061866242840e+000
 1.121779994446377e+000	 1.715840797974247e+000	 9.757708398040501e+000
 1.104151361333108e+000	 1.727237612837812e+000	 9.662353595788744e+000
 1.086426749769679e+000	 1.738440944445100e+000	 9.567990476045919e+000
 1.068609298163723e+000	 1.749449675703662e+000	 9.474705454341857e+000
 1.050702159752635e+000	 1.760262756362402e+000	 9.382560359882934e+000
 1.032708500852804e+000	 1.770879203168879e+000	 9.291592766075354e+000
 1.014631499111225e+000	 1.781298099972527e+000	 9.201816384929197e+000
 9.964743417614247e-001	 1.791518597774180e+000	 9.113221523251276e+000
 9.782402238855679e-001	 1.801539914722290e+000	 9.025775598369256e+000
 9.599323466846095e-001	 1.811361336056377e+000	 8.939423710974728e+000
 9.415539157583097e-001	 1.820982213998275e+000	 8.854089272529881e+000
 1.135460238281661e+000	 1.736765685752931e+000	 9.938802294822779e+000
 1.117616621837070e+000	 1.748301486163579e+000	 9.806515722538657e+000
 1.099675856473525e+000	 1.759641443766101e+000	 9.681145929542076e+000
 1.081641118871923e+000	 1.770784427844967e+000	 9.562762262970926e+000
 1.063515600723775e+000	 1.781729375341141e+000	 9.451403331605407e+000
 1.045302506959081e+000	 1.792475291011298e+000	 9.347077418003774e+000
 1.027005053976629e+000	 1.803021247532307e+000	 9.249762963005018e+000
 1.008626467878648e+000	 1.813366385551350e+000	 9.159409120240971e+000
 9.901699827117186e-001	 1.823509913682103e+000	 9.075936378118445e+000
 9.716388387158311e-001	 1.833451108447498e+000	 8.999237246562290e+000
 9.530362805834256e-001	 1.843189314169633e+000	 8.929177005652340e+000
 1.149140482116448e+000	 1.757690573532615e+000	 1.008216614421296e+001
 1.131081882340630e+000	 1.769365359490342e+000	 9.913266786939214e+000
 1.112924963177054e+000	 1.780841943088082e+000	 9.757149177027268e+000
 1.094672939579881e+000	 1.792119179987225e+000	 9.613865757521573e+000
 1.076329041694736e+000	 1.803195994320799e+000	 9.483432086031753e+000
 1.057896513065233e+000	 1.814071378854591e+000	 9.365827328540465e+000
 1.039378608841954e+000	 1.824744395092904e+000	 9.260994834095479e+000
 1.020778593995827e+000	 1.835214173329271e+000	 9.168842787763950e+000
 1.002099741537850e+000	 1.845479912642593e+000	 9.089244939023143e+000
 9.833453307470480e-001	 1.855540880839210e+000	 9.022041402582310e+000
 9.645186454085410e-001	 1.865396414341487e+000	 8.967039528454800e+000
 1.162820725950737e+000	 1.778615461313300e+000	 1.018623411075378e+001
 1.144547142843787e+000	 1.790429232818099e+000	 9.981048246881221e+000
 1.126174069880265e+000	 1.802042442411042e+000	 9.794453638638771e+000
 1.107704760287596e+000	 1.813453932130438e+000	 9.626485968692517e+000
 1.089142482665519e+000	 1.824662613301375e+000	 9.477137888941384e+000
 1.070490519171262e+000	 1.835667466698757e+000	 9.346359596101827e+000
 1.051752163707200e+000	 1.846467542654318e+000	 9.234059496732328e+000
 1.032930720112962e+000	 1.857061961107944e+000	 9.140104958803557e+000
 1.014029500363961e+000	 1.867449911603759e+000	 9.064323146707395e+000
 9.950518227782601e-001	 1.877630653231514e+000	 9.013533537275318e+000
 9.760010102336569e-001	 1.887603514513837e+000	 8.995732899267434e+000
 1.176500969784529e+000	 1.799540349094984e+000	 1.024944798924759e+001
 1.158012403346542e+000	 1.811493106146852e+000	 1.000830918324679e+001
 1.139423176583158e+000	 1.823242941734981e+000	 9.791520171633207e+000
 1.120736580995068e+000	 1.834788684274606e+000	 9.599100000522729e+000
 1.101955923636123e+000	 1.846129232282870e+000	 9.431018538572547e+000
 1.083084525277168e+000	 1.857263554543796e+000	 9.287197134493319e+000
 1.064125718572367e+000	 1.868190690216550e+000	 9.167509372594781e+000
 1.045082846230052e+000	 1.878909748887368e+000	 9.086351513820636e+000
 1.025959259190053e+000	 1.889419910565602e+000	 9.048837611074712e+000
 1.006758314809467e+000	 1.899720425624409e+000	 9.026727027584846e+000
 9.874833750587725e-001	 1.909810614686682e+000	 9.019222240950869e+000
 1.190181213617824e+000	 1.820465236877668e+000	 1.027025676623505e+001
 1.171477663848894e+000	 1.832556979476599e+000	 9.993505861806243e+000
 1.152672283285734e+000	 1.844443441059900e+000	 9.746816642965870e+000
 1.133768401702297e+000	 1.856123436419727e+000	 9.530191623877595e+000
 1.114769364606549e+000	 1.867595851265283e+000	 9.343577990194252e+000
 1.095678531382950e+000	 1.878859642389709e+000	 9.205475526148433e+000
 1.076499273437455e+000	 1.889913837779600e+000	 9.127320838522756e+000
 1.057234972347098e+000	 1.900757536667545e+000	 9.070494350254881e+000
 1.037889018016125e+000	 1.911389909528121e+000	 9.034112487106574e+000
 1.018464806840669e+000	 1.921810198017894e+000	 9.017307635462347e+000
 9.989657398838883e-001	 1.932017714860024e+000	 9.019228687745558e+000
 1.203861457450621e+000	 1.841390124661353e+000	 1.024711621137400e+001
 1.184942924350843e+000	 1.853620852807342e+000	 9.935101324985933e+000
 1.165921389987992e+000	 1.865643940385799e+000	 9.658817531012339e+000
 1.146800222409283e+000	 1.877458188565803e+000	 9.432860806735508e+000
 1.127582805576798e+000	 1.889062470248616e+000	 9.293116340263797e+000
 1.108272537488608e+000	 1.900455730236494e+000	 9.180761790217904e+000
 1.088872828302464e+000	 1.911636985343467e+000	 9.094840339034427e+000
 1.069387098464100e+000	 1.922605324448474e+000	 9.034407351843505e+000
 1.049818776842178e+000	 1.933359908491317e+000	 8.998531114384909e+000
 1.030171298871866e+000	 1.943899970411971e+000	 8.986293508195971e+000
 1.010448104709004e+000	 1.954224815033862e+000	 8.996790623446533e+000
 1.217541701282921e+000	 1.862315012446037e+000	 1.017848849636538e+001
 1.198408184852391e+000	 1.874684726139078e+000	 9.831565011157235e+000
 1.179170496689933e+000	 1.886844439712678e+000	 9.607110461389857e+000
 1.159832043116027e+000	 1.898792940712833e+000	 9.418440471956451e+000
 1.140396246546868e+000	 1.910529089232866e+000	 9.262306347485884e+000
 1.120866543594143e+000	 1.922051818084153e+000	 9.137699522536021e+000
 1.101246383167394e+000	 1.933360132908152e+000	 9.043620351555177e+000
 1.081539224581057e+000	 1.944453112230155e+000	 8.979078972349502e+000
 1.061748535668210e+000	 1.955329907455190e+000	 8.943096107797020e+000
 1.041877790903059e+000	 1.965989742806639e+000	 8.934703805894152e+000
 1.021930469534119e+000	 1.976431915208196e+000	 8.952946118415557e+000
 1.231221945114724e+000	 1.883239900231722e+000	 1.012898746824296e+001
 1.211873445353537e+000	 1.895748599471812e+000	 9.843321228879141e+000
 1.192419603391557e+000	 1.908044939040537e+000	 9.596371815799596e+000
 1.172863863822528e+000	 1.920127692860818e+000	 9.387080477661858e+000
 1.153209687516760e+000	 1.931995708218037e+000	 9.214392987071449e+000
 1.133460549699555e+000	 1.943647905932685e+000	 9.077260686158228e+000
 1.113619938032246e+000	 1.955083280473654e+000	 8.974641472045223e+000
 1.093691350697970e+000	 1.966300900012589e+000	 8.905500721788929e+000
 1.073678294494223e+000	 1.977299906419739e+000	 8.868812156583051e+000
 1.053584282934247e+000	 1.988079515201899e+000	 8.863558645218205e+000
 1.033412834359236e+000	 1.998639015383027e+000	 8.888732946993949e+000
 9.185891861080785e-001	 1.776568013657048e+000	 8.597379902533101e+000
 9.005933067305993e-001	 1.785758017161617e+000	 8.368134626789505e+000
 8.825348555005111e-001	 1.794751299989325e+000	 8.159374147636941e+000
 8.644169627606548e-001	 1.803547425071165e+000	 7.970535211664235e+000
 8.462427565638451e-001	 1.812146019766516e+000	 7.801024128256219e+000
 8.280153610683624e-001	 1.820546775513088e+000	 7.650218184093410e+000
 8.097378949529320e-001	 1.828749447430661e+000	 7.517467099943493e+000
 7.914134698526782e-001	 1.836753853879596e+000	 7.402094525619260e+000
 7.730451888174862e-001	 1.844559875975170e+000	 7.303399568940696e+000
 7.546361447941521e-001	 1.852167457058817e+000	 7.220658354518822e+000
 7.361894191336470e-001	 1.859576602127425e+000	 7.153125608168232e+000
 9.300715509331942e-001	 1.798775113827414e+000	 8.743061866242840e+000
 9.118507230638300e-001	 1.808079992376415e+000	 8.516982849345789e+000
 8.935665411936159e-001	 1.817185691239944e+000	 8.311430611269591e+000
 8.752221747946792e-001	 1.826091767885635e+000	 8.125856433267447e+000
 8.568207910204952e-001	 1.834797845014858e+000	 7.959680252887643e+000
 8.383655530813229e-001	 1.843303610208293e+000	 7.812292091283116e+000
 8.198596186393722e-001	 1.851608815524722e+000	 7.683053524686483e+000
 8.013061382252069e-001	 1.859713277054009e+000	 7.571299195833102e+000
 7.827082536768364e-001	 1.867616874425373e+000	 7.476338361072147e+000
 7.640690966028920e-001	 1.875319550272017e+000	 7.396929637960994e+000
 7.453917868712325e-001	 1.882821309653291e+000	 7.317935116020446e+000
 9.415539157583097e-001	 1.820982213998275e+000	 8.854089272529881e+000
 9.231081393970605e-001	 1.830401967591619e+000	 8.633178188342884e+000
 9.045982268867207e-001	 1.839620082490901e+000	 8.432901732436482e+000
 8.860273868287039e-001	 1.848636110700394e+000	 8.252724229266107e+000
 8.673988254771454e-001	 1.857449670263458e+000	 8.092077697823912e+000
 8.487157450942833e-001	 1.866060444903750e+000	 7.950363294191629e+000
 8.299813423258124e-001	 1.874468183619044e+000	 7.826952800194382e+000
 8.111988065977355e-001	 1.882672700228715e+000	 7.714444920338001e+000
 7.923713185361867e-001	 1.890673872875919e+000	 7.612344689562124e+000
 7.735020484116318e-001	 1.898471643485632e+000	 7.520130545771417e+000
 7.545941546088181e-001	 1.906066017179662e+000	 7.437036307367864e+000
 9.530362805834256e-001	 1.843189314169633e+000	 8.929177005652340e+000
 9.343655557302909e-001	 1.852723942807229e+000	 8.715405762026101e+000
 9.156299125798257e-001	 1.862054473742195e+000	 8.522442735358299e+000
 8.968325988627283e-001	 1.871180453515439e+000	 8.349763813599243e+000
 8.779768599337955e-001	 1.880101495512317e+000	 8.198698997848391e+000
 8.590659371072438e-001	 1.888817279599455e+000	 8.062797539272182e+000
 8.401030660122525e-001	 1.897327551713629e+000	 7.938432483004458e+000
 8.210914749702644e-001	 1.905632123403714e+000	 7.824811572406981e+000
 8.020343833955367e-001	 1.913730871326810e+000	 7.721161132075972e+000
 7.829350002203717e-001	 1.921623736699661e+000	 7.626726241889382e+000
 7.637965223464035e-001	 1.929310724706538e+000	 7.540770862368956e+000
 9.645186454085410e-001	 1.865396414341487e+000	 8.967039528454800e+000
 9.456229720635219e-001	 1.875045918023246e+000	 8.762429209879718e+000
 9.266615982729306e-001	 1.884488864993826e+000	 8.591180641350151e+000
 9.076378108967530e-001	 1.893724796330773e+000	 8.433132618401677e+000
 8.885548943904457e-001	 1.902753320761436e+000	 8.287460427434299e+000
 8.694161291202042e-001	 1.911574114295412e+000	 8.153358594565198e+000
 8.502247896986925e-001	 1.920186919808475e+000	 8.030041159722982e+000
 8.309841433427928e-001	 1.928591546579005e+000	 7.916741895687620e+000
 8.116974482548865e-001	 1.936787869778045e+000	 7.812714473550813e+000
 7.923679520291116e-001	 1.944775829914106e+000	 7.717232576188941e+000
 7.729988900839893e-001	 1.952555432233920e+000	 7.629589961449486e+000
 9.760010102336569e-001	 1.887603514513837e+000	 8.995732899267434e+000
 9.568803883967524e-001	 1.897367893239669e+000	 8.816586890988113e+000
 9.376932839660355e-001	 1.906923256245794e+000	 8.650645478699099e+000
 9.184430229307775e-001	 1.916269139146395e+000	 8.497084730979982e+000
 8.991329288470957e-001	 1.925405146010814e+000	 8.355101194392692e+000
 8.797663211331648e-001	 1.934330948991620e+000	 8.223912171206012e+000
 8.603465133851327e-001	 1.943046287903583e+000	 8.102755938413061e+000
 8.408768117153217e-001	 1.951550969754590e+000	 7.990891909549173e+000
 8.213605131142369e-001	 1.959844868229625e+000	 7.887600740947786e+000
 8.018009038378514e-001	 1.967927923128965e+000	 7.792184384192329e+000
 7.822012578215748e-001	 1.975800139761806e+000	 7.703966086631610e+000
 9.874833750587725e-001	 1.909810614686682e+000	 9.019222240950869e+000
 9.681378047299829e-001	 1.919689868456498e+000	 8.847281377265059e+000
 9.487249696591404e-001	 1.929357647498098e+000	 8.687706369768206e+000
 9.292482349648019e-001	 1.938813481962305e+000	 8.539692506948187e+000
 9.097109633037459e-001	 1.948056971260450e+000	 8.402457153630023e+000
 8.901165131461254e-001	 1.957087783688078e+000	 8.275239975656829e+000
 8.704682370715728e-001	 1.965905655998953e+000	 8.157303103500802e+000
 8.507694800878504e-001	 1.974510392930468e+000	 8.047931236473712e+000
 8.310235779735868e-001	 1.982901866681547e+000	 7.946431689339188e+000
 8.112338556465911e-001	 1.991080016344239e+000	 7.852134383253062e+000
 7.914036255591603e-001	 1.999044847290198e+000	 7.764391783068918e+000
 9.989657398838883e-001	 1.932017714860024e+000	 9.019228687745558e+000
 9.793952210632133e-001	 1.942011843673734e+000	 8.855504434671214e+000
 9.597566553522451e-001	 1.951792038750740e+000	 8.703306765041820e+000
 9.400534469988268e-001	 1.961357824778503e+000	 8.561849744989079e+000
 9.202889977603959e-001	 1.970708796510347e+000	 8.430371145839702e+000
 9.004667051590858e-001	 1.979844618384786e+000	 8.308132615442993e+000
 8.805899607580130e-001	 1.988765024094585e+000	 8.194419786005684e+000
 8.606621484603789e-001	 1.997469816106639e+000	 8.088542320268516e+000
 8.406866428329369e-001	 2.005958865133815e+000	 7.989833897994398e+000
 8.206668074553311e-001	 2.014232109559928e+000	 7.897652144864623e+000
 8.006059932967459e-001	 2.022289554819095e+000	 7.811378505992757e+000
 1.010448104709004e+000	 1.954224815033862e+000	 8.996790623446533e+000
 9.906526373964438e-001	 1.964333818891375e+000	 8.842249179664837e+000
 9.707883410453504e-001	 1.974226430003719e+000	 8.698393180492541e+000
 9.508586590328513e-001	 1.983902167594988e+000	 8.564455055717392e+000
 9.308670322170459e-001	 1.993360621760502e+000	 8.439692600582283e+000
 9.108168971720463e-001	 2.002601453081745e+000	 8.323389093410620e+000
 8.907116844444534e-001	 2.011624392190479e+000	 8.214853347256572e+000
 8.705548168329077e-001	 2.020429239283104e+000	 8.113419697581261e+000
 8.503497076922872e-001	 2.029015863586428e+000	 8.018447928095704e+000
 8.300997592640709e-001	 2.037384202776032e+000	 7.929323137038834e+000
 8.098083610343312e-001	 2.045534262348497e+000	 7.845455546276299e+000
 1.021930469534119e+000	 1.976431915208196e+000	 8.952946118415557e+000
 1.001910053729674e+000	 1.986655794109423e+000	 8.808510003330900e+000
 9.818200267384550e-001	 1.996660821257034e+000	 8.673915025362362e+000
 9.616638710668757e-001	 2.006446510411762e+000	 8.548411591346467e+000
 9.414450666736963e-001	 2.016012447010916e+000	 8.431277166124486e+000
 9.211670891850069e-001	 2.025358287778955e+000	 8.321816336079628e+000
 9.008334081308934e-001	 2.034483760286634e+000	 8.219360804155480e+000
 8.804474852054364e-001	 2.043388662459861e+000	 8.123269318527294e+000
 8.600127725516371e-001	 2.052072862039383e+000	 8.032927537237660e+000
 8.395327110728107e-001	 2.060536295992551e+000	 7.947747831242838e+000
 8.190107287719169e-001	 2.068778969878404e+000	 7.867169028431943e+000
 1.033412834359236e+000	 1.998639015383027e+000	 8.888732946993949e+000
 1.013167470062905e+000	 2.008977769327879e+000	 8.755282500568846e+000
 9.928517124315605e-001	 2.019095212510688e+000	 8.630824441425846e+000
 9.724690831009006e-001	 2.028990853228824e+000	 8.514626793377284e+000
 9.520231011303467e-001	 2.038664272261591e+000	 8.405986363955504e+000
 9.315172811979676e-001	 2.048115122476415e+000	 8.304228753439224e+000
 9.109551318173340e-001	 2.057343128383052e+000	 8.208708292756707e+000
 8.903401535779654e-001	 2.066348085636912e+000	 8.118807912607869e+000
 8.696758374109875e-001	 2.075129860492684e+000	 8.033938946293176e+000
 8.489656628815507e-001	 2.083688389209485e+000	 7.953540868874262e+000
 8.282130965095028e-001	 2.092023677408817e+000	 7.877080975409346e+000
 7.361894191336470e-001	 1.859576602127425e+000	 7.153125608168232e+000
 7.177080801244898e-001	 1.866787377221733e+000	 7.078111235034524e+000
 6.991951815543979e-001	 1.873799908775373e+000	 7.006519347014211e+000
 6.806537613005028e-001	 1.880614382925689e+000	 6.920493328124037e+000
 6.620868399488499e-001	 1.887231044787306e+000	 6.828876748890602e+000
 6.434974194451190e-001	 1.893650197690125e+000	 6.734485269423342e+000
 6.248884817771947e-001	 1.899872202382971e+000	 6.636840493481219e+000
 6.062629876904960e-001	 1.905897476204296e+000	 6.511363947905278e+000
 5.876238754369109e-001	 1.911726492221324e+000	 6.360579254260867e+000
 5.689740595581225e-001	 1.917359778339053e+000	 6.187108515246616e+000
 5.503164297040443e-001	 1.922797916380548e+000	 5.993409034365235e+000
 7.453917868712325e-001	 1.882821309653291e+000	 7.317935116020446e+000
 7.266794311240886e-001	 1.890122219435584e+000	 7.235336505964221e+000
 7.079351213216277e-001	 1.897222407633088e+000	 7.151257083767419e+000
 6.891619333144454e-001	 1.904122062709863e+000	 7.065215527067569e+000
 6.703629254459111e-001	 1.910821432844467e+000	 6.976752912541397e+000
 6.515411371860250e-001	 1.917320825158422e+000	 6.885432409821699e+000
 6.326995877975198e-001	 1.923620604909912e+000	 6.790838938195531e+000
 6.138412750351310e-001	 1.929721194654120e+000	 6.669883813326304e+000
 5.949691738788937e-001	 1.935623073371611e+000	 6.514819424416900e+000
 5.760862353022618e-001	 1.941326775566192e+000	 6.339905411381808e+000
 5.571953850757716e-001	 1.946832890333715e+000	 6.147693856167437e+000
 7.545941546088181e-001	 1.906066017179662e+000	 7.437036307367864e+000
 7.356507821236820e-001	 1.913457061650030e+000	 7.357131056704295e+000
 7.166750610888373e-001	 1.920644906491468e+000	 7.275695740009387e+000
 6.976701053283415e-001	 1.927629742494751e+000	 7.192234610464629e+000
 6.786390109428900e-001	 1.934411820902369e+000	 7.106275416484861e+000
 6.595848549268033e-001	 1.940991452627468e+000	 7.017369073832848e+000
 6.405106938176609e-001	 1.947369007437591e+000	 6.925089298924152e+000
 6.214195623795156e-001	 1.953544913104651e+000	 6.819199412807238e+000
 6.023144723205511e-001	 1.959519654522554e+000	 6.657854939044215e+000
 5.831984110459901e-001	 1.965293772793915e+000	 6.479665939315963e+000
 5.640743404469928e-001	 1.970867864287377e+000	 6.287282547872943e+000
 7.637965223464035e-001	 1.929310724706538e+000	 7.540770862368956e+000
 7.446221331232706e-001	 1.936791903865071e+000	 7.462932529102365e+000
 7.254150008560258e-001	 1.944067405350511e+000	 7.383506025940529e+000
 7.061782773421913e-001	 1.951137422280350e+000	 7.301981768495507e+000
 6.869150964397871e-001	 1.958002208961012e+000	 7.217874783157872e+000
 6.676285726674532e-001	 1.964662080097262e+000	 7.130724356098605e+000
 6.483217998376180e-001	 1.971117409966007e+000	 7.040093641854782e+000
 6.289978497236505e-001	 1.977368631555889e+000	 6.945569233992835e+000
 6.096597707618825e-001	 1.983416235674150e+000	 6.789652968566007e+000
 5.903105867893070e-001	 1.989260770022221e+000	 6.606313555341824e+000
 5.709532958177076e-001	 1.994902838241532e+000	 6.412057600412588e+000
 7.729988900839893e-001	 1.952555432233920e+000	 7.629589961449486e+000
 7.535934841228538e-001	 1.960126746080707e+000	 7.553192925079382e+000
 7.341549406231938e-001	 1.967489904210219e+000	 7.475139991709019e+000
 7.146864493559950e-001	 1.974645102066663e+000	 7.394908334177591e+000
 6.951911819366018e-001	 1.981592597020396e+000	 7.312000871630280e+000
 6.756722904079749e-001	 1.988332707567807e+000	 7.225945894075577e+000
 6.561329058573908e-001	 1.994865812495162e+000	 7.136296644903540e+000
 6.365761370675355e-001	 2.001192350007833e+000	 7.042630863971565e+000
 6.170050692028887e-001	 2.007312816826402e+000	 6.910196921693441e+000
 5.974227625322132e-001	 2.013227767251113e+000	 6.719787212324989e+000
 5.778322511879159e-001	 2.018937812196181e+000	 6.521916273187921e+000
 7.822012578215748e-001	 1.975800139761806e+000	 7.703966086631610e+000
 7.625648351224317e-001	 1.983461588296937e+000	 7.628384756001631e+000
 7.428948803903412e-001	 1.990912403070590e+000	 7.551069415604480e+000
 7.231946213697521e-001	 1.998152781853689e+000	 7.471484598492351e+000
 7.034672674333341e-001	 2.005182985080521e+000	 7.389121740155618e+000
 6.837160081483688e-001	 2.012003335039101e+000	 7.303498777281528e+000
 6.639440118769798e-001	 2.018614215025054e+000	 7.214159702832803e+000
 6.441544244111707e-001	 2.025016068460483e+000	 7.120674080172242e+000
 6.243503676435689e-001	 2.031209397979309e+000	 7.019485490231983e+000
 6.045349382747081e-001	 2.037194764480588e+000	 6.820040448140747e+000
 5.847112065576183e-001	 2.042972786151324e+000	 6.616769725337907e+000
 7.914036255591603e-001	 1.999044847290198e+000	 7.764391783068918e+000
 7.715361861220045e-001	 2.006796430513762e+000	 7.688999850271180e+000
 7.516348201574682e-001	 2.014334901931625e+000	 7.611784657072832e+000
 7.317027933834631e-001	 2.021660461641427e+000	 7.532198708178255e+000
 7.117433529299846e-001	 2.028773373141388e+000	 7.449722588079484e+000
 6.917597258886346e-001	 2.035673962511146e+000	 7.363864532640274e+000
 6.717551178963847e-001	 2.042362617555685e+000	 7.274159955341448e+000
 6.517327117545559e-001	 2.048839786913839e+000	 7.180170931035369e+000
 6.316956660839234e-001	 2.055105979132870e+000	 7.081485640087666e+000
 6.116471140167921e-001	 2.061161761710647e+000	 6.907040537708439e+000
 5.915901619268141e-001	 2.067007760106961e+000	 6.696542207614478e+000
 8.006059932967459e-001	 2.022289554819095e+000	 7.811378505992757e+000
 7.805075371215724e-001	 2.030131272731183e+000	 7.735548243151183e+000
 7.603747599245743e-001	 2.037757400793325e+000	 7.657793588833952e+000
 7.402109653971276e-001	 2.045168141429878e+000	 7.577555639537878e+000
 7.200194384265527e-001	 2.052363761202995e+000	 7.494304770719041e+000
 6.998034436287721e-001	 2.059344589983938e+000	 7.407540179803612e+000
 6.795662239156055e-001	 2.066111020087052e+000	 7.316789382183470e+000
 6.593109990976912e-001	 2.072663505367901e+000	 7.221607663168953e+000
 6.390409645239524e-001	 2.079002560287087e+000	 7.121577488904010e+000
 6.187592897584647e-001	 2.085128758941291e+000	 6.980767703506120e+000
 5.984691172955038e-001	 2.091042734063091e+000	 6.761170309990961e+000
 8.098083610343312e-001	 2.045534262348497e+000	 7.845455546276299e+000
 7.894788881211350e-001	 2.053466114949198e+000	 7.768557142285311e+000
 7.691146996916598e-001	 2.061179899655689e+000	 7.689620601809084e+000
 7.487191374107460e-001	 2.068675821219042e+000	 7.608076242212550e+000
 7.282955239230390e-001	 2.075954149265344e+000	 7.523384881410127e+000
 7.078471613687817e-001	 2.083015217457482e+000	 7.435037350882473e+000
 6.873773299346423e-001	 2.089859422619158e+000	 7.342553959982983e+000
 6.668892864405766e-001	 2.096487223822670e+000	 7.245483914634436e+000
 6.463862629636560e-001	 2.102899141441958e+000	 7.143404693550822e+000
 6.258714654997264e-001	 2.109095756172518e+000	 7.035921385138190e+000
 6.053480726636872e-001	 2.115077708019714e+000	 6.810602260570028e+000
 8.190107287719169e-001	 2.068778969878404e+000	 7.867169028431943e+000
 7.984502391206926e-001	 2.076800957167808e+000	 7.788569962957223e+000
 7.778546394587247e-001	 2.084602398518716e+000	 7.707805677132233e+000
 7.572273094243177e-001	 2.092183501008918e+000	 7.624296347421939e+000
 7.365716094194428e-001	 2.099544537328435e+000	 7.537493895438812e+000
 7.158908791086629e-001	 2.106685844931774e+000	 7.446881469522166e+000
 6.951884359534952e-001	 2.113607825152002e+000	 7.351972875893403e+000
 6.744675737832122e-001	 2.120310942278145e+000	 7.252311962618009e+000
 6.537315614030341e-001	 2.126795722597485e+000	 7.147471959644509e+000
 6.329836412405768e-001	 2.133062753404329e+000	 7.037054778206915e+000
 6.122270280313643e-001	 2.139112681976832e+000	 6.844797271756298e+000
 8.282130965095028e-001	 2.092023677408817e+000	 7.877080975409346e+000
 8.074215901202451e-001	 2.100135799387014e+000	 7.796145427666196e+000
 7.865945792257691e-001	 2.108024897382408e+000	 7.712903520027023e+000
 7.657354814378439e-001	 2.115691180799508e+000	 7.626765935654092e+000
 7.448476949157646e-001	 2.123134925392267e+000	 7.537176371044189e+000
 7.239345968484166e-001	 2.130356472406817e+000	 7.443610984706333e+000
 7.029995419721642e-001	 2.137356227685584e+000	 7.345577793678986e+000
 6.820458611255978e-001	 2.144134660734327e+000	 7.242616021256759e+000
 6.610768598420863e-001	 2.150692303753667e+000	 7.134295399332668e+000
 6.400958169810165e-001	 2.157029750636725e+000	 7.020215428779882e+000
 6.191059833985354e-001	 2.163147655934445e+000	 6.863724930017029e+000
 5.503164297040443e-001	 1.922797916380548e+000	 5.993409034365235e+000
 5.316538494870134e-001	 1.928041541140166e+000	 5.930408516204254e+000
 5.129891553722548e-001	 1.933091339410632e+000	 5.864134835224305e+000
 4.943251556054373e-001	 1.937948048985706e+000	 5.796731929613992e+000
 4.756646291775603e-001	 1.942612457640389e+000	 5.730161132589784e+000
 4.570103248275768e-001	 1.947085402089539e+000	 5.666201704534039e+000
 4.383649600831476e-001	 1.951367766926559e+000	 5.606451740023446e+000
 4.197312203398145e-001	 1.955460483543635e+000	 5.552329437766550e+000
 4.011117579788219e-001	 1.959364529034961e+000	 5.505074720825677e+000
 3.825091915237612e-001	 1.963080925084422e+000	 5.465751193911147e+000
 3.639261048361499e-001	 1.966610736839179e+000	 5.435248424012703e+000
 5.571953850757716e-001	 1.946832890333715e+000	 6.147693856167437e+000
 5.382995226068030e-001	 1.952142060403382e+000	 6.099956820136526e+000
 5.194015198162859e-001	 1.957254981152735e+000	 6.047335465090401e+000
 5.005042200529608e-001	 1.962172399597961e+000	 5.992030720067096e+000
 4.816104370452151e-001	 1.966895113361246e+000	 5.936056799382800e+000
 4.627229538912396e-001	 1.971423969616384e+000	 5.881241716844111e+000
 4.438445220877915e-001	 1.975759864014198e+000	 5.829228186251506e+000
 4.249778605978575e-001	 1.979903739589274e+000	 5.781474895892672e+000
 4.061256549574486e-001	 1.983856585649486e+000	 5.739258144057331e+000
 3.872905564217017e-001	 1.987619436649766e+000	 5.703673821996273e+000
 3.684751811504043e-001	 1.991193371051617e+000	 5.675639730207171e+000
 5.640743404469928e-001	 1.970867864287377e+000	 6.287282547872943e+000
 5.449451957259967e-001	 1.976242579666991e+000	 6.250963563172764e+000
 5.258138842596520e-001	 1.981418622895133e+000	 6.208446521245854e+000
 5.066832844997709e-001	 1.986396750210409e+000	 6.161991798888676e+000
 4.875562449121284e-001	 1.991177769082197e+000	 6.113668594095873e+000
 4.684355829541528e-001	 1.995762537143222e+000	 6.065355425165220e+000
 4.493240840916978e-001	 2.000151961101730e+000	 6.018741028010744e+000
 4.302245008551949e-001	 2.004346995634706e+000	 5.975325639043232e+000
 4.111395519354213e-001	 2.008348642263703e+000	 5.936422650286218e+000
 3.920719213190593e-001	 2.012157948214703e+000	 5.903160622767073e+000
 3.730242574641658e-001	 2.015776005263546e+000	 5.876485643661261e+000
 5.709532958177076e-001	 1.994902838241532e+000	 6.412057600412588e+000
 5.515908688445944e-001	 2.000343098930994e+000	 6.383358383920455e+000
 5.322262487023534e-001	 2.005582264637824e+000	 6.347443287732253e+000
 5.128623489458676e-001	 2.010621100823052e+000	 6.306634625138779e+000
 4.935020527783001e-001	 2.015460424803240e+000	 6.263058710872977e+000
 4.741482120163165e-001	 2.020101104670054e+000	 6.218646347913092e+000
 4.548036460948666e-001	 2.024544058189155e+000	 6.175133724928582e+000
 4.354711411118267e-001	 2.028790251679931e+000	 6.134063711371503e+000
 4.161534489127398e-001	 2.032840698877613e+000	 6.096787536499162e+000
 3.968532862158337e-001	 2.036696459779233e+000	 6.064466837964715e+000
 3.775733337774348e-001	 2.040358639474969e+000	 6.038076065028953e+000
 5.778322511879159e-001	 2.018937812196181e+000	 6.521916273187921e+000
 5.582365419625962e-001	 2.024443618195390e+000	 6.497080912174227e+000
 5.386386131443897e-001	 2.029745906380808e+000	 6.464306482678788e+000
 5.190414133912509e-001	 2.034845451435887e+000	 6.425979755307401e+000
 4.994478606437303e-001	 2.039743080524377e+000	 6.384286325198777e+000
 4.798608410777306e-001	 2.044439672196880e+000	 6.341211089317256e+000
 4.602832080972980e-001	 2.048936155276472e+000	 6.298539147346292e+000
 4.407177813677529e-001	 2.053233507724950e+000	 6.257857112810019e+000
 4.211673458894044e-001	 2.057332755491216e+000	 6.220554820307039e+000
 4.016346511120252e-001	 2.061234971343355e+000	 6.187827414070076e+000
 3.821224100902110e-001	 2.064941273685884e+000	 6.160677802460585e+000
 5.847112065576183e-001	 2.042972786151324e+000	 6.616769725337907e+000
 5.648822150800023e-001	 2.048544137460180e+000	 6.592080181198695e+000
 5.450509775857614e-001	 2.053909548124086e+000	 6.559021938649657e+000
 5.252204778359207e-001	 2.059069802048915e+000	 6.520048778760193e+000
 5.053936685084188e-001	 2.064025736245607e+000	 6.477407771467194e+000
 4.855734701383953e-001	 2.068778239723698e+000	 6.433139746137587e+000
 4.657627700989918e-001	 2.073328252363683e+000	 6.389080199217855e+000
 4.459644216229735e-001	 2.077676763769761e+000	 6.346860625201404e+000
 4.261812428654147e-001	 2.081824812104512e+000	 6.307910256378926e+000
 4.064160160076336e-001	 2.085773482907070e+000	 6.273458196142401e+000
 3.866714864024947e-001	 2.089523907896292e+000	 6.244535929985799e+000
 5.915901619268141e-001	 2.067007760106961e+000	 6.696542207614478e+000
 5.715278881968123e-001	 2.072644656725364e+000	 6.668314081015360e+000
 5.514633420264680e-001	 2.078073189867658e+000	 6.631580305293373e+000
 5.313995422798772e-001	 2.083294152662138e+000	 6.588864257687256e+000
 5.113394763723659e-001	 2.088308391966931e+000	 6.542476708160517e+000
 4.912860991983103e-001	 2.093116807250510e+000	 6.494516286005616e+000
 4.712423320999481e-001	 2.097720349450787e+000	 6.446870397551297e+000
 4.512110618774882e-001	 2.102120019814364e+000	 6.401216580791755e+000
 4.311951398407710e-001	 2.106316868717501e+000	 6.359024281961854e+000
 4.111973809026589e-001	 2.110311994470377e+000	 6.321557038367025e+000
 3.912205627142856e-001	 2.114106542106192e+000	 6.289875051124771e+000
 5.984691172955038e-001	 2.091042734063091e+000	 6.761170309990961e+000
 5.781735613130264e-001	 2.096745175990942e+000	 6.725748849393333e+000
 5.578757064665099e-001	 2.102236831611523e+000	 6.681976772498712e+000
 5.375786067231204e-001	 2.107518503275554e+000	 6.632449671193749e+000
 5.172852842355713e-001	 2.112591047688348e+000	 6.579544271638001e+000
 4.969987282574760e-001	 2.117455374777314e+000	 6.525418899673245e+000
 4.767218941001668e-001	 2.122112446537784e+000	 6.472014411888233e+000
 4.564577021312974e-001	 2.126563275858761e+000	 6.421055577724748e+000
 4.362090368154732e-001	 2.130808925330182e+000	 6.374052897192414e+000
 4.159787457971012e-001	 2.134850506033278e+000	 6.332304838013909e+000
 3.957696390255839e-001	 2.138689176315586e+000	 6.296900475354686e+000
 6.053480726636872e-001	 2.115077708019714e+000	 6.810602260570028e+000
 5.848192344286449e-001	 2.120845695256914e+000	 6.764358597545715e+000
 5.642880709058868e-001	 2.126400473355683e+000	 6.710210812426669e+000
 5.437576711656501e-001	 2.131742853889163e+000	 6.650829363202537e+000
 5.232310920980354e-001	 2.136873703409858e+000	 6.588659219437981e+000
 5.027113573158919e-001	 2.141793942304112e+000	 6.525920329244733e+000
 4.822014560996480e-001	 2.146504543624674e+000	 6.464608567000758e+000
 4.617043423844012e-001	 2.151006531902950e+000	 6.406497146752330e+000
 4.412229337895214e-001	 2.155300981942556e+000	 6.353138485387289e+000
 4.207601106909605e-001	 2.159389017595771e+000	 6.305866498898363e+000
 4.003187153363895e-001	 2.163271810524472e+000	 6.265799314361981e+000
 6.122270280313643e-001	 2.139112681976832e+000	 6.844797271756298e+000
 5.914649075436671e-001	 2.144946214523278e+000	 6.784124867801045e+000
 5.707004353445987e-001	 2.150564115100135e+000	 6.716285938933154e+000
 5.499367356074666e-001	 2.155967204502966e+000	 6.644028493868614e+000
 5.291768999597579e-001	 2.161156359131462e+000	 6.569868063919410e+000
 5.084239863735585e-001	 2.166132509830903e+000	 6.496088174280144e+000
 4.876810180983919e-001	 2.170896640711457e+000	 6.424741311698954e+000
 4.669509826367991e-001	 2.175449787946933e+000	 6.357650372997688e+000
 4.462368307629154e-001	 2.179793038554624e+000	 6.296410578032869e+000
 4.255414755842367e-001	 2.183927529157856e+000	 6.242391829889947e+000
 4.048677916467025e-001	 2.187854444732851e+000	 6.196741504390128e+000
 6.191059833985354e-001	 2.163147655934445e+000	 6.863724930017029e+000
 5.981105806580939e-001	 2.169046733790038e+000	 6.785036220763783e+000
 5.771127997826462e-001	 2.174727756844882e+000	 6.700209483030483e+000
 5.561158000485699e-001	 2.180191555116963e+000	 6.612072994233325e+000
 5.351227078207390e-001	 2.185439014853159e+000	 6.523215196994394e+000
 5.141366154304756e-001	 2.190471077357688e+000	 6.435985177492575e+000
 4.931605800963984e-001	 2.195288737798133e+000	 6.352493656383937e+000
 4.721976228884916e-001	 2.199893043990709e+000	 6.274614476268396e+000
 4.512507277356554e-001	 2.204285095166384e+000	 6.203986568776045e+000
 4.303228404769301e-001	 2.208466040719535e+000	 6.142016383520920e+000
 4.094168679565230e-001	 2.212437078940723e+000	 6.089880760431170e+000
 3.639261048361499e-001	 1.966610736839179e+000	 5.435248424012703e+000
 3.453650463502414e-001	 1.969955071770350e+000	 5.426650334876219e+000
 3.268285283464441e-001	 1.973115078522868e+000	 5.424091558757153e+000
 3.083190262635864e-001	 1.976091945755501e+000	 5.427852967360474e+000
 2.898389780504919e-001	 1.978886900971938e+000	 5.438059123980711e+000
 2.713907835560694e-001	 1.981501209344972e+000	 5.454681938593699e+000
 2.529768039579077e-001	 1.983936172534892e+000	 5.477544549849700e+000
 2.345993612291328e-001	 1.986193127503396e+000	 5.506325418388727e+000
 2.162607376432362e-001	 1.988273445324313e+000	 5.540562615833051e+000
 1.979631753165408e-001	 1.990178529992387e+000	 5.579658293795530e+000
 1.797088757879294e-001	 1.991909817231349e+000	 5.622883317277196e+000
 3.684751811504043e-001	 1.991193371051617e+000	 5.675639730207171e+000
 3.496821094332686e-001	 1.994579510169543e+000	 5.661502484201594e+000
 3.309138849542394e-001	 1.997779017006543e+000	 5.652074271712104e+000
 3.121730140951305e-001	 2.000793095079618e+000	 5.647654190190805e+000
 2.934619652791262e-001	 2.003622987236253e+000	 5.648381312320796e+000
 2.747831683532470e-001	 2.006269974463903e+000	 5.654238416525359e+000
 2.561390140098019e-001	 2.008735374693610e+000	 5.665055951736156e+000
 2.375318532465813e-001	 2.011020541599093e+000	 5.680516220386256e+000
 2.189639968654956e-001	 2.013126863392606e+000	 5.700157763521877e+000
 2.004377150093219e-001	 2.015055761618825e+000	 5.723379931910849e+000
 1.819552367361798e-001	 2.016808689948031e+000	 5.749447627054980e+000
 3.730242574641658e-001	 2.015776005263546e+000	 5.876485643661261e+000
 3.539991725158979e-001	 2.019203948568140e+000	 5.856079327559237e+000
 3.349992415617213e-001	 2.022442955489553e+000	 5.839361050848622e+000
 3.160270019264354e-001	 2.025494244403021e+000	 5.826647179095269e+000
 2.970849525075854e-001	 2.028359073499827e+000	 5.818090030665942e+000
 2.781755531503035e-001	 2.031038739582085e+000	 5.813681689791219e+000
 2.593012240616187e-001	 2.033534576851590e+000	 5.813258061554061e+000
 2.404643452639863e-001	 2.035847955694085e+000	 5.816503152291855e+000
 2.216672560877356e-001	 2.037980281460246e+000	 5.822953558823445e+000
 2.029122547020982e-001	 2.039932993244682e+000	 5.832003149893836e+000
 1.842015976844301e-001	 2.041707562664222e+000	 5.842907923259489e+000
 3.775733337774348e-001	 2.040358639474969e+000	 6.038076065028953e+000
 3.583162355981294e-001	 2.043828386966140e+000	 6.010701536219445e+000
 3.390845981688897e-001	 2.047106893971896e+000	 5.986301991331292e+000
 3.198809897575011e-001	 2.050195393725710e+000	 5.965210126595620e+000
 3.007079397358694e-001	 2.053095159762659e+000	 5.947590261242581e+000
 2.815679379472386e-001	 2.055807504699517e+000	 5.933442240271905e+000
 2.624634341133582e-001	 2.058333779008834e+000	 5.922605587127445e+000
 2.433968372813480e-001	 2.060675369788373e+000	 5.914763889261407e+000
 2.243705153099564e-001	 2.062833699527232e+000	 5.909449399497173e+000
 2.053867943948698e-001	 2.064810224869957e+000	 5.906047836075426e+000
 1.864479586326805e-001	 2.066606435379921e+000	 5.903803364297986e+000
 3.821224100902110e-001	 2.064941273685884e+000	 6.160677802460585e+000
 3.626332986799630e-001	 2.068452825363543e+000	 6.125664234521805e+000
 3.431699547757446e-001	 2.071770832453574e+000	 6.093219408822944e+000
 3.237349775883274e-001	 2.074896543047685e+000	 6.063691433927028e+000
 3.043309269639780e-001	 2.077831246024749e+000	 6.037255402811847e+000
 2.849603227440523e-001	 2.080576269816200e+000	 6.013917392522231e+000
 2.656256441650203e-001	 2.083132981165341e+000	 5.993518722017714e+000
 2.463293292986662e-001	 2.085502783881955e+000	 5.975740450679441e+000
 2.270737745321580e-001	 2.087687117593565e+000	 5.960108099856885e+000
 2.078613340876365e-001	 2.089687456494649e+000	 5.945996579809834e+000
 1.886943195809308e-001	 2.091505308095129e+000	 5.932635304429638e+000
 3.866714864024947e-001	 2.089523907896292e+000	 6.244535929985799e+000
 3.669503617613986e-001	 2.093077263760348e+000	 6.201238502635683e+000
 3.472553113822862e-001	 2.096434770934586e+000	 6.160409473572512e+000
 3.275889654189145e-001	 2.099597692368945e+000	 6.122411463466547e+000
 3.079539141919114e-001	 2.102567332286097e+000	 6.087429128520776e+000
 2.883527075407447e-001	 2.105345034932132e+000	 6.055473264201687e+000
 2.687878542166050e-001	 2.107932183321110e+000	 6.026385175774040e+000
 2.492618213159412e-001	 2.110330197974833e+000	 5.999841297557882e+000
 2.297770337543404e-001	 2.112540535659244e+000	 5.975358042738529e+000
 2.103358737803985e-001	 2.114564688118760e+000	 5.952296865532339e+000
 1.909406805291811e-001	 2.116404180809844e+000	 5.929869517539003e+000
 3.912205627142856e-001	 2.114106542106192e+000	 6.289875051124771e+000
 3.712674248424364e-001	 2.117701702156558e+000	 6.237672774477193e+000
 3.513406679885142e-001	 2.121098709414933e+000	 6.188143730497613e+000
 3.314429532492624e-001	 2.124298841689493e+000	 6.141664168899488e+000
 3.115769014196696e-001	 2.127303418546704e+000	 6.098427114135490e+000
 2.917450923373158e-001	 2.130113800047316e+000	 6.058446580429171e+000
 2.719500642681121e-001	 2.132731385476141e+000	 6.021562062539037e+000
 2.521943133331726e-001	 2.135157612067005e+000	 5.987443283604066e+000
 2.324802929765036e-001	 2.137393953724271e+000	 5.955595181330031e+000
 2.128104134731557e-001	 2.139441919742287e+000	 5.925363113742369e+000
 1.931870414774315e-001	 2.141303053524068e+000	 5.895938265762243e+000
 3.957696390255839e-001	 2.138689176315586e+000	 6.296900475354686e+000
 3.755844879230763e-001	 2.142326140552169e+000	 6.235194139217841e+000
 3.554260245944290e-001	 2.145762647894614e+000	 6.176670514433254e+000
 3.352969410793710e-001	 2.148999991009326e+000	 6.121718612960105e+000
 3.151998886472525e-001	 2.152039504806568e+000	 6.070538647085980e+000
 2.951374771337656e-001	 2.154882565161751e+000	 6.023146363009336e+000
 2.751122743195421e-001	 2.157530587630436e+000	 5.979377659405234e+000
 2.551268053503606e-001	 2.159985026158471e+000	 5.938893471732436e+000
 2.351835521986475e-001	 2.162247371788643e+000	 5.901184902944070e+000
 2.152849531659080e-001	 2.164319151365234e+000	 5.865578581230234e+000
 1.954334024256818e-001	 2.166201926237801e+000	 5.831242225449920e+000
 4.003187153363895e-001	 2.163271810524472e+000	 6.265799314361981e+000
 3.799015510033184e-001	 2.166950578947185e+000	 6.194009554054379e+000
 3.595113812000301e-001	 2.170426586373628e+000	 6.126216268886715e+000
 3.391509289092405e-001	 2.173701140328445e+000	 6.062820381690547e+000
 3.188228758746604e-001	 2.176775591065690e+000	 6.004028125803846e+000
 2.985298619300941e-001	 2.179651330275435e+000	 5.949855504484511e+000
 2.782744843708945e-001	 2.182329789783994e+000	 5.900133044883995e+000
 2.580592973675053e-001	 2.184812440249233e+000	 5.854510826723451e+000
 2.378868114207722e-001	 2.187100789852362e+000	 5.812463765715871e+000
 2.177594928586556e-001	 2.189196382987598e+000	 5.773297131742116e+000
 1.976797633739321e-001	 2.191100798951041e+000	 5.736152281813769e+000
 4.048677916467025e-001	 2.187854444732851e+000	 6.196741504390128e+000
 3.842186140831626e-001	 2.191575017341604e+000	 6.114306975218657e+000
 3.635967378053180e-001	 2.195090524851978e+000	 6.036986775887458e+000
 3.430049167388707e-001	 2.198402289646850e+000	 5.965192903355770e+000
 3.224458631018928e-001	 2.201511677324071e+000	 5.899136457979967e+000
 3.019222467263013e-001	 2.204420095388370e+000	 5.838832236070839e+000
 2.814366944221695e-001	 2.207128991936814e+000	 5.784103626915709e+000
 2.609917893846066e-001	 2.209639854339290e+000	 5.734587793770301e+000
 2.405900706428777e-001	 2.211954207915429e+000	 5.689741118219979e+000
 2.202340325513984e-001	 2.214073614609379e+000	 5.648844887274833e+000
 1.999261243221825e-001	 2.215999671663790e+000	 5.611011202586087e+000
 4.094168679565230e-001	 2.212437078940723e+000	 6.089880760431170e+000
 3.885356771626090e-001	 2.216199455735425e+000	 5.996256413586221e+000
 3.676820944102924e-001	 2.219754463329662e+000	 5.909168303846669e+000
 3.468589045682616e-001	 2.223103438964542e+000	 5.829038679431433e+000
 3.260688503289501e-001	 2.226247763581710e+000	 5.756082365606378e+000
 3.053146315223872e-001	 2.229188860500556e+000	 5.690311497732096e+000
 2.845989044733674e-001	 2.231928194088898e+000	 5.631540569012636e+000
 2.639242814016646e-001	 2.234467268428642e+000	 5.579391771789186e+000
 2.432933298649641e-001	 2.236807625977843e+000	 5.533300611111740e+000
 2.227085722441365e-001	 2.238950846230580e+000	 5.492521769284118e+000
 2.021724852704328e-001	 2.240898544376048e+000	 5.456135200102160e+000
 1.797088757879294e-001	 1.991909817231349e+000	 5.622883317277196e+000
 1.614999996355343e-001	 1.993468773302665e+000	 5.669887838779681e+000
 1.433386661295952e-001	 1.994856893815574e+000	 5.733047025559090e+000
 1.252269529212347e-001	 1.996075702539929e+000	 5.811117404646251e+000
 1.071668957668299e-001	 1.997126750223276e+000	 5.902735434921135e+000
 8.916048828710535e-002	 1.998011613412721e+000	 6.006423073947448e+000
 7.120968176046696e-002	 1.998731893282784e+000	 6.120593419577320e+000
 5.331638494996584e-002	 1.999289214470238e+000	 6.243556411581754e+000
 3.548246396324870e-002	 1.999685223916897e+000	 6.373524578916034e+000
 1.770974214483060e-002	 1.999921589721275e+000	 6.508618818621868e+000
 0.000000000000000e+000	 2.000000000000000e+000	 6.646874192775578e+000
 1.819552367361798e-001	 2.016808689948031e+000	 5.749447627054980e+000
 1.635187496314781e-001	 2.018387132969990e+000	 5.777710811758579e+000
 1.451303994563842e-001	 2.019792604989089e+000	 5.820149525953346e+000
 1.267922898326589e-001	 2.021026648822303e+000	 5.875510233901003e+000
 1.085064819636337e-001	 2.022090834601525e+000	 5.942417031335295e+000
 9.027499439029102e-002	 2.022986758580697e+000	 6.019377328231194e+000
 7.209980278201651e-002	 2.023716041949021e+000	 6.104787609022201e+000
 5.398283976139859e-002	 2.024280329651229e+000	 6.196939255109354e+000
 3.592599476242884e-002	 2.024681289215908e+000	 6.294024414869234e+000
 1.793111392142803e-002	 2.024920609592803e+000	 6.394141906770512e+000
 0.000000000000000e+000	 2.025000000000000e+000	 6.495303141626679e+000
 1.842015976844301e-001	 2.041707562664222e+000	 5.842907923259489e+000
 1.655374996274219e-001	 2.043305492636919e+000	 5.854593618281677e+000
 1.469221327831731e-001	 2.044728316162292e+000	 5.878779414428429e+000
 1.283576267440832e-001	 2.045977595104440e+000	 5.914197919110140e+000
 1.098460681604373e-001	 2.047054918979600e+000	 5.959456840200669e+000
 9.138950049347672e-002	 2.047961903748553e+000	 6.013044794218309e+000
 7.298992380356607e-002	 2.048700190615181e+000	 6.073337194726205e+000
 5.464929457283133e-002	 2.049271444832177e+000	 6.138602205362208e+000
 3.636952556160897e-002	 2.049677354514900e+000	 6.207006742288066e+000
 1.815248569802546e-002	 2.049919629464327e+000	 6.276622511250730e+000
 0.000000000000000e+000	 2.050000000000000e+000	 6.345432064887499e+000
 1.864479586326805e-001	 2.066606435379921e+000	 5.903803364297986e+000
 1.675562496233656e-001	 2.068223852303450e+000	 5.901097844568222e+000
 1.487138661099620e-001	 2.069664027335182e+000	 5.909518894990474e+000
 1.299229636555074e-001	 2.070928541386338e+000	 5.927781484967048e+000
 1.111856543572410e-001	 2.072019003357499e+000	 5.954472921959183e+000
 9.250400659666239e-002	 2.072937048916287e+000	 5.988058794585482e+000
 7.388004482511562e-002	 2.073684339281264e+000	 6.026888998803369e+000
 5.531574938426406e-002	 2.074262560013081e+000	 6.069203831136391e+000
 3.681305636078910e-002	 2.074673419813873e+000	 6.113140133291545e+000
 1.837385747462289e-002	 2.074918649335846e+000	 6.156737472930687e+000
 0.000000000000000e+000	 2.075000000000000e+000	 6.197944345808048e+000
 1.886943195809308e-001	 2.091505308095129e+000	 5.932635304429638e+000
 1.695749996193094e-001	 2.093142211969584e+000	 5.917746768013045e+000
 1.505055994367510e-001	 2.094599738507759e+000	 5.912911593683094e+000
 1.314883005669316e-001	 2.095879487667998e+000	 5.916823342337890e+000
 1.125252405540447e-001	 2.096983087735225e+000	 5.928044918276497e+000
 9.361851269984806e-002	 2.097912194083901e+000	 5.945014656750823e+000
 7.477016584666514e-002	 2.098668487947270e+000	 5.966052497563296e+000
 5.598220419569681e-002	 2.099253675193944e+000	 5.989366228198783e+000
 3.725658715996924e-002	 2.099669485112827e+000	 6.013057780374914e+000
 1.859522925122032e-002	 2.099917669207360e+000	 6.035129564324008e+000
 0.000000000000000e+000	 2.100000000000000e+000	 6.053490825578987e+000
 1.909406805291811e-001	 2.116404180809844e+000	 5.929869517539003e+000
 1.715937496152531e-001	 2.118060571635321e+000	 5.905027610646259e+000
 1.522973327635400e-001	 2.119535449680024e+000	 5.889464827879162e+000
 1.330536374783559e-001	 2.120830433949419e+000	 5.881849559663420e+000
 1.138648267508484e-001	 2.121947172112776e+000	 5.880716311969090e+000
 9.473301880303371e-002	 2.122887339251393e+000	 5.884471947888905e+000
 7.566028686821472e-002	 2.123652636613199e+000	 5.891402018322482e+000
 5.664865900712956e-002	 2.124244790374762e+000	 5.899677164758998e+000
 3.770011795914937e-002	 2.124665550411762e+000	 5.907359577563722e+000
 1.881660102781774e-002	 2.124916689078869e+000	 5.912409493609760e+000
 0.000000000000000e+000	 2.125000000000000e+000	 5.912691717570222e+000
 1.931870414774315e-001	 2.141303053524068e+000	 5.895938265762243e+000
 1.736124996111969e-001	 2.142978931300661e+000	 5.863393635376130e+000
 1.540890660903289e-001	 2.144471160851976e+000	 5.839651717250479e+000
 1.346189743897801e-001	 2.145781380230602e+000	 5.823351975890433e+000
 1.152044129476521e-001	 2.146911256490152e+000	 5.812996529263081e+000
 9.584752490621940e-002	 2.147862484418765e+000	 5.806956554014851e+000
 7.655040788976425e-002	 2.148636785279050e+000	 5.803478782950930e+000
 5.731511381856230e-002	 2.149235905555538e+000	 5.800692077258103e+000
 3.814364875832950e-002	 2.149661615710678e+000	 5.796614056371487e+000
 1.903797280441517e-002	 2.149915708950374e+000	 5.789157768838514e+000
 0.000000000000000e+000	 2.150000000000000e+000	 5.776138388018127e+000
 1.954334024256818e-001	 2.166201926237801e+000	 5.831242225449920e+000
 1.756312496071406e-001	 2.167897290965605e+000	 5.793266097662046e+000
 1.558807994171179e-001	 2.169406872023616e+000	 5.763913149152529e+000
 1.361843113012044e-001	 2.170732326511546e+000	 5.741790167684340e+000
 1.165439991444558e-001	 2.171875340867353e+000	 5.725362897070295e+000
 9.696203100940506e-002	 2.172837629586016e+000	 5.712962615683079e+000
 7.744052891131380e-002	 2.173620933944825e+000	 5.702792810483758e+000
 5.798156862999504e-002	 2.174227020736269e+000	 5.692935928515827e+000
 3.858717955750964e-002	 2.174657681009574e+000	 5.681360188242746e+000
 1.925934458101260e-002	 2.174914728821873e+000	 5.665926433571771e+000
 0.000000000000000e+000	 2.175000000000000e+000	 5.644395013906997e+000
 1.976797633739321e-001	 2.191100798951041e+000	 5.736152281813769e+000
 1.776499996030844e-001	 2.192815650630152e+000	 5.695036064119822e+000
 1.576725327439068e-001	 2.194342583194942e+000	 5.662659610006091e+000
 1.377496482126286e-001	 2.195683272792251e+000	 5.637593282512946e+000
 1.178835853412595e-001	 2.196839425244380e+000	 5.618262466812027e+000
 9.807653711259075e-002	 2.197812774753146e+000	 5.602954331706703e+000
 7.833064993286333e-002	 2.198605082610522e+000	 5.589824690009603e+000
 5.864802344142778e-002	 2.199218135916958e+000	 5.576904939186616e+000
 3.903071035668978e-002	 2.199653746308452e+000	 5.562109064102704e+000
 1.948071635761003e-002	 2.199913748693368e+000	 5.543240684182231e+000
 0.000000000000000e+000	 2.199999999999999e+000	 5.518000127812502e+000
 1.999261243221825e-001	 2.215999671663790e+000	 5.611011202586087e+000
 1.796687495990281e-001	 2.217734010294301e+000	 5.569066108524268e+000
 1.594642660706957e-001	 2.219278294365957e+000	 5.536272893215260e+000
 1.393149851240528e-001	 2.220634219072718e+000	 5.511161748152710e+000
 1.192231715380632e-001	 2.221803509621232e+000	 5.492113715289779e+000
 9.919104321577643e-002	 2.222787919920156e+000	 5.477367641277610e+000
 7.922077095441289e-002	 2.223589231276143e+000	 5.465027234038364e+000
 5.931447825286054e-002	 2.224209251097604e+000	 5.453068202487827e+000
 3.947424115586991e-002	 2.224649811607310e+000	 5.439345460678195e+000
 1.970208813420746e-002	 2.224912768564859e+000	 5.421600378123271e+000
 0.000000000000000e+000	 2.224999999999999e+000	 5.397468058599372e+000
 2.021724852704328e-001	 2.240898544376048e+000	 5.456135200102160e+000
 1.816874995949720e-001	 2.242652369958055e+000	 5.415691894744692e+000
 1.612559993974847e-001	 2.244214005536660e+000	 5.385107693223553e+000
 1.408803220354772e-001	 2.245585165352948e+000	 5.362868868225868e+000
 1.205627577348670e-001	 2.246767593997911e+000	 5.347308132163954e+000
 1.003055493189621e-001	 2.247763065087045e+000	 5.336611793946033e+000
 8.011089197596248e-002	 2.248573379941687e+000	 5.328827021644622e+000
 5.998093306429331e-002	 2.249200366278207e+000	 5.321869191279578e+000
 3.991777195505006e-002	 2.249645876906150e+000	 5.313529302397938e+000
 1.992345991080489e-002	 2.249911788436345e+000	 5.301481441646305e+000
 0.000000000000000e+000	 2.250000000000000e+000	 5.283290276071652e+000
 2.250000000000000e+000	 0.000000000000000e+000	 1.191227503249322e+001
 2.249911788436345e+000	 1.992345991080426e-002	 1.194546287309695e+001
 2.249645876906150e+000	 3.991777195504948e-002	 1.197145617141174e+001
 2.249200366278207e+000	 5.998093306429280e-002	 1.198966971886290e+001
 2.248573379941687e+000	 8.011089197596204e-002	 1.199955695063026e+001
 2.247763065087045e+000	 1.003055493189618e-001	 1.200061188233384e+001
 2.246767593997911e+000	 1.205627577348667e-001	 1.199237101832308e+001
 2.245585165352948e+000	 1.408803220354769e-001	 1.197441522628840e+001
 2.244214005536660e+000	 1.612559993974846e-001	 1.194637157280921e+001
 2.242652369958055e+000	 1.816874995949719e-001	 1.190791511436308e+001
 2.240898544376048e+000	 2.021724852704328e-001	 1.185877063824218e+001
 2.275000000000000e+000	 0.000000000000000e+000	 1.182920362212632e+001
 2.274910808307830e+000	 2.014483168749044e-002	 1.185931261247266e+001
 2.274641942204990e+000	 4.036130275438817e-002	 1.188280904473541e+001
 2.274191481458810e+000	 6.064738787593468e-002	 1.189911363143646e+001
 2.273557528607230e+000	 8.100101299775189e-002	 1.190768667694030e+001
 2.272738210253934e+000	 1.014200554223994e-001	 1.190803004500352e+001
 2.271731678374588e+000	 1.219023439319140e-001	 1.189968909650482e+001
 2.270536111633176e+000	 1.424456589471165e-001	 1.188225459193545e+001
 2.269149716707362e+000	 1.630477327244403e-001	 1.185536455312402e+001
 2.267570729621808e+000	 1.837062495910135e-001	 1.181870607857835e+001
 2.265797417088305e+000	 2.044188462186914e-001	 1.177201710674887e+001
 2.300000000000000e+000	 0.000000000000000e+000	 1.175191865599583e+001
 2.299909828179320e+000	 2.036620346435412e-002	 1.178016595384606e+001
 2.299638007503847e+000	 4.080483355404389e-002	 1.180229511824399e+001
 2.299182596639455e+000	 6.131384268799480e-002	 1.181773143085801e+001
 2.298541677272850e+000	 8.189113402002239e-002	 1.182594077570558e+001
 2.297713355420943e+000	 1.025345615263407e-001	 1.182643164038320e+001
 2.296695762751440e+000	 1.232419301294487e-001	 1.181875708602918e+001
 2.295487057913643e+000	 1.440109958591868e-001	 1.180251668045354e+001
 2.294085427878376e+000	 1.648394660517298e-001	 1.177735838876204e+001
 2.292489089285957e+000	 1.857249995872509e-001	 1.174298041571018e+001
 2.290696289801054e+000	 2.066652071669667e-001	 1.169913299394245e+001
 2.325000000000000e+000	 0.000000000000000e+000	 1.167987559512354e+001
 2.324908848050816e+000	 2.058757524139532e-002	 1.170746198725445e+001
 2.324634072802724e+000	 4.124836435401671e-002	 1.172933751644046e+001
 2.324173711820144e+000	 6.198029750047319e-002	 1.174493069228882e+001
 2.323525825938548e+000	 8.278125504277353e-002	 1.175371170003904e+001
 2.322688500588074e+000	 1.036490676307858e-001	 1.175519443829538e+001
 2.321659847128467e+000	 1.245815163274705e-001	 1.174893852401813e+001
 2.320438004194349e+000	 1.455763327716879e-001	 1.173455125905663e+001
 2.319021139049704e+000	 1.666311993793529e-001	 1.171168955239864e+001
 2.317407448950504e+000	 1.877437495836841e-001	 1.168006179221731e+001
 2.315595162514295e+000	 2.089115681152584e-001	 1.163942966171691e+001
 2.350000000000000e+000	 0.000000000000000e+000	 1.161255307240174e+001
 2.349907867922315e+000	 2.080894701861403e-002	 1.164066370531003e+001
 2.349630138101621e+000	 4.169189515430661e-002	 1.166338394447751e+001
 2.349164827000877e+000	 6.264675231336984e-002	 1.168014419615605e+001
 2.348509974604323e+000	 8.367137606600530e-002	 1.169041767866343e+001
 2.347663645755325e+000	 1.047635737357347e-001	 1.169372249944603e+001
 2.346623931505669e+000	 1.259211025259797e-001	 1.168962369789955e+001
 2.345388950475293e+000	 1.471416696846196e-001	 1.167773524807345e+001
 2.343956850221343e+000	 1.684229327073097e-001	 1.165772201527494e+001
 2.342325808615448e+000	 1.897624995803130e-001	 1.162930166049343e+001
 2.340494035228027e+000	 2.111579290635668e-001	 1.159224648648579e+001
 2.375000000000000e+000	 0.000000000000000e+000	 1.154945167302114e+001
 2.374906887793820e+000	 2.103031879601026e-002	 1.157925674516948e+001
 2.374626203400537e+000	 4.213542595491358e-002	 1.160390539443918e+001
 2.374155942181652e+000	 6.331320712668474e-002	 1.162282860155996e+001
 2.373494123270175e+000	 8.456149708971773e-002	 1.163550135930025e+001
 2.372638790922696e+000	 1.058780798411875e-001	 1.164144479169383e+001
 2.371588015883045e+000	 1.272606887249762e-001	 1.164022823749660e+001
 2.370339896756476e+000	 1.487070065979821e-001	 1.163147129183622e+001
 2.368892561393295e+000	 1.702146660356002e-001	 1.161484579990483e+001
 2.367244168280788e+000	 1.917812495771377e-001	 1.159007779644963e+001
 2.365392907942251e+000	 2.134042900118918e-001	 1.155694938473349e+001
 2.400000000000000e+000	 0.000000000000000e+000	 1.149009279112204e+001
 2.399905907665330e+000	 2.125169057358399e-002	 1.152274820913089e+001
 2.399622268699472e+000	 4.257895675583762e-002	 1.155039493247969e+001
 2.399147057362470e+000	 6.397966194041792e-002	 1.157246320259286e+001
 2.398478271936104e+000	 8.545161811391079e-002	 1.158842853684699e+001
 2.397613936090188e+000	 1.069925859471440e-001	 1.159781389280266e+001
 2.396552100260595e+000	 1.286002749244599e-001	 1.160019179511116e+001
 2.395290843037896e+000	 1.502723435117752e-001	 1.159518641888867e+001
 2.393828272565560e+000	 1.720063993642244e-001	 1.158247562323789e+001
 2.392162527946525e+000	 1.937999995741582e-001	 1.156179292849776e+001
 2.390291780656967e+000	 2.156506509602334e-001	 1.153292943072008e+001
 2.425000000000000e+000	 0.000000000000000e+000	 1.143401755716810e+001
 2.424904927536844e+000	 2.147306235133523e-002	 1.147066555818308e+001
 2.424618333998425e+000	 4.302248755707874e-002	 1.150236656098503e+001
 2.424138172543332e+000	 6.464611675456937e-002	 1.152854876158711e+001
 2.423462420602109e+000	 8.634173913858448e-002	 1.154868696022360e+001
 2.422589081257803e+000	 1.081070920536042e-001	 1.156230477343623e+001
 2.421516184638321e+000	 1.299398611244310e-001	 1.156897680725175e+001
 2.420241789319556e+000	 1.518376804259992e-001	 1.156833078506802e+001
 2.418763983738137e+000	 1.737981326931823e-001	 1.156004962375023e+001
 2.417080887612659e+000	 1.958187495713745e-001	 1.154387345133899e+001
 2.415190653372174e+000	 2.178970119085915e-001	 1.151960155968848e+001
 2.449999999999999e+000	 0.000000000000000e+000	 1.138078583099111e+001
 2.449903947408363e+000	 2.169443412926399e-002	 1.142255557329684e+001
 2.449614399297399e+000	 4.346601835863694e-002	 1.145935415039767e+001
 2.449129287724237e+000	 6.531257156913906e-002	 1.149060641379673e+001
 2.448446569268192e+000	 8.723186016373880e-002	 1.151578521226947e+001
 2.447564226425537e+000	 1.092215981605683e-001	 1.153441365466300e+001
 2.446480269016221e+000	 1.312794473248893e-001	 1.154606733217396e+001
 2.445192735601454e+000	 1.534030173406537e-001	 1.155037649354091e+001
 2.443699694911027e+000	 1.755898660224737e-001	 1.154702816646861e+001
 2.441999247279191e+000	 1.978374995687864e-001	 1.153576821850011e+001
 2.440089526087873e+000	 2.201433728569663e-001	 1.151640335046756e+001
 2.474999999999999e+000	 0.000000000000000e+000	 1.132997525586333e+001
 2.474902967279886e+000	 2.191580590737025e-002	 1.137798337966850e+001
 2.474610464596390e+000	 4.390954916051220e-002	 1.142091043577960e+001
 2.474120402905185e+000	 6.597902638412702e-002	 1.145817663846189e+001
 2.473430717934352e+000	 8.812198118937380e-002	 1.148925165752517e+001
 2.472539371593392e+000	 1.103361042680361e-001	 1.151365693470369e+001
 2.471444353394296e+000	 1.326190335258349e-001	 1.153096795787313e+001
 2.470143681883590e+000	 1.549683542557390e-001	 1.154081648635247e+001
 2.468635406084229e+000	 1.773815993520989e-001	 1.154289272041740e+001
 2.466917606946119e+000	 1.998562495663942e-001	 1.153694740804929e+001
 2.464988398804064e+000	 2.223897338053576e-001	 1.152279388185644e+001
 2.500000000000000e+000	 0.000000000000000e+000	 1.128118036932550e+001
 2.499901987151415e+000	 2.213717768565403e-002	 1.133653152950853e+001
 2.499606529895403e+000	 4.435307996270457e-002	 1.138660607358117e+001
 2.499111518086177e+000	 6.664548119953326e-002	 1.143081829160972e+001
 2.498414866600589e+000	 8.901210221548943e-002	 1.146863345314739e+001
 2.497514516761369e+000	 1.114506103760078e-001	 1.149957018007341e+001
 2.496408437772546e+000	 1.339586197272678e-001	 1.152320277559724e+001
 2.495094628165966e+000	 1.565336911712552e-001	 1.153916350248236e+001
 2.493571117257745e+000	 1.791733326820579e-001	 1.154714480341866e+001
 2.491835966613445e+000	 2.018749995641979e-001	 1.154690145636898e+001
 2.489887271520747e+000	 2.246360947537655e-001	 1.153825265762598e+001
 2.240898544376048e+000	 2.021724852704328e-001	 1.185877063824218e+001
 2.238950846230580e+000	 2.227085722441359e-001	 1.191665407304373e+001
 2.236807625977843e+000	 2.432933298649636e-001	 1.196322282753668e+001
 2.234467268428643e+000	 2.639242814016641e-001	 1.199829362458300e+001
 2.231928194088898e+000	 2.845989044733670e-001	 1.202173824540553e+001
 2.229188860500555e+000	 3.053146315223869e-001	 1.203348497082316e+001
 2.226247763581711e+000	 3.260688503289499e-001	 1.203351994023750e+001
 2.223103438964543e+000	 3.468589045682617e-001	 1.202188842271193e+001
 2.219754463329662e+000	 3.676820944102924e-001	 1.199869599453765e+001
 2.216199455735425e+000	 3.885356771626091e-001	 1.196410961775441e+001
 2.212437078940723e+000	 4.094168679565229e-001	 1.191835861418674e+001
 2.265797417088305e+000	 2.044188462186914e-001	 1.177201710674887e+001
 2.263828077851779e+000	 2.251831119367893e-001	 1.183043215588750e+001
 2.261661044040257e+000	 2.459965890868868e-001	 1.187820133545823e+001
 2.259294682517993e+000	 2.668567734184952e-001	 1.191513384141665e+001
 2.256727396240981e+000	 2.877611145242888e-001	 1.194109465237943e+001
 2.253957625612741e+000	 3.087070163181626e-001	 1.195600599508273e+001
 2.250983849839349e+000	 3.296918375556778e-001	 1.195984872564177e+001
 2.247804588282233e+000	 3.507128923973188e-001	 1.195266362082233e+001
 2.244418401807346e+000	 3.717674510149444e-001	 1.193455257358878e+001
 2.240823894129246e+000	 3.928527402417595e-001	 1.190567968727033e+001
 2.237019713148594e+000	 4.139659442660895e-001	 1.186627226278241e+001
 2.290696289801054e+000	 2.066652071669667e-001	 1.169913299394245e+001
 2.288705309473562e+000	 2.276576516292786e-001	 1.175736392203574e+001
 2.286514462103322e+000	 2.486998483085035e-001	 1.180551658671246e+001
 2.284122096608050e+000	 2.697892654349162e-001	 1.184339242130581e+001
 2.281526598393801e+000	 2.909233245747360e-001	 1.187084946205645e+001
 2.278726390725676e+000	 3.120994011134392e-001	 1.188780383991142e+001
 2.275719936097730e+000	 3.333148247819218e-001	 1.189423118607400e+001
 2.272505737600639e+000	 3.545668802259482e-001	 1.189016794537656e+001
 2.269082340285696e+000	 3.758528076192648e-001	 1.187571259160621e+001
 2.265448332523665e+000	 3.971698033207162e-001	 1.185102673899110e+001
 2.261602347356972e+000	 4.185150205756415e-001	 1.181633614415459e+001
 2.315595162514295e+000	 2.089115681152584e-001	 1.163942966171691e+001
 2.313582541095926e+000	 2.301321913216035e-001	 1.169678134849714e+001
 2.311367880167042e+000	 2.514031075298135e-001	 1.174452180820897e+001
 2.308949510698813e+000	 2.727217574509269e-001	 1.178244447838731e+001
 2.306325800547358e+000	 2.940855346247088e-001	 1.181040031580871e+001
 2.303495155839361e+000	 3.154917859082166e-001	 1.182829931675123e+001
 2.300456022356853e+000	 3.369378120076823e-001	 1.183611194885323e+001
 2.297206886919757e+000	 3.584208680541495e-001	 1.183387048849866e+001
 2.293746278764711e+000	 3.799381642232539e-001	 1.182167025771656e+001
 2.290072770918680e+000	 4.014868663994791e-001	 1.179967075466219e+001
 2.286184981565858e+000	 4.230640968851787e-001	 1.176809667185106e+001
 2.340494035228027e+000	 2.111579290635668e-001	 1.159224648648579e+001
 2.338459772718871e+000	 2.326067310137641e-001	 1.164804321701048e+001
 2.336221298231414e+000	 2.541063667508169e-001	 1.169459575719082e+001
 2.333776924790279e+000	 2.756542494665274e-001	 1.173168931800027e+001
 2.331125002701653e+000	 2.972477446742072e-001	 1.175916764225238e+001
 2.328263920953794e+000	 3.188841707024950e-001	 1.177693455544525e+001
 2.325192108616717e+000	 3.405607992329588e-001	 1.178495542595099e+001
 2.321908036239591e+000	 3.622748558819232e-001	 1.178325852832654e+001
 2.318410217244391e+000	 3.840235208269116e-001	 1.177193630358448e+001
 2.314697209314293e+000	 4.058039294780482e-001	 1.175114651034515e+001
 2.310767615775252e+000	 4.276131731947014e-001	 1.172111326089749e+001
 2.365392907942251e+000	 2.134042900118918e-001	 1.155694938473349e+001
 2.363337004342399e+000	 2.350812707057606e-001	 1.161053370326919e+001
 2.361074716296441e+000	 2.568096259715136e-001	 1.165514137753267e+001
 2.358604338882452e+000	 2.785867414817178e-001	 1.169054916346490e+001
 2.355924204856685e+000	 3.004099547232311e-001	 1.171659345791893e+001
 2.353032686068978e+000	 3.222765554962743e-001	 1.173317188221663e+001
 2.349928194877324e+000	 3.441837864577518e-001	 1.174024477269398e+001
 2.346609185560137e+000	 3.661288437092686e-001	 1.173783657185329e+001
 2.343074155724738e+000	 3.881088774302378e-001	 1.172603711380535e+001
 2.339321647710502e+000	 4.101209925564235e-001	 1.170500279776941e+001
 2.335350249985152e+000	 4.321622495042093e-001	 1.167495764350922e+001
 2.390291780656967e+000	 2.156506509602334e-001	 1.153292943072008e+001
 2.388214235966510e+000	 2.375558103975928e-001	 1.158366105431958e+001
 2.385928134362120e+000	 2.595128851919036e-001	 1.162558454002041e+001
 2.383431752975329e+000	 2.815192334964980e-001	 1.165846796243770e+001
 2.380723407012454e+000	 3.035721647717806e-001	 1.168214024288460e+001
 2.377801451184912e+000	 3.256689402895545e-001	 1.169649276777376e+001
 2.374664281138672e+000	 3.478067736820609e-001	 1.170148091154752e+001
 2.371310334881399e+000	 3.699828315361862e-001	 1.169712545759112e+001
 2.367738094205750e+000	 3.921942340332327e-001	 1.168351391064849e+001
 2.363946086107307e+000	 4.144380556346051e-001	 1.166080169434965e+001
 2.359932884195560e+000	 4.367113258137025e-001	 1.162921322757092e+001
 2.415190653372174e+000	 2.178970119085915e-001	 1.151960155968848e+001
 2.413091467591202e+000	 2.400303500892606e-001	 1.156685634776931e+001
 2.410781552428453e+000	 2.622161444119871e-001	 1.160537286055149e+001
 2.408259167068910e+000	 2.844517255108679e-001	 1.163491026710022e+001
 2.405522609168961e+000	 3.067343748198556e-001	 1.165528988594848e+001
 2.402570216301594e+000	 3.290613250823355e-001	 1.166639684048110e+001
 2.399400367400761e+000	 3.514297609058864e-001	 1.166818161628376e+001
 2.396011484203374e+000	 3.738368193626758e-001	 1.166066151374035e+001
 2.392402032687428e+000	 3.962795906358961e-001	 1.164392198922868e+001
 2.388570524504710e+000	 4.187551187125929e-001	 1.161811787835668e+001
 2.384515518406475e+000	 4.412604021231812e-001	 1.158347449479805e+001
 2.440089526087873e+000	 2.201433728569663e-001	 1.151640335046756e+001
 2.437968699216476e+000	 2.425048897807643e-001	 1.155957232696293e+001
 2.435634970495439e+000	 2.649194036317638e-001	 1.159397459069057e+001
 2.433086581163199e+000	 2.873842175248279e-001	 1.161936018290779e+001
 2.430321811326204e+000	 3.098965848674560e-001	 1.163554269439156e+001
 2.427338981419025e+000	 3.324537098746175e-001	 1.164240095994825e+001
 2.424136453663593e+000	 3.550527481292282e-001	 1.163988065222106e+001
 2.420712633526063e+000	 3.776908071887374e-001	 1.162799576789938e+001
 2.417065971169772e+000	 4.003649472382281e-001	 1.160682999950380e+001
 2.413194962902710e+000	 4.230721817903868e-001	 1.157653798601656e+001
 2.409098152617898e+000	 4.458094784326451e-001	 1.153734643574550e+001
 2.464988398804064e+000	 2.223897338053576e-001	 1.152279388185644e+001
 2.462845930842334e+000	 2.449794294721036e-001	 1.156128230675263e+001
 2.460488388563079e+000	 2.676226628512340e-001	 1.159087757546391e+001
 2.457913995258191e+000	 2.903167095383774e-001	 1.161132038105046e+001
 2.455121013484184e+000	 3.130587949145822e-001	 1.162241646375028e+001
 2.452107746537208e+000	 3.358460946664004e-001	 1.162403834676494e+001
 2.448872539927167e+000	 3.586757353520862e-001	 1.161612696857028e+001
 2.445413782849466e+000	 3.815447950143711e-001	 1.159869320467068e+001
 2.441729909652781e+000	 4.044503038402286e-001	 1.157181927178790e+001
 2.437819401301307e+000	 4.273892448679871e-001	 1.153566000757361e+001
 2.433680786829828e+000	 4.503585547420945e-001	 1.149044401905812e+001
 2.489887271520747e+000	 2.246360947537655e-001	 1.153825265762598e+001
 2.487723162468774e+000	 2.474539691632789e-001	 1.157147914492286e+001
 2.485341806631373e+000	 2.703259220703975e-001	 1.159558827368643e+001
 2.482741409353889e+000	 2.932492015515170e-001	 1.161031117016622e+001
 2.479920215642903e+000	 3.162210049612340e-001	 1.161544560340387e+001
 2.476876511656140e+000	 3.392384794576842e-001	 1.161085776445211e+001
 2.473608626191484e+000	 3.622987225744606e-001	 1.159648393923999e+001
 2.470114932173584e+000	 3.853987828395771e-001	 1.157233206781076e+001
 2.466393848136457e+000	 4.085356604418979e-001	 1.153848318273331e+001
 2.462443839700501e+000	 4.317063079453937e-001	 1.149509271958943e+001
 2.458263421042266e+000	 4.549076310515292e-001	 1.144239169256627e+001
 2.212437078940723e+000	 4.094168679565229e-001	 1.191835861418674e+001
 2.208466040719535e+000	 4.303228404769294e-001	 1.198241794352295e+001
 2.204285095166384e+000	 4.512507277356548e-001	 1.203642323080167e+001
 2.199893043990709e+000	 4.721976228884912e-001	 1.208068026254943e+001
 2.195288737798134e+000	 4.931605800963981e-001	 1.211555783277659e+001
 2.190471077357688e+000	 5.141366154304753e-001	 1.214148818732991e+001
 2.185439014853160e+000	 5.351227078207387e-001	 1.215896733814106e+001
 2.180191555116964e+000	 5.561158000485698e-001	 1.216855524315698e+001
 2.174727756844882e+000	 5.771127997826461e-001	 1.217087584799427e+001
 2.169046733790038e+000	 5.981105806580940e-001	 1.216661698563718e+001
 2.163147655934445e+000	 6.191059833985354e-001	 1.215653013079673e+001
 2.237019713148594e+000	 4.139659442660895e-001	 1.186627226278241e+001
 2.233004552281214e+000	 4.351042053694189e-001	 1.193382414317492e+001
 2.228777151778144e+000	 4.562646247082412e-001	 1.199143563993498e+001
 2.224336300034484e+000	 4.774442631400799e-001	 1.203945392601335e+001
 2.219680834884810e+000	 4.986401420943508e-001	 1.207829117985267e+001
 2.214809644884473e+000	 5.198492444873889e-001	 1.210842500922032e+001
 2.209721670574856e+000	 5.410685156817663e-001	 1.213039874002345e+001
 2.204415905730960e+000	 5.622948644897696e-001	 1.214482156579593e+001
 2.198891398589630e+000	 5.835251642208402e-001	 1.215236855381358e+001
 2.193147253056797e+000	 6.047562537727174e-001	 1.215378050408346e+001
 2.187182629892056e+000	 6.259849387659531e-001	 1.214858028194510e+001
 2.261602347356972e+000	 4.185150205756415e-001	 1.181633614415459e+001
 2.257543063843300e+000	 4.398855702620842e-001	 1.188746545538029e+001
 2.253269208390209e+000	 4.612785216811742e-001	 1.194868556603360e+001
 2.248779556078465e+000	 4.826909033921671e-001	 1.200038521829403e+001
 2.244072931971593e+000	 5.041197040929341e-001	 1.204302025201683e+001
 2.239148212411263e+000	 5.255618735450451e-001	 1.207711400909969e+001
 2.234004326296460e+000	 5.470143235436287e-001	 1.210325759777888e+001
 2.228640256344763e+000	 5.684739289318761e-001	 1.212211001244292e+001
 2.223055040334082e+000	 5.899375286599927e-001	 1.213439810483056e+001
 2.217247772323162e+000	 6.114019268883302e-001	 1.214091640277951e+001
 2.211217603849173e+000	 6.328638941343707e-001	 1.212545750405920e+001
 2.286184981565858e+000	 4.230640968851787e-001	 1.176809667185106e+001
 2.282081575405792e+000	 4.446669351549252e-001	 1.184285695816367e+001
 2.277761265002584e+000	 4.662924186544543e-001	 1.190765688488884e+001
 2.273222812122656e+000	 4.879375436447529e-001	 1.196292697033130e+001
 2.268465029058483e+000	 5.095992660921479e-001	 1.200916701753959e+001
 2.263486779938061e+000	 5.312745026034441e-001	 1.204694650024811e+001
 2.258286982017970e+000	 5.529601314063262e-001	 1.207690480355521e+001
 2.252864606958372e+000	 5.746529933748897e-001	 1.209975131481947e+001
 2.247218682078241e+000	 5.963498931001036e-001	 1.211626536054518e+001
 2.241348291589134e+000	 6.180476000049329e-001	 1.212729598534076e+001
 2.235252577805797e+000	 6.397428495037884e-001	 1.208932963682507e+001
 2.310767615775252e+000	 4.276131731947014e-001	 1.172111326089749e+001
 2.306620086968692e+000	 4.494483000479418e-001	 1.179952736013468e+001
 2.302253321615266e+000	 4.713063156280811e-001	 1.186784769044639e+001
 2.297666068167052e+000	 4.931841838978371e-001	 1.192654677664553e+001
 2.292857126145480e+000	 5.150788280919922e-001	 1.197616871096576e+001
 2.287825347464866e+000	 5.369871316625858e-001	 1.201732952160920e+001
 2.282569637739388e+000	 5.589059392698583e-001	 1.205071739069524e+001
 2.277088957571788e+000	 5.808320578188099e-001	 1.207709271698055e+001
 2.271382323822106e+000	 6.027622575411730e-001	 1.209728801902140e+001
 2.265448810854712e+000	 6.246932731225250e-001	 1.211220767477412e+001
 2.259287551761927e+000	 6.466218048742060e-001	 1.203995922540919e+001
 2.335350249985152e+000	 4.321622495042093e-001	 1.167495764350922e+001
 2.331158598532001e+000	 4.542296649411343e-001	 1.175701828308885e+001
 2.326745378228254e+000	 4.763202126020547e-001	 1.182876954648259e+001
 2.322109324211656e+000	 4.984308241514199e-001	 1.189072621830728e+001
 2.317249223232584e+000	 5.205583900924672e-001	 1.194347702962628e+001
 2.312163914991677e+000	 5.426997607224701e-001	 1.198768501012363e+001
 2.306852293460711e+000	 5.648517471342254e-001	 1.202408768420004e+001
 2.301313308185011e+000	 5.870111222636374e-001	 1.205349710624435e+001
 2.295545965565678e+000	 6.091746219832009e-001	 1.207679973064686e+001
 2.289549330119895e+000	 6.313389462411065e-001	 1.206266177099175e+001
 2.283322525717564e+000	 6.535007602456238e-001	 1.197712525593397e+001
 2.359932884195560e+000	 4.367113258137025e-001	 1.162921322757092e+001
 2.355697110095715e+000	 4.590110298345022e-001	 1.171488358944577e+001
 2.351237434841551e+000	 4.813341095763753e-001	 1.178994678505086e+001
 2.346552580256467e+000	 5.036774644055012e-001	 1.185496013447103e+001
 2.341641320319795e+000	 5.260379520935725e-001	 1.191055738036811e+001
 2.336502482518496e+000	 5.484123897830974e-001	 1.195744902479187e+001
 2.331134949181942e+000	 5.707975549994275e-001	 1.199642250428856e+001
 2.325537658798039e+000	 5.931901867093715e-001	 1.202834219843909e+001
 2.319709607308956e+000	 6.155869864261875e-001	 1.205414926728275e+001
 2.313649849384685e+000	 6.379846193606777e-001	 1.199826091050651e+001
 2.307357499672707e+000	 6.603797156180414e-001	 1.190062229917816e+001
 2.384515518406475e+000	 4.412604021231812e-001	 1.158347449479805e+001
 2.380235621659837e+000	 4.637923947280462e-001	 1.167268875128923e+001
 2.375729491455153e+000	 4.863480065510425e-001	 1.175091584832284e+001
 2.370995836301485e+000	 5.089241046600810e-001	 1.181875593896884e+001
 2.366033417407112e+000	 5.315175140953083e-001	 1.187688817287824e+001
 2.360841050045321e+000	 5.541250188444671e-001	 1.192607101873284e+001
 2.355417604903078e+000	 5.767433628654644e-001	 1.196714241922134e+001
 2.349762009410874e+000	 5.993692511560125e-001	 1.200101977354675e+001
 2.343873249051941e+000	 6.219993508701325e-001	 1.202869974280640e+001
 2.337750368649082e+000	 6.446302924812387e-001	 1.192012190561817e+001
 2.331392473627356e+000	 6.672586709914591e-001	 1.181025970724404e+001
 2.409098152617898e+000	 4.458094784326451e-001	 1.153734643574550e+001
 2.404774133224367e+000	 4.685737596217657e-001	 1.163001025803734e+001
 2.400221548069064e+000	 4.913619035260567e-001	 1.171122467072557e+001
 2.395439092346710e+000	 5.141707449151592e-001	 1.178163297874525e+001
 2.390425514494537e+000	 5.369970760976748e-001	 1.184196015627339e+001
 2.385179617572153e+000	 5.598376479065798e-001	 1.189301315581064e+001
 2.379700260624122e+000	 5.826891707323361e-001	 1.193568104386987e+001
 2.373986360023517e+000	 6.055483156035604e-001	 1.197093495814425e+001
 2.368036890794631e+000	 6.284117153150359e-001	 1.197246558046924e+001
 2.361850887913085e+000	 6.512759656027893e-001	 1.182806687668791e+001
 2.355427447581511e+000	 6.741376263658767e-001	 1.170586085940820e+001
 2.433680786829828e+000	 4.503585547420945e-001	 1.149044401905812e+001
 2.429312644789304e+000	 4.733551245156609e-001	 1.158643506001157e+001
 2.424713604683281e+000	 4.963758005014177e-001	 1.167043209852423e+001
 2.419882348392143e+000	 5.194173851707360e-001	 1.174312193117476e+001
 2.414817611582069e+000	 5.424766381006718e-001	 1.180527579589661e+001
 2.409518185098991e+000	 5.655502769694349e-001	 1.185774966867768e+001
 2.403982916345072e+000	 5.886349786000428e-001	 1.190148438079688e+001
 2.398210710635965e+000	 6.117273800520152e-001	 1.193750555133296e+001
 2.392200532537029e+000	 6.348240797608978e-001	 1.188056494704085e+001
 2.385951407176694e+000	 6.579216387253295e-001	 1.172193108249319e+001
 2.379462421535173e+000	 6.810165817412944e-001	 1.158726245367846e+001
 2.458263421042266e+000	 4.549076310515292e-001	 1.144239169256627e+001
 2.453851156354649e+000	 4.781364894097321e-001	 1.154156004539157e+001
 2.449205661297807e+000	 5.013896974771258e-001	 1.162810734423050e+001
 2.444325604437783e+000	 5.246640254268116e-001	 1.170276423754034e+001
 2.439209708669709e+000	 5.479562001042996e-001	 1.176634868750586e+001
 2.433856752625838e+000	 5.712629060330332e-001	 1.181976625533525e+001
 2.428265572065929e+000	 5.945807864685846e-001	 1.186401020087170e+001
 2.422435061248221e+000	 6.179064445013772e-001	 1.190016139111252e+001
 2.416364174279133e+000	 6.412364442077186e-001	 1.177452923628310e+001
 2.410051926439910e+000	 6.645673118488594e-001	 1.160156226330703e+001
 2.403497395488342e+000	 6.878955371177123e-001	 1.145431384085723e+001
 2.163147655934445e+000	 6.191059833985354e-001	 1.215653013079673e+001
 2.157029750636725e+000	 6.400958169810158e-001	 1.213110774632294e+001
 2.150692303753667e+000	 6.610768598420859e-001	 1.211027470365080e+001
 2.144134660734327e+000	 6.820458611255977e-001	 1.209712257142516e+001
 2.137356227685585e+000	 7.029995419721639e-001	 1.209231437941374e+001
 2.130356472406817e+000	 7.239345968484162e-001	 1.209650665360639e+001
 2.123134925392267e+000	 7.448476949157646e-001	 1.211034880467507e+001
 2.115691180799508e+000	 7.657354814378438e-001	 1.213448251944020e+001
 2.108024897382408e+000	 7.865945792257690e-001	 1.216954115612416e+001
 2.100135799387014e+000	 8.074215901202453e-001	 1.221614914416888e+001
 2.092023677408817e+000	 8.282130965095027e-001	 1.227492138938938e+001
 2.187182629892056e+000	 6.259849387659531e-001	 1.214858028194510e+001
 2.180996747869119e+000	 6.472079927217472e-001	 1.212159602661512e+001
 2.174588884909840e+000	 6.684221582814655e-001	 1.210138142637262e+001
 2.167958379190486e+000	 6.896241484683362e-001	 1.208864673460982e+001
 2.161104630219127e+000	 7.108106479912015e-001	 1.208409713223823e+001
 2.154027099881797e+000	 7.319783145885441e-001	 1.208843209197330e+001
 2.146725313456010e+000	 7.531237804124569e-001	 1.210234474354337e+001
 2.139198860589977e+000	 7.742436534517256e-001	 1.212652124060714e+001
 2.131447396245942e+000	 7.953345189931456e-001	 1.216164013016414e+001
 2.123470641606018e+000	 8.163929411200948e-001	 1.220837172524044e+001
 2.115268384938982e+000	 8.374154642473412e-001	 1.226737748162920e+001
 2.211217603849173e+000	 6.328638941343707e-001	 1.212545750405920e+001
 2.204963745100923e+000	 6.543201684634740e-001	 1.210040585138483e+001
 2.198485466065337e+000	 6.757674567218257e-001	 1.208190685946584e+001
 2.191782097645895e+000	 6.972024358120310e-001	 1.207071162192869e+001
 2.184853032751853e+000	 7.186217540111610e-001	 1.206756695609339e+001
 2.177697727355906e+000	 7.400220323295501e-001	 1.207321474563622e+001
 2.170315701518835e+000	 7.613998659099726e-001	 1.208839128291096e+001
 2.162706540379492e+000	 7.827518254663668e-001	 1.211382661171410e+001
 2.154869895108496e+000	 8.040744587612064e-001	 1.215024387128104e+001
 2.146805483824028e+000	 8.253642921205443e-001	 1.219835864230131e+001
 2.138513092468148e+000	 8.466178319856844e-001	 1.225887829573931e+001
 2.235252577805797e+000	 6.397428495037884e-001	 1.208932963682507e+001
 2.228930742332137e+000	 6.614323442061955e-001	 1.206724423016231e+001
 2.222382047220159e+000	 6.831127551631664e-001	 1.205151922496023e+001
 2.215605816100554e+000	 7.047807231566823e-001	 1.204294607201362e+001
 2.208601435283764e+000	 7.264328600320423e-001	 1.204231272109294e+001
 2.201368354829143e+000	 7.480657500714333e-001	 1.205040294231511e+001
 2.193906089580742e+000	 7.696759514083118e-001	 1.206799564593973e+001
 2.186214220168054e+000	 7.912599974817669e-001	 1.209586420137697e+001
 2.178292393970071e+000	 8.128143985299519e-001	 1.213477575619669e+001
 2.170140326041044e+000	 8.343356431215939e-001	 1.218549055593179e+001
 2.161757799996312e+000	 8.558201997245328e-001	 1.224876126546953e+001
 2.259287551761927e+000	 6.466218048742060e-001	 1.203995922540919e+001
 2.252897739562764e+000	 6.685445199499122e-001	 1.202183739512165e+001
 2.246278628374308e+000	 6.904580536054878e-001	 1.200990786151706e+001
 2.239429534554463e+000	 7.123590105022891e-001	 1.200500195916248e+001
 2.232349837814859e+000	 7.342439660538457e-001	 1.200794827643600e+001
 2.225038982301508e+000	 7.561094678141942e-001	 1.201957195593568e+001
 2.217496477641732e+000	 7.779520369074743e-001	 1.204069399211278e+001
 2.209721899955661e+000	 7.997681694979262e-001	 1.207213052691608e+001
 2.201714892830666e+000	 8.215543382993820e-001	 1.211469214423958e+001
 2.193475168257064e+000	 8.433069941232435e-001	 1.216918316397079e+001
 2.185002507523477e+000	 8.650225674638863e-001	 1.223640093644005e+001
 2.283322525717564e+000	 6.535007602456238e-001	 1.197712525593397e+001
 2.276864736792801e+000	 6.756566956946243e-001	 1.196392978936262e+001
 2.270175209527782e+000	 6.978033520487897e-001	 1.195678211302743e+001
 2.263253253007621e+000	 7.199372978488526e-001	 1.195655298093561e+001
 2.256098240345136e+000	 7.420550720765706e-001	 1.196411113571840e+001
 2.248709609773001e+000	 7.641531855578326e-001	 1.198032258840814e+001
 2.241086865701804e+000	 7.862281224074598e-001	 1.200604989427020e+001
 2.233229579742315e+000	 8.082763415148443e-001	 1.204215142547698e+001
 2.225137391690283e+000	 8.302942780694966e-001	 1.208948064141827e+001
 2.216810010472089e+000	 8.522783451254932e-001	 1.214888535744961e+001
 2.208247215049642e+000	 8.742249352037450e-001	 1.222120701288507e+001
 2.307357499672707e+000	 6.603797156180414e-001	 1.190062229917816e+001
 2.300831734022249e+000	 6.827688714403316e-001	 1.189328311842506e+001
 2.294071790680583e+000	 7.051486504930723e-001	 1.189187028667321e+001
 2.287076971460031e+000	 7.275155851963719e-001	 1.189729352152762e+001
 2.279846642874599e+000	 7.498661781002176e-001	 1.191046124441201e+001
 2.272380237243622e+000	 7.721969033023488e-001	 1.193227984004452e+001
 2.264677253760957e+000	 7.945042079082690e-001	 1.196365291082998e+001
 2.256737259528015e+000	 8.167845135325217e-001	 1.200548052695612e+001
 2.248559890548919e+000	 8.390342178402960e-001	 1.205865847298992e+001
 2.240144852686119e+000	 8.612496961283428e-001	 1.212407749177974e+001
 2.231491922574806e+000	 8.834273029441089e-001	 1.220262252647500e+001
 2.331392473627356e+000	 6.672586709914591e-001	 1.181025970724404e+001
 2.324798731251109e+000	 6.898810471870337e-001	 1.180967546047236e+001
 2.317968371832708e+000	 7.124939489383351e-001	 1.181491867543791e+001
 2.310900689911689e+000	 7.350938725448477e-001	 1.182693758544603e+001
 2.303595045403246e+000	 7.576772841247864e-001	 1.184667982358248e+001
 2.296050864713372e+000	 7.802406210477426e-001	 1.187509166221848e+001
 2.288267641819193e+000	 8.027802934099015e-001	 1.191311724632532e+001
 2.280244939312762e+000	 8.252926855509578e-001	 1.196169782138495e+001
 2.271982389406577e+000	 8.477741576117799e-001	 1.202177095669513e+001
 2.263479694899156e+000	 8.702210471317925e-001	 1.209426976487770e+001
 2.254736630098972e+000	 8.926296706849779e-001	 1.218012211840719e+001
 2.355427447581511e+000	 6.741376263658767e-001	 1.170586085940820e+001
 2.348765728479379e+000	 6.969932229347312e-001	 1.171290043095345e+001
 2.341864952984159e+000	 7.198392473845788e-001	 1.172569064046357e+001
 2.334724408362598e+000	 7.426721598942795e-001	 1.174521779647489e+001
 2.327343447931077e+000	 7.654883901502771e-001	 1.177246828439971e+001
 2.319721492182250e+000	 7.882843387940142e-001	 1.180842778639272e+001
 2.311858029876512e+000	 8.110563789123574e-001	 1.185408049394966e+001
 2.303752619096555e+000	 8.338008575701532e-001	 1.191040831402496e+001
 2.295404888263255e+000	 8.565140973839484e-001	 1.197839006946778e+001
 2.286814537111197e+000	 8.791923981358422e-001	 1.205900069458814e+001
 2.277981337622136e+000	 9.018320384263519e-001	 1.215321042667527e+001
 2.379462421535173e+000	 6.810165817412944e-001	 1.158726245367846e+001
 2.372732725707062e+000	 7.041053986834239e-001	 1.160276639789155e+001
 2.365761534134936e+000	 7.271845458318029e-001	 1.162396574902275e+001
 2.358548126812756e+000	 7.502504472446672e-001	 1.165188445730726e+001
 2.351091850458092e+000	 7.732994961766896e-001	 1.168754720843573e+001
 2.343392119650255e+000	 7.963280565411631e-001	 1.173197862411448e+001
 2.335448417932912e+000	 8.193324644156368e-001	 1.178620245431126e+001
 2.327260298879395e+000	 8.423090295901078e-001	 1.185124076197226e+001
 2.318827387118954e+000	 8.652540371568017e-001	 1.192811310101118e+001
 2.310149379322243e+000	 8.881637491404918e-001	 1.201783568838435e+001
 2.301226045144301e+000	 9.110344061682311e-001	 1.212142057107898e+001
 2.403497395488342e+000	 6.878955371177123e-001	 1.145431384085723e+001
 2.396699722934155e+000	 7.112175744331118e-001	 1.147909574425534e+001
 2.389658115285039e+000	 7.345298442800079e-001	 1.150953896421186e+001
 2.382371845262166e+000	 7.578287345960117e-001	 1.154670466559979e+001
 2.374840252984291e+000	 7.811106022040244e-001	 1.159165538914442e+001
 2.367062747117389e+000	 8.043717742891899e-001	 1.164545423301130e+001
 2.359038805988396e+000	 8.276085499197398e-001	 1.170916402506244e+001
 2.350767978661281e+000	 8.508172016108216e-001	 1.178384648656580e+001
 2.342249885973674e+000	 8.739939769303399e-001	 1.187056138815950e+001
 2.333484221532295e+000	 8.971351001457417e-001	 1.197036569888699e+001
 2.324470752665467e+000	 9.202367739106158e-001	 1.208431272913423e+001
 2.092023677408817e+000	 8.282130965095027e-001	 1.227492138938938e+001
 2.083688389209485e+000	 8.489656628815500e-001	 1.228053602573463e+001
 2.075129860492684e+000	 8.696758374109868e-001	 1.228406160229505e+001
 2.066348085636912e+000	 8.903401535779647e-001	 1.228591732178324e+001
 2.057343128383053e+000	 9.109551318173331e-001	 1.228652323348637e+001
 2.048115122476415e+000	 9.315172811979668e-001	 1.228630000604832e+001
 2.038664272261591e+000	 9.520231011303459e-001	 1.228566869791692e+001
 2.028990853228824e+000	 9.724690831008999e-001	 1.228505052542934e+001
 2.019095212510688e+000	 9.928517124315597e-001	 1.228486662850483e+001
 2.008977769327879e+000	 1.013167470062905e+000	 1.228553783391180e+001
 1.998639015383027e+000	 1.033412834359236e+000	 1.228748441607536e+001
 2.115268384938982e+000	 8.374154642473412e-001	 1.226737748162920e+001
 2.106840482426126e+000	 8.583986146904973e-001	 1.226907986583115e+001
 2.098186858945657e+000	 8.793389022705093e-001	 1.226982151235202e+001
 2.089307508813609e+000	 9.002328219506398e-001	 1.227001204510722e+001
 2.080202496479100e+000	 9.210768555039042e-001	 1.227006105065385e+001
 2.070871957173500e+000	 9.418674732110525e-001	 1.227037786020557e+001
 2.061316097511894e+000	 9.626011355871257e-001	 1.227137133055018e+001
 2.051535196045530e+000	 9.832742951350683e-001	 1.227344962382966e+001
 2.041529603764009e+000	 1.003883398124833e+000	 1.227701998613753e+001
 2.031299744546037e+000	 1.024424886396339e+000	 1.228248852488149e+001
 2.020846115557606e+000	 1.044895199184599e+000	 1.229025998485634e+001
 2.138513092468148e+000	 8.466178319856844e-001	 1.225887829573931e+001
 2.129992575641768e+000	 8.678315664998595e-001	 1.225571049698688e+001
 2.121243857397628e+000	 8.890019671303754e-001	 1.225270450171783e+001
 2.112266931989306e+000	 9.101254903236083e-001	 1.225026055178623e+001
 2.103061864574150e+000	 9.311985791907373e-001	 1.224877797434819e+001
 2.093628791869585e+000	 9.522176652243886e-001	 1.224865497323249e+001
 2.083967922761197e+000	 9.731791700441644e-001	 1.225028842044527e+001
 2.074079538861235e+000	 9.940795071695248e-001	 1.225407364775612e+001
 2.063963995016330e+000	 1.014915083818443e+000	 1.226040423830333e+001
 2.053621719763195e+000	 1.035682302730178e+000	 1.226967181814881e+001
 2.043053215731184e+000	 1.056377564010459e+000	 1.228226584770497e+001
 2.161757799996312e+000	 8.558201997245328e-001	 1.224876126546953e+001
 2.153144668856409e+000	 8.772645183096366e-001	 1.223979448365595e+001
 2.144300855848600e+000	 8.986650319905858e-001	 1.223210659862069e+001
 2.135226355164003e+000	 9.200181586968698e-001	 1.222608865325488e+001
 2.125921232668198e+000	 9.413203028778321e-001	 1.222212990469749e+001
 2.116385626564671e+000	 9.625678572379754e-001	 1.222061762519540e+001
 2.106619748009500e+000	 9.837572045014623e-001	 1.222193690432394e+001
 2.096623881675941e+000	 1.004884719204269e+000	 1.222647045250151e+001
 2.086398386267651e+000	 1.025946769512391e+000	 1.223459840571976e+001
 2.075943694979353e+000	 1.046939719064425e+000	 1.224669813139951e+001
 2.065260315903762e+000	 1.067859928836815e+000	 1.226314403527346e+001
 2.185002507523477e+000	 8.650225674638863e-001	 1.223640093644005e+001
 2.176296762070050e+000	 8.866974701198287e-001	 1.222073449574497e+001
 2.167357854298572e+000	 9.083280968511406e-001	 1.220745891395094e+001
 2.158185778337701e+000	 9.299108270704243e-001	 1.219695620481327e+001
 2.148780600761246e+000	 9.514420265651886e-001	 1.218960573127166e+001
 2.139142461258755e+000	 9.729180492518126e-001	 1.218578401594424e+001
 2.129271573256804e+000	 9.943352389590194e-001	 1.218586455420397e+001
 2.119168224489646e+000	 1.015689931239302e+000	 1.219021762975634e+001
 2.108832777517972e+000	 1.036978455206675e+000	 1.219921013262290e+001
 2.098265670194510e+000	 1.058197135399078e+000	 1.221320537942065e+001
 2.087467416075340e+000	 1.079342293663667e+000	 1.223256293581471e+001
 2.208247215049642e+000	 8.742249352037450e-001	 1.222120701288507e+001
 2.199448855282691e+000	 8.961304219304351e-001	 1.219796740832619e+001
 2.190414852747545e+000	 9.179911617120392e-001	 1.217822579480522e+001
 2.181145201510398e+000	 9.398034954442719e-001	 1.216235531384453e+001
 2.171639968853294e+000	 9.615637502528069e-001	 1.215072559679589e+001
 2.161899295951840e+000	 9.832682412659003e-001	 1.214370258512387e+001
 2.151923398503107e+000	 1.004913273416836e+000	 1.214164835448905e+001
 2.141712567302352e+000	 1.026495143274622e+000	 1.214492094253511e+001
 2.131267168767293e+000	 1.048010140901296e+000	 1.215387418026629e+001
 2.120587645408667e+000	 1.069454551734136e+000	 1.216885752688458e+001
 2.109674516245919e+000	 1.090824658491015e+000	 1.219021590794009e+001
 2.231491922574806e+000	 8.834273029441089e-001	 1.220262252647500e+001
 2.222600948494332e+000	 9.055633737414569e-001	 1.217096252011825e+001
 2.213471851195516e+000	 9.276542265732820e-001	 1.214390309343398e+001
 2.204104624682095e+000	 9.496961638184125e-001	 1.212180866001885e+001
 2.194499336944342e+000	 9.716854739406873e-001	 1.210503926938220e+001
 2.184656130643925e+000	 9.936184332802384e-001	 1.209395043718472e+001
 2.174575223748410e+000	 1.015491307874911e+000	 1.208889298049027e+001
 2.164256910114058e+000	 1.037300355310230e+000	 1.209021285792007e+001
 2.153701560015615e+000	 1.059041826596255e+000	 1.209825101457644e+001
 2.142909620621825e+000	 1.080711968069602e+000	 1.211334323158441e+001
 2.131881616415496e+000	 1.102307023318859e+000	 1.213581998008011e+001
 2.254736630098972e+000	 8.926296706849779e-001	 1.218012211840719e+001
 2.245753041704973e+000	 9.149963255528933e-001	 1.213921988216426e+001
 2.236528849642488e+000	 9.373172914348692e-001	 1.210401654326453e+001
 2.227064047852792e+000	 9.595888321928465e-001	 1.207486791940239e+001
 2.217358705034390e+000	 9.818071976288294e-001	 1.205212461544772e+001
 2.207412965335010e+000	 1.003968625294827e+000	 1.203613186381558e+001
 2.197227048992713e+000	 1.026069342333246e+000	 1.202722937105981e+001
 2.186801252924763e+000	 1.048105567346126e+000	 1.202575117056274e+001
 2.176135951262936e+000	 1.070073512291550e+000	 1.203202548116948e+001
 2.165231595833983e+000	 1.091969384405473e+000	 1.204637457159249e+001
 2.154088716584075e+000	 1.113789388147199e+000	 1.206911463039058e+001
 2.277981337622136e+000	 9.018320384263519e-001	 1.215321042667527e+001
 2.268905134914614e+000	 9.244292773647448e-001	 1.210226872883572e+001
 2.259585848088461e+000	 9.469803562968006e-001	 1.205812023435111e+001
 2.250023471022489e+000	 9.694815005675734e-001	 1.202111228504928e+001
 2.240218073123439e+000	 9.919289213172334e-001	 1.199158616612748e+001
 2.230169800025095e+000	 1.014318817309666e+000	 1.196987695683952e+001
 2.219878874236016e+000	 1.036647376791840e+000	 1.195631338861430e+001
 2.209345595734469e+000	 1.058910779382311e+000	 1.195121771046107e+001
 2.198570342509257e+000	 1.081105197987182e+000	 1.195490556148961e+001
 2.187553571045141e+000	 1.103226800741751e+000	 1.196768585034838e+001
 2.176295816751653e+000	 1.125271752976035e+000	 1.198986064135847e+001
 2.301226045144301e+000	 9.110344061682311e-001	 1.212142057107898e+001
 2.292057228123256e+000	 9.338622291770110e-001	 1.205966600392686e+001
 2.282642846533433e+000	 9.566434211590758e-001	 1.200579518122201e+001
 2.272982894191185e+000	 9.793741689425934e-001	 1.196014707725478e+001
 2.263077441211487e+000	 1.002050645005899e+000	 1.192305377057172e+001
 2.252926634714181e+000	 1.024669009324756e+000	 1.189484030517686e+001
 2.242530699478319e+000	 1.047225411250692e+000	 1.187582456036897e+001
 2.231889938543174e+000	 1.069715991418782e+000	 1.186631712905300e+001
 2.221004733754578e+000	 1.092136883683151e+000	 1.186662120433295e+001
 2.209875546255298e+000	 1.114484217078435e+000	 1.187703247416550e+001
 2.198502916918232e+000	 1.136754117805368e+000	 1.189783902382571e+001
 2.324470752665467e+000	 9.202367739106158e-001	 1.208431272913423e+001
 2.315209321330897e+000	 9.432951809896923e-001	 1.201099497518358e+001
 2.305699844977406e+000	 9.663064860216959e-001	 1.194664797665592e+001
 2.295942317358883e+000	 9.892668373179069e-001	 1.189160243719316e+001
 2.285936809298535e+000	 1.012172368694827e+000	 1.184618133004497e+001
 2.275683469402266e+000	 1.035019201340096e+000	 1.181069976999029e+001
 2.265182524719623e+000	 1.057803445709805e+000	 1.178546489509772e+001
 2.254434281350881e+000	 1.080521203455543e+000	 1.177077575814455e+001
 2.243439124998900e+000	 1.103168569379458e+000	 1.176692322747988e+001
 2.232197521464457e+000	 1.125741633415526e+000	 1.177418989708738e+001
 2.220710017083810e+000	 1.148236482635196e+000	 1.179285000557129e+001
 1.998639015383027e+000	 1.033412834359236e+000	 1.228748441607536e+001
 1.988079515201900e+000	 1.053584282934246e+000	 1.215146383367725e+001
 1.977299906419740e+000	 1.073678294494223e+000	 1.203992009404445e+001
 1.966300900012589e+000	 1.093691350697970e+000	 1.195376441387285e+001
 1.955083280473654e+000	 1.113619938032245e+000	 1.189389007834762e+001
 1.943647905932685e+000	 1.133460549699554e+000	 1.186117153870546e+001
 1.931995708218038e+000	 1.153209687516760e+000	 1.185646352252505e+001
 1.920127692860818e+000	 1.172863863822527e+000	 1.188060015796482e+001
 1.908044939040537e+000	 1.192419603391556e+000	 1.193439411315480e+001
 1.895748599471812e+000	 1.211873445353536e+000	 1.201863575193744e+001
 1.883239900231722e+000	 1.231221945114724e+000	 1.213409230713634e+001
 2.020846115557606e+000	 1.044895199184599e+000	 1.229025998485634e+001
 2.010169287596954e+000	 1.065290774965724e+000	 1.217631751783142e+001
 1.999269905384128e+000	 1.085608053320554e+000	 1.208863051682656e+001
 1.988148687794898e+000	 1.105843476815214e+000	 1.202813635736458e+001
 1.976806428039066e+000	 1.125993492897426e+000	 1.199575324183681e+001
 1.965243993781153e+000	 1.146054555805278e+000	 1.199237926504613e+001
 1.953462327203167e+000	 1.166023128486932e+000	 1.201889149364914e+001
 1.941462445008779e+000	 1.185895684529261e+000	 1.207614506076606e+001
 1.929245438368385e+000	 1.205668710093352e+000	 1.216497227701552e+001
 1.916812472804541e+000	 1.225338705854776e+000	 1.228618175921665e+001
 1.904164788017406e+000	 1.244902188946530e+000	 1.244055757798299e+001
 2.043053215731184e+000	 1.056377564010459e+000	 1.228226584770497e+001
 2.032259059991009e+000	 1.076997266997788e+000	 1.219076953935356e+001
 2.021239904347514e+000	 1.097537812147543e+000	 1.212728970318145e+001
 2.009996475576207e+000	 1.117995602933166e+000	 1.209278944294391e+001
 1.998529575603476e+000	 1.138367047763345e+000	 1.208821145966747e+001
 1.986840081628622e+000	 1.158648561911752e+000	 1.211447708586007e+001
 1.974928946187296e+000	 1.178836569457846e+000	 1.217248533477871e+001
 1.962797197155740e+000	 1.198927505236708e+000	 1.226311196607292e+001
 1.950445937695233e+000	 1.218917816795809e+000	 1.238720856910929e+001
 1.937876346136271e+000	 1.238803966356608e+000	 1.254560166526534e+001
 1.925089675802090e+000	 1.258582432778837e+000	 1.243190317830793e+001
 2.065260315903762e+000	 1.067859928836815e+000	 1.226314403527346e+001
 2.054348832384064e+000	 1.088703759030439e+000	 1.219444941580470e+001
 2.043209903309902e+000	 1.109467570975188e+000	 1.215551529711634e+001
 2.031844263356516e+000	 1.130147729051825e+000	 1.214733008695201e+001
 2.020252723166888e+000	 1.150740602630003e+000	 1.217086057242962e+001
 2.008436169475090e+000	 1.171242568018975e+000	 1.222705092359868e+001
 1.996395565170425e+000	 1.191650010429500e+000	 1.231682171320212e+001
 1.984131949301702e+000	 1.211959325944865e+000	 1.244106895400996e+001
 1.971646437021081e+000	 1.232166923498928e+000	 1.260066315507544e+001
 1.958940219467000e+000	 1.252269226859033e+000	 1.271917761281139e+001
 1.946014563585775e+000	 1.272262676611648e+000	 1.226016730966697e+001
 2.087467416075340e+000	 1.079342293663667e+000	 1.223256293581471e+001
 2.076438604776118e+000	 1.100410251063676e+000	 1.218701375645392e+001
 2.065179902271288e+000	 1.121397329803490e+000	 1.217295273694080e+001
 2.053692051135825e+000	 1.142299855171193e+000	 1.219139317064423e+001
 2.041975870729298e+000	 1.163114157497399e+000	 1.224332552380401e+001
 2.030032257320558e+000	 1.183836574126947e+000	 1.232971640911012e+001
 2.017862184152554e+000	 1.204463451401894e+000	 1.245150757662320e+001
 2.005466701446663e+000	 1.224991146653734e+000	 1.260961492345003e+001
 1.992846936345929e+000	 1.245416030202710e+000	 1.280492752356868e+001
 1.980004092796730e+000	 1.265734487362051e+000	 1.252208407317287e+001
 1.966939451368459e+000	 1.285942920444961e+000	 1.211341855362874e+001
 2.109674516245919e+000	 1.090824658491015e+000	 1.219021590794009e+001
 2.098528377167173e+000	 1.112116743097499e+000	 1.216814483639906e+001
 2.087149901231676e+000	 1.133327088632449e+000	 1.217927379240880e+001
 2.075539838914133e+000	 1.154451981291268e+000	 1.222464054203669e+001
 2.063699018290709e+000	 1.175487712365534e+000	 1.230525882882031e+001
 2.051628345165026e+000	 1.196430580235669e+000	 1.242211731803953e+001
 2.039328803133683e+000	 1.217276892375028e+000	 1.257617855945547e+001
 2.026801453590624e+000	 1.238022967363314e+000	 1.276837796997498e+001
 2.014047435669777e+000	 1.258665136907153e+000	 1.273031636203251e+001
 2.001067966125459e+000	 1.279199747865661e+000	 1.234882745545139e+001
 1.987864339150143e+000	 1.299623164278777e+000	 1.199088587219211e+001
 2.131881616415496e+000	 1.102307023318859e+000	 1.213581998008011e+001
 2.120618149557228e+000	 1.123823235131908e+000	 1.213754925980479e+001
 2.109119900191063e+000	 1.145256847462065e+000	 1.217417519328946e+001
 2.097387626691442e+000	 1.166604107412050e+000	 1.224675961138745e+001
 2.085422165851120e+000	 1.187861267234407e+000	 1.235633913784944e+001
 2.073224433008494e+000	 1.209024586345141e+000	 1.250392410495425e+001
 2.060795422113812e+000	 1.230090333348904e+000	 1.269049748872237e+001
 2.048136205733585e+000	 1.251054788073605e+000	 1.288604710827440e+001
 2.035247934992625e+000	 1.271914243612258e+000	 1.253027255037038e+001
 2.022131839453188e+000	 1.292665008369863e+000	 1.219867688278577e+001
 2.008789226930828e+000	 1.313303408113096e+000	 1.189182716888678e+001
 2.154088716584075e+000	 1.113789388147199e+000	 1.206911463039058e+001
 2.142707921946283e+000	 1.135529727166903e+000	 1.209495670582708e+001
 2.131089899149450e+000	 1.157186606292337e+000	 1.215737734276811e+001
 2.119235414467750e+000	 1.178756233533540e+000	 1.225746203355526e+001
 2.107145313410531e+000	 1.200234822104019e+000	 1.239626988942111e+001
 2.094820520850962e+000	 1.221618592455362e+000	 1.257483252814163e+001
 2.082262041092941e+000	 1.242903774323519e+000	 1.279415298237660e+001
 2.069470957875546e+000	 1.264086608784609e+000	 1.265891617655972e+001
 2.056448434314473e+000	 1.285163350318026e+000	 1.235225103797129e+001
 2.043195712779918e+000	 1.306130268874658e+000	 1.207092855744503e+001
 2.029714114710512e+000	 1.326983651947917e+000	 1.181552779694158e+001
 2.176295816751653e+000	 1.125271752976035e+000	 1.198986064135847e+001
 2.164797694334338e+000	 1.147236219202485e+000	 1.204011875131776e+001
 2.153059898106837e+000	 1.169116365123266e+000	 1.212862310961917e+001
 2.141083202243060e+000	 1.190908359655737e+000	 1.225648247103008e+001
 2.128868460968942e+000	 1.212608376974370e+000	 1.242477804552175e+001
 2.116416608692431e+000	 1.234212598566333e+000	 1.263456235860278e+001
 2.103728660071070e+000	 1.255717215298876e+000	 1.273579145526938e+001
 2.090805710016507e+000	 1.277118429496322e+000	 1.245274971823351e+001
 2.077648933635321e+000	 1.298412457024455e+000	 1.219558488970384e+001
 2.064259586105647e+000	 1.319595529380045e+000	 1.196490437923969e+001
 2.050639002489196e+000	 1.340663895783240e+000	 1.176129915878985e+001
 2.198502916918232e+000	 1.136754117805368e+000	 1.189783902382571e+001
 2.186887466721392e+000	 1.158942711238653e+000	 1.197280776488022e+001
 2.175029897063225e+000	 1.181046123954852e+000	 1.208767669358028e+001
 2.162930990017369e+000	 1.203060485778643e+000	 1.224357743193155e+001
 2.150591608526353e+000	 1.224981931845459e+000	 1.244161290354121e+001
 2.138012696532899e+000	 1.246806604678053e+000	 1.268285616728948e+001
 2.125195279048198e+000	 1.268530656274972e+000	 1.250118563030880e+001
 2.112140462156469e+000	 1.290150250208748e+000	 1.226691627379551e+001
 2.098849432955169e+000	 1.311661563731547e+000	 1.205963120953935e+001
 2.085323459430377e+000	 1.333060789886026e+000	 1.187995064766645e+001
 2.071563890266881e+000	 1.354344139619067e+000	 1.172847739045265e+001
 2.220710017083810e+000	 1.148236482635196e+000	 1.179285000557129e+001
 2.208977239107448e+000	 1.170649203275409e+000	 1.189281586728178e+001
 2.196999896018612e+000	 1.192975882787095e+000	 1.203432255880430e+001
 2.184778777790678e+000	 1.215212611902256e+000	 1.221852417772752e+001
 2.172314756082764e+000	 1.237355486717287e+000	 1.244654497950255e+001
 2.159608784372368e+000	 1.259400610790523e+000	 1.249844305075190e+001
 2.146661898024329e+000	 1.281344097251810e+000	 1.228591465943617e+001
 2.133475214295431e+000	 1.303182070921885e+000	 1.210080685323937e+001
 2.120049932274017e+000	 1.324910670439300e+000	 1.194376993859656e+001
 2.106387332754107e+000	 1.346526050392598e+000	 1.181543684192381e+001
 2.092488778043565e+000	 1.368024383455396e+000	 1.171642212485977e+001
 1.883239900231722e+000	 1.231221945114724e+000	 1.213409230713634e+001
 1.870520140527698e+000	 1.250461676279598e+000	 1.260804441323171e+001
 1.857590692405196e+000	 1.269589232571736e+000	 1.240618173936758e+001
 1.844453000395384e+000	 1.288601229750900e+000	 1.222652496112239e+001
 1.831108581103128e+000	 1.307494307523292e+000	 1.206957385337510e+001
 1.817559022734820e+000	 1.326265131444094e+000	 1.193584069150531e+001
 1.803805984566350e+000	 1.344910394809677e+000	 1.182585073939736e+001
 1.789851196351457e+000	 1.363426820537300e+000	 1.174014265722187e+001
 1.775696457670766e+000	 1.381811163030105e+000	 1.167926882569431e+001
 1.761343637221934e+000	 1.400060210025256e+000	 1.164379558379464e+001
 1.746794672051384e+000	 1.418170784423037e+000	 1.163430337723610e+001
 1.904164788017406e+000	 1.244902188946530e+000	 1.244055757798299e+001
 1.891303697650032e+000	 1.264355694902035e+000	 1.243465719158629e+001
 1.878230588992809e+000	 1.283695779597362e+000	 1.225264259853434e+001
 1.864946922627250e+000	 1.302919021189604e+000	 1.212409616339136e+001
 1.851454232009387e+000	 1.322022022048363e+000	 1.202634267575973e+001
 1.837754122992349e+000	 1.341001410679437e+000	 1.194727070416084e+001
 1.823848273288425e+000	 1.359853843638046e+000	 1.188719122529231e+001
 1.809738431870839e+000	 1.378576007429415e+000	 1.184643381463484e+001
 1.795426418315559e+000	 1.397164620394503e+000	 1.182534724578034e+001
 1.780914122083544e+000	 1.415616434578661e+000	 1.182429999494635e+001
 1.766203501743962e+000	 1.433928237581068e+000	 1.184368064740422e+001
 1.925089675802090e+000	 1.258582432778837e+000	 1.243190317830793e+001
 1.912087254771367e+000	 1.278249713524880e+000	 1.229445129053810e+001
 1.898870485579421e+000	 1.297802326623310e+000	 1.216615361466692e+001
 1.885440844858116e+000	 1.317236812628554e+000	 1.204757354124087e+001
 1.871799882914646e+000	 1.336549736573617e+000	 1.195464142838934e+001
 1.857949223248877e+000	 1.355737689914908e+000	 1.192507242874372e+001
 1.843890562009500e+000	 1.374797292466496e+000	 1.190978446608976e+001
 1.829625667389222e+000	 1.393725194321576e+000	 1.190890002642909e+001
 1.815156378959351e+000	 1.412518077758920e+000	 1.192256630489586e+001
 1.800484606944156e+000	 1.431172659132071e+000	 1.195095597614979e+001
 1.785612331435539e+000	 1.449685690739098e+000	 1.199426785773814e+001
 1.946014563585775e+000	 1.272262676611648e+000	 1.226016730966697e+001
 1.932870811891701e+000	 1.292143732148131e+000	 1.217399693683069e+001
 1.919510382165035e+000	 1.311908873649581e+000	 1.209345117488207e+001
 1.905934767087982e+000	 1.331554604067751e+000	 1.201890809227200e+001
 1.892145533818904e+000	 1.351077451099051e+000	 1.195074366237583e+001
 1.878144323504406e+000	 1.370473969150504e+000	 1.188933119184316e+001
 1.863932850729575e+000	 1.389740741295026e+000	 1.189656855473435e+001
 1.849512902906604e+000	 1.408874381213783e+000	 1.193068318607608e+001
 1.834886339602143e+000	 1.427871535123358e+000	 1.197426733136342e+001
 1.820055091803767e+000	 1.446728883685487e+000	 1.202729981566062e+001
 1.805021161126117e+000	 1.465443143897129e+000	 1.208979167540672e+001
 1.966939451368459e+000	 1.285942920444961e+000	 1.211341855362874e+001
 1.953654369011035e+000	 1.306037750771791e+000	 1.207268603884256e+001
 1.940150278749647e+000	 1.326015420676173e+000	 1.203411834094253e+001
 1.926428689316847e+000	 1.345872395507195e+000	 1.199791131667531e+001
 1.912491184722163e+000	 1.365605165624668e+000	 1.196426119697339e+001
 1.898339423758935e+000	 1.385210248386226e+000	 1.193336421364354e+001
 1.883975139448649e+000	 1.404684190123636e+000	 1.190541622280035e+001
 1.869400138422987e+000	 1.424023568106035e+000	 1.191489886390453e+001
 1.854616300243935e+000	 1.443224992487817e+000	 1.198375745022321e+001
 1.839625576662378e+000	 1.462285108238907e+000	 1.205682585179969e+001
 1.824429990815695e+000	 1.481200597055160e+000	 1.213392920844500e+001
 1.987864339150143e+000	 1.299623164278777e+000	 1.199088587219211e+001
 1.974437926129370e+000	 1.319931769395858e+000	 1.198993279662046e+001
 1.960790175333260e+000	 1.340121967703088e+000	 1.198775232464580e+001
 1.946922611544713e+000	 1.360190186946887e+000	 1.198436111971060e+001
 1.932836835624422e+000	 1.380132880150466e+000	 1.197977865705211e+001
 1.918534524012464e+000	 1.399946527622075e+000	 1.197402704575703e+001
 1.904017428166724e+000	 1.419627638952329e+000	 1.196713084535713e+001
 1.889287373938370e+000	 1.439172754998333e+000	 1.195911687753114e+001
 1.874346260884728e+000	 1.458578449852296e+000	 1.195431138340603e+001
 1.859196061519990e+000	 1.477841332792333e+000	 1.204298868084491e+001
 1.843838820504272e+000	 1.496958050213191e+000	 1.213031061412949e+001
 2.008789226930828e+000	 1.313303408113096e+000	 1.189182716888678e+001
 1.995221483246704e+000	 1.333825788020332e+000	 1.192517254085471e+001
 1.981430071915873e+000	 1.354228514730326e+000	 1.195396375084306e+001
 1.967416533771580e+000	 1.374507978386825e+000	 1.197804119934736e+001
 1.953182486525681e+000	 1.394660594676446e+000	 1.199725050563663e+001
 1.938729624264993e+000	 1.414682806858050e+000	 1.201144252228479e+001
 1.924059716883799e+000	 1.434571087781101e+000	 1.202047334205889e+001
 1.909174609452752e+000	 1.454321941890676e+000	 1.202420429740566e+001
 1.894076221524520e+000	 1.473931907216794e+000	 1.202250195279652e+001
 1.878766546376601e+000	 1.493397557345763e+000	 1.201523809021253e+001
 1.863247650191850e+000	 1.512715503371221e+000	 1.208252154433041e+001
 2.029714114710512e+000	 1.326983651947917e+000	 1.181552779694158e+001
 2.016005040363038e+000	 1.347719806645214e+000	 1.187786064367088e+001
 2.002069968497485e+000	 1.368335061757886e+000	 1.193237596604481e+001
 1.987910455997445e+000	 1.388825769827010e+000	 1.197874074767117e+001
 1.973528137425939e+000	 1.409188309202607e+000	 1.201662956826068e+001
 1.958924724516521e+000	 1.429419086094151e+000	 1.204572480782256e+001
 1.944102005599874e+000	 1.449514536609955e+000	 1.206571684105448e+001
 1.929061844966134e+000	 1.469471128783064e+000	 1.207630422184699e+001
 1.913806182163312e+000	 1.489285364581313e+000	 1.207719385784580e+001
 1.898337031232213e+000	 1.508953781899199e+000	 1.206810117503799e+001
 1.882656479878427e+000	 1.528472956529252e+000	 1.204875027234872e+001
 2.050639002489196e+000	 1.340663895783240e+000	 1.176129915878985e+001
 2.036788597478372e+000	 1.361613825270504e+000	 1.184747149610753e+001
 2.022709865078098e+000	 1.382441608785768e+000	 1.192262438935659e+001
 2.008404378222311e+000	 1.403143561267443e+000	 1.198625417057186e+001
 1.993873788325198e+000	 1.423716023728950e+000	 1.203786711651231e+001
 1.979119824767050e+000	 1.444155365330379e+000	 1.207697983978255e+001
 1.964144294314948e+000	 1.464457985438890e+000	 1.210311966800651e+001
 1.948949080478517e+000	 1.484620315675499e+000	 1.211582501065697e+001
 1.933536142801105e+000	 1.504638821945852e+000	 1.211464571317167e+001
 1.917907516086823e+000	 1.524510006452639e+000	 1.209914339801126e+001
 1.902065309564005e+000	 1.544230409687283e+000	 1.206889179234073e+001
 2.071563890266881e+000	 1.354344139619067e+000	 1.172847739045265e+001
 2.057572154592707e+000	 1.375507843896201e+000	 1.183349754756504e+001
 2.043349761657711e+000	 1.396548155813973e+000	 1.192435590275186e+001
 2.028898300446177e+000	 1.417461352708122e+000	 1.200038082442003e+001
 2.014219439223457e+000	 1.438243738255475e+000	 1.206091294651625e+001
 1.999314925016579e+000	 1.458891644566732e+000	 1.210530574390772e+001
 1.984186583029023e+000	 1.479401434267905e+000	 1.213292609369187e+001
 1.968836315989899e+000	 1.499769502567978e+000	 1.214315482172829e+001
 1.953266103437897e+000	 1.519992279310412e+000	 1.213538723371337e+001
 1.937478000940435e+000	 1.540066231006085e+000	 1.210903363014861e+001
 1.921474139248582e+000	 1.559987862845314e+000	 1.206351980458287e+001
 2.092488778043565e+000	 1.368024383455396e+000	 1.171642212485977e+001
 2.078355711706041e+000	 1.389401862522306e+000	 1.183544840288750e+001
 2.063989658236324e+000	 1.410654702842500e+000	 1.193722827792863e+001
 2.049392222669044e+000	 1.431779144149049e+000	 1.202092476854294e+001
 2.034565090120716e+000	 1.452771452782182e+000	 1.208571545270699e+001
 2.019510025265108e+000	 1.473627923803213e+000	 1.213079322485508e+001
 2.004228871742098e+000	 1.494344883097002e+000	 1.215536703674592e+001
 1.988723551500283e+000	 1.514918689460504e+000	 1.215866262113965e+001
 1.972996064073690e+000	 1.535345736674992e+000	 1.213992319730278e+001
 1.957048485793046e+000	 1.555622455559537e+000	 1.209841015738955e+001
 1.940882968932161e+000	 1.575745316003345e+000	 1.203340373278459e+001
 1.746794672051384e+000	 1.418170784423037e+000	 1.163430337723610e+001
 1.732051566727472e+000	 1.436139746095164e+000	 1.172481602948011e+001
 1.717116392458021e+000	 1.453963993669085e+000	 1.179869360289817e+001
 1.701991286151559e+000	 1.471640466286814e+000	 1.185469715134634e+001
 1.686678449421500e+000	 1.489166145337067e+000	 1.189163833504198e+001
 1.671180147536507e+000	 1.506538056157540e+000	 1.190838114627258e+001
 1.655498708317338e+000	 1.523753269705680e+000	 1.190384349106962e+001
 1.639636520981248e+000	 1.540808904196010e+000	 1.187699862306589e+001
 1.623596034935177e+000	 1.557702126702076e+000	 1.182687642623015e+001
 1.607379758518974e+000	 1.574430154721169e+000	 1.175256454365488e+001
 1.590990257700000e+000	 1.590990257700000e+000	 1.165320935007188e+001
 1.766203501743962e+000	 1.433928237581068e+000	 1.184368064740422e+001
 1.751296584138190e+000	 1.452096854383105e+000	 1.190288814890929e+001
 1.736195463487515e+000	 1.470119149152507e+000	 1.194628218111135e+001
 1.720902300443896e+000	 1.487992027021754e+000	 1.197278320518402e+001
 1.705419321083116e+000	 1.505712435839437e+000	 1.198136363991206e+001
 1.689748815843492e+000	 1.523277367891449e+000	 1.197104943297316e+001
 1.673893138410456e+000	 1.540683861590319e+000	 1.194092148330929e+001
 1.657854704548121e+000	 1.557929003130731e+000	 1.189011691103569e+001
 1.641635990879062e+000	 1.575009928109272e+000	 1.181783017182679e+001
 1.625239533613567e+000	 1.591923823106535e+000	 1.172331401321746e+001
 1.608667927229750e+000	 1.608667927229750e+000	 1.160588027076999e+001
 1.785612331435539e+000	 1.449685690739098e+000	 1.199426785773814e+001
 1.770541601547911e+000	 1.468053962671041e+000	 1.202870820981266e+001
 1.755274534516028e+000	 1.486274304635908e+000	 1.204806900664534e+001
 1.739813314735277e+000	 1.504343587756649e+000	 1.205142667240271e+001
 1.724160192743812e+000	 1.522258726341727e+000	 1.203791104836668e+001
 1.708317484149603e+000	 1.540016679625232e+000	 1.200670681335001e+001
 1.692287568502754e+000	 1.557614453474778e+000	 1.195705475012605e+001
 1.676072888114240e+000	 1.575049102065207e+000	 1.188825285454468e+001
 1.659675946822266e+000	 1.592317729516148e+000	 1.179965728451130e+001
 1.643099308707566e+000	 1.609417491491496e+000	 1.169068314652625e+001
 1.626345596759000e+000	 1.626345596759000e+000	 1.156080511800550e+001
 1.805021161126117e+000	 1.465443143897129e+000	 1.208979167540672e+001
 1.789786618956639e+000	 1.484011070958972e+000	 1.210581986249988e+001
 1.774353605543562e+000	 1.502429460119290e+000	 1.210741442668943e+001
 1.758724329025703e+000	 1.520695148491498e+000	 1.209380439621989e+001
 1.742901064403588e+000	 1.538805016843937e+000	 1.206427378513090e+001
 1.726886152454837e+000	 1.556755991358891e+000	 1.201816286629629e+001
 1.710681998594231e+000	 1.574545045359057e+000	 1.195486928520050e+001
 1.694291071679603e+000	 1.592169200999439e+000	 1.187384901133927e+001
 1.677715902764791e+000	 1.609625530922704e+000	 1.177461712465868e+001
 1.660959083800970e+000	 1.626911159876051e+000	 1.165674843497757e+001
 1.644023266287750e+000	 1.644023266287750e+000	 1.151987793288384e+001
 1.824429990815695e+000	 1.481200597055160e+000	 1.213392920844500e+001
 1.809031636364370e+000	 1.499968179246898e+000	 1.213772542015681e+001
 1.793432676570116e+000	 1.518584615602652e+000	 1.212764562710171e+001
 1.777635343315174e+000	 1.537046709226302e+000	 1.210306818409884e+001
 1.761641936062444e+000	 1.555351307346067e+000	 1.206342811056368e+001
 1.745454820759197e+000	 1.573495303092426e+000	 1.200821821959307e+001
 1.729076428684889e+000	 1.591475637243155e+000	 1.193699008230500e+001
 1.712509255244211e+000	 1.609289299933425e+000	 1.184935482453378e+001
 1.695755858706636e+000	 1.626933332328940e+000	 1.174498375351880e+001
 1.678818858893779e+000	 1.644404828260202e+000	 1.162360881278138e+001
 1.661700935816000e+000	 1.661700935816000e+000	 1.148502286394168e+001
 1.843838820504272e+000	 1.496958050213191e+000	 1.213031061412949e+001
 1.828276653771107e+000	 1.515925287534819e+000	 1.212788803448333e+001
 1.812511747595690e+000	 1.534739771085993e+000	 1.211205837774213e+001
 1.796546357603691e+000	 1.553398269961063e+000	 1.208234612542008e+001
 1.780382807720380e+000	 1.571897597848118e+000	 1.203833421351990e+001
 1.764023489062682e+000	 1.590234614825834e+000	 1.197966502101997e+001
 1.747470858774727e+000	 1.608406229127074e+000	 1.190604118793101e+001
 1.730727438808065e+000	 1.626409398867167e+000	 1.181722626022284e+001
 1.713795814647801e+000	 1.644241133734856e+000	 1.171304515948597e+001
 1.696678633985994e+000	 1.661898496643949e+000	 1.159338447576048e+001
 1.679378605343750e+000	 1.679378605343750e+000	 1.145819258254506e+001
 1.863247650191850e+000	 1.512715503371221e+000	 1.208252154433041e+001
 1.847521671176849e+000	 1.531882395822735e+000	 1.207973373535445e+001
 1.831590818620283e+000	 1.550894926569315e+000	 1.206391866872237e+001
 1.815457371891252e+000	 1.569749830695778e+000	 1.203474382679818e+001
 1.799123679377396e+000	 1.588443888350088e+000	 1.199193704840712e+001
 1.782592157365292e+000	 1.606973926559118e+000	 1.193528738002242e+001
 1.765865288863745e+000	 1.625336821010813e+000	 1.186464575062605e+001
 1.748945622371164e+000	 1.643529497800664e+000	 1.177992546774260e+001
 1.731835770588285e+000	 1.661548935140452e+000	 1.168110253272679e+001
 1.714538409077612e+000	 1.679392165027290e+000	 1.156821577397491e+001
 1.697056274871000e+000	 1.697056274871000e+000	 1.144136679732540e+001
 1.882656479878427e+000	 1.528472956529252e+000	 1.204875027234872e+001
 1.866766688581596e+000	 1.547839504110645e+000	 1.199665334431604e+001
 1.850669889643897e+000	 1.567050082052617e+000	 1.198646424544454e+001
 1.834368386177858e+000	 1.586101391430448e+000	 1.196334557098715e+001
 1.817864551033491e+000	 1.604990178851978e+000	 1.192716712046697e+001
 1.801160825667026e+000	 1.623713238292278e+000	 1.187786178205828e+001
 1.784259718951942e+000	 1.642267412894373e+000	 1.181542606727986e+001
 1.767163805933506e+000	 1.660649596733915e+000	 1.173992046094713e+001
 1.749875726528090e+000	 1.678856736545729e+000	 1.165146958467679e+001
 1.732398184168636e+000	 1.696885833410226e+000	 1.155026217284350e+001
 1.714733944397750e+000	 1.714733944397750e+000	 1.143655086050589e+001
 1.902065309564005e+000	 1.544230409687283e+000	 1.206889179234073e+001
 1.886011705985348e+000	 1.563796612398551e+000	 1.196183963904594e+001
 1.869748960666530e+000	 1.583205237535899e+000	 1.188290604965758e+001
 1.853279400463509e+000	 1.602452952165073e+000	 1.187121540483231e+001
 1.836605422688667e+000	 1.621536469353789e+000	 1.184694122297698e+001
 1.819729493967886e+000	 1.640452550025312e+000	 1.181015747757717e+001
 1.802654149039319e+000	 1.659198004777752e+000	 1.176100362657603e+001
 1.785381989495096e+000	 1.677769695666922e+000	 1.169968481899810e+001
 1.767915682467214e+000	 1.696164537950685e+000	 1.162647190919946e+001
 1.750257959259065e+000	 1.714379501792756e+000	 1.154170127787058e+001
 1.732411613923999e+000	 1.732411613923999e+000	 1.144577445955499e+001
 1.921474139248582e+000	 1.559987862845314e+000	 1.206351980458287e+001
 1.905256723388105e+000	 1.579753720686452e+000	 1.196415108831370e+001
 1.888828031688184e+000	 1.599360393019160e+000	 1.185669400843637e+001
 1.872190414748205e+000	 1.618804512899653e+000	 1.176139816128622e+001
 1.855346294342923e+000	 1.638082759855519e+000	 1.175416312977450e+001
 1.838298162267870e+000	 1.657191861758221e+000	 1.173493684742468e+001
 1.821048579125877e+000	 1.676128596660951e+000	 1.170399914981058e+001
 1.803600173055928e+000	 1.694889794599684e+000	 1.166169740528876e+001
 1.785955638405659e+000	 1.713472339355321e+000	 1.160844638246426e+001
 1.768117734348899e+000	 1.731873170174883e+000	 1.154472791847996e+001
 1.750089283449750e+000	 1.750089283449750e+000	 1.147109038813358e+001
 1.940882968932161e+000	 1.575745316003345e+000	 1.203340373278459e+001
 1.924501740789867e+000	 1.595710828974349e+000	 1.194644502884777e+001
 1.907907102708858e+000	 1.615515548502402e+000	 1.185241616321512e+001
 1.891101429031947e+000	 1.635156073634189e+000	 1.175188124022631e+001
 1.874087165996259e+000	 1.654629050357170e+000	 1.165172424622819e+001
 1.856866830566980e+000	 1.673931173491006e+000	 1.165495574632254e+001
 1.839443009211615e+000	 1.693059188543971e+000	 1.164703262926140e+001
 1.821818356616007e+000	 1.712009893532202e+000	 1.162844210323225e+001
 1.803995594343424e+000	 1.730780140759638e+000	 1.159974059883082e+001
 1.785977509438138e+000	 1.749366838556604e+000	 1.156155328681891e+001
 1.767766952975000e+000	 1.767766952975000e+000	 1.151457339078524e+001
 1.590990257700000e+000	 1.590990257700000e+000	 1.165320935007188e+001
 1.574430154721170e+000	 1.607379758518973e+000	 1.161785525635495e+001
 1.557702126702076e+000	 1.623596034935176e+000	 1.156155468447908e+001
 1.540808904196010e+000	 1.639636520981247e+000	 1.148487400302347e+001
 1.523753269705680e+000	 1.655498708317337e+000	 1.138843349148132e+001
 1.506538056157541e+000	 1.671180147536507e+000	 1.127290619112826e+001
 1.489166145337068e+000	 1.686678449421499e+000	 1.113901660909050e+001
 1.471640466286814e+000	 1.701991286151559e+000	 1.098753927904440e+001
 1.453963993669085e+000	 1.717116392458020e+000	 1.081929718244079e+001
 1.436139746095165e+000	 1.732051566727472e+000	 1.063516003459422e+001
 1.418170784423037e+000	 1.746794672051384e+000	 1.043604244040938e+001
 1.608667927229750e+000	 1.608667927229750e+000	 1.160588027076999e+001
 1.591923823106535e+000	 1.625239533613567e+000	 1.159191652637272e+001
 1.575009928109272e+000	 1.641635990879061e+000	 1.155598412822804e+001
 1.557929003130732e+000	 1.657854704548121e+000	 1.149855055609977e+001
 1.540683861590319e+000	 1.673893138410455e+000	 1.142014045762141e+001
 1.523277367891449e+000	 1.689748815843492e+000	 1.132133458171366e+001
 1.505712435839438e+000	 1.705419321083115e+000	 1.120276855777378e+001
 1.487992027021754e+000	 1.720902300443895e+000	 1.106513152398871e+001
 1.470119149152507e+000	 1.736195463487514e+000	 1.090916460860733e+001
 1.452096854383106e+000	 1.751296584138189e+000	 1.073565926847766e+001
 1.433928237581068e+000	 1.766203501743962e+000	 1.054545548960645e+001
 1.626345596759000e+000	 1.626345596759000e+000	 1.156080511800550e+001
 1.609417491491496e+000	 1.643099308707566e+000	 1.156447712128481e+001
 1.592317729516148e+000	 1.659675946822266e+000	 1.154511569755099e+001
 1.575049102065208e+000	 1.676072888114239e+000	 1.150309163117321e+001
 1.557614453474778e+000	 1.692287568502753e+000	 1.143883621273107e+001
 1.540016679625233e+000	 1.708317484149602e+000	 1.135284025246239e+001
 1.522258726341728e+000	 1.724160192743811e+000	 1.124565293188845e+001
 1.504343587756649e+000	 1.739813314735276e+000	 1.111788049689458e+001
 1.486274304635909e+000	 1.755274534516028e+000	 1.097018479605065e+001
 1.468053962671042e+000	 1.770541601547911e+000	 1.080328166844746e+001
 1.449685690739099e+000	 1.785612331435539e+000	 1.061793918579880e+001
 1.644023266287750e+000	 1.644023266287750e+000	 1.151987793288384e+001
 1.626911159876052e+000	 1.660959083800970e+000	 1.153754831354303e+001
 1.609625530922704e+000	 1.677715902764791e+000	 1.153107610027615e+001
 1.592169200999440e+000	 1.694291071679603e+000	 1.150073752408715e+001
 1.574545045359057e+000	 1.710681998594231e+000	 1.144687274375105e+001
 1.556755991358892e+000	 1.726886152454837e+000	 1.136988493681087e+001
 1.538805016843938e+000	 1.742901064403587e+000	 1.127023922098837e+001
 1.520695148491499e+000	 1.758724329025702e+000	 1.114846140921881e+001
 1.502429460119290e+000	 1.774353605543561e+000	 1.100513660204775e+001
 1.484011070958973e+000	 1.789786618956638e+000	 1.084090762164357e+001
 1.465443143897129e+000	 1.805021161126117e+000	 1.065647329217398e+001
 1.661700935816000e+000	 1.661700935816000e+000	 1.148502286394168e+001
 1.644404828260203e+000	 1.678818858893778e+000	 1.151316633588663e+001
 1.626933332328940e+000	 1.695755858706635e+000	 1.151601187466804e+001
 1.609289299933426e+000	 1.712509255244211e+000	 1.149374325103321e+001
 1.591475637243156e+000	 1.729076428684889e+000	 1.144661167010179e+001
 1.573495303092426e+000	 1.745454820759197e+000	 1.137493493746642e+001
 1.555351307346068e+000	 1.761641936062444e+000	 1.127909644777193e+001
 1.537046709226303e+000	 1.777635343315174e+000	 1.115954399891989e+001
 1.518584615602652e+000	 1.793432676570115e+000	 1.101678843559737e+001
 1.499968179246898e+000	 1.809031636364370e+000	 1.085140212636507e+001
 1.481200597055160e+000	 1.824429990815695e+000	 1.066401727906148e+001
 1.679378605343750e+000	 1.679378605343750e+000	 1.145819258254506e+001
 1.661898496643949e+000	 1.696678633985992e+000	 1.149339106764278e+001
 1.644241133734857e+000	 1.713795814647799e+000	 1.150208834572007e+001
 1.626409398867167e+000	 1.730727438808065e+000	 1.148437777379584e+001
 1.608406229127075e+000	 1.747470858774726e+000	 1.144042373671062e+001
 1.590234614825835e+000	 1.764023489062681e+000	 1.137046088591951e+001
 1.571897597848118e+000	 1.780382807720380e+000	 1.127479319265328e+001
 1.553398269961063e+000	 1.796546357603690e+000	 1.115379281853689e+001
 1.534739771085994e+000	 1.812511747595689e+000	 1.100789880732912e+001
 1.515925287534820e+000	 1.828276653771107e+000	 1.083761560200914e+001
 1.496958050213191e+000	 1.843838820504272e+000	 1.064351139197762e+001
 1.697056274871000e+000	 1.697056274871000e+000	 1.144136679732540e+001
 1.679392165027290e+000	 1.714538409077612e+000	 1.148030480313356e+001
 1.661548935140453e+000	 1.731835770588284e+000	 1.149148864667926e+001
 1.643529497800664e+000	 1.748945622371163e+000	 1.147492327341952e+001
 1.625336821010814e+000	 1.765865288863744e+000	 1.143068833872501e+001
 1.606973926559119e+000	 1.782592157365291e+000	 1.135893751698601e+001
 1.588443888350088e+000	 1.799123679377395e+000	 1.125989761679790e+001
 1.569749830695778e+000	 1.815457371891251e+000	 1.113386750526298e+001
 1.550894926569316e+000	 1.831590818620283e+000	 1.098121684504375e+001
 1.531882395822735e+000	 1.847521671176848e+000	 1.080238464838868e+001
 1.512715503371221e+000	 1.863247650191850e+000	 1.059787765291800e+001
 1.714733944397750e+000	 1.714733944397750e+000	 1.143655086050589e+001
 1.696885833410226e+000	 1.732398184168635e+000	 1.147601109626378e+001
 1.678856736545729e+000	 1.749875726528089e+000	 1.148641280109496e+001
 1.660649596733916e+000	 1.767163805933506e+000	 1.146767446880343e+001
 1.642267412894373e+000	 1.784259718951941e+000	 1.141979307562491e+001
 1.623713238292278e+000	 1.801160825667026e+000	 1.134284345729581e+001
 1.604990178851979e+000	 1.817864551033491e+000	 1.123697748373347e+001
 1.586101391430449e+000	 1.834368386177858e+000	 1.110242303431426e+001
 1.567050082052617e+000	 1.850669889643896e+000	 1.093948277736395e+001
 1.547839504110646e+000	 1.866766688581595e+000	 1.074853275808216e+001
 1.528472956529252e+000	 1.882656479878427e+000	 1.062445203150934e+001
 1.732411613923999e+000	 1.732411613923999e+000	 1.144577445955499e+001
 1.714379501792757e+000	 1.750257959259064e+000	 1.148263367584821e+001
 1.696164537950685e+000	 1.767915682467214e+000	 1.148907686106847e+001
 1.677769695666922e+000	 1.785381989495094e+000	 1.146493797701513e+001
 1.659198004777753e+000	 1.802654149039319e+000	 1.141013333263416e+001
 1.640452550025312e+000	 1.819729493967885e+000	 1.132466102673074e+001
 1.621536469353789e+000	 1.836605422688667e+000	 1.120860017963735e+001
 1.602452952165074e+000	 1.853279400463509e+000	 1.106210995678526e+001
 1.583205237535899e+000	 1.869748960666530e+000	 1.088542838777405e+001
 1.563796612398552e+000	 1.886011705985347e+000	 1.081604705635656e+001
 1.544230409687283e+000	 1.902065309564005e+000	 1.078209194290868e+001
 1.750089283449750e+000	 1.750089283449750e+000	 1.147109038813358e+001
 1.731873170174883e+000	 1.768117734348898e+000	 1.150231542667683e+001
 1.713472339355322e+000	 1.785955638405657e+000	 1.150171209773056e+001
 1.694889794599685e+000	 1.803600173055928e+000	 1.146903171237265e+001
 1.676128596660952e+000	 1.821048579125876e+000	 1.140411188750147e+001
 1.657191861758222e+000	 1.838298162267869e+000	 1.130687605189660e+001
 1.638082759855520e+000	 1.855346294342922e+000	 1.117733273239468e+001
 1.618804512899654e+000	 1.872190414748205e+000	 1.101557462308976e+001
 1.599360393019161e+000	 1.888828031688183e+000	 1.099434066887845e+001
 1.579753720686453e+000	 1.905256723388104e+000	 1.097689857282420e+001
 1.559987862845314e+000	 1.921474139248582e+000	 1.092888047346659e+001
 1.767766952975000e+000	 1.767766952975000e+000	 1.151457339078524e+001
 1.749366838556605e+000	 1.785977509438138e+000	 1.153721743171593e+001
 1.730780140759639e+000	 1.803995594343423e+000	 1.152656424028958e+001
 1.712009893532202e+000	 1.821818356616006e+000	 1.148228432158224e+001
 1.693059188543972e+000	 1.839443009211614e+000	 1.140413854087361e+001
 1.673931173491007e+000	 1.856866830566979e+000	 1.129197769078704e+001
 1.654629050357171e+000	 1.874087165996258e+000	 1.114574182951311e+001
 1.635156073634190e+000	 1.891101429031946e+000	 1.116512162497188e+001
 1.615515548502403e+000	 1.907907102708857e+000	 1.116348262896758e+001
 1.595710828974350e+000	 1.924501740789867e+000	 1.112995825657269e+001
 1.575745316003345e+000	 1.940882968932160e+000	 1.106490713858388e+001
 1.418170784423037e+000	 1.746794672051384e+000	 1.043604244040938e+001
 1.400060210025256e+000	 1.761343637221932e+000	 1.028863067493933e+001
 1.381811163030106e+000	 1.775696457670766e+000	 1.017495199023412e+001
 1.363426820537300e+000	 1.789851196351457e+000	 1.009552677352513e+001
 1.344910394809678e+000	 1.803805984566350e+000	 1.005087120061912e+001
 1.326265131444095e+000	 1.817559022734820e+000	 1.004149558098095e+001
 1.307494307523293e+000	 1.831108581103128e+000	 1.006790265760147e+001
 1.288601229750901e+000	 1.844453000395383e+000	 1.013058586721650e+001
 1.269589232571737e+000	 1.857590692405196e+000	 1.023002756659673e+001
 1.250461676279599e+000	 1.870520140527698e+000	 1.036669723076803e+001
 1.231221945114724e+000	 1.883239900231722e+000	 1.012898746824296e+001
 1.433928237581068e+000	 1.766203501743962e+000	 1.054545548960645e+001
 1.415616434578662e+000	 1.780914122083543e+000	 1.039188285980034e+001
 1.397164620394504e+000	 1.795426418315558e+000	 1.026564864582123e+001
 1.378576007429416e+000	 1.809738431870839e+000	 1.016733285557974e+001
 1.359853843638046e+000	 1.823848273288425e+000	 1.009751855999953e+001
 1.341001410679438e+000	 1.837754122992348e+000	 1.005679009717157e+001
 1.322022022048364e+000	 1.851454232009386e+000	 1.004573122034786e+001
 1.302919021189604e+000	 1.864946922627249e+000	 1.006492319574058e+001
 1.283695779597363e+000	 1.878230588992808e+000	 1.014446495898588e+001
 1.264355694902036e+000	 1.891303697650032e+000	 1.034290302629801e+001
 1.244902188946530e+000	 1.904164788017406e+000	 1.044133638144816e+001
 1.449685690739099e+000	 1.785612331435539e+000	 1.061793918579880e+001
 1.431172659132072e+000	 1.800484606944155e+000	 1.045798209712681e+001
 1.412518077758921e+000	 1.815156378959350e+000	 1.031904876631720e+001
 1.393725194321577e+000	 1.829625667389221e+000	 1.020177962672953e+001
 1.374797292466496e+000	 1.843890562009499e+000	 1.010682544389738e+001
 1.355737689914908e+000	 1.857949223248877e+000	 1.003484537696804e+001
 1.336549736573618e+000	 1.871799882914645e+000	 9.986504972994057e+000
 1.317236812628554e+000	 1.885440844858115e+000	 1.006639908775311e+001
 1.297802326623311e+000	 1.898870485579421e+000	 1.019829823338642e+001
 1.278249713524880e+000	 1.912087254771366e+000	 1.035043707779013e+001
 1.258582432778837e+000	 1.925089675802090e+000	 1.052321214779488e+001
 1.465443143897129e+000	 1.805021161126117e+000	 1.065647329217398e+001
 1.446728883685487e+000	 1.820055091803766e+000	 1.048988117253459e+001
 1.427871535123359e+000	 1.834886339602142e+000	 1.033807279623279e+001
 1.408874381213784e+000	 1.849512902906604e+000	 1.020174986192851e+001
 1.389740741295026e+000	 1.863932850729574e+000	 1.008163166817793e+001
 1.370473969150504e+000	 1.878144323504406e+000	 1.001221188985971e+001
 1.351077451099052e+000	 1.892145533818904e+000	 1.007578005291077e+001
 1.331554604067752e+000	 1.905934767087981e+000	 1.015331705020407e+001
 1.311908873649581e+000	 1.919510382165034e+000	 1.024536072399259e+001
 1.292143732148132e+000	 1.932870811891701e+000	 1.035241829467701e+001
 1.272262676611648e+000	 1.946014563585775e+000	 1.047496553698745e+001
 1.481200597055160e+000	 1.824429990815695e+000	 1.066401727906148e+001
 1.462285108238908e+000	 1.839625576662378e+000	 1.049051299718203e+001
 1.443224992487817e+000	 1.854616300243934e+000	 1.032562189875796e+001
 1.424023568106036e+000	 1.869400138422987e+000	 1.017010782207535e+001
 1.404684190123637e+000	 1.883975139448649e+000	 1.012623334617359e+001
 1.385210248386227e+000	 1.898339423758935e+000	 1.015331353595913e+001
 1.365605165624668e+000	 1.912491184722162e+000	 1.018848525041762e+001
 1.345872395507196e+000	 1.926428689316847e+000	 1.023238297581409e+001
 1.326015420676174e+000	 1.940150278749647e+000	 1.028561555679010e+001
 1.306037750771791e+000	 1.953654369011034e+000	 1.034876519130569e+001
 1.285942920444961e+000	 1.966939451368459e+000	 1.042238649115590e+001
 1.496958050213191e+000	 1.843838820504272e+000	 1.064351139197762e+001
 1.477841332792333e+000	 1.859196061519989e+000	 1.046279165379430e+001
 1.458578449852296e+000	 1.874346260884727e+000	 1.028457897056765e+001
 1.439172754998333e+000	 1.889287373938369e+000	 1.027786851527773e+001
 1.419627638952329e+000	 1.904017428166724e+000	 1.028030247010888e+001
 1.399946527622076e+000	 1.918534524012463e+000	 1.028492261297815e+001
 1.380132880150467e+000	 1.932836835624421e+000	 1.029245072006396e+001
 1.360190186946887e+000	 1.946922611544713e+000	 1.030358809648589e+001
 1.340121967703089e+000	 1.960790175333259e+000	 1.031901439972264e+001
 1.319931769395858e+000	 1.974437926129369e+000	 1.033938652286220e+001
 1.299623164278777e+000	 1.987864339150143e+000	 1.036533753980330e+001
 1.512715503371221e+000	 1.863247650191850e+000	 1.059787765291800e+001
 1.493397557345764e+000	 1.878766546376600e+000	 1.045521511261083e+001
 1.473931907216795e+000	 1.894076221524520e+000	 1.044919788461053e+001
 1.454321941890676e+000	 1.909174609452752e+000	 1.043863041590229e+001
 1.434571087781102e+000	 1.924059716883798e+000	 1.042432608048000e+001
 1.414682806858051e+000	 1.938729624264992e+000	 1.040708451842374e+001
 1.394660594676446e+000	 1.953182486525680e+000	 1.038769024715849e+001
 1.374507978386826e+000	 1.967416533771579e+000	 1.036691132353471e+001
 1.354228514730327e+000	 1.981430071915872e+000	 1.034549805946464e+001
 1.333825788020333e+000	 1.995221483246703e+000	 1.032418179366088e+001
 1.313303408113096e+000	 2.008789226930828e+000	 1.030367372182920e+001
 1.528472956529252e+000	 1.882656479878427e+000	 1.062445203150934e+001
 1.508953781899199e+000	 1.898337031232211e+000	 1.062287088253731e+001
 1.489285364581314e+000	 1.913806182163311e+000	 1.061074626613381e+001
 1.469471128783066e+000	 1.929061844966134e+000	 1.058895427577248e+001
 1.449514536609956e+000	 1.944102005599873e+000	 1.055836292798835e+001
 1.429419086094151e+000	 1.958924724516520e+000	 1.051983063013321e+001
 1.409188309202608e+000	 1.973528137425939e+000	 1.047420469175999e+001
 1.388825769827011e+000	 1.987910455997445e+000	 1.042231988276980e+001
 1.368335061757886e+000	 2.002069968497485e+000	 1.036499704128076e+001
 1.347719806645215e+000	 2.016005040363038e+000	 1.030304173399381e+001
 1.326983651947916e+000	 2.029714114710512e+000	 1.023724297164266e+001
 1.544230409687283e+000	 1.902065309564005e+000	 1.078209194290868e+001
 1.524510006452640e+000	 1.917907516086823e+000	 1.077965015711147e+001
 1.504638821945853e+000	 1.933536142801104e+000	 1.076161325200345e+001
 1.484620315675499e+000	 1.948949080478516e+000	 1.072890808231915e+001
 1.464457985438891e+000	 1.964144294314948e+000	 1.068245755912111e+001
 1.444155365330379e+000	 1.979119824767049e+000	 1.062317902156343e+001
 1.423716023728951e+000	 1.993873788325197e+000	 1.055198264812872e+001
 1.403143561267443e+000	 2.008404378222311e+000	 1.046976991069407e+001
 1.382441608785769e+000	 2.022709865078098e+000	 1.037743207460786e+001
 1.361613825270505e+000	 2.036788597478372e+000	 1.027584874778473e+001
 1.340663895783240e+000	 2.050639002489196e+000	 1.016588648163683e+001
 1.559987862845314e+000	 1.921474139248582e+000	 1.092888047346659e+001
 1.540066231006086e+000	 1.937478000940434e+000	 1.092564336153104e+001
 1.519992279310412e+000	 1.953266103437896e+000	 1.090187241670064e+001
 1.499769502567979e+000	 1.968836315989899e+000	 1.085854561421100e+001
 1.479401434267906e+000	 1.984186583029023e+000	 1.079664103353564e+001
 1.458891644566733e+000	 1.999314925016578e+000	 1.071713513372901e+001
 1.438243738255476e+000	 2.014219439223456e+000	 1.062100106421143e+001
 1.417461352708123e+000	 2.028898300446176e+000	 1.050920701456979e+001
 1.396548155813973e+000	 2.043349761657711e+000	 1.038271460678381e+001
 1.375507843896202e+000	 2.057572154592706e+000	 1.024247733311281e+001
 1.354344139619067e+000	 2.071563890266881e+000	 1.008943904269444e+001
 1.575745316003345e+000	 1.940882968932160e+000	 1.106490713858388e+001
 1.555622455559537e+000	 1.957048485793046e+000	 1.106092643082084e+001
 1.535345736674993e+000	 1.972996064073689e+000	 1.103158327698089e+001
 1.514918689460505e+000	 1.988723551500282e+000	 1.097790715179328e+001
 1.494344883097003e+000	 2.004228871742098e+000	 1.090093159840109e+001
 1.473627923803214e+000	 2.019510025265108e+000	 1.080169240682491e+001
 1.452771452782183e+000	 2.034565090120716e+000	 1.068122582395691e+001
 1.431779144149050e+000	 2.049392222669043e+000	 1.054056679888086e+001
 1.410654702842501e+000	 2.063989658236324e+000	 1.038074726715247e+001
 1.389401862522308e+000	 2.078355711706041e+000	 1.020279447750491e+001
 1.368024383455396e+000	 2.092488778043565e+000	 1.000772936426351e+001
 1.231221945114724e+000	 1.883239900231722e+000	 1.012898746824296e+001
 1.211873445353537e+000	 1.895748599471812e+000	 9.843321228879141e+000
 1.192419603391557e+000	 1.908044939040537e+000	 9.596371815799596e+000
 1.172863863822528e+000	 1.920127692860818e+000	 9.387080477661858e+000
 1.153209687516760e+000	 1.931995708218037e+000	 9.214392987071449e+000
 1.133460549699555e+000	 1.943647905932685e+000	 9.077260686158228e+000
 1.113619938032246e+000	 1.955083280473654e+000	 8.974641472045223e+000
 1.093691350697970e+000	 1.966300900012589e+000	 8.905500721788929e+000
 1.073678294494223e+000	 1.977299906419739e+000	 8.868812156583051e+000
 1.053584282934247e+000	 1.988079515201899e+000	 8.863558645218205e+000
 1.033412834359236e+000	 1.998639015383027e+000	 8.888732946993949e+000
 1.244902188946530e+000	 1.904164788017406e+000	 1.044133638144816e+001
 1.225338705854776e+000	 1.916812472804541e+000	 1.010369386299871e+001
 1.205668710093352e+000	 1.929245438368385e+000	 9.811372825440392e+000
 1.185895684529262e+000	 1.941462445008779e+000	 9.563308747918843e+000
 1.166023128486933e+000	 1.953462327203166e+000	 9.358436526329694e+000
 1.146054555805279e+000	 1.965243993781153e+000	 9.195691572329325e+000
 1.125993492897427e+000	 1.976806428039065e+000	 9.074010856924010e+000
 1.105843476815215e+000	 1.988148687794897e+000	 8.992333898092394e+000
 1.085608053320555e+000	 1.999269905384127e+000	 8.949603692098748e+000
 1.065290774965725e+000	 2.010169287596954e+000	 8.944767588356807e+000
 1.044895199184599e+000	 2.020846115557606e+000	 8.976778107896944e+000
 1.258582432778837e+000	 1.925089675802090e+000	 1.052321214779488e+001
 1.238803966356609e+000	 1.937876346136270e+000	 1.034072022581199e+001
 1.218917816795809e+000	 1.950445937695232e+000	 1.000428365585746e+001
 1.198927505236709e+000	 1.962797197155740e+000	 9.718537781688099e+000
 1.178836569457846e+000	 1.974928946187296e+000	 9.482406450090155e+000
 1.158648561911752e+000	 1.986840081628622e+000	 9.294809105652396e+000
 1.138367047763346e+000	 1.998529575603476e+000	 9.154661891446139e+000
 1.117995602933167e+000	 2.009996475576207e+000	 9.060878698110090e+000
 1.097537812147544e+000	 2.021239904347514e+000	 9.012372160872783e+000
 1.076997266997789e+000	 2.032259059991008e+000	 9.008054604239481e+000
 1.056377564010459e+000	 2.043053215731184e+000	 9.046838934262269e+000
 1.272262676611648e+000	 1.946014563585775e+000	 1.047496553698745e+001
 1.252269226859034e+000	 1.958940219467000e+000	 1.050389308359605e+001
 1.232166923498929e+000	 1.971646437021081e+000	 1.017631036674008e+001
 1.211959325944866e+000	 1.984131949301701e+000	 9.853937720840047e+000
 1.191650010429500e+000	 1.996395565170424e+000	 9.587440858030002e+000
 1.171242568018976e+000	 2.008436169475089e+000	 9.375723217513286e+000
 1.150740602630004e+000	 2.020252723166887e+000	 9.217680208786444e+000
 1.130147729051826e+000	 2.031844263356515e+000	 9.112200320986638e+000
 1.109467570975189e+000	 2.043209903309901e+000	 9.058166184240697e+000
 1.088703759030439e+000	 2.054348832384063e+000	 9.054455582617299e+000
 1.067859928836815e+000	 2.065260315903762e+000	 9.099942418468901e+000
 1.285942920444961e+000	 1.966939451368459e+000	 1.042238649115590e+001
 1.265734487362051e+000	 1.980004092796729e+000	 1.040096736099209e+001
 1.245416030202710e+000	 1.992846936345929e+000	 1.032865393448718e+001
 1.224991146653735e+000	 2.005466701446662e+000	 9.970674961138348e+000
 1.204463451401895e+000	 2.017862184152553e+000	 9.674675246438275e+000
 1.183836574126948e+000	 2.030032257320558e+000	 9.439542184348461e+000
 1.163114157497400e+000	 2.041975870729298e+000	 9.264150541637061e+000
 1.142299855171193e+000	 2.053692051135824e+000	 9.147363626305278e+000
 1.121397329803491e+000	 2.065179902271288e+000	 9.088034411899482e+000
 1.100410251063676e+000	 2.076438604776118e+000	 9.085006617189674e+000
 1.079342293663667e+000	 2.087467416075340e+000	 9.137115740875426e+000
 1.299623164278777e+000	 1.987864339150143e+000	 1.036533753980330e+001
 1.279199747865662e+000	 2.001067966125458e+000	 1.029468816981859e+001
 1.258665136907154e+000	 2.014047435669777e+000	 1.027913154662046e+001
 1.238022967363315e+000	 2.026801453590623e+000	 1.006991234940375e+001
 1.217276892375029e+000	 2.039328803133682e+000	 9.745242645236441e+000
 1.196430580235670e+000	 2.051628345165026e+000	 9.487372714747583e+000
 1.175487712365535e+000	 2.063699018290709e+000	 9.295156769601062e+000
 1.154451981291268e+000	 2.075539838914133e+000	 9.167433151959644e+000
 1.133327088632449e+000	 2.087149901231675e+000	 9.103025520414622e+000
 1.112116743097499e+000	 2.098528377167173e+000	 9.100743994870374e+000
 1.090824658491015e+000	 2.109674516245919e+000	 9.159386259926475e+000
 1.313303408113096e+000	 2.008789226930828e+000	 1.030367372182920e+001
 1.292665008369864e+000	 2.022131839453188e+000	 1.018487120656133e+001
 1.271914243612259e+000	 2.035247934992624e+000	 1.012734817715185e+001
 1.251054788073606e+000	 2.048136205733584e+000	 1.013143193053151e+001
 1.230090333348905e+000	 2.060795422113811e+000	 9.800273746434657e+000
 1.209024586345141e+000	 2.073224433008494e+000	 9.520320031112467e+000
 1.187861267234408e+000	 2.085422165851120e+000	 9.311781963624227e+000
 1.166604107412051e+000	 2.097387626691442e+000	 9.173473130908274e+000
 1.145256847462065e+000	 2.109119900191063e+000	 9.104188211820699e+000
 1.123823235131909e+000	 2.120618149557228e+000	 9.102704185724386e+000
 1.102307023318859e+000	 2.131881616415496e+000	 9.167781502877253e+000
 1.326983651947916e+000	 2.029714114710512e+000	 1.023724297164266e+001
 1.306130268874659e+000	 2.043195712779917e+000	 1.007132653346765e+001
 1.285163350318026e+000	 2.056448434314472e+000	 9.972772127863504e+000
 1.264086608784609e+000	 2.069470957875546e+000	 9.941941426418472e+000
 1.242903774323520e+000	 2.082262041092940e+000	 9.840897024642942e+000
 1.221618592455363e+000	 2.094820520850962e+000	 9.539487946264350e+000
 1.200234822104020e+000	 2.107145313410531e+000	 9.315108427678618e+000
 1.178756233533540e+000	 2.119235414467751e+000	 9.166547506893139e+000
 1.157186606292338e+000	 2.131089899149449e+000	 9.092571212308787e+000
 1.135529727166904e+000	 2.142707921946283e+000	 9.091923833526803e+000
 1.113789388147199e+000	 2.154088716584075e+000	 9.163329157092123e+000
 1.340663895783240e+000	 2.050639002489196e+000	 1.016588648163683e+001
 1.319595529380046e+000	 2.064259586105647e+000	 9.953858866007757e+000
 1.298412457024456e+000	 2.077648933635320e+000	 9.815175627738839e+000
 1.277118429496323e+000	 2.090805710016507e+000	 9.750233228663239e+000
 1.255717215298877e+000	 2.103728660071070e+000	 9.759341958677279e+000
 1.234212598566333e+000	 2.116416608692430e+000	 9.545978935361449e+000
 1.212608376974371e+000	 2.128868460968941e+000	 9.306217737893517e+000
 1.190908359655738e+000	 2.141083202243059e+000	 9.147719949195274e+000
 1.169116365123267e+000	 2.153059898106837e+000	 9.069223270993540e+000
 1.147236219202486e+000	 2.164797694334337e+000	 9.069439746900473e+000
 1.125271752976035e+000	 2.176295816751653e+000	 9.147057061875648e+000
 1.354344139619067e+000	 2.071563890266881e+000	 1.008943904269444e+001
 1.333060789886026e+000	 2.085323459430376e+000	 9.832267842914094e+000
 1.311661563731547e+000	 2.098849432955168e+000	 9.654327004548838e+000
 1.290150250208748e+000	 2.112140462156468e+000	 9.556048202095719e+000
 1.268530656274973e+000	 2.125195279048198e+000	 9.537770127239199e+000
 1.246806604678054e+000	 2.138012696532898e+000	 9.540894203457777e+000
 1.224981931845459e+000	 2.150591608526352e+000	 9.286190779315474e+000
 1.203060485778643e+000	 2.162930990017368e+000	 9.118053866496728e+000
 1.181046123954853e+000	 2.175029897063224e+000	 9.035193158755957e+000
 1.158942711238654e+000	 2.186887466721392e+000	 9.036288890990017e+000
 1.136754117805368e+000	 2.198502916918232e+000	 9.119993200798978e+000
 1.368024383455396e+000	 2.092488778043565e+000	 1.000772936426351e+001
 1.346526050392599e+000	 2.106387332754106e+000	 9.706348280017991e+000
 1.324910670439301e+000	 2.120049932274017e+000	 9.489990879912769e+000
 1.303182070921886e+000	 2.133475214295430e+000	 9.359124480314959e+000
 1.281344097251811e+000	 2.146661898024328e+000	 9.314116643758602e+000
 1.259400610790523e+000	 2.159608784372368e+000	 9.355235136596425e+000
 1.237355486717287e+000	 2.172314756082764e+000	 9.256107780462394e+000
 1.215212611902257e+000	 2.184778777790677e+000	 9.078612419910353e+000
 1.192975882787096e+000	 2.196999896018612e+000	 8.991529667154611e+000
 1.170649203275409e+000	 2.208977239107448e+000	 8.993508379635854e+000
 1.148236482635196e+000	 2.220710017083810e+000	 9.083165694486278e+000
 1.033412834359236e+000	 1.998639015383027e+000	 8.888732946993949e+000
 1.013167470062905e+000	 2.008977769327879e+000	 8.755282500568846e+000
 9.928517124315605e-001	 2.019095212510688e+000	 8.630824441425846e+000
 9.724690831009006e-001	 2.028990853228824e+000	 8.514626793377284e+000
 9.520231011303467e-001	 2.038664272261591e+000	 8.405986363955504e+000
 9.315172811979676e-001	 2.048115122476415e+000	 8.304228753439224e+000
 9.109551318173340e-001	 2.057343128383052e+000	 8.208708292756707e+000
 8.903401535779654e-001	 2.066348085636912e+000	 8.118807912607869e+000
 8.696758374109875e-001	 2.075129860492684e+000	 8.033938946293176e+000
 8.489656628815507e-001	 2.083688389209485e+000	 7.953540868874262e+000
 8.282130965095028e-001	 2.092023677408817e+000	 7.877080975409346e+000
 1.044895199184599e+000	 2.020846115557606e+000	 8.976778107896944e+000
 1.024424886396339e+000	 2.031299744546037e+000	 8.855668888082793e+000
 1.003883398124834e+000	 2.041529603764009e+000	 8.741283179477497e+000
 9.832742951350689e-001	 2.051535196045529e+000	 8.632887149820617e+000
 9.626011355871265e-001	 2.061316097511893e+000	 8.529779028292429e+000
 9.418674732110532e-001	 2.070871957173500e+000	 8.431289061058283e+000
 9.210768555039051e-001	 2.080202496479100e+000	 8.336779391036329e+000
 9.002328219506407e-001	 2.089307508813609e+000	 8.245643864438154e+000
 8.793389022705098e-001	 2.098186858945657e+000	 8.157307766780113e+000
 8.583986146904981e-001	 2.106840482426126e+000	 8.071227491207624e+000
 8.374154642473412e-001	 2.115268384938982e+000	 7.986890142099845e+000
 1.056377564010459e+000	 2.043053215731184e+000	 9.046838934262269e+000
 1.035682302730179e+000	 2.053621719763194e+000	 8.937907643208913e+000
 1.014915083818444e+000	 2.063963995016330e+000	 8.833455852848946e+000
 9.940795071695259e-001	 2.074079538861236e+000	 8.732747838335518e+000
 9.731791700441653e-001	 2.083967922761197e+000	 8.635083226860294e+000
 9.522176652243896e-001	 2.093628791869585e+000	 8.539796899220653e+000
 9.311985791907380e-001	 2.103061864574148e+000	 8.446258810922551e+000
 9.101254903236087e-001	 2.112266931989306e+000	 8.353873735572025e+000
 8.890019671303761e-001	 2.121243857397628e+000	 8.262080933468964e+000
 8.678315664998603e-001	 2.129992575641767e+000	 8.170353748465132e+000
 8.466178319856844e-001	 2.138513092468148e+000	 8.078199136279054e+000
 1.067859928836815e+000	 2.065260315903762e+000	 9.099942418468901e+000
 1.046939719064425e+000	 2.075943694979352e+000	 9.003018684196764e+000
 1.025946769512391e+000	 2.086398386267651e+000	 8.908353084516888e+000
 1.004884719204270e+000	 2.096623881675940e+000	 8.815207980942908e+000
 9.837572045014631e-001	 2.106619748009500e+000	 8.722884392058028e+000
 9.625678572379760e-001	 2.116385626564670e+000	 8.630721840578127e+000
 9.413203028778328e-001	 2.125921232668197e+000	 8.538098115222240e+000
 9.200181586968704e-001	 2.135226355164003e+000	 8.444428950350812e+000
 8.986650319905866e-001	 2.144300855848600e+000	 8.349167626503267e+000
 8.772645183096371e-001	 2.153144668856408e+000	 8.251804495118062e+000
 8.558201997245326e-001	 2.161757799996312e+000	 8.151866430858132e+000
 1.079342293663667e+000	 2.087467416075340e+000	 9.137115740875426e+000
 1.058197135399078e+000	 2.098265670194510e+000	 9.052021995621423e+000
 1.036978455206676e+000	 2.108832777517972e+000	 8.966985508872631e+000
 1.015689931239302e+000	 2.119168224489647e+000	 8.881266722606689e+000
 9.943352389590204e-001	 2.129271573256804e+000	 8.794168056853568e+000
 9.729180492518131e-001	 2.139142461258754e+000	 8.705033701694312e+000
 9.514420265651892e-001	 2.148780600761245e+000	 8.613249319296093e+000
 9.299108270704248e-001	 2.158185778337700e+000	 8.518241659156596e+000
 9.083280968511410e-001	 2.167357854298572e+000	 8.419478089907731e+000
 8.866974701198294e-001	 2.176296762070050e+000	 8.316466051187710e+000
 8.650225674638863e-001	 2.185002507523477e+000	 8.208752429235094e+000
 1.090824658491015e+000	 2.109674516245919e+000	 9.159386259926475e+000
 1.069454551734137e+000	 2.120587645408667e+000	 9.085937624892905e+000
 1.048010140901297e+000	 2.131267168767293e+000	 9.010363771121320e+000
 1.026495143274623e+000	 2.141712567302352e+000	 8.931923230026099e+000
 1.004913273416837e+000	 2.151923398503107e+000	 8.849919849490645e+000
 9.832682412659007e-001	 2.161899295951840e+000	 8.763702530207310e+000
 9.615637502528079e-001	 2.171639968853294e+000	 8.672664867240339e+000
 9.398034954442726e-001	 2.181145201510397e+000	 8.576244700199524e+000
 9.179911617120399e-001	 2.190414852747544e+000	 8.473923575594847e+000
 8.961304219304360e-001	 2.199448855282691e+000	 8.365226125111244e+000
 8.742249352037450e-001	 2.208247215049642e+000	 8.249719363690129e+000
 1.102307023318859e+000	 2.131881616415496e+000	 9.167781502877253e+000
 1.080711968069602e+000	 2.142909620621825e+000	 9.105785678983356e+000
 1.059041826596255e+000	 2.153701560015614e+000	 9.039498526718635e+000
 1.037300355310231e+000	 2.164256910114057e+000	 8.968176690503999e+000
 1.015491307874912e+000	 2.174575223748410e+000	 8.891125488526594e+000
 9.936184332802392e-001	 2.184656130643925e+000	 8.807698592794406e+000
 9.716854739406878e-001	 2.194499336944341e+000	 8.717297609556631e+000
 9.496961638184135e-001	 2.204104624682095e+000	 8.619371563693330e+000
 9.276542265732828e-001	 2.213471851195516e+000	 8.513416290870348e+000
 9.055633737414577e-001	 2.222600948494332e+000	 8.398973741428289e+000
 8.834273029441089e-001	 2.231491922574806e+000	 8.275631200131345e+000
 1.113789388147199e+000	 2.154088716584075e+000	 9.163329157092123e+000
 1.091969384405474e+000	 2.165231595833983e+000	 9.112586321356924e+000
 1.070073512291550e+000	 2.176135951262935e+000	 9.055400440842247e+000
 1.048105567346128e+000	 2.186801252924763e+000	 8.991026310884463e+000
 1.026069342333247e+000	 2.197227048992712e+000	 8.918770778176867e+000
 1.003968625294828e+000	 2.207412965335010e+000	 8.837992363881714e+000
 9.818071976288300e-001	 2.217358705034390e+000	 8.748100782203396e+000
 9.595888321928472e-001	 2.227064047852791e+000	 8.648556358247214e+000
 9.373172914348700e-001	 2.236528849642489e+000	 8.538869349186388e+000
 9.149963255528941e-001	 2.245753041704973e+000	 8.418599172940734e+000
 8.926296706849778e-001	 2.254736630098971e+000	 8.287353548732373e+000
 1.125271752976035e+000	 2.176295816751653e+000	 9.147057061875648e+000
 1.103226800741752e+000	 2.187553571045140e+000	 9.107359769087550e+000
 1.081105197987183e+000	 2.198570342509257e+000	 9.059080187896248e+000
 1.058910779382311e+000	 2.209345595734469e+000	 9.001471316556021e+000
 1.036647376791840e+000	 2.219878874236016e+000	 8.933841603944854e+000
 1.014318817309667e+000	 2.230169800025095e+000	 8.855554515044288e+000
 9.919289213172341e-001	 2.240218073123438e+000	 8.766027986929469e+000
 9.694815005675743e-001	 2.250023471022488e+000	 8.664733779314638e+000
 9.469803562968012e-001	 2.259585848088461e+000	 8.551196723909515e+000
 9.244292773647455e-001	 2.268905134914613e+000	 8.424993877025646e+000
 9.018320384263519e-001	 2.277981337622136e+000	 8.285753580041517e+000
 1.136754117805368e+000	 2.198502916918232e+000	 9.119993200798978e+000
 1.114484217078436e+000	 2.209875546255298e+000	 9.091126290151086e+000
 1.092136883683152e+000	 2.221004733754577e+000	 9.051548451044708e+000
 1.069715991418784e+000	 2.231889938543174e+000	 9.000510950515059e+000
 1.047225411250693e+000	 2.242530699478319e+000	 8.937323928516301e+000
 1.024669009324757e+000	 2.252926634714181e+000	 8.861355905049656e+000
 1.002050645005900e+000	 2.263077441211487e+000	 8.772033172800111e+000
 9.793741689425942e-001	 2.272982894191185e+000	 8.668839079554969e+000
 9.566434211590766e-001	 2.282642846533432e+000	 8.551313204890588e+000
 9.338622291770118e-001	 2.292057228123255e+000	 8.419050435808307e+000
 9.110344061682311e-001	 2.301226045144301e+000	 8.271699946174676e+000
 1.148236482635196e+000	 2.220710017083810e+000	 9.083165694486278e+000
 1.125741633415527e+000	 2.232197521464456e+000	 9.064906200880747e+000
 1.103168569379458e+000	 2.243439124998900e+000	 9.033815921773888e+000
 1.080521203455544e+000	 2.254434281350881e+000	 8.989144472485107e+000
 1.057803445709806e+000	 2.265182524719623e+000	 8.930203787900359e+000
 1.035019201340097e+000	 2.275683469402266e+000	 8.856367570497538e+000
 1.012172368694828e+000	 2.285936809298535e+000	 8.767070618830873e+000
 9.892668373179077e-001	 2.295942317358883e+000	 8.661808040973192e+000
 9.663064860216967e-001	 2.305699844977406e+000	 8.540134357640644e+000
 9.432951809896932e-001	 2.315209321330896e+000	 8.401662499924999e+000
 9.202367739106159e-001	 2.324470752665467e+000	 8.246062706737202e+000
 8.282130965095028e-001	 2.092023677408817e+000	 7.877080975409346e+000
 8.074215901202451e-001	 2.100135799387014e+000	 7.796145427666196e+000
 7.865945792257691e-001	 2.108024897382408e+000	 7.712903520027023e+000
 7.657354814378439e-001	 2.115691180799508e+000	 7.626765935654092e+000
 7.448476949157646e-001	 2.123134925392267e+000	 7.537176371044189e+000
 7.239345968484166e-001	 2.130356472406817e+000	 7.443610984706333e+000
 7.029995419721642e-001	 2.137356227685584e+000	 7.345577793678986e+000
 6.820458611255978e-001	 2.144134660734327e+000	 7.242616021256759e+000
 6.610768598420863e-001	 2.150692303753667e+000	 7.134295399332668e+000
 6.400958169810165e-001	 2.157029750636725e+000	 7.020215428779882e+000
 6.191059833985354e-001	 2.163147655934445e+000	 6.863724930017029e+000
 8.374154642473412e-001	 2.115268384938982e+000	 7.986890142099845e+000
 8.163929411200946e-001	 2.123470641606018e+000	 7.892564856304036e+000
 7.953345189931456e-001	 2.131447396245942e+000	 7.798035620658608e+000
 7.742436534517256e-001	 2.139198860589977e+000	 7.702778474776213e+000
 7.531237804124570e-001	 2.146725313456010e+000	 7.606300670872661e+000
 7.319783145885445e-001	 2.154027099881797e+000	 7.508140060814710e+000
 7.108106479912019e-001	 2.161104630219127e+000	 7.407864433644581e+000
 6.896241484683368e-001	 2.167958379190486e+000	 7.305070807046216e+000
 6.684221582814661e-001	 2.174588884909840e+000	 7.199384676246770e+000
 6.472079927217480e-001	 2.180996747869118e+000	 7.090459223860348e+000
 6.259849387659531e-001	 2.187182629892056e+000	 6.977974494180958e+000
 8.466178319856844e-001	 2.138513092468148e+000	 8.078199136279054e+000
 8.253642921205442e-001	 2.146805483824028e+000	 7.973117915241347e+000
 8.040744587612064e-001	 2.154869895108496e+000	 7.869863050291123e+000
 7.827518254663669e-001	 2.162706540379492e+000	 7.767975527217960e+000
 7.613998659099727e-001	 2.170315701518835e+000	 7.667025814147565e+000
 7.400220323295502e-001	 2.177697727355906e+000	 7.566613185744735e+000
 7.186217540111615e-001	 2.184853032751853e+000	 7.466365000451687e+000
 6.972024358120316e-001	 2.191782097645894e+000	 7.365935934327445e+000
 6.757674567218264e-001	 2.198485466065337e+000	 7.265007175074692e+000
 6.543201684634744e-001	 2.204963745100922e+000	 7.163285579846005e+000
 6.328638941343707e-001	 2.211217603849173e+000	 7.060502800416783e+000
 8.558201997245326e-001	 2.161757799996312e+000	 8.151866430858132e+000
 8.343356431215939e-001	 2.170140326041044e+000	 8.038552452114844e+000
 8.128143985299519e-001	 2.178292393970071e+000	 7.929024163203820e+000
 7.912599974817669e-001	 2.186214220168053e+000	 7.822887130491220e+000
 7.696759514083118e-001	 2.193906089580743e+000	 7.719774741964557e+000
 7.480657500714335e-001	 2.201368354829143e+000	 7.619347467343073e+000
 7.264328600320427e-001	 2.208601435283764e+000	 7.521292073705736e+000
 7.047807231566827e-001	 2.215605816100554e+000	 7.425320800308565e+000
 6.831127551631671e-001	 2.222382047220160e+000	 7.331170496273559e+000
 6.614323442061960e-001	 2.228930742332137e+000	 7.238601724833433e+000
 6.397428495037884e-001	 2.235252577805797e+000	 7.147397837800660e+000
 8.650225674638863e-001	 2.185002507523477e+000	 8.208752429235094e+000
 8.433069941232435e-001	 2.193475168257064e+000	 8.089622271156918e+000
 8.215543382993820e-001	 2.201714892830667e+000	 7.976167225117516e+000
 7.997681694979264e-001	 2.209721899955661e+000	 7.868057115820752e+000
 7.779520369074741e-001	 2.217496477641732e+000	 7.764987997574249e+000
 7.561094678141944e-001	 2.225038982301508e+000	 7.666681349026997e+000
 7.342439660538458e-001	 2.232349837814859e+000	 7.572883225833344e+000
 7.123590105022898e-001	 2.239429534554463e+000	 7.483363375022188e+000
 6.904580536054884e-001	 2.246278628374308e+000	 7.397914314858607e+000
 6.685445199499128e-001	 2.252897739562763e+000	 7.316350383974727e+000
 6.466218048742060e-001	 2.259287551761928e+000	 7.238506763527872e+000
 8.742249352037450e-001	 2.208247215049642e+000	 8.249719363690129e+000
 8.522783451254931e-001	 2.216810010472089e+000	 8.127086819690748e+000
 8.302942780694966e-001	 2.225137391690283e+000	 8.011949891539818e+000
 8.082763415148443e-001	 2.233229579742314e+000	 7.904042382159230e+000
 7.862281224074600e-001	 2.241086865701803e+000	 7.803122799952776e+000
 7.641531855578329e-001	 2.248709609773001e+000	 7.708973486860058e+000
 7.420550720765711e-001	 2.256098240345137e+000	 7.621399706670760e+000
 7.199372978488531e-001	 2.263253253007621e+000	 7.540228697493057e+000
 6.978033520487903e-001	 2.270175209527782e+000	 7.465308692268459e+000
 6.756566956946249e-001	 2.276864736792801e+000	 7.396507911211582e+000
 6.535007602456237e-001	 2.283322525717564e+000	 7.333713530024490e+000
 8.834273029441089e-001	 2.231491922574806e+000	 8.275631200131345e+000
 8.612496961283427e-001	 2.240144852686119e+000	 8.151710894219310e+000
 8.390342178402960e-001	 2.248559890548920e+000	 8.037038718713767e+000
 8.167845135325217e-001	 2.256737259528015e+000	 7.931412215576459e+000
 7.945042079082694e-001	 2.264677253760958e+000	 7.834652175274719e+000
 7.721969033023490e-001	 2.272380237243623e+000	 7.746601696809617e+000
 7.498661781002181e-001	 2.279846642874600e+000	 7.667125210265528e+000
 7.275155851963726e-001	 2.287076971460031e+000	 7.596107465894444e+000
 7.051486504930726e-001	 2.294071790680582e+000	 7.533452493738709e+000
 6.827688714403323e-001	 2.300831734022249e+000	 7.479082537775495e+000
 6.603797156180413e-001	 2.307357499672706e+000	 7.432936968528997e+000
 8.926296706849778e-001	 2.254736630098971e+000	 8.287353548732373e+000
 8.702210471317924e-001	 2.263479694899155e+000	 8.164264364694306e+000
 8.477741576117799e-001	 2.271982389406577e+000	 8.052108704817053e+000
 8.252926855509581e-001	 2.280244939312762e+000	 7.950747650748128e+000
 8.027802934099018e-001	 2.288267641819193e+000	 7.860064142108953e+000
 7.802406210477429e-001	 2.296050864713371e+000	 7.779961967123395e+000
 7.576772841247869e-001	 2.303595045403246e+000	 7.710364717958283e+000
 7.350938725448480e-001	 2.310900689911689e+000	 7.651214714911685e+000
 7.124939489383357e-001	 2.317968371832707e+000	 7.602471903570550e+000
 6.898810471870346e-001	 2.324798731251109e+000	 7.564112729028868e+000
 6.672586709914591e-001	 2.331392473627356e+000	 7.536128991215251e+000
 9.018320384263519e-001	 2.277981337622136e+000	 8.285753580041517e+000
 8.791923981358421e-001	 2.286814537111197e+000	 8.165521915666936e+000
 8.565140973839484e-001	 2.295404888263255e+000	 8.057842859250956e+000
 8.338008575701534e-001	 2.303752619096555e+000	 7.962640871537102e+000
 8.110563789123576e-001	 2.311858029876512e+000	 7.879860946500362e+000
 7.882843387940145e-001	 2.319721492182250e+000	 7.809467531171980e+000
 7.654883901502774e-001	 2.327343447931077e+000	 7.751443412296307e+000
 7.426721598942798e-001	 2.334724408362597e+000	 7.705788574083434e+000
 7.198392473845794e-001	 2.341864952984158e+000	 7.672519031300580e+000
 6.969932229347319e-001	 2.348765728479379e+000	 7.651665641907028e+000
 6.741376263658767e-001	 2.355427447581511e+000	 7.643272903389735e+000
 9.110344061682311e-001	 2.301226045144301e+000	 8.271699946174676e+000
 8.881637491404917e-001	 2.310149379322243e+000	 8.156262803126108e+000
 8.652540371568017e-001	 2.318827387118954e+000	 8.054931798033154e+000
 8.423090295901078e-001	 2.327260298879394e+000	 7.967694647903269e+000
 8.193324644156370e-001	 2.335448417932912e+000	 7.894558343410754e+000
 7.963280565411635e-001	 2.343392119650254e+000	 7.835547996483113e+000
 7.732994961766900e-001	 2.351091850458091e+000	 7.790705656770707e+000
 7.502504472446678e-001	 2.358548126812756e+000	 7.760089101395002e+000
 7.271845458318036e-001	 2.365761534134936e+000	 7.743770602345532e+000
 7.041053986834246e-001	 2.372732725707061e+000	 7.741835675849131e+000
 6.810165817412944e-001	 2.379462421535173e+000	 7.754381817980019e+000
 9.202367739106159e-001	 2.324470752665467e+000	 8.246062706737202e+000
 8.971351001457416e-001	 2.333484221532295e+000	 8.137270625926668e+000
 8.739939769303398e-001	 2.342249885973674e+000	 8.044073363466934e+000
 8.508172016108218e-001	 2.350767978661280e+000	 7.966521806598736e+000
 8.276085499197399e-001	 2.359038805988395e+000	 7.904684921272813e+000
 8.043717742891903e-001	 2.367062747117389e+000	 7.858648526033885e+000
 7.811106022040246e-001	 2.374840252984291e+000	 7.828514036769161e+000
 7.578287345960121e-001	 2.382371845262165e+000	 7.814397186855890e+000
 7.345298442800083e-001	 2.389658115285038e+000	 7.816426727208391e+000
 7.112175744331125e-001	 2.396699722934155e+000	 7.834743110672878e+000
 6.878955371177123e-001	 2.403497395488342e+000	 7.869497165153364e+000
 6.191059833985354e-001	 2.163147655934445e+000	 6.863724930017029e+000
 5.981105806580939e-001	 2.169046733790038e+000	 6.785036220763783e+000
 5.771127997826462e-001	 2.174727756844882e+000	 6.700209483030483e+000
 5.561158000485699e-001	 2.180191555116963e+000	 6.612072994233325e+000
 5.351227078207390e-001	 2.185439014853159e+000	 6.523215196994394e+000
 5.141366154304756e-001	 2.190471077357688e+000	 6.435985177492575e+000
 4.931605800963984e-001	 2.195288737798133e+000	 6.352493656383937e+000
 4.721976228884916e-001	 2.199893043990709e+000	 6.274614476268396e+000
 4.512507277356554e-001	 2.204285095166384e+000	 6.203986568776045e+000
 4.303228404769301e-001	 2.208466040719535e+000	 6.142016383520920e+000
 4.094168679565230e-001	 2.212437078940723e+000	 6.089880760431170e+000
 6.259849387659531e-001	 2.187182629892056e+000	 6.977974494180958e+000
 6.047562537727171e-001	 2.193147253056797e+000	 6.896939119867440e+000
 5.835251642208401e-001	 2.198891398589630e+000	 6.806444843401954e+000
 5.622948644897696e-001	 2.204415905730961e+000	 6.715627180613078e+000
 5.410685156817665e-001	 2.209721670574856e+000	 6.627125247580863e+000
 5.198492444873892e-001	 2.214809644884472e+000	 6.543330135402012e+000
 4.986401420943512e-001	 2.219680834884810e+000	 6.466385967897551e+000
 4.774442631400803e-001	 2.224336300034484e+000	 6.398191472426928e+000
 4.562646247082417e-001	 2.228777151778144e+000	 6.340402046273882e+000
 4.351042053694196e-001	 2.233004552281214e+000	 6.294432300217793e+000
 4.139659442660896e-001	 2.237019713148595e+000	 6.261459060142641e+000
 6.328638941343707e-001	 2.211217603849173e+000	 7.060502800416783e+000
 6.114019268883301e-001	 2.217247772323162e+000	 7.011907519762642e+000
 5.899375286599927e-001	 2.223055040334081e+000	 6.912126994872145e+000
 5.684739289318763e-001	 2.228640256344763e+000	 6.815272598366640e+000
 5.470143235436290e-001	 2.234004326296460e+000	 6.724036934154639e+000
 5.255618735450454e-001	 2.239148212411263e+000	 6.640855555238260e+000
 5.041197040929345e-001	 2.244072931971593e+000	 6.567908090975224e+000
 4.826909033921675e-001	 2.248779556078466e+000	 6.507119904543445e+000
 4.612785216811748e-001	 2.253269208390210e+000	 6.460164262445015e+000
 4.398855702620848e-001	 2.257543063843300e+000	 6.428464997010617e+000
 4.185150205756415e-001	 2.261602347356972e+000	 6.413199642076903e+000
 6.397428495037884e-001	 2.235252577805797e+000	 7.147397837800660e+000
 6.180476000049326e-001	 2.241348291589134e+000	 7.129241602820584e+000
 5.963498931001037e-001	 2.247218682078241e+000	 7.016577609222100e+000
 5.746529933748897e-001	 2.252864606958373e+000	 6.910353639709906e+000
 5.529601314063263e-001	 2.258286982017971e+000	 6.813318618877456e+000
 5.312745026034443e-001	 2.263486779938061e+000	 6.727955034312904e+000
 5.095992660921482e-001	 2.268465029058483e+000	 6.656480136205515e+000
 4.879375436447532e-001	 2.273222812122655e+000	 6.600847684789618e+000
 4.662924186544548e-001	 2.277761265002584e+000	 6.562750226817974e+000
 4.446669351549258e-001	 2.282081575405792e+000	 6.543621881349785e+000
 4.230640968851787e-001	 2.286184981565858e+000	 6.544641614328262e+000
 6.466218048742060e-001	 2.259287551761928e+000	 7.238506763527872e+000
 6.246932731225249e-001	 2.265448810854711e+000	 7.248277265079600e+000
 6.027622575411730e-001	 2.271382323822106e+000	 7.119151027513683e+000
 5.808320578188102e-001	 2.277088957571788e+000	 7.000244403789680e+000
 5.589059392698584e-001	 2.282569637739387e+000	 6.894365491150730e+000
 5.369871316625859e-001	 2.287825347464866e+000	 6.804046200711372e+000
 5.150788280919926e-001	 2.292857126145480e+000	 6.731543532220107e+000
 4.931841838978376e-001	 2.297666068167052e+000	 6.678841414840622e+000
 4.713063156280816e-001	 2.302253321615265e+000	 6.647653094476440e+000
 4.494483000479425e-001	 2.306620086968692e+000	 6.639424047231000e+000
 4.276131731947014e-001	 2.310767615775252e+000	 6.655335397755957e+000
 6.535007602456237e-001	 2.283322525717564e+000	 7.333713530024490e+000
 6.313389462411063e-001	 2.289549330119895e+000	 7.333258049341975e+000
 6.091746219832009e-001	 2.295545965565678e+000	 7.219232540653760e+000
 5.870111222636374e-001	 2.301313308185010e+000	 7.084347133161060e+000
 5.648517471342256e-001	 2.306852293460711e+000	 6.966598155655788e+000
 5.426997607224704e-001	 2.312163914991677e+000	 6.868569448515033e+000
 5.205583900924674e-001	 2.317249223232584e+000	 6.792559903691680e+000
 4.984308241514204e-001	 2.322109324211656e+000	 6.740585402217278e+000
 4.763202126020553e-001	 2.326745378228254e+000	 6.714381316293876e+000
 4.542296649411349e-001	 2.331158598532000e+000	 6.715405554850473e+000
 4.321622495042093e-001	 2.335350249985153e+000	 6.744842130575743e+000
 6.603797156180413e-001	 2.307357499672706e+000	 7.432936968528997e+000
 6.379846193606776e-001	 2.313649849384685e+000	 7.417983622698537e+000
 6.155869864261875e-001	 2.319709607308956e+000	 7.316236777423036e+000
 5.931901867093715e-001	 2.325537658798039e+000	 7.162090747984871e+000
 5.707975549994278e-001	 2.331134949181942e+000	 7.029461308641076e+000
 5.484123897830977e-001	 2.336502482518496e+000	 6.920986752072476e+000
 5.260379520935729e-001	 2.341641320319794e+000	 6.839010019456580e+000
 5.036774644055017e-001	 2.346552580256467e+000	 6.785580738106487e+000
 4.813341095763758e-001	 2.351237434841550e+000	 6.762457842277315e+000
 4.590110298345030e-001	 2.355697110095715e+000	 6.771112755282133e+000
 4.367113258137025e-001	 2.359932884195560e+000	 6.812733110163961e+000
 6.672586709914591e-001	 2.331392473627356e+000	 7.536128991215251e+000
 6.446302924812386e-001	 2.337750368649082e+000	 7.504161018380766e+000
 6.219993508701324e-001	 2.343873249051940e+000	 7.409606192214849e+000
 5.993692511560126e-001	 2.349762009410874e+000	 7.232929470893398e+000
 5.767433628654646e-001	 2.355417604903078e+000	 7.082422496089157e+000
 5.541250188444674e-001	 2.360841050045321e+000	 6.960780553614409e+000
 5.315175140953088e-001	 2.366033417407113e+000	 6.870392805702561e+000
 5.089241046600814e-001	 2.370995836301485e+000	 6.813344432223784e+000
 4.863480065510432e-001	 2.375729491455153e+000	 6.791419374189583e+000
 4.637923947280468e-001	 2.380235621659837e+000	 6.806103656927451e+000
 4.412604021231812e-001	 2.384515518406475e+000	 6.858589269389771e+000
 6.741376263658767e-001	 2.355427447581511e+000	 7.643272903389735e+000
 6.512759656027893e-001	 2.361850887913085e+000	 7.591812144210021e+000
 6.284117153150359e-001	 2.368036890794632e+000	 7.486987239803098e+000
 6.055483156035606e-001	 2.373986360023517e+000	 7.296341536048183e+000
 5.826891707323364e-001	 2.379700260624122e+000	 7.124970947913864e+000
 5.598376479065801e-001	 2.385179617572152e+000	 6.987452718974430e+000
 5.369970760976752e-001	 2.390425514494537e+000	 6.886224419573009e+000
 5.141707449151598e-001	 2.395439092346710e+000	 6.823408600643829e+000
 4.913619035260574e-001	 2.400221548069063e+000	 6.800815663929227e+000
 4.685737596217664e-001	 2.404774133224367e+000	 6.819947330753257e+000
 4.458094784326451e-001	 2.409098152617898e+000	 6.882000685008205e+000
 6.810165817412944e-001	 2.379462421535173e+000	 7.754381817980019e+000
 6.579216387253294e-001	 2.385951407176694e+000	 7.680986316751159e+000
 6.348240797608978e-001	 2.392200532537029e+000	 7.552267585877743e+000
 6.117273800520153e-001	 2.398210710635965e+000	 7.351827976436153e+000
 5.886349786000431e-001	 2.403982916345072e+000	 7.156616482812231e+000
 5.655502769694353e-001	 2.409518185098991e+000	 7.000523556598592e+000
 5.424766381006722e-001	 2.414817611582069e+000	 6.886037378917180e+000
 5.194173851707366e-001	 2.419882348392142e+000	 6.815319702852745e+000
 4.963758005014184e-001	 2.424713604683281e+000	 6.790208854432577e+000
 4.733551245156617e-001	 2.429312644789304e+000	 6.812223351577008e+000
 4.503585547420944e-001	 2.433680786829828e+000	 6.882566115847667e+000
 6.878955371177123e-001	 2.403497395488342e+000	 7.869497165153364e+000
 6.645673118488593e-001	 2.410051926439911e+000	 7.771758890876017e+000
 6.412364442077186e-001	 2.416364174279133e+000	 7.616767611282990e+000
 6.179064445013772e-001	 2.422435061248221e+000	 7.398911483929011e+000
 5.945807864685849e-001	 2.428265572065930e+000	 7.176888478825539e+000
 5.712629060330334e-001	 2.433856752625838e+000	 6.999530895414967e+000
 5.479562001042998e-001	 2.439209708669709e+000	 6.869379744254388e+000
 5.246640254268120e-001	 2.444325604437782e+000	 6.788637824577462e+000
 5.013896974771264e-001	 2.449205661297806e+000	 6.759172860121962e+000
 4.781364894097328e-001	 2.453851156354649e+000	 6.782521272874066e+000
 4.549076310515292e-001	 2.458263421042266e+000	 6.859892568706656e+000
 4.094168679565230e-001	 2.212437078940723e+000	 6.089880760431170e+000
 3.885356771626090e-001	 2.216199455735425e+000	 5.996256413586221e+000
 3.676820944102924e-001	 2.219754463329662e+000	 5.909168303846669e+000
 3.468589045682616e-001	 2.223103438964542e+000	 5.829038679431433e+000
 3.260688503289501e-001	 2.226247763581710e+000	 5.756082365606378e+000
 3.053146315223872e-001	 2.229188860500556e+000	 5.690311497732096e+000
 2.845989044733674e-001	 2.231928194088898e+000	 5.631540569012636e+000
 2.639242814016646e-001	 2.234467268428642e+000	 5.579391771789186e+000
 2.432933298649641e-001	 2.236807625977843e+000	 5.533300611111740e+000
 2.227085722441365e-001	 2.238950846230580e+000	 5.492521769284118e+000
 2.021724852704328e-001	 2.240898544376048e+000	 5.456135200102160e+000
 4.139659442660896e-001	 2.237019713148595e+000	 6.261459060142641e+000
 3.928527402417594e-001	 2.240823894129246e+000	 6.180626499853622e+000
 3.717674510149444e-001	 2.244418401807346e+000	 6.104765145305598e+000
 3.507128923973190e-001	 2.247804588282233e+000	 6.034269980200687e+000
 3.296918375556780e-001	 2.250983849839349e+000	 5.969325259387569e+000
 3.087070163181628e-001	 2.253957625612741e+000	 5.909909349534099e+000
 2.877611145242892e-001	 2.256727396240980e+000	 5.855799891805162e+000
 2.668567734184957e-001	 2.259294682517993e+000	 5.806579264855267e+000
 2.459965890868874e-001	 2.261661044040256e+000	 5.761640326327499e+000
 2.251831119367900e-001	 2.263828077851780e+000	 5.720192411013889e+000
 2.044188462186914e-001	 2.265797417088305e+000	 5.681267563858601e+000
 4.185150205756415e-001	 2.261602347356972e+000	 6.413199642076903e+000
 3.971698033207161e-001	 2.265448332523665e+000	 6.341980208505873e+000
 3.758528076192648e-001	 2.269082340285696e+000	 6.274551279521747e+000
 3.545668802259483e-001	 2.272505737600639e+000	 6.211280119339623e+000
 3.333148247819220e-001	 2.275719936097731e+000	 6.152319583585411e+000
 3.120994011134395e-001	 2.278726390725676e+000	 6.097613075664705e+000
 2.909233245747364e-001	 2.281526598393801e+000	 6.046899832819749e+000
 2.697892654349166e-001	 2.284122096608050e+000	 5.999720519620969e+000
 2.486998483085041e-001	 2.286514462103322e+000	 5.955423106520776e+000
 2.276576516292792e-001	 2.288705309473562e+000	 5.913169011056798e+000
 2.066652071669667e-001	 2.290696289801054e+000	 5.871939479320530e+000
 4.230640968851787e-001	 2.286184981565858e+000	 6.544641614328262e+000
 4.014868663994790e-001	 2.290072770918680e+000	 6.479954167066873e+000
 3.799381642232539e-001	 2.293746278764711e+000	 6.418258655361267e+000
 3.584208680541498e-001	 2.297206886919758e+000	 6.359894169788974e+000
 3.369378120076825e-001	 2.300456022356853e+000	 6.304981338232969e+000
 3.154917859082169e-001	 2.303495155839361e+000	 6.253427406036017e+000
 2.940855346247092e-001	 2.306325800547358e+000	 6.204931653907210e+000
 2.727217574509273e-001	 2.308949510698812e+000	 6.158991130735487e+000
 2.514031075298141e-001	 2.311367880167042e+000	 6.114906678349339e+000
 2.301321913216042e-001	 2.313582541095925e+000	 6.071789225214806e+000
 2.089115681152584e-001	 2.315595162514295e+000	 6.028566326098310e+000
 4.276131731947014e-001	 2.310767615775252e+000	 6.655335397755957e+000
 4.058039294780481e-001	 2.314697209314293e+000	 6.594191282133085e+000
 3.840235208269116e-001	 2.318410217244391e+000	 6.535620701552531e+000
 3.622748558819232e-001	 2.321908036239591e+000	 6.479934119492547e+000
 3.405607992329590e-001	 2.325192108616717e+000	 6.427219107594492e+000
 3.188841707024953e-001	 2.328263920953795e+000	 6.377345557714528e+000
 2.972477446742077e-001	 2.331125002701653e+000	 6.329971240171905e+000
 2.756542494665278e-001	 2.333776924790279e+000	 6.284547684733779e+000
 2.541063667508174e-001	 2.336221298231415e+000	 6.240326360757403e+000
 2.326067310137648e-001	 2.338459772718871e+000	 6.196365132864267e+000
 2.111579290635668e-001	 2.340494035228026e+000	 6.151534968553412e+000
 4.321622495042093e-001	 2.335350249985153e+000	 6.744842130575743e+000
 4.101209925564234e-001	 2.339321647710502e+000	 6.684340408895460e+000
 3.881088774302378e-001	 2.343074155724738e+000	 6.626372248798277e+000
 3.661288437092686e-001	 2.346609185560137e+000	 6.571219033765071e+000
 3.441837864577519e-001	 2.349928194877324e+000	 6.518934450468983e+000
 3.222765554962745e-001	 2.353032686068978e+000	 6.469349840860186e+000
 3.004099547232315e-001	 2.355924204856685e+000	 6.422079909274057e+000
 2.785867414817183e-001	 2.358604338882453e+000	 6.376528760463478e+000
 2.568096259715142e-001	 2.361074716296441e+000	 6.331896244329568e+000
 2.350812707057613e-001	 2.363337004342400e+000	 6.287184583083919e+000
 2.134042900118918e-001	 2.365392907942251e+000	 6.241205256601804e+000
 4.367113258137025e-001	 2.359932884195560e+000	 6.812733110163961e+000
 4.144380556346050e-001	 2.363946086107308e+000	 6.750056041317200e+000
 3.921942340332327e-001	 2.367738094205750e+000	 6.690249456756642e+000
 3.699828315361861e-001	 2.371310334881398e+000	 6.633565207512761e+000
 3.478067736820611e-001	 2.374664281138672e+000	 6.580022266099857e+000
 3.256689402895547e-001	 2.377801451184911e+000	 6.529412226794582e+000
 3.035721647717810e-001	 2.380723407012454e+000	 6.481305170151138e+000
 2.815192334964985e-001	 2.383431752975329e+000	 6.435055866985167e+000
 2.595128851919042e-001	 2.385928134362120e+000	 6.389810296934064e+000
 2.375558103975934e-001	 2.388214235966509e+000	 6.344512456649082e+000
 2.156506509602334e-001	 2.390291780656967e+000	 6.297911432715297e+000
 4.412604021231812e-001	 2.384515518406475e+000	 6.858589269389771e+000
 4.187551187125927e-001	 2.388570524504710e+000	 6.790998021475168e+000
 3.962795906358961e-001	 2.392402032687428e+000	 6.726989745537773e+000
 3.738368193626758e-001	 2.396011484203374e+000	 6.666786308037608e+000
 3.514297609058866e-001	 2.399400367400761e+000	 6.610371137450829e+000
 3.290613250823358e-001	 2.402570216301593e+000	 6.557494880930888e+000
 3.067343748198559e-001	 2.405522609168960e+000	 6.507681434806985e+000
 2.844517255108684e-001	 2.408259167068911e+000	 6.460234323458807e+000
 2.622161444119877e-001	 2.410781552428453e+000	 6.414243400976443e+000
 2.400303500892613e-001	 2.413091467591202e+000	 6.368591849965626e+000
 2.178970119085915e-001	 2.415190653372174e+000	 6.321963451893861e+000
 4.458094784326451e-001	 2.409098152617898e+000	 6.882000685008205e+000
 4.230721817903867e-001	 2.413194962902710e+000	 6.806831266697053e+000
 4.003649472382280e-001	 2.417065971169771e+000	 6.736331731395350e+000
 3.776908071887375e-001	 2.420712633526063e+000	 6.670693509099026e+000
 3.550527481292284e-001	 2.424136453663594e+000	 6.609863653465407e+000
 3.324537098746178e-001	 2.427338981419026e+000	 6.553550663075075e+000
 3.098965848674565e-001	 2.430321811326204e+000	 6.501230686523534e+000
 2.873842175248283e-001	 2.433086581163198e+000	 6.452154085158290e+000
 2.649194036317644e-001	 2.435634970495439e+000	 6.405352327147640e+000
 2.425048897807650e-001	 2.437968699216476e+000	 6.359645186516698e+000
 2.201433728569663e-001	 2.440089526087873e+000	 6.313648220822248e+000
 4.503585547420944e-001	 2.433680786829828e+000	 6.882566115847667e+000
 4.273892448679870e-001	 2.437819401301307e+000	 6.797225513235705e+000
 4.044503038402286e-001	 2.441729909652781e+000	 6.718015166315248e+000
 3.815447950143713e-001	 2.445413782849466e+000	 6.645095616850396e+000
 3.586757353520864e-001	 2.448872539927167e+000	 6.578376711794594e+000
 3.358460946664006e-001	 2.452107746537207e+000	 6.517523597405983e+000
 3.130587949145826e-001	 2.455121013484184e+000	 6.461963107573419e+000
 2.903167095383779e-001	 2.457913995258190e+000	 6.410890519426087e+000
 2.676226628512345e-001	 2.460488388563079e+000	 6.363276649157258e+000
 2.449794294721043e-001	 2.462845930842333e+000	 6.317875260950490e+000
 2.223897338053576e-001	 2.464988398804064e+000	 6.273230761925763e+000
 4.549076310515292e-001	 2.458263421042266e+000	 6.859892568706656e+000
 4.317063079453936e-001	 2.462443839700501e+000	 6.761855075322435e+000
 4.085356604418978e-001	 2.466393848136456e+000	 6.671780881228727e+000
 3.853987828395771e-001	 2.470114932173583e+000	 6.589799188218937e+000
 3.622987225744608e-001	 2.473608626191483e+000	 6.515781803362408e+000
 3.392384794576846e-001	 2.476876511656139e+000	 6.449349314257148e+000
 3.162210049612343e-001	 2.479920215642903e+000	 6.389877669271148e+000
 2.932492015515175e-001	 2.482741409353888e+000	 6.336505135069218e+000
 2.703259220703981e-001	 2.485341806631372e+000	 6.288139603582170e+000
 2.474539691632796e-001	 2.487723162468774e+000	 6.243466220521039e+000
 2.246360947537655e-001	 2.489887271520747e+000	 6.200955307584016e+000
 2.021724852704328e-001	 2.240898544376048e+000	 5.456135200102160e+000
 1.816874995949720e-001	 2.242652369958055e+000	 5.415691894744692e+000
 1.612559993974847e-001	 2.244214005536660e+000	 5.385107693223553e+000
 1.408803220354772e-001	 2.245585165352948e+000	 5.362868868225868e+000
 1.205627577348670e-001	 2.246767593997911e+000	 5.347308132163954e+000
 1.003055493189621e-001	 2.247763065087045e+000	 5.336611793946033e+000
 8.011089197596248e-002	 2.248573379941687e+000	 5.328827021644622e+000
 5.998093306429331e-002	 2.249200366278207e+000	 5.321869191279578e+000
 3.991777195505006e-002	 2.249645876906150e+000	 5.313529302397938e+000
 1.992345991080489e-002	 2.249911788436345e+000	 5.301481441646305e+000
 0.000000000000000e+000	 2.250000000000000e+000	 5.283290276071652e+000
 2.044188462186914e-001	 2.265797417088305e+000	 5.681267563858601e+000
 1.837062495910136e-001	 2.267570729621807e+000	 5.636316329572577e+000
 1.630477327244405e-001	 2.269149716707362e+000	 5.600150746619142e+000
 1.424456589471168e-001	 2.270536111633177e+000	 5.571215313040424e+000
 1.219023439319143e-001	 2.271731678374588e+000	 5.547797926514581e+000
 1.014200554223997e-001	 2.272738210253934e+000	 5.528037211224349e+000
 8.100101299775234e-002	 2.273557528607230e+000	 5.509929953531062e+000
 6.064738787593518e-002	 2.274191481458810e+000	 5.491338626136812e+000
 4.036130275438873e-002	 2.274641942204990e+000	 5.469998980893417e+000
 2.014483168749108e-002	 2.274910808307830e+000	 5.443527690941773e+000
 0.000000000000000e+000	 2.275000000000000e+000	 5.409430023425625e+000
 2.066652071669667e-001	 2.290696289801054e+000	 5.871939479320530e+000
 1.857249995872511e-001	 2.292489089285958e+000	 5.824083618831319e+000
 1.648394660517300e-001	 2.294085427878376e+000	 5.784281231054353e+000
 1.440109958591870e-001	 2.295487057913643e+000	 5.750931097534099e+000
 1.232419301294489e-001	 2.296695762751440e+000	 5.722272095044861e+000
 1.025345615263411e-001	 2.297713355420943e+000	 5.696390703060703e+000
 8.189113402002285e-002	 2.298541677272851e+000	 5.671228623058587e+000
 6.131384268799531e-002	 2.299182596639455e+000	 5.644590488768682e+000
 4.080483355404448e-002	 2.299638007503847e+000	 5.614151646994327e+000
 2.036620346435478e-002	 2.299909828179321e+000	 5.577465989146496e+000
 0.000000000000000e+000	 2.300000000000000e+000	 5.531973814222632e+000
 2.089115681152584e-001	 2.315595162514295e+000	 6.028566326098310e+000
 1.877437495836842e-001	 2.317407448950504e+000	 5.979452328424168e+000
 1.666311993793531e-001	 2.319021139049704e+000	 5.937999420447047e+000
 1.455763327716881e-001	 2.320438004194349e+000	 5.902556726760368e+000
 1.245815163274709e-001	 2.321659847128467e+000	 5.871309897701165e+000
 1.036490676307862e-001	 2.322688500588073e+000	 5.842288807968177e+000
 8.278125504277401e-002	 2.323525825938549e+000	 5.813375370207341e+000
 6.198029750047370e-002	 2.324173711820143e+000	 5.782311442107062e+000
 4.124836435401730e-002	 2.324634072802725e+000	 5.746706806045284e+000
 2.058757524139598e-002	 2.324908848050816e+000	 5.704047200888170e+000
 0.000000000000000e+000	 2.325000000000000e+000	 5.651702386130201e+000
 2.111579290635668e-001	 2.340494035228026e+000	 6.151534968553412e+000
 1.897624995803131e-001	 2.342325808615447e+000	 6.102851174678683e+000
 1.684229327073099e-001	 2.343956850221343e+000	 6.061774601176852e+000
 1.471416696846198e-001	 2.345388950475293e+000	 6.026600775101620e+000
 1.259211025259800e-001	 2.346623931505669e+000	 5.995457913841626e+000
 1.047635737357351e-001	 2.347663645755324e+000	 5.966314825468138e+000
 8.367137606600578e-002	 2.348509974604323e+000	 5.936988927307636e+000
 6.264675231337037e-002	 2.349164827000877e+000	 5.905154360669339e+000
 4.169189515430721e-002	 2.349630138101621e+000	 5.868350180185762e+000
 2.080894701861470e-002	 2.349907867922315e+000	 5.823988596786494e+000
 0.000000000000000e+000	 2.350000000000000e+000	 5.769363253937596e+000
 2.134042900118918e-001	 2.365392907942251e+000	 6.241205256601804e+000
 1.917812495771378e-001	 2.367244168280787e+000	 6.194680595376760e+000
 1.702146660356004e-001	 2.368892561393295e+000	 6.156046703008252e+000
 1.487070065979823e-001	 2.370339896756475e+000	 6.123541566832307e+000
 1.272606887249765e-001	 2.371588015883045e+000	 6.095231762266137e+000
 1.058780798411878e-001	 2.372638790922696e+000	 6.069020565512924e+000
 8.456149708971820e-002	 2.373494123270175e+000	 6.042656187863461e+000
 6.331320712668530e-002	 2.374155942181652e+000	 6.013740108894980e+000
 4.213542595491417e-002	 2.374626203400537e+000	 5.979735486413248e+000
 2.103031879601092e-002	 2.374906887793820e+000	 5.937975621558520e+000
 0.000000000000000e+000	 2.375000000000000e+000	 5.885672458128421e+000
 2.156506509602334e-001	 2.390291780656967e+000	 6.297911432715297e+000
 1.937999995741583e-001	 2.392162527946525e+000	 6.255314222596571e+000
 1.720063993642245e-001	 2.393828272565560e+000	 6.221227828081123e+000
 1.502723435117755e-001	 2.395290843037897e+000	 6.193828751644431e+000
 1.286002749244602e-001	 2.396552100260595e+000	 6.171117713746114e+000
 1.069925859471443e-001	 2.397613936090189e+000	 6.150927988566281e+000
 8.545161811391125e-002	 2.398478271936103e+000	 6.130933864824588e+000
 6.397966194041847e-002	 2.399147057362471e+000	 6.108659208338121e+000
 4.257895675583822e-002	 2.399622268699472e+000	 6.081486103518169e+000
 2.125169057358466e-002	 2.399905907665329e+000	 6.046663551617385e+000
 0.000000000000000e+000	 2.400000000000000e+000	 6.001316204167436e+000
 2.178970119085915e-001	 2.415190653372174e+000	 6.321963451893861e+000
 1.958187495713746e-001	 2.417080887612659e+000	 6.285100264448660e+000
 1.737981326931824e-001	 2.418763983738137e+000	 6.257703685324366e+000
 1.518376804259994e-001	 2.420241789319555e+000	 6.237884782719034e+000
 1.299398611244313e-001	 2.421516184638321e+000	 6.223574203809354e+000
 1.081070920536046e-001	 2.422589081257802e+000	 6.212530744236469e+000
 8.634173913858495e-002	 2.423462420602109e+000	 6.202350046285725e+000
 6.464611675456990e-002	 2.424138172543332e+000	 6.190473401733048e+000
 4.302248755707935e-002	 2.424618333998426e+000	 6.174196635909056e+000
 2.147306235133592e-002	 2.424904927536844e+000	 6.150679050139789e+000
 0.000000000000000e+000	 2.425000000000000e+000	 6.116952400387715e+000
 2.201433728569663e-001	 2.440089526087873e+000	 6.313648220822248e+000
 1.978374995687866e-001	 2.441999247279191e+000	 6.284362802217898e+000
 1.755898660224739e-001	 2.443699694911027e+000	 6.265834937047921e+000
 1.534030173406540e-001	 2.445192735601454e+000	 6.256106304303711e+000
 1.312794473248896e-001	 2.446480269016221e+000	 6.253033252905259e+000
 1.092215981605687e-001	 2.447564226425537e+000	 6.254295615709366e+000
 8.723186016373929e-002	 2.448446569268191e+000	 6.257405655937465e+000
 6.531257156913961e-002	 2.449129287724237e+000	 6.259717121301767e+000
 4.346601835863755e-002	 2.449614399297399e+000	 6.258434381692654e+000
 2.169443412926468e-002	 2.449903947408362e+000	 6.250621626924868e+000
 0.000000000000000e+000	 2.449999999999999e+000	 6.233212101721933e+000
 2.223897338053576e-001	 2.464988398804064e+000	 6.273230761925763e+000
 1.998562495663943e-001	 2.466917606946119e+000	 6.253403008890151e+000
 1.773815993520991e-001	 2.468635406084229e+000	 6.245958463924455e+000
 1.549683542557393e-001	 2.470143681883591e+000	 6.248865455193747e+000
 1.326190335258352e-001	 2.471444353394295e+000	 6.259901800500100e+000
 1.103361042680365e-001	 2.472539371593392e+000	 6.276663876636309e+000
 8.812198118937427e-002	 2.473430717934351e+000	 6.296575825006651e+000
 6.597902638412759e-002	 2.474120402905185e+000	 6.316898868072615e+000
 4.390954916051283e-002	 2.474610464596391e+000	 6.334740711779937e+000
 2.191580590737095e-002	 2.474902967279885e+000	 6.347065009776973e+000
 0.000000000000000e+000	 2.474999999999999e+000	 6.350700865934964e+000
 2.246360947537655e-001	 2.489887271520747e+000	 6.200955307584016e+000
 2.018749995641979e-001	 2.491835966613445e+000	 6.192500294566643e+000
 1.791733326820581e-001	 2.493571117257746e+000	 6.198388554070172e+000
 1.565336911712554e-001	 2.495094628165967e+000	 6.216511094004456e+000
 1.339586197272681e-001	 2.496408437772546e+000	 6.244562959125828e+000
 1.114506103760082e-001	 2.497514516761370e+000	 6.280052566612641e+000
 8.901210221548993e-002	 2.498414866600590e+000	 6.320311181879255e+000
 6.664548119953383e-002	 2.499111518086177e+000	 6.362502508439774e+000
 4.435307996270520e-002	 2.499606529895404e+000	 6.403632366246876e+000
 2.213717768565474e-002	 2.499901987151415e+000	 6.440558433605302e+000
 0.000000000000000e+000	 2.500000000000000e+000	 6.470000028481968e+000
 2.500000000000000e+000	 0.000000000000000e+000	 1.128118036932550e+001
 2.499901987151415e+000	 2.213717768565403e-002	 1.133653152950853e+001
 2.499606529895403e+000	 4.435307996270457e-002	 1.138660607358117e+001
 2.499111518086177e+000	 6.664548119953326e-002	 1.143081829160972e+001
 2.498414866600589e+000	 8.901210221548943e-002	 1.146863345314739e+001
 2.497514516761369e+000	 1.114506103760078e-001	 1.149957018007341e+001
 2.496408437772546e+000	 1.339586197272678e-001	 1.152320277559724e+001
 2.495094628165966e+000	 1.565336911712552e-001	 1.153916350248236e+001
 2.493571117257745e+000	 1.791733326820579e-001	 1.154714480341866e+001
 2.491835966613445e+000	 2.018749995641979e-001	 1.154690145636898e+001
 2.489887271520747e+000	 2.246360947537655e-001	 1.153825265762598e+001
 2.525000000000000e+000	 0.000000000000000e+000	 1.123301661353498e+001
 2.524901007022946e+000	 2.235854946393780e-002	 1.129046083959628e+001
 2.524602595194425e+000	 4.479661076489691e-002	 1.133609176790574e+001
 2.524102633267189e+000	 6.731193601493948e-002	 1.137079276362088e+001
 2.523399015266866e+000	 8.990222324160503e-002	 1.139543645200718e+001
 2.522489661929405e+000	 1.125651164839795e-001	 1.141087821221488e+001
 2.521372522150882e+000	 1.352982059287007e-001	 1.141794941593543e+001
 2.520045574448461e+000	 1.580990280867712e-001	 1.141745041840909e+001
 2.518506828431417e+000	 1.809650660120168e-001	 1.141014331031123e+001
 2.516754326280969e+000	 2.038937495620014e-001	 1.139674444012181e+001
 2.514786144237676e+000	 2.268824557021734e-001	 1.137791671767491e+001
 2.550000000000000e+000	 0.000000000000000e+000	 1.118435957199959e+001
 2.549900026894477e+000	 2.257992124204407e-002	 1.124742412780981e+001
 2.549598660493445e+000	 4.524014156677218e-002	 1.129734621829829e+001
 2.549093748448203e+000	 6.797839082992745e-002	 1.133528278881248e+001
 2.548383163933142e+000	 9.079234426724003e-002	 1.136238530434207e+001
 2.547464807097442e+000	 1.136796225914473e-001	 1.137979294183907e+001
 2.546336606529218e+000	 1.366377921296463e-001	 1.138862551048433e+001
 2.544996520730955e+000	 1.596643650018565e-001	 1.138997610748905e+001
 2.543442539605088e+000	 1.827567993416420e-001	 1.138490351812161e+001
 2.541672685948493e+000	 2.059124995596092e-001	 1.137442436977432e+001
 2.539685016954604e+000	 2.291288166505647e-001	 1.135950505102399e+001
 2.575000000000000e+000	 0.000000000000000e+000	 1.113738956874277e+001
 2.574899046766007e+000	 2.280129301997283e-002	 1.120626785699029e+001
 2.574594725792466e+000	 4.568367236833036e-002	 1.126070142365921e+001
 2.574084863629216e+000	 6.864484564449713e-002	 1.130212463476857e+001
 2.573367312599416e+000	 9.168246529239434e-002	 1.133197167453073e+001
 2.572439952265480e+000	 1.147941286984114e-001	 1.135166943034524e+001
 2.571300690907555e+000	 1.379773783301046e-001	 1.136263008854880e+001
 2.569947467013449e+000	 1.612297019165111e-001	 1.136624344863150e+001
 2.568378250778760e+000	 1.845485326709335e-001	 1.136386896477737e+001
 2.566591045616016e+000	 2.079312495570212e-001	 1.135682752475934e+001
 2.564583889671532e+000	 2.313751775989394e-001	 1.134639297740806e+001
 2.600000000000000e+000	 0.000000000000000e+000	 1.109420306916743e+001
 2.599898066637538e+000	 2.302266479772407e-002	 1.116876611810650e+001
 2.599590791091487e+000	 4.612720316957149e-002	 1.122760815661468e+001
 2.599075978810229e+000	 6.931130045864856e-002	 1.127244495906556e+001
 2.598351461265692e+000	 9.257258631706804e-002	 1.130499745841280e+001
 2.597415097433516e+000	 1.159086348048716e-001	 1.132698431789591e+001
 2.596264775285892e+000	 1.393169645300756e-001	 1.134011419604874e+001
 2.594898413295944e+000	 1.627950388307350e-001	 1.134607771284669e+001
 2.593313961952431e+000	 1.863402659998913e-001	 1.134653912602386e+001
 2.591509405283540e+000	 2.099499995542374e-001	 1.134312772781177e+001
 2.589482762388461e+000	 2.336215385472976e-001	 1.133742897359064e+001
 2.625000000000000e+000	 0.000000000000000e+000	 1.105681667332389e+001
 2.624897086509069e+000	 2.324403657529780e-002	 1.113661970172876e+001
 2.624586856390508e+000	 4.657073397049554e-002	 1.119945048841224e+001
 2.624067093991241e+000	 6.997775527238173e-002	 1.124731034886998e+001
 2.623335609931968e+000	 9.346270734126111e-002	 1.128221114216610e+001
 2.622390242601552e+000	 1.170231409108281e-001	 1.130616752329716e+001
 2.621228859664228e+000	 1.406565507295594e-001	 1.132118887113650e+001
 2.619849359578439e+000	 1.643603757445282e-001	 1.132927089992502e+001
 2.618249673126103e+000	 1.881319993285155e-001	 1.133238696351823e+001
 2.616427764951063e+000	 2.119687495512579e-001	 1.133247906286898e+001
 2.614381635105390e+000	 2.358678994956392e-001	 1.133144856851491e+001
 2.650000000000000e+000	 0.000000000000000e+000	 1.102717088314358e+001
 2.649896106380600e+000	 2.346540835269402e-002	 1.111145955559507e+001
 2.649582921689528e+000	 4.701426477110250e-002	 1.117754893521247e+001
 2.649058209172255e+000	 7.064421008569664e-002	 1.122773015444860e+001
 2.648319758598243e+000	 9.435282836497352e-002	 1.126431032163043e+001
 2.647365387769589e+000	 1.181376470162808e-001	 1.128960444783627e+001
 2.646192944042564e+000	 1.419961369285558e-001	 1.130592703135577e+001
 2.644800305860933e+000	 1.659257126578906e-001	 1.131558330783410e+001
 2.643185384299774e+000	 1.899237326568060e-001	 1.132086017549359e+001
 2.641346124618587e+000	 2.139874995480826e-001	 1.132401680614606e+001
 2.639280507822317e+000	 2.381142604439641e-001	 1.132727495404993e+001
 2.675000000000000e+000	 0.000000000000000e+000	 1.100713365842617e+001
 2.674895126252130e+000	 2.368678012991273e-002	 1.109485004829495e+001
 2.674578986988550e+000	 4.745779557139240e-002	 1.116316342795294e+001
 2.674049324353267e+000	 7.131066489859329e-002	 1.121465916378980e+001
 2.673303907264519e+000	 9.524294938820530e-002	 1.125194408036077e+001
 2.672340532937625e+000	 1.192521531212298e-001	 1.127763805553961e+001
 2.671157028420902e+000	 1.433357231270650e-001	 1.129436525497843e+001
 2.669751252143427e+000	 1.674910495708224e-001	 1.130474501411250e+001
 2.668121095473445e+000	 1.917154659847628e-001	 1.131138237729312e+001
 2.666264484286111e+000	 2.160062495447115e-001	 1.131685830500142e+001
 2.664179380539246e+000	 2.403606213922725e-001	 1.132371956148944e+001
 2.699999999999999e+000	 0.000000000000000e+000	 1.099850377527168e+001
 2.699894146123661e+000	 2.390815190695394e-002	 1.108829205163764e+001
 2.699575052287571e+000	 4.790132637136522e-002	 1.115749611721953e+001
 2.699040439534280e+000	 7.197711971107168e-002	 1.120900012863538e+001
 2.698288055930794e+000	 9.613307041095642e-002	 1.124571523556648e+001
 2.697315678105662e+000	 1.203666592256749e-001	 1.127057083786066e+001
 2.696121112799238e+000	 1.446753093250869e-001	 1.128650546337819e+001
 2.694702198425921e+000	 1.690563864833234e-001	 1.129645727496352e+001
 2.693056806647117e+000	 1.935071993123859e-001	 1.130335421631850e+001
 2.691182843953635e+000	 2.180249995411447e-001	 1.131010380797637e+001
 2.689078253256174e+000	 2.426069823405643e-001	 1.131958260602293e+001
 2.724999999999999e+000	 0.000000000000000e+000	 1.100301399964494e+001
 2.724893165995192e+000	 2.412952368381761e-002	 1.109322585334856e+001
 2.724571117586591e+000	 4.834485717102095e-002	 1.116169402372171e+001
 2.724031554715293e+000	 7.264357452313183e-002	 1.121160615146403e+001
 2.723272204597070e+000	 9.702319143322694e-002	 1.124618246042083e+001
 2.722290823273699e+000	 1.214811653296162e-001	 1.126866667022008e+001
 2.721085197177575e+000	 1.460148955226216e-001	 1.128231651079666e+001
 2.719653144708416e+000	 1.706217233953938e-001	 1.129039384733495e+001
 2.717992517820789e+000	 1.952989326396754e-001	 1.129615442560518e+001
 2.716101203621158e+000	 2.200437495373821e-001	 1.130283724914447e+001
 2.713977125973103e+000	 2.448533432888396e-001	 1.131365360123571e+001
 2.750000000000000e+000	 0.000000000000000e+000	 1.102233408783629e+001
 2.749892185866724e+000	 2.435089546050380e-002	 1.111103391089130e+001
 2.749567182885613e+000	 4.878838797035964e-002	 1.117685154419596e+001
 2.749022669896307e+000	 7.331002933477374e-002	 1.122328294227635e+001
 2.748256353263346e+000	 9.791331245501683e-002	 1.125386229060794e+001
 2.747265968441735e+000	 1.225956714330538e-001	 1.127215256728003e+001
 2.746049281555912e+000	 1.473544817196689e-001	 1.128173568739481e+001
 2.744604090990912e+000	 1.721870603070334e-001	 1.128620223888515e+001
 2.742928228994461e+000	 1.970906659666313e-001	 1.128914081993009e+001
 2.741019563288683e+000	 2.220624995334238e-001	 1.129412698967836e+001
 2.738875998690032e+000	 2.470997042370982e-001	 1.130471184554554e+001
 2.489887271520747e+000	 2.246360947537655e-001	 1.153825265762598e+001
 2.487723162468774e+000	 2.474539691632789e-001	 1.157147914492286e+001
 2.485341806631373e+000	 2.703259220703975e-001	 1.159558827368643e+001
 2.482741409353889e+000	 2.932492015515170e-001	 1.161031117016622e+001
 2.479920215642903e+000	 3.162210049612340e-001	 1.161544560340387e+001
 2.476876511656140e+000	 3.392384794576842e-001	 1.161085776445211e+001
 2.473608626191484e+000	 3.622987225744606e-001	 1.159648393923999e+001
 2.470114932173584e+000	 3.853987828395771e-001	 1.157233206781076e+001
 2.466393848136457e+000	 4.085356604418979e-001	 1.153848318273331e+001
 2.462443839700501e+000	 4.317063079453937e-001	 1.149509271958943e+001
 2.458263421042266e+000	 4.549076310515292e-001	 1.144239169256627e+001
 2.514786144237676e+000	 2.268824557021734e-001	 1.137791671767491e+001
 2.512600394095503e+000	 2.499285088544540e-001	 1.139293462214719e+001
 2.510195224699992e+000	 2.730291812895609e-001	 1.140224412955664e+001
 2.507568823449939e+000	 2.961816935646565e-001	 1.140597942607721e+001
 2.504719417801991e+000	 3.193832150078855e-001	 1.140418349791657e+001
 2.501645276775445e+000	 3.426308642489679e-001	 1.139679973933747e+001
 2.498344712456171e+000	 3.659217097968349e-001	 1.139345776185450e+001
 2.494816081498056e+000	 3.892527706647828e-001	 1.139029247358231e+001
 2.491057786620465e+000	 4.126210170435670e-001	 1.137607113639080e+001
 2.487068278099993e+000	 4.360233710228000e-001	 1.135111856526186e+001
 2.482846055254957e+000	 4.594567073609637e-001	 1.131584108277465e+001
 2.539685016954604e+000	 2.291288166505647e-001	 1.135950505102399e+001
 2.537477625722233e+000	 2.524030485457934e-001	 1.136731102430055e+001
 2.535048642768612e+000	 2.757324405090311e-001	 1.137016417354664e+001
 2.532396237545989e+000	 2.991141855782061e-001	 1.136848247058209e+001
 2.529518619961077e+000	 3.225454250550116e-001	 1.136259438980652e+001
 2.526414041894753e+000	 3.460232490407509e-001	 1.135273008696106e+001
 2.523080798720857e+000	 3.695446970196929e-001	 1.133901244430393e+001
 2.519517230822531e+000	 3.931067584904165e-001	 1.132144800126277e+001
 2.515721725104473e+000	 4.167063736455676e-001	 1.129991779074470e+001
 2.511692716499485e+000	 4.403404341004003e-001	 1.127416810238160e+001
 2.507428689467647e+000	 4.640057836704130e-001	 1.124380119505719e+001
 2.564583889671532e+000	 2.313751775989394e-001	 1.134639297740806e+001
 2.562354857348963e+000	 2.548775882372970e-001	 1.134695284289460e+001
 2.559902060837231e+000	 2.784356997288078e-001	 1.134339508349360e+001
 2.557223651642040e+000	 3.020466775921659e-001	 1.133642578729684e+001
 2.554317822120163e+000	 3.257076351026121e-001	 1.132666321519626e+001
 2.551182807014059e+000	 3.494156338330329e-001	 1.131462854189638e+001
 2.547816884985543e+000	 3.731676842430348e-001	 1.130073645006845e+001
 2.544218380147004e+000	 3.969607463164781e-001	 1.128528559730633e+001
 2.540385663588481e+000	 4.207917302478996e-001	 1.126844897671276e+001
 2.536317154898977e+000	 4.446574971781943e-001	 1.125026419309286e+001
 2.532011323680339e+000	 4.685548599798769e-001	 1.123062367785351e+001
 2.589482762388461e+000	 2.336215385472976e-001	 1.133742897359064e+001
 2.587232088975693e+000	 2.573521279289648e-001	 1.133040309316057e+001
 2.584755478905850e+000	 2.811389589488912e-001	 1.132017467173553e+001
 2.582051065738089e+000	 3.049791696065359e-001	 1.130774240346697e+001
 2.579117024279251e+000	 3.288698451506871e-001	 1.129401879488329e+001
 2.575951572133363e+000	 3.528080186258140e-001	 1.127982045952269e+001
 2.572552971250230e+000	 3.767906714668602e-001	 1.126585825225085e+001
 2.568919529471479e+000	 4.008147341429678e-001	 1.125272726353232e+001
 2.565049602072488e+000	 4.248770868505629e-001	 1.124089669514776e+001
 2.560941593298468e+000	 4.489745602561820e-001	 1.123069964004876e+001
 2.556593957893029e+000	 4.731039362893555e-001	 1.122232279021571e+001
 2.614381635105390e+000	 2.358678994956392e-001	 1.133144856851491e+001
 2.612109320602422e+000	 2.598266676207970e-001	 1.131619790720231e+001
 2.609608896974470e+000	 2.838422181692813e-001	 1.129873995740322e+001
 2.606878479834139e+000	 3.079116616213161e-001	 1.128037066609869e+001
 2.603916226438336e+000	 3.320320551992366e-001	 1.126230140321563e+001
 2.600720337252670e+000	 3.562004034190942e-001	 1.124564880111119e+001
 2.597289057514916e+000	 3.804136586911693e-001	 1.123142442009389e+001
 2.593620678795953e+000	 4.046687219698854e-001	 1.122052426087414e+001
 2.589713540556496e+000	 4.289624434535578e-001	 1.121371814611300e+001
 2.585566031697961e+000	 4.532916233343636e-001	 1.121163899449238e+001
 2.581176592105721e+000	 4.776530125988487e-001	 1.121477201195530e+001
 2.639280507822317e+000	 2.381142604439641e-001	 1.132727495404993e+001
 2.636986552229153e+000	 2.623012073127934e-001	 1.130286685867221e+001
 2.634462315043090e+000	 2.865454773899780e-001	 1.127732720383568e+001
 2.631705893930189e+000	 3.108441536365065e-001	 1.125225399102664e+001
 2.628715428597424e+000	 3.351942652482605e-001	 1.122916222783004e+001
 2.625489102371976e+000	 3.595927882128733e-001	 1.120947330335824e+001
 2.622025143779603e+000	 3.840366459159622e-001	 1.119450417587268e+001
 2.618321828120427e+000	 4.085227097972309e-001	 1.118545639412832e+001
 2.614377479040504e+000	 4.330478000568840e-001	 1.118340497530229e+001
 2.610190470097453e+000	 4.576086864127390e-001	 1.118928716367565e+001
 2.605759226318411e+000	 4.822020889083566e-001	 1.120389109551819e+001
 2.664179380539246e+000	 2.403606213922725e-001	 1.132371956148944e+001
 2.661863783855882e+000	 2.647757470049541e-001	 1.128893326924066e+001
 2.659315733111709e+000	 2.892487366109813e-001	 1.125417195389749e+001
 2.656533308026239e+000	 3.137766456521070e-001	 1.122134062605284e+001
 2.653514630756510e+000	 3.383564752977589e-001	 1.119226285968521e+001
 2.650257867491283e+000	 3.629851730071518e-001	 1.116866969448709e+001
 2.646761230044289e+000	 3.876596331412389e-001	 1.115218833634161e+001
 2.643022977444901e+000	 4.123766976250042e-001	 1.114433067812906e+001
 2.639041417524512e+000	 4.371331566605417e-001	 1.114648166443110e+001
 2.634814908496944e+000	 4.619257494913081e-001	 1.115988752506459e+001
 2.630341860531103e+000	 4.867511652178794e-001	 1.118564390371198e+001
 2.689078253256174e+000	 2.426069823405643e-001	 1.131958260602293e+001
 2.686741015482612e+000	 2.672502866972791e-001	 1.127291449803984e+001
 2.684169151180329e+000	 2.919519958322914e-001	 1.122750906333408e+001
 2.681360722122289e+000	 3.167091376681178e-001	 1.118558342724443e+001
 2.678313832915597e+000	 3.415186853477317e-001	 1.114927481142648e+001
 2.675026632610588e+000	 3.663775578019292e-001	 1.112062895389930e+001
 2.671497316308976e+000	 3.912826203669992e-001	 1.110158831299009e+001
 2.667724126769375e+000	 4.162306854532056e-001	 1.109398007802419e+001
 2.663705356008520e+000	 4.412185132645308e-001	 1.109950401105022e+001
 2.659439346896436e+000	 4.662428125700709e-001	 1.111972014531068e+001
 2.654924494743793e+000	 4.913002415274165e-001	 1.115603636755949e+001
 2.713977125973103e+000	 2.448533432888396e-001	 1.131365360123571e+001
 2.711618247109342e+000	 2.697248263897683e-001	 1.125332221517454e+001
 2.709022569248949e+000	 2.946552550539081e-001	 1.119557273229094e+001
 2.706188136218339e+000	 3.196416296845387e-001	 1.114293964754530e+001
 2.703113035074683e+000	 3.446808953981789e-001	 1.109787906226253e+001
 2.699795397729894e+000	 3.697699425972058e-001	 1.106275661257943e+001
 2.696233402573662e+000	 3.949056075932433e-001	 1.103983516732976e+001
 2.692425276093849e+000	 4.200846732818350e-001	 1.103126231889380e+001
 2.688369294492528e+000	 4.453038698688512e-001	 1.103905769203958e+001
 2.684063785295928e+000	 4.705598756490277e-001	 1.106510009726067e+001
 2.679507128956485e+000	 4.958493178369686e-001	 1.111111455656400e+001
 2.738875998690032e+000	 2.470997042370982e-001	 1.130471184554554e+001
 2.736495478736073e+000	 2.721993660824219e-001	 1.122866266031436e+001
 2.733875987317569e+000	 2.973585142758315e-001	 1.115659653511359e+001
 2.731015550314390e+000	 3.225741217013698e-001	 1.109137073691815e+001
 2.727912237233771e+000	 3.478431054491009e-001	 1.103576562766709e+001
 2.724564162849201e+000	 3.731623273929816e-001	 1.099247209165942e+001
 2.720969488838349e+000	 3.985285948199712e-001	 1.096407871771169e+001
 2.717126425418323e+000	 4.239386611108925e-001	 1.095305876029873e+001
 2.713033232976537e+000	 4.493892264735033e-001	 1.096175690545682e+001
 2.708688223695421e+000	 4.748769387281783e-001	 1.099237586876593e+001
 2.704089763169176e+000	 5.003983941465353e-001	 1.104696285423283e+001
 2.458263421042266e+000	 4.549076310515292e-001	 1.144239169256627e+001
 2.453851156354649e+000	 4.781364894097321e-001	 1.154156004539157e+001
 2.449205661297807e+000	 5.013896974771258e-001	 1.162810734423050e+001
 2.444325604437783e+000	 5.246640254268116e-001	 1.170276423754034e+001
 2.439209708669709e+000	 5.479562001042996e-001	 1.176634868750586e+001
 2.433856752625838e+000	 5.712629060330332e-001	 1.181976625533525e+001
 2.428265572065929e+000	 5.945807864685846e-001	 1.186401020087170e+001
 2.422435061248221e+000	 6.179064445013772e-001	 1.190016139111252e+001
 2.416364174279133e+000	 6.412364442077186e-001	 1.177452923628310e+001
 2.410051926439910e+000	 6.645673118488594e-001	 1.160156226330703e+001
 2.403497395488342e+000	 6.878955371177123e-001	 1.145431384085723e+001
 2.482846055254957e+000	 4.594567073609637e-001	 1.131584108277465e+001
 2.478389667920199e+000	 4.829178543038031e-001	 1.143995853241957e+001
 2.473697717912495e+000	 5.064035944528337e-001	 1.154921630537295e+001
 2.468768860483547e+000	 5.299106656828868e-001	 1.164437977297262e+001
 2.463601805757440e+000	 5.534357621079269e-001	 1.172630605652688e+001
 2.458195320152747e+000	 5.769755350966310e-001	 1.179594433905426e+001
 2.452548227786828e+000	 6.005265943371261e-001	 1.185433598383215e+001
 2.446659411860499e+000	 6.240855089507389e-001	 1.190261445411366e+001
 2.440527816021248e+000	 6.476488086545392e-001	 1.170958656327382e+001
 2.434152445703129e+000	 6.712129849723892e-001	 1.153172477646174e+001
 2.427532369441510e+000	 6.947744924941302e-001	 1.137975429559406e+001
 2.507428689467647e+000	 4.640057836704130e-001	 1.124380119505719e+001
 2.502928179485754e+000	 4.876992191976984e-001	 1.138057074362090e+001
 2.498189774527202e+000	 5.114174914281946e-001	 1.150699810544896e+001
 2.493212116529356e+000	 5.351573059384637e-001	 1.162258123769745e+001
 2.487993902845249e+000	 5.589153241109239e-001	 1.172272001287942e+001
 2.482533887679780e+000	 5.826881641594864e-001	 1.180840803613502e+001
 2.476830883507902e+000	 6.064724022048329e-001	 1.188073565735572e+001
 2.470883762473018e+000	 6.302645733991935e-001	 1.187925870616390e+001
 2.464691457763677e+000	 6.540611731004011e-001	 1.167156175620536e+001
 2.458252964966745e+000	 6.778586580949292e-001	 1.148923052644548e+001
 2.451567343395171e+000	 7.016534478695476e-001	 1.133298594235178e+001
 2.532011323680339e+000	 4.685548599798769e-001	 1.123062367785351e+001
 2.527466691051314e+000	 4.924805840914179e-001	 1.137951227128307e+001
 2.522681831141929e+000	 5.164313884032088e-001	 1.151752065138235e+001
 2.517655372575207e+000	 5.404039461935420e-001	 1.164384718906187e+001
 2.512385999933136e+000	 5.643948861132904e-001	 1.175751089129929e+001
 2.506872455206933e+000	 5.884007932215990e-001	 1.185734197614766e+001
 2.501113539229152e+000	 6.124182100717047e-001	 1.194197254553150e+001
 2.495108113085776e+000	 6.364436378467416e-001	 1.187107942067404e+001
 2.488855099506419e+000	 6.604735375453046e-001	 1.165913144850472e+001
 2.482353484230762e+000	 6.845043312164799e-001	 1.147274232466915e+001
 2.475602317349326e+000	 7.085324032439653e-001	 1.131265731555114e+001
 2.556593957893029e+000	 4.731039362893555e-001	 1.122232279021571e+001
 2.552005202616878e+000	 4.972619489849618e-001	 1.137900308135466e+001
 2.547173887756675e+000	 5.214452853778763e-001	 1.152711451818662e+001
 2.542098628621103e+000	 5.456505864481217e-001	 1.166599179034400e+001
 2.536778097021101e+000	 5.698744481150264e-001	 1.179478576744973e+001
 2.531211022734208e+000	 5.941134222829688e-001	 1.191245365749640e+001
 2.525396194950578e+000	 6.183640179377415e-001	 1.201774926198728e+001
 2.519332463698774e+000	 6.426227022933825e-001	 1.187931675401795e+001
 2.513018741249476e+000	 6.668859019892494e-001	 1.167018544041886e+001
 2.506454003495176e+000	 6.911500043370408e-001	 1.148253719898453e+001
 2.499637291303976e+000	 7.154113586173830e-001	 1.131747481436174e+001
 2.581176592105721e+000	 4.776530125988487e-001	 1.121477201195530e+001
 2.576543714182448e+000	 5.020433138783298e-001	 1.137476969875239e+001
 2.571665944371440e+000	 5.264591823521967e-001	 1.152864830133280e+001
 2.566541884667042e+000	 5.508972267022031e-001	 1.167588491534624e+001
 2.561170194109143e+000	 5.753540101161319e-001	 1.181576825598477e+001
 2.555549590261605e+000	 5.998260513435958e-001	 1.194738838832029e+001
 2.549678850672179e+000	 6.243098258029435e-001	 1.206962655331566e+001
 2.543556814312013e+000	 6.488017667391168e-001	 1.186322150019619e+001
 2.537182382992848e+000	 6.732982664322361e-001	 1.166709480588884e+001
 2.530554522759990e+000	 6.977956774566119e-001	 1.149171277354144e+001
 2.523672265259118e+000	 7.222903139898007e-001	 1.133794340117816e+001
 2.605759226318411e+000	 4.822020889083566e-001	 1.120389109551819e+001
 2.601082225748022e+000	 5.068246787715222e-001	 1.136258546892352e+001
 2.596158000986225e+000	 5.314730793261705e-001	 1.151775044925322e+001
 2.590985140713025e+000	 5.561438669557858e-001	 1.166901172879534e+001
 2.585562291197262e+000	 5.808335721166066e-001	 1.181580195402415e+001
 2.579888157789124e+000	 6.055386804034804e-001	 1.195735001634348e+001
 2.573961506393957e+000	 6.302556336673109e-001	 1.201969518602909e+001
 2.567781164925491e+000	 6.549808311839440e-001	 1.182036465619596e+001
 2.561346024736534e+000	 6.797106308742639e-001	 1.164023757127666e+001
 2.554655042025202e+000	 7.044413505751935e-001	 1.148007864918669e+001
 2.547707239214755e+000	 7.291692693612185e-001	 1.134070876139396e+001
 2.630341860531103e+000	 4.867511652178794e-001	 1.118564390371198e+001
 2.625620737313602e+000	 5.116060436645390e-001	 1.133826836997058e+001
 2.620650057601029e+000	 5.364869762997971e-001	 1.149009458166525e+001
 2.615428396759052e+000	 5.613905072088702e-001	 1.164090312158521e+001
 2.609954388285460e+000	 5.863131341164509e-001	 1.179027675589404e+001
 2.604226725316765e+000	 6.112513094626219e-001	 1.193758927358704e+001
 2.598244162115911e+000	 6.362014415308429e-001	 1.193118667615817e+001
 2.592005515539210e+000	 6.611598956278643e-001	 1.175166888542180e+001
 2.585509666480534e+000	 6.861229953153334e-001	 1.159059166051498e+001
 2.578755561290814e+000	 7.110870236927859e-001	 1.144866645039818e+001
 2.571742213170885e+000	 7.360482247316361e-001	 1.132666356915967e+001
 2.654924494743793e+000	 4.913002415274165e-001	 1.115603636755949e+001
 2.650159248879185e+000	 5.163874085573799e-001	 1.129767894632464e+001
 2.645142114215853e+000	 5.415008732730773e-001	 1.144139739830827e+001
 2.639871652805121e+000	 5.666371474614558e-001	 1.158713359382480e+001
 2.634346485373736e+000	 5.917926961156648e-001	 1.173462670973765e+001
 2.628565292844527e+000	 6.169639385210209e-001	 1.188340160579977e+001
 2.622526817838040e+000	 6.421472493935403e-001	 1.181466399242059e+001
 2.616229866153168e+000	 6.673389600708778e-001	 1.165810273029578e+001
 2.609673308224849e+000	 6.925353597554443e-001	 1.151918148168142e+001
 2.602856080556825e+000	 7.177326968093883e-001	 1.139855490572733e+001
 2.595777187127509e+000	 7.429271801010537e-001	 1.129693927565863e+001
 2.679507128956485e+000	 4.958493178369686e-001	 1.111111455656400e+001
 2.674697760444774e+000	 5.211687734500451e-001	 1.123671835616138e+001
 2.669634170830695e+000	 5.465147702460103e-001	 1.136741670279572e+001
 2.664314908851234e+000	 5.718837877135431e-001	 1.150331925441529e+001
 2.658738582462090e+000	 5.972722581142482e-001	 1.164432799211102e+001
 2.652903860372412e+000	 6.226765675786771e-001	 1.179012512136980e+001
 2.646809473560346e+000	 6.480930572554027e-001	 1.167108153121726e+001
 2.640454216767367e+000	 6.735180245129844e-001	 1.154067850771538e+001
 2.633836949969478e+000	 6.989477241945967e-001	 1.142707579469822e+001
 2.626956599823234e+000	 7.243783699250014e-001	 1.133086768706185e+001
 2.619812161084627e+000	 7.498061354694716e-001	 1.125271288087854e+001
 2.704089763169176e+000	 5.003983941465353e-001	 1.104696285423283e+001
 2.699236272010369e+000	 5.259501383425348e-001	 1.115132652532167e+001
 2.694126227445558e+000	 5.515286672185968e-001	 1.126394953425713e+001
 2.688758164897393e+000	 5.771304279651320e-001	 1.138511592974124e+001
 2.683130679550521e+000	 6.027518201122010e-001	 1.151489699305487e+001
 2.677242427900419e+000	 6.283891966355910e-001	 1.161787137513167e+001
 2.671092129282827e+000	 6.540388651164306e-001	 1.150143493616066e+001
 2.664678567381806e+000	 6.796970889541845e-001	 1.140045031930457e+001
 2.658000591714422e+000	 7.053600886327910e-001	 1.131538569533923e+001
 2.651057119090043e+000	 7.310240430396249e-001	 1.124677136674675e+001
 2.643847135042239e+000	 7.566850908368894e-001	 1.119520486321108e+001
 2.403497395488342e+000	 6.878955371177123e-001	 1.145431384085723e+001
 2.396699722934155e+000	 7.112175744331118e-001	 1.147909574425534e+001
 2.389658115285039e+000	 7.345298442800079e-001	 1.150953896421186e+001
 2.382371845262166e+000	 7.578287345960117e-001	 1.154670466559979e+001
 2.374840252984291e+000	 7.811106022040244e-001	 1.159165538914442e+001
 2.367062747117389e+000	 8.043717742891899e-001	 1.164545423301130e+001
 2.359038805988396e+000	 8.276085499197398e-001	 1.170916402506244e+001
 2.350767978661281e+000	 8.508172016108216e-001	 1.178384648656580e+001
 2.342249885973674e+000	 8.739939769303399e-001	 1.187056138815950e+001
 2.333484221532295e+000	 8.971351001457417e-001	 1.197036569888699e+001
 2.324470752665467e+000	 9.202367739106158e-001	 1.208431272913423e+001
 2.427532369441510e+000	 6.947744924941302e-001	 1.137975429559406e+001
 2.420666720161247e+000	 7.183297501827995e-001	 1.141867490846239e+001
 2.413554696435142e+000	 7.418751427282125e-001	 1.146296139710583e+001
 2.406195563711574e+000	 7.654070219473556e-001	 1.151355195113576e+001
 2.398588655510490e+000	 7.889217082313587e-001	 1.157138500742628e+001
 2.390733374584523e+000	 8.124154920372165e-001	 1.163739855051523e+001
 2.382629194043878e+000	 8.358846354238425e-001	 1.171252940719099e+001
 2.374275658443166e+000	 8.593253736315351e-001	 1.179771253590937e+001
 2.365672384828394e+000	 8.827339167038776e-001	 1.189388031169095e+001
 2.356819063742346e+000	 9.061064511509912e-001	 1.200196180715405e+001
 2.347715460186632e+000	 9.294391416530003e-001	 1.212288207034236e+001
 2.451567343395171e+000	 7.016534478695476e-001	 1.133298594235178e+001
 2.444633717388931e+000	 7.254419259314924e-001	 1.138144433615497e+001
 2.437451277585918e+000	 7.492204411754367e-001	 1.143499290760237e+001
 2.430019282161732e+000	 7.729853092977436e-001	 1.149444879898311e+001
 2.422337058037504e+000	 7.967328142577711e-001	 1.156062827919125e+001
 2.414404002052529e+000	 8.204592097843656e-001	 1.163434616163373e+001
 2.406219582100278e+000	 8.441607209271218e-001	 1.171641521981613e+001
 2.397783338226006e+000	 8.678335456514897e-001	 1.180764560111134e+001
 2.389094883684093e+000	 8.914738564767308e-001	 1.190884423921192e+001
 2.380153905953393e+000	 9.150778021556408e-001	 1.202081426576071e+001
 2.370960167708796e+000	 9.386415093948796e-001	 1.214435442164946e+001
 2.475602317349326e+000	 7.085324032439653e-001	 1.131265731555114e+001
 2.468600714617200e+000	 7.325541016791896e-001	 1.136618553603283e+001
 2.461347858737369e+000	 7.565657396216802e-001	 1.142454759339306e+001
 2.453843000612641e+000	 7.805635966471755e-001	 1.148844144749002e+001
 2.446085460565335e+000	 8.045439202832618e-001	 1.155856307160770e+001
 2.438074629521406e+000	 8.285029275306373e-001	 1.163560598661389e+001
 2.429809970157598e+000	 8.524368064295778e-001	 1.172026079626433e+001
 2.421291018009799e+000	 8.763417176706853e-001	 1.181321472401953e+001
 2.412517382540770e+000	 9.002137962488995e-001	 1.191515115172674e+001
 2.403488748165434e+000	 9.240491531596906e-001	 1.202674916050310e+001
 2.394204875231962e+000	 9.478438771362537e-001	 1.214868307414085e+001
 2.499637291303976e+000	 7.154113586173830e-001	 1.131747481436174e+001
 2.492567711846060e+000	 7.396662774258920e-001	 1.137173298729462e+001
 2.485244439889495e+000	 7.639110380669433e-001	 1.143058764313810e+001
 2.477666719064299e+000	 7.881418839956510e-001	 1.149461936340602e+001
 2.469833863093983e+000	 8.123550263078306e-001	 1.156440563689963e+001
 2.461745256991154e+000	 8.365466452760306e-001	 1.164052050890669e+001
 2.453400358215832e+000	 8.607128919312104e-001	 1.172353423499191e+001
 2.444798697794545e+000	 8.848498896891213e-001	 1.181401293960894e+001
 2.435939881398428e+000	 9.089537360203835e-001	 1.191251827973806e+001
 2.426823590378469e+000	 9.330205041631401e-001	 1.201960711372898e+001
 2.417449582756126e+000	 9.570462448771225e-001	 1.213583117550184e+001
 2.523672265259118e+000	 7.222903139898007e-001	 1.133794340117816e+001
 2.516534709075509e+000	 7.467784531715990e-001	 1.139642481928087e+001
 2.509141021042295e+000	 7.712563365112256e-001	 1.145447911275453e+001
 2.501490437516708e+000	 7.957201713431703e-001	 1.151289209853587e+001
 2.493582265623444e+000	 8.201661323314774e-001	 1.157740878448706e+001
 2.485415884461776e+000	 8.445903630205471e-001	 1.164846417691913e+001
 2.476990746274987e+000	 8.689889774320194e-001	 1.172573102981674e+001
 2.468306377580246e+000	 8.933580617067989e-001	 1.180965613345189e+001
 2.459362380257065e+000	 9.176936757911830e-001	 1.190068118660416e+001
 2.450158432592499e+000	 9.419918551659895e-001	 1.199924259212103e+001
 2.440694290281292e+000	 9.662486126174865e-001	 1.210577126065561e+001
 2.547707239214755e+000	 7.291692693612185e-001	 1.134070876139396e+001
 2.540501706305546e+000	 7.538906289163111e-001	 1.140745010486317e+001
 2.533037602195769e+000	 7.786016349545277e-001	 1.147232540200259e+001
 2.525314155969867e+000	 8.032984586897338e-001	 1.153594420906245e+001
 2.517330668153723e+000	 8.279772383542029e-001	 1.159900540789790e+001
 2.509086511933269e+000	 8.526340807641855e-001	 1.166230179536135e+001
 2.500581134335058e+000	 8.772650629320049e-001	 1.172672456743406e+001
 2.491814057366899e+000	 9.018662337237169e-001	 1.179978196385970e+001
 2.482784879116681e+000	 9.264336155612974e-001	 1.187939290378157e+001
 2.473493274807525e+000	 9.509632061682394e-001	 1.196552325366213e+001
 2.463938997807456e+000	 9.754509803573452e-001	 1.205848480896922e+001
 2.571742213170885e+000	 7.360482247316361e-001	 1.132666356915967e+001
 2.564468703536172e+000	 7.610028046600280e-001	 1.140019901220412e+001
 2.556934183349918e+000	 7.859469333968490e-001	 1.147037765234586e+001
 2.549137874423777e+000	 8.108767460353411e-001	 1.153763140676049e+001
 2.541079070684818e+000	 8.357883443760059e-001	 1.160248377478715e+001
 2.532757139405635e+000	 8.606777985069465e-001	 1.166555476104537e+001
 2.524171522396048e+000	 8.855411484311675e-001	 1.172756569387389e+001
 2.515321737154507e+000	 9.103744057398759e-001	 1.178934392118342e+001
 2.506207377977276e+000	 9.351735553307278e-001	 1.185182736565248e+001
 2.496828117023545e+000	 9.599345571698892e-001	 1.191832933121960e+001
 2.487183705334621e+000	 9.846533480966988e-001	 1.199396182628873e+001
 2.595777187127509e+000	 7.429271801010537e-001	 1.129693927565863e+001
 2.588435700767387e+000	 7.681149804027497e-001	 1.137597592326841e+001
 2.580830764504741e+000	 7.932922318381895e-001	 1.145011153240548e+001
 2.572961592878435e+000	 8.184550333799919e-001	 1.151959890006229e+001
 2.564827473216729e+000	 8.435994503968872e-001	 1.158478474568784e+001
 2.556427766878872e+000	 8.687215162488298e-001	 1.164611497309486e+001
 2.547761910457956e+000	 8.938172339295067e-001	 1.170413982821165e+001
 2.538829416943069e+000	 9.188825777552763e-001	 1.175951893399981e+001
 2.529629876838851e+000	 9.439134950994733e-001	 1.181302618367913e+001
 2.520162959240561e+000	 9.689059081709387e-001	 1.186555447328327e+001
 2.510428412862785e+000	 9.938557158355472e-001	 1.191812025451767e+001
 2.619812161084627e+000	 7.498061354694716e-001	 1.125271288087854e+001
 2.612402697999191e+000	 7.752271561444764e-001	 1.133612691626822e+001
 2.604727345660238e+000	 8.006375302785499e-001	 1.141304056608002e+001
 2.596785311333844e+000	 8.260333207236867e-001	 1.148352592506014e+001
 2.588575875749454e+000	 8.514105564168468e-001	 1.154775143496913e+001
 2.580098394352980e+000	 8.767652339898355e-001	 1.160598749046281e+001
 2.571352298520780e+000	 9.020933194270222e-001	 1.165861194128156e+001
 2.562337096732584e+000	 9.273907497699173e-001	 1.170611547128465e+001
 2.553052375701406e+000	 9.526534348675341e-001	 1.174910683466944e+001
 2.543497801458570e+000	 9.778772591713884e-001	 1.178831792958248e+001
 2.533673120391951e+000	 1.003058083573891e+000	 1.182460868926458e+001
 2.643847135042239e+000	 7.566850908368894e-001	 1.119520486321108e+001
 2.636369695231585e+000	 7.823393318852079e-001	 1.128203787037924e+001
 2.628623926816410e+000	 8.079828287179298e-001	 1.136071441185108e+001
 2.620609029790005e+000	 8.336116080664259e-001	 1.143112419879446e+001
 2.612324278282998e+000	 8.592216624358847e-001	 1.149325579875625e+001
 2.603769021827961e+000	 8.848089517299637e-001	 1.154720259081625e+001
 2.594942686584524e+000	 9.103694049237150e-001	 1.159316861745575e+001
 2.585844776523054e+000	 9.358989217837995e-001	 1.163147431287789e+001
 2.576474874564940e+000	 9.613933746349105e-001	 1.166256208730433e+001
 2.566832643677576e+000	 9.868486101712384e-001	 1.168700174662424e+001
 2.556917827922116e+000	 1.012260451311729e+000	 1.170549572669455e+001
 2.324470752665467e+000	 9.202367739106158e-001	 1.208431272913423e+001
 2.315209321330897e+000	 9.432951809896923e-001	 1.201099497518358e+001
 2.305699844977406e+000	 9.663064860216959e-001	 1.194664797665592e+001
 2.295942317358883e+000	 9.892668373179069e-001	 1.189160243719316e+001
 2.285936809298535e+000	 1.012172368694827e+000	 1.184618133004497e+001
 2.275683469402266e+000	 1.035019201340096e+000	 1.181069976999029e+001
 2.265182524719623e+000	 1.057803445709805e+000	 1.178546489509772e+001
 2.254434281350881e+000	 1.080521203455543e+000	 1.177077575814455e+001
 2.243439124998900e+000	 1.103168569379458e+000	 1.176692322747988e+001
 2.232197521464457e+000	 1.125741633415526e+000	 1.177418989708738e+001
 2.220710017083810e+000	 1.148236482635196e+000	 1.179285000557129e+001
 2.347715460186632e+000	 9.294391416530003e-001	 1.212288207034236e+001
 2.338361414538539e+000	 9.527281328023738e-001	 1.203662758332489e+001
 2.328756843421378e+000	 9.759695508843156e-001	 1.196167600124004e+001
 2.318901740526580e+000	 9.991595056932201e-001	 1.189843256257082e+001
 2.308796177385584e+000	 1.022294092383755e+000	 1.184729363622890e+001
 2.298440304090351e+000	 1.045369393355436e+000	 1.180864651431706e+001
 2.287834349960926e+000	 1.068381480168917e+000	 1.178286921515282e+001
 2.276978624158587e+000	 1.091326415492303e+000	 1.177033029649024e+001
 2.265873516243221e+000	 1.114200255075764e+000	 1.177138867884501e+001
 2.254519496673615e+000	 1.136999049752617e+000	 1.178639347879617e+001
 2.242917117249388e+000	 1.159718847465025e+000	 1.181568385210846e+001
 2.370960167708796e+000	 9.386415093948796e-001	 1.214435442164946e+001
 2.361513507747179e+000	 9.621610846146400e-001	 1.204694157872797e+001
 2.351813841866350e+000	 9.856326157465909e-001	 1.196313932300921e+001
 2.341861163695278e+000	 1.009052174068240e+000	 1.189342625761797e+001
 2.331655545473632e+000	 1.032415816072421e+000	 1.183827098352059e+001
 2.321197138779436e+000	 1.055719585370526e+000	 1.179813181445639e+001
 2.310486175203230e+000	 1.078959514627770e+000	 1.177345650256120e+001
 2.299522966967292e+000	 1.102131627528775e+000	 1.176468197473603e+001
 2.288307907488542e+000	 1.125231940771733e+000	 1.177223407978148e+001
 2.276841471883772e+000	 1.148256466089301e+000	 1.179652734628894e+001
 2.265124217415967e+000	 1.171201212294357e+000	 1.183796475124816e+001
 2.394204875231962e+000	 9.478438771362537e-001	 1.214868307414085e+001
 2.384665600956820e+000	 9.715940364264912e-001	 1.204183898477882e+001
 2.374870840312322e+000	 9.952956806085219e-001	 1.195088952257273e+001
 2.364820586864974e+000	 1.018944842442967e+000	 1.187638551063549e+001
 2.354514913562681e+000	 1.042537539760825e+000	 1.181886664364983e+001
 2.343953973469521e+000	 1.066069777385365e+000	 1.177886112627413e+001
 2.333138000446533e+000	 1.089537549086364e+000	 1.175688532268035e+001
 2.322067309776998e+000	 1.112936839564960e+000	 1.175344341739075e+001
 2.310742298734863e+000	 1.136263626467365e+000	 1.176902708754750e+001
 2.299163447094931e+000	 1.159513882425579e+000	 1.180411518672085e+001
 2.287331317583545e+000	 1.182683577123193e+000	 1.185917344032979e+001
 2.417449582756126e+000	 9.570462448771225e-001	 1.213583117550184e+001
 2.407817694167462e+000	 9.810269882379279e-001	 1.202123386406284e+001
 2.397927838759294e+000	 1.004958745470109e+000	 1.192479236862314e+001
 2.387780010035672e+000	 1.028837510817401e+000	 1.184712861199966e+001
 2.377374281652729e+000	 1.052659263448967e+000	 1.178885226835690e+001
 2.366710808160607e+000	 1.076419969399953e+000	 1.175056032637123e+001
 2.355789825690835e+000	 1.100115583544698e+000	 1.173283666397651e+001
 2.344611652587703e+000	 1.123742051600855e+000	 1.173625163496856e+001
 2.333176689982184e+000	 1.147295312162660e+000	 1.176136166771493e+001
 2.321485422307088e+000	 1.170771298761451e+000	 1.180870887618666e+001
 2.309538417752123e+000	 1.194165941951533e+000	 1.187882068349861e+001
 2.440694290281292e+000	 9.662486126174865e-001	 1.210577126065561e+001
 2.430969787379103e+000	 9.904599400489497e-001	 1.198505174506966e+001
 2.420984837207266e+000	 1.014621810331352e+000	 1.188472714231335e+001
 2.410739433207369e+000	 1.038730179191542e+000	 1.180548937787293e+001
 2.400233649743777e+000	 1.062780987136847e+000	 1.174801701415399e+001
 2.389467642852691e+000	 1.086770161414292e+000	 1.171297473966779e+001
 2.378441650936139e+000	 1.110693618002774e+000	 1.170101287025750e+001
 2.367155995399409e+000	 1.134547263636464e+000	 1.171276686275049e+001
 2.355611081230505e+000	 1.158326997857618e+000	 1.174885684139250e+001
 2.343807397520246e+000	 1.182028715096916e+000	 1.180988713739015e+001
 2.331745517921702e+000	 1.205648306779377e+000	 1.189644584185776e+001
 2.463938997807456e+000	 9.754509803573452e-001	 1.205848480896922e+001
 2.454121880591744e+000	 9.998928918595564e-001	 1.193322908134858e+001
 2.444041835656238e+000	 1.024284875192251e+000	 1.183058599987628e+001
 2.433698856380066e+000	 1.048622847565389e+000	 1.175131641785546e+001
 2.423093017835825e+000	 1.072902710824465e+000	 1.169616671662838e+001
 2.412224477545777e+000	 1.097120353428379e+000	 1.166586822202938e+001
 2.401093476182442e+000	 1.121271652460590e+000	 1.166113663334538e+001
 2.389700338212114e+000	 1.145352475671784e+000	 1.168267146527661e+001
 2.378045472479826e+000	 1.169358683552239e+000	 1.173115550336090e+001
 2.366129372734403e+000	 1.193286131431975e+000	 1.180725427329477e+001
 2.353952618092280e+000	 1.217130671606725e+000	 1.191161552455524e+001
 2.487183705334621e+000	 9.846533480966988e-001	 1.199396182628873e+001
 2.477273973805385e+000	 1.009325843669748e+000	 1.186571274099175e+001
 2.467098834106210e+000	 1.033947940052805e+000	 1.176227337098573e+001
 2.456658279553763e+000	 1.058515515938944e+000	 1.168447244370302e+001
 2.445952385928873e+000	 1.083024434511822e+000	 1.163312311104648e+001
 2.434981312239862e+000	 1.107470545442217e+000	 1.160902229433517e+001
 2.423745301429745e+000	 1.131849686918147e+000	 1.161295004223459e+001
 2.412244681025820e+000	 1.156157687706816e+000	 1.164566890226843e+001
 2.400479863730147e+000	 1.180390369246524e+000	 1.170792330648044e+001
 2.388451347949561e+000	 1.204543547766627e+000	 1.180043897178430e+001
 2.376159718263858e+000	 1.228613036433577e+000	 1.192392231551072e+001
 2.510428412862785e+000	 9.938557158355472e-001	 1.191812025451767e+001
 2.500426067020026e+000	 1.018758795479525e+000	 1.178275576504609e+001
 2.490155832557182e+000	 1.043611004913016e+000	 1.167970539054149e+001
 2.479617702728460e+000	 1.068408184312205e+000	 1.160483361644942e+001
 2.468811754022922e+000	 1.093146158198917e+000	 1.155872309625752e+001
 2.457738146934946e+000	 1.117820737455803e+000	 1.154223532465313e+001
 2.446397126678049e+000	 1.142427721375445e+000	 1.155621368507470e+001
 2.434789023840525e+000	 1.166962899741561e+000	 1.160148275200019e+001
 2.422914254981468e+000	 1.191422054940471e+000	 1.167884760807641e+001
 2.410773323165719e+000	 1.215800964100874e+000	 1.178909317673129e+001
 2.398366818436436e+000	 1.240095401259933e+000	 1.193298357087974e+001
 2.533673120391951e+000	 1.003058083573891e+000	 1.182460868926458e+001
 2.523578160235667e+000	 1.028191747288888e+000	 1.169552806155391e+001
 2.513212831009154e+000	 1.053274069772882e+000	 1.159127857817452e+001
 2.502577125904157e+000	 1.078300852685173e+000	 1.151414762819963e+001
 2.491671122117970e+000	 1.103267881885750e+000	 1.147281803911639e+001
 2.480494981631032e+000	 1.128170929469140e+000	 1.146532175543321e+001
 2.469048951927352e+000	 1.153005755832484e+000	 1.149070580058547e+001
 2.457333366656231e+000	 1.177768111776017e+000	 1.154985578842944e+001
 2.445348646233790e+000	 1.202453740634082e+000	 1.164363647432138e+001
 2.433095298382876e+000	 1.227058380434714e+000	 1.177289102120877e+001
 2.420573918610014e+000	 1.251577766085793e+000	 1.192192493764642e+001
 2.556917827922116e+000	 1.012260451311729e+000	 1.170549572669455e+001
 2.546730253452309e+000	 1.037624699097835e+000	 1.158595739111578e+001
 2.536269829462126e+000	 1.062937134632405e+000	 1.149130619734960e+001
 2.525536549080854e+000	 1.088193521057849e+000	 1.142386584892527e+001
 2.514530490214018e+000	 1.113389605572321e+000	 1.138609790091422e+001
 2.503251816328118e+000	 1.138521121482225e+000	 1.138060436777889e+001
 2.491700777177656e+000	 1.163583790289264e+000	 1.141622147575789e+001
 2.479877709472937e+000	 1.188573323810186e+000	 1.149054910866592e+001
 2.467783037487111e+000	 1.213485426327355e+000	 1.160201773892391e+001
 2.455417273601035e+000	 1.238315796768148e+000	 1.175152781888996e+001
 2.442781018784593e+000	 1.263060130911157e+000	 1.181820025249051e+001
 2.220710017083810e+000	 1.148236482635196e+000	 1.179285000557129e+001
 2.208977239107448e+000	 1.170649203275409e+000	 1.189281586728178e+001
 2.196999896018612e+000	 1.192975882787095e+000	 1.203432255880430e+001
 2.184778777790678e+000	 1.215212611902256e+000	 1.221852417772752e+001
 2.172314756082764e+000	 1.237355486717287e+000	 1.244654497950255e+001
 2.159608784372368e+000	 1.259400610790523e+000	 1.249844305075190e+001
 2.146661898024329e+000	 1.281344097251810e+000	 1.228591465943617e+001
 2.133475214295431e+000	 1.303182070921885e+000	 1.210080685323937e+001
 2.120049932274017e+000	 1.324910670439300e+000	 1.194376993859656e+001
 2.106387332754107e+000	 1.346526050392598e+000	 1.181543684192381e+001
 2.092488778043565e+000	 1.368024383455396e+000	 1.171642212485977e+001
 2.242917117249388e+000	 1.159718847465025e+000	 1.181568385210846e+001
 2.231067011493503e+000	 1.182355695312165e+000	 1.194991758575656e+001
 2.218969894973999e+000	 1.204905641619348e+000	 1.212301816499902e+001
 2.206626565563987e+000	 1.227364738025891e+000	 1.233600407906952e+001
 2.194037903639175e+000	 1.249729041589153e+000	 1.258986571080515e+001
 2.181204872211835e+000	 1.271994616903054e+000	 1.239479508374839e+001
 2.168128517000457e+000	 1.294157538228736e+000	 1.221668905210788e+001
 2.154809966434391e+000	 1.316213891635143e+000	 1.206199680706615e+001
 2.141250431592866e+000	 1.338159777147213e+000	 1.193124075374596e+001
 2.127451206077836e+000	 1.359991310899372e+000	 1.182492880756310e+001
 2.113413665820249e+000	 1.381704627291974e+000	 1.174355355623548e+001
 2.265124217415967e+000	 1.171201212294357e+000	 1.183796475124816e+001
 2.253156783880558e+000	 1.194062187348341e+000	 1.200231140393594e+001
 2.240939893930387e+000	 1.216835400450964e+000	 1.220291777359834e+001
 2.228474353338295e+000	 1.239516864148863e+000	 1.244066874051080e+001
 2.215761051196586e+000	 1.262102596460361e+000	 1.246678056482092e+001
 2.202800960052304e+000	 1.284588623014960e+000	 1.230040601585419e+001
 2.189595135977586e+000	 1.306970979205100e+000	 1.215310219879751e+001
 2.176144718574352e+000	 1.329245712347933e+000	 1.202527665811076e+001
 2.162450930912714e+000	 1.351408883854781e+000	 1.191732600416857e+001
 2.148515079402566e+000	 1.373456571405956e+000	 1.182963521402288e+001
 2.134338553597934e+000	 1.395384871128547e+000	 1.176257693796051e+001
 2.287331317583545e+000	 1.182683577123193e+000	 1.185917344032979e+001
 2.275246556268613e+000	 1.205768679383935e+000	 1.204960033885385e+001
 2.262909892887774e+000	 1.228765159281942e+000	 1.227374475917508e+001
 2.250322141113604e+000	 1.251668990271171e+000	 1.250073474241687e+001
 2.237484198754997e+000	 1.274476151330909e+000	 1.235034577746452e+001
 2.224397047893772e+000	 1.297182629126240e+000	 1.221499879821548e+001
 2.211061754955715e+000	 1.319784420180902e+000	 1.209498262617887e+001
 2.197479470715314e+000	 1.342277533060254e+000	 1.199057838387718e+001
 2.183651430233561e+000	 1.364657990562005e+000	 1.190205893842158e+001
 2.169578952728295e+000	 1.386921831912349e+000	 1.182968834713431e+001
 2.155263441376618e+000	 1.409065114965114e+000	 1.177372130648867e+001
 2.309538417752123e+000	 1.194165941951533e+000	 1.187882068349861e+001
 2.297336328657668e+000	 1.217475171418948e+000	 1.209141291353198e+001
 2.284879891846162e+000	 1.240694918112283e+000	 1.233524355151564e+001
 2.272169928889913e+000	 1.263821116392816e+000	 1.236539386551607e+001
 2.259207346314407e+000	 1.286849706200797e+000	 1.224610217172596e+001
 2.245993135736240e+000	 1.309776635236893e+000	 1.213830452889760e+001
 2.232528373934845e+000	 1.332597861156142e+000	 1.204216286085646e+001
 2.218814222857275e+000	 1.355309353772107e+000	 1.195783389649763e+001
 2.204851929555409e+000	 1.377907097268883e+000	 1.188546875829676e+001
 2.190642826055024e+000	 1.400387092418552e+000	 1.182521255065962e+001
 2.176188329156302e+000	 1.422745358801676e+000	 1.177720394913077e+001
 2.331745517921702e+000	 1.205648306779377e+000	 1.189644584185776e+001
 2.319426101047722e+000	 1.229181663453380e+000	 1.212740194240912e+001
 2.306849890805548e+000	 1.252624676941988e+000	 1.234492590012741e+001
 2.294017716667222e+000	 1.275973242513798e+000	 1.224532365094132e+001
 2.280930493874819e+000	 1.299223261070026e+000	 1.215368921208689e+001
 2.267589223579709e+000	 1.322370641346921e+000	 1.207006206493631e+001
 2.253994992914973e+000	 1.345411302130818e+000	 1.199447923889263e+001
 2.240148975000236e+000	 1.368341174483491e+000	 1.192697504584578e+001
 2.226052428878257e+000	 1.391156203975418e+000	 1.186758081152348e+001
 2.211706699382754e+000	 1.413852352924566e+000	 1.181632460448588e+001
 2.197113216936987e+000	 1.436425602638232e+000	 1.177323096353767e+001
 2.353952618092280e+000	 1.217130671606725e+000	 1.191161552455524e+001
 2.341515873438778e+000	 1.240888155487230e+000	 1.215724338551937e+001
 2.328819889765936e+000	 1.264554435771055e+000	 1.221206298133485e+001
 2.315865504445531e+000	 1.288125368634117e+000	 1.214007744322795e+001
 2.302653641436230e+000	 1.311596815938595e+000	 1.207275759130022e+001
 2.289185311424177e+000	 1.334964647456323e+000	 1.201001765634895e+001
 2.275461611896103e+000	 1.358224743104934e+000	 1.195177172611615e+001
 2.261483727144197e+000	 1.381372995194407e+000	 1.189793362247324e+001
 2.247252928202105e+000	 1.404405310681608e+000	 1.184841677356423e+001
 2.232770572711484e+000	 1.427317613430389e+000	 1.180313408141157e+001
 2.218038104718671e+000	 1.450105846474784e+000	 1.176199778551435e+001
 2.376159718263858e+000	 1.228613036433577e+000	 1.192392231551072e+001
 2.363605645830832e+000	 1.252594647520498e+000	 1.214620072429612e+001
 2.350789888727322e+000	 1.276484194599485e+000	 1.209689661601286e+001
 2.337713292224839e+000	 1.300277494753773e+000	 1.204922301328784e+001
 2.324376788998640e+000	 1.323970370806505e+000	 1.200296870570460e+001
 2.310781399269644e+000	 1.347558653565099e+000	 1.195792460066769e+001
 2.296928230878232e+000	 1.371038184078487e+000	 1.191388374850705e+001
 2.282818479289158e+000	 1.394404815904855e+000	 1.187064136038178e+001
 2.268453427526953e+000	 1.417654417387454e+000	 1.182799481921573e+001
 2.253834446041213e+000	 1.440782873936022e+000	 1.178574368392635e+001
 2.238962992501355e+000	 1.463786090311330e+000	 1.174368968723698e+001
 2.398366818436436e+000	 1.240095401259933e+000	 1.193298357087974e+001
 2.385695418223886e+000	 1.264301139553186e+000	 1.202405320153651e+001
 2.372759887689710e+000	 1.288413953427278e+000	 1.199891664534682e+001
 2.359561080005149e+000	 1.312429620872765e+000	 1.197234189052142e+001
 2.346099936562051e+000	 1.336343925673755e+000	 1.194399415968802e+001
 2.332377487116113e+000	 1.360152659673249e+000	 1.191354291666590e+001
 2.318394849861360e+000	 1.383851625051477e+000	 1.188066203200428e+001
 2.304153231435120e+000	 1.407436636614833e+000	 1.184502993964138e+001
 2.289653926852801e+000	 1.430903524092955e+000	 1.180632978467698e+001
 2.274898319371942e+000	 1.454248134441465e+000	 1.176424956228093e+001
 2.259887880285039e+000	 1.477466334147870e+000	 1.171848224779134e+001
 2.420573918610014e+000	 1.251577766085793e+000	 1.192192493764642e+001
 2.407785190617942e+000	 1.276007631585292e+000	 1.192177404590514e+001
 2.394729886653097e+000	 1.300343712254434e+000	 1.191762948434011e+001
 2.381408867786457e+000	 1.324581746991094e+000	 1.190902873169451e+001
 2.367823084126462e+000	 1.348717480540346e+000	 1.189551529742870e+001
 2.353973574963582e+000	 1.372746665780773e+000	 1.187663903604428e+001
 2.339861468845489e+000	 1.396665066023905e+000	 1.185195645113156e+001
 2.325487983582081e+000	 1.420468457324344e+000	 1.182103098886399e+001
 2.310854426179649e+000	 1.444152630798112e+000	 1.178343332069571e+001
 2.295962192703672e+000	 1.467713394946719e+000	 1.173874161504851e+001
 2.280812768069723e+000	 1.491146577984406e+000	 1.168654179780990e+001
 2.442781018784593e+000	 1.263060130911157e+000	 1.181820025249051e+001
 2.429874963012998e+000	 1.287714123616817e+000	 1.183879908720364e+001
 2.416699885617485e+000	 1.312273471080953e+000	 1.185255736845863e+001
 2.403256655568767e+000	 1.336733873108761e+000	 1.185889072423971e+001
 2.389546231691873e+000	 1.361091035406278e+000	 1.185722276017735e+001
 2.375569662812050e+000	 1.385340671887671e+000	 1.184698551193419e+001
 2.361328087830620e+000	 1.409478506995771e+000	 1.182761988587982e+001
 2.346822735730043e+000	 1.433500278033387e+000	 1.179857608754277e+001
 2.332054925507497e+000	 1.457401737502925e+000	 1.175931403736177e+001
 2.317026066036402e+000	 1.481178655451782e+000	 1.170930377329196e+001
 2.301737655855408e+000	 1.504826821820936e+000	 1.164802583985613e+001
 2.092488778043565e+000	 1.368024383455396e+000	 1.171642212485977e+001
 2.078355711706041e+000	 1.389401862522306e+000	 1.183544840288750e+001
 2.063989658236324e+000	 1.410654702842500e+000	 1.193722827792863e+001
 2.049392222669044e+000	 1.431779144149049e+000	 1.202092476854294e+001
 2.034565090120716e+000	 1.452771452782182e+000	 1.208571545270699e+001
 2.019510025265108e+000	 1.473627923803213e+000	 1.213079322485508e+001
 2.004228871742098e+000	 1.494344883097002e+000	 1.215536703674592e+001
 1.988723551500283e+000	 1.514918689460504e+000	 1.215866262113965e+001
 1.972996064073690e+000	 1.535345736674992e+000	 1.213992319730278e+001
 1.957048485793046e+000	 1.555622455559537e+000	 1.209841015738955e+001
 1.940882968932161e+000	 1.575745316003345e+000	 1.203340373278459e+001
 2.113413665820249e+000	 1.381704627291974e+000	 1.174355355623548e+001
 2.099139268819376e+000	 1.403295881148705e+000	 1.184160139175472e+001
 2.084629554814937e+000	 1.424761249871356e+000	 1.192385773270181e+001
 2.069886144891910e+000	 1.446096935590330e+000	 1.198956765675391e+001
 2.054910741017975e+000	 1.467299167309258e+000	 1.203798981383997e+001
 2.039705125513637e+000	 1.488364203040067e+000	 1.206839708581463e+001
 2.024271160455173e+000	 1.509288331926469e+000	 1.208007723072723e+001
 2.008610787010665e+000	 1.530067876353384e+000	 1.207233351084936e+001
 1.992726024709482e+000	 1.550699194039902e+000	 1.204448530365501e+001
 1.976618970645658e+000	 1.571178680113283e+000	 1.199586869497989e+001
 1.960291798615738e+000	 1.591502769161626e+000	 1.192583705361830e+001
 2.134338553597934e+000	 1.395384871128547e+000	 1.176257693796051e+001
 2.119922825933710e+000	 1.417189899775284e+000	 1.184218903912392e+001
 2.105269451394550e+000	 1.438867796900547e+000	 1.190743320114915e+001
 2.090380067115776e+000	 1.460414727032072e+000	 1.195763544286888e+001
 2.075256391916234e+000	 1.481826881836891e+000	 1.199213438382955e+001
 2.059900225763166e+000	 1.503100482277545e+000	 1.201028180750419e+001
 2.044313449169248e+000	 1.524231780756594e+000	 1.201144320985534e+001
 2.028498022522048e+000	 1.545217063246930e+000	 1.199499833258884e+001
 2.012455985346274e+000	 1.566052651405453e+000	 1.196034168046824e+001
 1.996189455499269e+000	 1.586734904667616e+000	 1.190688302209203e+001
 1.979700628300315e+000	 1.607260222320409e+000	 1.183404787356627e+001
 2.155263441376618e+000	 1.409065114965114e+000	 1.177372130648867e+001
 2.140706383049044e+000	 1.431083918402042e+000	 1.183736627830285e+001
 2.125909347975163e+000	 1.452974343930074e+000	 1.188803641044630e+001
 2.110873989340642e+000	 1.474732518474275e+000	 1.192513758411601e+001
 2.095602042815492e+000	 1.496354596365081e+000	 1.194808732488808e+001
 2.080095326013694e+000	 1.517836761515647e+000	 1.195631527033740e+001
 2.064355737884323e+000	 1.539175229587379e+000	 1.194926362374835e+001
 2.048385258034430e+000	 1.560366250141140e+000	 1.192638759343271e+001
 2.032185945984066e+000	 1.581406108771645e+000	 1.188715581719994e+001
 2.015759940353880e+000	 1.602291129222534e+000	 1.183105077155643e+001
 1.999109457985893e+000	 1.623017675479693e+000	 1.175756916523863e+001
 2.176188329156302e+000	 1.422745358801676e+000	 1.177720394913077e+001
 2.161489940165379e+000	 1.444977937028980e+000	 1.182727905806797e+001
 2.146549244556776e+000	 1.467080890959936e+000	 1.186574283384256e+001
 2.131367911566508e+000	 1.489050309916940e+000	 1.189207997899504e+001
 2.115947693715751e+000	 1.510882310893828e+000	 1.190578589890688e+001
 2.100290426265223e+000	 1.532573040754371e+000	 1.190636707465800e+001
 2.084398026600397e+000	 1.554118678418822e+000	 1.189334142270208e+001
 2.068272493547812e+000	 1.575515437036016e+000	 1.186623864105054e+001
 2.051915906622858e+000	 1.596759566138477e+000	 1.182460054168462e+001
 2.035330425209492e+000	 1.617847353778039e+000	 1.176798136894470e+001
 2.018518287672471e+000	 1.638775128639479e+000	 1.169594810367427e+001
 2.197113216936987e+000	 1.436425602638232e+000	 1.177323096353767e+001
 2.182273497282713e+000	 1.458871955656099e+000	 1.181206477049919e+001
 2.167189141139388e+000	 1.481187437990134e+000	 1.184062198846675e+001
 2.151861833793374e+000	 1.503368101360066e+000	 1.185846513674049e+001
 2.136293344617009e+000	 1.525410025423133e+000	 1.186516651032884e+001
 2.120485526517752e+000	 1.547309319993719e+000	 1.186030845883844e+001
 2.104440315317472e+000	 1.569062127250925e+000	 1.184348365289592e+001
 2.088159729062195e+000	 1.590664623931557e+000	 1.181429533796460e+001
 2.071645867262651e+000	 1.612113023505951e+000	 1.177235757544936e+001
 2.054900910066103e+000	 1.633403578334130e+000	 1.171729547101044e+001
 2.037927117360048e+000	 1.654532581799765e+000	 1.164874539003462e+001
 2.218038104718671e+000	 1.450105846474784e+000	 1.176199778551435e+001
 2.203057054401048e+000	 1.472765974283397e+000	 1.179185265459782e+001
 2.187829037723001e+000	 1.495293985020667e+000	 1.181273771627624e+001
 2.172355756021239e+000	 1.517685892803653e+000	 1.182429233719266e+001
 2.156638995519268e+000	 1.539937739952995e+000	 1.182616474659396e+001
 2.140680626771281e+000	 1.562045599233690e+000	 1.181801222201443e+001
 2.124482604035547e+000	 1.584005576083688e+000	 1.179950126319088e+001
 2.108046964577578e+000	 1.605813810827763e+000	 1.177030775424535e+001
 2.091375827903443e+000	 1.627466480874064e+000	 1.173011711420002e+001
 2.074471394923714e+000	 1.648959802890808e+000	 1.167862443591659e+001
 2.057335947048625e+000	 1.670290034960553e+000	 1.161553461357911e+001
 2.238962992501355e+000	 1.463786090311330e+000	 1.174368968723698e+001
 2.223840611520382e+000	 1.486659992910875e+000	 1.176676417727134e+001
 2.208468934307614e+000	 1.509400532051535e+000	 1.178214844925206e+001
 2.192849678250105e+000	 1.532003684247701e+000	 1.178955778170392e+001
 2.176984646422527e+000	 1.554465454483414e+000	 1.178871541631717e+001
 2.160875727025809e+000	 1.576781878474284e+000	 1.177935265115195e+001
 2.144524892754621e+000	 1.598949024917110e+000	 1.176120892276118e+001
 2.127934200093959e+000	 1.620962997724634e+000	 1.173403187743907e+001
 2.111105788545236e+000	 1.642819938242819e+000	 1.169757743183131e+001
 2.094041879782326e+000	 1.664516027448071e+000	 1.165160982316958e+001
 2.076744776738203e+000	 1.686047488121843e+000	 1.159590164941753e+001
 2.259887880285039e+000	 1.477466334147870e+000	 1.171848224779134e+001
 2.244624168640716e+000	 1.500554011538533e+000	 1.173691339315258e+001
 2.229108830893226e+000	 1.523507079082740e+000	 1.174890745986056e+001
 2.213343600479971e+000	 1.546321475692211e+000	 1.175425473566124e+001
 2.197330297326785e+000	 1.568993169014391e+000	 1.175275258534492e+001
 2.181070827281339e+000	 1.591518157715502e+000	 1.174420545216637e+001
 2.164567181474696e+000	 1.613892473751190e+000	 1.172842484885760e+001
 2.147821435611343e+000	 1.636112184622170e+000	 1.170522933861065e+001
 2.130835749188027e+000	 1.658173395612215e+000	 1.167444450643695e+001
 2.113612364641937e+000	 1.680072252005921e+000	 1.163590292133471e+001
 2.096153606428781e+000	 1.701804941283633e+000	 1.158944408972074e+001
 2.280812768069723e+000	 1.491146577984406e+000	 1.168654179780990e+001
 2.265407725762050e+000	 1.514448030166370e+000	 1.170240728461252e+001
 2.249748727479840e+000	 1.537613626114280e+000	 1.171306309772849e+001
 2.233837522710837e+000	 1.560639267137182e+000	 1.171837366316358e+001
 2.217675948232044e+000	 1.583520883545925e+000	 1.171820961082722e+001
 2.201265927537867e+000	 1.606254436957342e+000	 1.171244768483290e+001
 2.184609470195770e+000	 1.628835922585930e+000	 1.170097064405159e+001
 2.167708671129724e+000	 1.651261371520371e+000	 1.168366715346670e+001
 2.150565709831820e+000	 1.673526852982251e+000	 1.166043166690573e+001
 2.133182849502548e+000	 1.695628476564357e+000	 1.163116430174926e+001
 2.115562436120359e+000	 1.717562394445926e+000	 1.159577070624059e+001
 2.301737655855408e+000	 1.504826821820936e+000	 1.164802583985613e+001
 2.286191282884384e+000	 1.528342048794389e+000	 1.166334608322637e+001
 2.270388624067453e+000	 1.551720173146155e+000	 1.167465901340854e+001
 2.254331444942703e+000	 1.574957058582615e+000	 1.168190235435313e+001
 2.238021599138304e+000	 1.598048598078016e+000	 1.168501917343112e+001
 2.221461027795396e+000	 1.620990716199806e+000	 1.168395770124758e+001
 2.204651758917846e+000	 1.643779371421331e+000	 1.167867114235712e+001
 2.187595906649108e+000	 1.666410558419238e+000	 1.166911747759889e+001
 2.170295670476613e+000	 1.688880310352928e+000	 1.165525925879459e+001
 2.152753334364160e+000	 1.711184701123380e+000	 1.163706339657824e+001
 2.134971265812936e+000	 1.733319847608720e+000	 1.161450094214740e+001
 1.940882968932161e+000	 1.575745316003345e+000	 1.203340373278459e+001
 1.924501740789867e+000	 1.595710828974349e+000	 1.194644502884777e+001
 1.907907102708858e+000	 1.615515548502402e+000	 1.185241616321512e+001
 1.891101429031947e+000	 1.635156073634189e+000	 1.175188124022631e+001
 1.874087165996259e+000	 1.654629050357170e+000	 1.165172424622819e+001
 1.856866830566980e+000	 1.673931173491006e+000	 1.165495574632254e+001
 1.839443009211615e+000	 1.693059188543971e+000	 1.164703262926140e+001
 1.821818356616007e+000	 1.712009893532202e+000	 1.162844210323225e+001
 1.803995594343424e+000	 1.730780140759638e+000	 1.159974059883082e+001
 1.785977509438138e+000	 1.749366838556604e+000	 1.156155328681891e+001
 1.767766952975000e+000	 1.767766952975000e+000	 1.151457339078524e+001
 1.960291798615738e+000	 1.591502769161626e+000	 1.192583705361830e+001
 1.943746758191629e+000	 1.611667937262448e+000	 1.186883962828098e+001
 1.926986173729532e+000	 1.631670703985805e+000	 1.180224872251432e+001
 1.910012443315688e+000	 1.651507634368847e+000	 1.172651570951335e+001
 1.892828037649594e+000	 1.671175340858911e+000	 1.164209985403782e+001
 1.875435498866089e+000	 1.690670485223853e+000	 1.154946764197907e+001
 1.857837439297353e+000	 1.709989780427031e+000	 1.155910845423156e+001
 1.840036540176085e+000	 1.729129992464741e+000	 1.155677767278527e+001
 1.822035550281188e+000	 1.748087942163965e+000	 1.154002459115834e+001
 1.803837284527377e+000	 1.766860506938327e+000	 1.150937555995274e+001
 1.785444622500250e+000	 1.785444622500250e+000	 1.146543143727141e+001
 1.979700628300315e+000	 1.607260222320409e+000	 1.183404787356627e+001
 1.962991775594386e+000	 1.627625045550958e+000	 1.180357498961328e+001
 1.946065244751185e+000	 1.647825859469548e+000	 1.176103313879502e+001
 1.928923457600384e+000	 1.667859195103797e+000	 1.170676282308546e+001
 1.911568909303851e+000	 1.687721631360913e+000	 1.164111461743839e+001
 1.894004167166073e+000	 1.707409796956951e+000	 1.156444861371233e+001
 1.876231869383910e+000	 1.726920372310351e+000	 1.147713385348093e+001
 1.858254723736918e+000	 1.746250091397571e+000	 1.148034033030910e+001
 1.840075506219632e+000	 1.765395743568631e+000	 1.147256262422203e+001
 1.821697059617211e+000	 1.784354175320461e+000	 1.144646796326856e+001
 1.803122292026000e+000	 1.803122292026000e+000	 1.140256647710517e+001
 1.999109457985893e+000	 1.623017675479693e+000	 1.175756916523863e+001
 1.982236792998138e+000	 1.643582153839881e+000	 1.175028427779837e+001
 1.965144315773819e+000	 1.663981014953634e+000	 1.172850142607530e+001
 1.947834471886035e+000	 1.684210755839037e+000	 1.169245205295758e+001
 1.930309780959026e+000	 1.704267921863176e+000	 1.164237982662102e+001
 1.912572835466933e+000	 1.724149108690299e+000	 1.157854019699896e+001
 1.894626299471288e+000	 1.743850964193931e+000	 1.150119993850596e+001
 1.876472907298507e+000	 1.763370190330691e+000	 1.141063668011863e+001
 1.858115462158757e+000	 1.782703544973638e+000	 1.140036607404926e+001
 1.839556834707640e+000	 1.801847843703005e+000	 1.137593067347130e+001
 1.820799961552250e+000	 1.820799961552250e+000	 1.132916432825758e+001
 2.018518287672471e+000	 1.638775128639479e+000	 1.169594810367427e+001
 2.001481810402884e+000	 1.659539262129213e+000	 1.170861093086485e+001
 1.984223386797433e+000	 1.680136170438060e+000	 1.170439199530219e+001
 1.966745486172641e+000	 1.700562316574568e+000	 1.168341544707374e+001
 1.949050652615122e+000	 1.720814212365699e+000	 1.164581978550567e+001
 1.931141503768667e+000	 1.740888420423898e+000	 1.159175752640489e+001
 1.913020729559484e+000	 1.760781556077772e+000	 1.152139485295697e+001
 1.894691090860849e+000	 1.780490289264100e+000	 1.143491125120557e+001
 1.876155418098561e+000	 1.800011346378984e+000	 1.133249913106582e+001
 1.857416609798664e+000	 1.819341512085958e+000	 1.130084477960547e+001
 1.838477631079000e+000	 1.838477631079000e+000	 1.124838833746078e+001
 2.037927117360048e+000	 1.654532581799765e+000	 1.164874539003462e+001
 2.020726827808627e+000	 1.675496370418957e+000	 1.167820817072210e+001
 2.003302457822026e+000	 1.696291325922827e+000	 1.168844934973597e+001
 1.985656500460203e+000	 1.716913877310390e+000	 1.167948750664392e+001
 1.967791524272138e+000	 1.737360502868482e+000	 1.165135766656687e+001
 1.949710172071277e+000	 1.757627732157747e+000	 1.160411107645894e+001
 1.931415159648502e+000	 1.777712147961872e+000	 1.153781496247943e+001
 1.912909274423948e+000	 1.797610388197801e+000	 1.145255226920552e+001
 1.894195374039046e+000	 1.817319147784671e+000	 1.134842138146890e+001
 1.875276384890283e+000	 1.836835180469322e+000	 1.122553582962841e+001
 1.856155300606249e+000	 1.856155300606249e+000	 1.116338045026681e+001
 2.057335947048625e+000	 1.670290034960553e+000	 1.161553461357911e+001
 2.039971845215364e+000	 1.691453478709113e+000	 1.165873854165650e+001
 2.022381528847600e+000	 1.712446481407934e+000	 1.168042379757693e+001
 2.004567514748719e+000	 1.733265438046503e+000	 1.168050507042392e+001
 1.986532395930074e+000	 1.753906793371527e+000	 1.165891556420364e+001
 1.968278840374762e+000	 1.774367043891847e+000	 1.161560688146628e+001
 1.949809589738340e+000	 1.794642739846233e+000	 1.155054888548751e+001
 1.931127457987802e+000	 1.814730487131791e+000	 1.146372954158604e+001
 1.912235329980211e+000	 1.834626949190698e+000	 1.135515473819220e+001
 1.893136159982496e+000	 1.854328848853095e+000	 1.122484808831796e+001
 1.873832970134000e+000	 1.873832970134000e+000	 1.107726222053729e+001
 2.076744776738203e+000	 1.686047488121843e+000	 1.159590164941753e+001
 2.059216862623095e+000	 1.707410586999680e+000	 1.164987347470623e+001
 2.041460599874153e+000	 1.728601636893384e+000	 1.168007118070638e+001
 2.023478529038190e+000	 1.749616998782907e+000	 1.168630720548422e+001
 2.005273267588929e+000	 1.770453083874832e+000	 1.166841454511701e+001
 1.986847508679122e+000	 1.791106355626197e+000	 1.162624674299521e+001
 1.968204019828998e+000	 1.811573331730855e+000	 1.155967785518420e+001
 1.949345641552410e+000	 1.831850586066071e+000	 1.146860239225150e+001
 1.930275285922055e+000	 1.851934750597065e+000	 1.135293523801027e+001
 1.910995935075306e+000	 1.871822517237279e+000	 1.121261154566922e+001
 1.891510639662249e+000	 1.891510639662249e+000	 1.119890779701742e+001
 2.096153606428781e+000	 1.701804941283633e+000	 1.158944408972074e+001
 2.078461880031822e+000	 1.723367695290657e+000	 1.165129287623768e+001
 2.060539670901687e+000	 1.744756792379174e+000	 1.168715261849793e+001
 2.042389543328616e+000	 1.765968559519601e+000	 1.169673510404723e+001
 2.024014139248705e+000	 1.786999374378398e+000	 1.167977469588842e+001
 2.005416176984356e+000	 1.807845667360798e+000	 1.163602842583740e+001
 1.986598449920476e+000	 1.828503923615737e+000	 1.156527606146923e+001
 1.967563825117773e+000	 1.848970685000643e+000	 1.146732014689327e+001
 1.948315241864580e+000	 1.869242552003772e+000	 1.134198601764611e+001
 1.928855710168709e+000	 1.889316185621873e+000	 1.131098750764664e+001
 1.909188309190999e+000	 1.909188309190999e+000	 1.130569132574015e+001
 2.115562436120359e+000	 1.717562394445926e+000	 1.159577070624059e+001
 2.097706897441544e+000	 1.739324803582046e+000	 1.166268473916893e+001
 2.079618741930201e+000	 1.760911947865306e+000	 1.170143426573045e+001
 2.061300557619997e+000	 1.782320120256587e+000	 1.171163198600334e+001
 2.042755010909402e+000	 1.803545664882225e+000	 1.169291516793953e+001
 2.023984845290466e+000	 1.824584979095649e+000	 1.164494584318098e+001
 2.004992880012773e+000	 1.845434515500879e+000	 1.156741097402630e+001
 1.985782008683892e+000	 1.866090783935503e+000	 1.146002259162342e+001
 1.966355197807784e+000	 1.886550353410819e+000	 1.141404389021496e+001
 1.946715485262708e+000	 1.906809854006876e+000	 1.141145161225531e+001
 1.926865978720250e+000	 1.926865978720250e+000	 1.138338950395872e+001
 2.134971265812936e+000	 1.733319847608720e+000	 1.161450094214740e+001
 2.116951914852261e+000	 1.755281911873847e+000	 1.168374477539909e+001
 2.098697812959695e+000	 1.777067103351779e+000	 1.172268708370618e+001
 2.080211571912335e+000	 1.798671680993865e+000	 1.173084300674411e+001
 2.061495882571019e+000	 1.820091955386313e+000	 1.170775422003940e+001
 2.042553513597452e+000	 1.841324290830751e+000	 1.165298923168355e+001
 2.023387310105893e+000	 1.862365107386282e+000	 1.156614364778754e+001
 2.004000192250767e+000	 1.883210882870655e+000	 1.150760283598194e+001
 1.984395153751670e+000	 1.903858154818206e+000	 1.151175419907098e+001
 1.964575260357303e+000	 1.924303522392291e+000	 1.148687515733027e+001
 1.944543648250000e+000	 1.944543648250000e+000	 1.143344862201284e+001
 1.767766952975000e+000	 1.767766952975000e+000	 1.151457339078524e+001
 1.749366838556605e+000	 1.785977509438138e+000	 1.153721743171593e+001
 1.730780140759639e+000	 1.803995594343423e+000	 1.152656424028958e+001
 1.712009893532202e+000	 1.821818356616006e+000	 1.148228432158224e+001
 1.693059188543972e+000	 1.839443009211614e+000	 1.140413854087361e+001
 1.673931173491007e+000	 1.856866830566979e+000	 1.129197769078704e+001
 1.654629050357171e+000	 1.874087165996258e+000	 1.114574182951311e+001
 1.635156073634190e+000	 1.891101429031946e+000	 1.116512162497188e+001
 1.615515548502403e+000	 1.907907102708857e+000	 1.116348262896758e+001
 1.595710828974350e+000	 1.924501740789867e+000	 1.112995825657269e+001
 1.575745316003345e+000	 1.940882968932160e+000	 1.106490713858388e+001
 1.785444622500250e+000	 1.785444622500250e+000	 1.146543143727141e+001
 1.766860506938328e+000	 1.803837284527377e+000	 1.145379692825266e+001
 1.748087942163965e+000	 1.822035550281187e+000	 1.140983322345384e+001
 1.729129992464742e+000	 1.840036540176085e+000	 1.133333118613416e+001
 1.709989780427031e+000	 1.857837439297352e+000	 1.122417329564602e+001
 1.690670485223853e+000	 1.875435498866088e+000	 1.108759373705059e+001
 1.671175340858912e+000	 1.892828037649594e+000	 1.112576032248944e+001
 1.651507634368848e+000	 1.910012443315687e+000	 1.113408335681132e+001
 1.631670703985806e+000	 1.926986173729531e+000	 1.111301346466247e+001
 1.611667937262449e+000	 1.943746758191628e+000	 1.106301566753100e+001
 1.591502769161626e+000	 1.960291798615738e+000	 1.098456801388925e+001
 1.803122292026000e+000	 1.803122292026000e+000	 1.140256647710517e+001
 1.784354175320462e+000	 1.821697059617210e+000	 1.135989056779205e+001
 1.765395743568632e+000	 1.840075506219632e+000	 1.128573813601961e+001
 1.746250091397571e+000	 1.858254723736918e+000	 1.118001931511218e+001
 1.726920372310352e+000	 1.876231869383909e+000	 1.105725275477427e+001
 1.707409796956951e+000	 1.894004167166073e+000	 1.110097803496392e+001
 1.687721631360914e+000	 1.911568909303850e+000	 1.111695906430228e+001
 1.667859195103797e+000	 1.928923457600383e+000	 1.110575921480835e+001
 1.647825859469549e+000	 1.946065244751184e+000	 1.106795457806553e+001
 1.627625045550959e+000	 1.962991775594385e+000	 1.100413244030229e+001
 1.607260222320409e+000	 1.979700628300316e+000	 1.091488976652580e+001
 1.820799961552250e+000	 1.820799961552250e+000	 1.132916432825758e+001
 1.801847843703005e+000	 1.839556834707639e+000	 1.125858492753122e+001
 1.782703544973638e+000	 1.858115462158756e+000	 1.115726627254330e+001
 1.763370190330692e+000	 1.876472907298506e+000	 1.104201554752881e+001
 1.743850964193932e+000	 1.894626299471286e+000	 1.108969187454750e+001
 1.724149108690300e+000	 1.912572835466932e+000	 1.111143435080334e+001
 1.704267921863176e+000	 1.930309780959026e+000	 1.110792297695377e+001
 1.684210755839037e+000	 1.947834471886034e+000	 1.107984912910157e+001
 1.663981014953635e+000	 1.965144315773818e+000	 1.102791387237621e+001
 1.643582153839881e+000	 1.982236792998137e+000	 1.095282628453267e+001
 1.623017675479693e+000	 1.999109457985893e+000	 1.085530179383010e+001
 1.838477631079000e+000	 1.838477631079000e+000	 1.124838833746078e+001
 1.819341512085959e+000	 1.857416609798663e+000	 1.115294778705301e+001
 1.800011346378985e+000	 1.876155418098561e+000	 1.103999095795414e+001
 1.780490289264101e+000	 1.894691090860849e+000	 1.109042573931932e+001
 1.760781556077772e+000	 1.913020729559484e+000	 1.111644452341008e+001
 1.740888420423898e+000	 1.931141503768667e+000	 1.111884733185381e+001
 1.720814212365700e+000	 1.949050652615121e+000	 1.109844456049638e+001
 1.700562316574569e+000	 1.966745486172640e+000	 1.105605512596868e+001
 1.680136170438060e+000	 1.984223386797432e+000	 1.099250462256796e+001
 1.659539262129213e+000	 2.001481810402884e+000	 1.090862349409095e+001
 1.638775128639479e+000	 2.018518287672471e+000	 1.080524522516660e+001
 1.856155300606249e+000	 1.856155300606249e+000	 1.116338045026681e+001
 1.836835180469322e+000	 1.875276384890282e+000	 1.104888372503145e+001
 1.817319147784672e+000	 1.894195374039045e+000	 1.110130246473122e+001
 1.797610388197802e+000	 1.912909274423947e+000	 1.113052738172081e+001
 1.777712147961873e+000	 1.931415159648502e+000	 1.113748140989068e+001
 1.757627732157748e+000	 1.949710172071276e+000	 1.112309720764685e+001
 1.737360502868484e+000	 1.967791524272137e+000	 1.108831513290583e+001
 1.716913877310390e+000	 1.985656500460202e+000	 1.103408122801038e+001
 1.696291325922827e+000	 2.003302457822025e+000	 1.096134521958937e+001
 1.675496370418958e+000	 2.020726827808626e+000	 1.087105853829635e+001
 1.654532581799765e+000	 2.037927117360048e+000	 1.076417236325949e+001
 1.873832970134000e+000	 1.873832970134000e+000	 1.107726222053729e+001
 1.854328848853096e+000	 1.893136159982496e+000	 1.112003635971368e+001
 1.834626949190698e+000	 1.912235329980210e+000	 1.115181535374054e+001
 1.814730487131792e+000	 1.931127457987802e+000	 1.116237264640399e+001
 1.794642739846234e+000	 1.949809589738339e+000	 1.115276589696128e+001
 1.774367043891848e+000	 1.968278840374761e+000	 1.112405999834535e+001
 1.753906793371528e+000	 1.986532395930073e+000	 1.107732488583967e+001
 1.733265438046504e+000	 2.004567514748718e+000	 1.101363335998401e+001
 1.712446481407935e+000	 2.022381528847599e+000	 1.093405892904468e+001
 1.691453478709113e+000	 2.039971845215363e+000	 1.083967367628385e+001
 1.670290034960553e+000	 2.057335947048625e+000	 1.073154615714754e+001
 1.891510639662249e+000	 1.891510639662249e+000	 1.119890779701742e+001
 1.871822517237279e+000	 1.910995935075305e+000	 1.117802802186292e+001
 1.851934750597065e+000	 1.930275285922054e+000	 1.119165889387136e+001
 1.831850586066072e+000	 1.949345641552410e+000	 1.118600366384681e+001
 1.811573331730856e+000	 1.968204019828997e+000	 1.116225434528760e+001
 1.791106355626198e+000	 1.986847508679121e+000	 1.112160771144276e+001
 1.770453083874833e+000	 2.005273267588929e+000	 1.106526293726878e+001
 1.749616998782907e+000	 2.023478529038189e+000	 1.099441925991797e+001
 1.728601636893384e+000	 2.041460599874153e+000	 1.091027366340610e+001
 1.707410586999680e+000	 2.059216862623094e+000	 1.081401859299413e+001
 1.686047488121843e+000	 2.076744776738203e+000	 1.070683970469264e+001
 1.909188309190999e+000	 1.909188309190999e+000	 1.130569132574015e+001
 1.889316185621873e+000	 1.928855710168709e+000	 1.125947451995712e+001
 1.869242552003772e+000	 1.948315241864579e+000	 1.122094983389530e+001
 1.848970685000643e+000	 1.967563825117773e+000	 1.120145298820445e+001
 1.828503923615737e+000	 1.986598449920475e+000	 1.116589643740972e+001
 1.807845667360799e+000	 2.005416176984356e+000	 1.111560852753516e+001
 1.786999374378399e+000	 2.024014139248705e+000	 1.105191738118518e+001
 1.765968559519602e+000	 2.042389543328615e+000	 1.097614839516371e+001
 1.744756792379175e+000	 2.060539670901687e+000	 1.088962176688088e+001
 1.723367695290658e+000	 2.078461880031821e+000	 1.079365005538634e+001
 1.701804941283634e+000	 2.096153606428781e+000	 1.068953578272702e+001
 1.926865978720250e+000	 1.926865978720250e+000	 1.138338950395872e+001
 1.906809854006877e+000	 1.946715485262708e+000	 1.132370919780759e+001
 1.886550353410819e+000	 1.966355197807783e+000	 1.126072254029250e+001
 1.866090783935504e+000	 1.985782008683891e+000	 1.120874403659028e+001
 1.845434515500880e+000	 2.004992880012773e+000	 1.116363548407833e+001
 1.824584979095650e+000	 2.023984845290466e+000	 1.110592697586663e+001
 1.803545664882226e+000	 2.042755010909401e+000	 1.103707533457349e+001
 1.782320120256588e+000	 2.061300557619997e+000	 1.095853188306916e+001
 1.760911947865307e+000	 2.079618741930200e+000	 1.087173981212094e+001
 1.739324803582047e+000	 2.097706897441543e+000	 1.077813158757476e+001
 1.717562394445926e+000	 2.115562436120359e+000	 1.067912640306362e+001
 1.944543648250000e+000	 1.944543648250000e+000	 1.143344862201284e+001
 1.924303522392292e+000	 1.964575260357303e+000	 1.136269408418171e+001
 1.903858154818207e+000	 1.984395153751669e+000	 1.129020776004981e+001
 1.883210882870656e+000	 2.004000192250766e+000	 1.121721507159529e+001
 1.862365107386283e+000	 2.023387310105892e+000	 1.115540871388142e+001
 1.841324290830752e+000	 2.042553513597451e+000	 1.109242410030012e+001
 1.820091955386314e+000	 2.061495882571018e+000	 1.102052298182037e+001
 1.798671680993865e+000	 2.080211571912334e+000	 1.094128241597885e+001
 1.777067103351780e+000	 2.098697812959694e+000	 1.085626840802066e+001
 1.755281911873849e+000	 2.116951914852261e+000	 1.076703316368551e+001
 1.733319847608720e+000	 2.134971265812937e+000	 1.067511239272425e+001
 1.575745316003345e+000	 1.940882968932160e+000	 1.106490713858388e+001
 1.555622455559537e+000	 1.957048485793046e+000	 1.106092643082084e+001
 1.535345736674993e+000	 1.972996064073689e+000	 1.103158327698089e+001
 1.514918689460505e+000	 1.988723551500282e+000	 1.097790715179328e+001
 1.494344883097003e+000	 2.004228871742098e+000	 1.090093159840109e+001
 1.473627923803214e+000	 2.019510025265108e+000	 1.080169240682491e+001
 1.452771452782183e+000	 2.034565090120716e+000	 1.068122582395691e+001
 1.431779144149050e+000	 2.049392222669043e+000	 1.054056679888086e+001
 1.410654702842501e+000	 2.063989658236324e+000	 1.038074726715247e+001
 1.389401862522308e+000	 2.078355711706041e+000	 1.020279447750491e+001
 1.368024383455396e+000	 2.092488778043565e+000	 1.000772936426351e+001
 1.591502769161626e+000	 1.960291798615738e+000	 1.098456801388925e+001
 1.571178680113283e+000	 1.976618970645657e+000	 1.098781254774527e+001
 1.550699194039903e+000	 1.992726024709482e+000	 1.096724964796540e+001
 1.530067876353385e+000	 2.008610787010665e+000	 1.092387200953699e+001
 1.509288331926469e+000	 2.024271160455172e+000	 1.085867478263050e+001
 1.488364203040068e+000	 2.039705125513637e+000	 1.077265377646708e+001
 1.467299167309258e+000	 2.054910741017974e+000	 1.066680369742081e+001
 1.446096935590331e+000	 2.069886144891909e+000	 1.054211642511926e+001
 1.424761249871357e+000	 2.084629554814937e+000	 1.039957933013787e+001
 1.403295881148706e+000	 2.099139268819376e+000	 1.024017363670490e+001
 1.381704627291974e+000	 2.113413665820249e+000	 1.006487283364847e+001
 1.607260222320409e+000	 1.979700628300316e+000	 1.091488976652580e+001
 1.586734904667616e+000	 1.996189455499269e+000	 1.092321419478083e+001
 1.566052651405454e+000	 2.012455985346274e+000	 1.090927364716495e+001
 1.545217063246931e+000	 2.028498022522047e+000	 1.087402576876022e+001
 1.524231780756594e+000	 2.044313449169247e+000	 1.081842903616202e+001
 1.503100482277546e+000	 2.059900225763165e+000	 1.074344098473179e+001
 1.481826881836892e+000	 2.075256391916233e+000	 1.065001647283194e+001
 1.460414727032073e+000	 2.090380067115775e+000	 1.053910598677832e+001
 1.438867796900548e+000	 2.105269451394549e+000	 1.041165399006859e+001
 1.417189899775285e+000	 2.119922825933710e+000	 1.026859732026075e+001
 1.395384871128547e+000	 2.134338553597933e+000	 1.011086363668183e+001
 1.623017675479693e+000	 1.999109457985893e+000	 1.085530179383010e+001
 1.602291129222535e+000	 2.015759940353880e+000	 1.086661124330438e+001
 1.581406108771645e+000	 2.032185945984065e+000	 1.085718654548354e+001
 1.560366250141141e+000	 2.048385258034430e+000	 1.082795200570427e+001
 1.539175229587380e+000	 2.064355737884322e+000	 1.077983112606634e+001
 1.517836761515647e+000	 2.080095326013694e+000	 1.071374485406713e+001
 1.496354596365082e+000	 2.095602042815492e+000	 1.063060987101014e+001
 1.474732518474276e+000	 2.110873989340641e+000	 1.053133692389684e+001
 1.452974343930075e+000	 2.125909347975162e+000	 1.041682920432784e+001
 1.431083918402043e+000	 2.140706383049044e+000	 1.028798077774676e+001
 1.409065114965114e+000	 2.155263441376618e+000	 1.014567506615985e+001
 1.638775128639479e+000	 2.018518287672471e+000	 1.080524522516660e+001
 1.617847353778040e+000	 2.035330425209491e+000	 1.081749311467367e+001
 1.596759566138478e+000	 2.051915906622858e+000	 1.081052695461096e+001
 1.575515437036018e+000	 2.068272493547812e+000	 1.078523940216171e+001
 1.554118678418823e+000	 2.084398026600397e+000	 1.074252066481345e+001
 1.532573040754372e+000	 2.100290426265222e+000	 1.068325676838550e+001
 1.510882310893829e+000	 2.115947693715750e+000	 1.060832786766675e+001
 1.489050309916940e+000	 2.131367911566507e+000	 1.051860660335077e+001
 1.467080890959937e+000	 2.146549244556775e+000	 1.041495650876442e+001
 1.444977937028982e+000	 2.161489940165378e+000	 1.029823046968731e+001
 1.422745358801676e+000	 2.176188329156302e+000	 1.016926924034888e+001
 1.654532581799765e+000	 2.037927117360048e+000	 1.076417236325949e+001
 1.633403578334131e+000	 2.054900910066102e+000	 1.077535832546634e+001
 1.612113023505951e+000	 2.071645867262650e+000	 1.076884047746157e+001
 1.590664623931558e+000	 2.088159729062195e+000	 1.074548150235480e+001
 1.569062127250926e+000	 2.104440315317471e+000	 1.070613997477724e+001
 1.547309319993720e+000	 2.120485526517752e+000	 1.065166864632684e+001
 1.525410025423134e+000	 2.136293344617009e+000	 1.058291277650491e+001
 1.503368101360066e+000	 2.151861833793372e+000	 1.050070851281304e+001
 1.481187437990135e+000	 2.167189141139388e+000	 1.040588132348017e+001
 1.458871955656099e+000	 2.182273497282713e+000	 1.029924448608309e+001
 1.436425602638232e+000	 2.197113216936987e+000	 1.018159763510583e+001
 1.670290034960553e+000	 2.057335947048625e+000	 1.073154615714754e+001
 1.648959802890809e+000	 2.074471394923714e+000	 1.073971405845998e+001
 1.627466480874065e+000	 2.091375827903443e+000	 1.073167937839947e+001
 1.605813810827764e+000	 2.108046964577577e+000	 1.070827648357552e+001
 1.584005576083689e+000	 2.124482604035546e+000	 1.067033396040986e+001
 1.562045599233691e+000	 2.140680626771280e+000	 1.061867291603577e+001
 1.539937739952996e+000	 2.156638995519268e+000	 1.055410532761620e+001
 1.517685892803653e+000	 2.172355756021239e+000	 1.047743244373510e+001
 1.495293985020668e+000	 2.187829037723001e+000	 1.038944324130834e+001
 1.472765974283397e+000	 2.203057054401047e+000	 1.029091294124685e+001
 1.450105846474784e+000	 2.218038104718671e+000	 1.018260158587895e+001
 1.686047488121843e+000	 2.076744776738203e+000	 1.070683970469264e+001
 1.664516027448072e+000	 2.094041879782325e+000	 1.071007575766969e+001
 1.642819938242820e+000	 2.111105788545235e+000	 1.069860227195582e+001
 1.620962997724635e+000	 2.127934200093960e+000	 1.067322693968707e+001
 1.598949024917111e+000	 2.144524892754621e+000	 1.063474998758404e+001
 1.576781878474284e+000	 2.160875727025809e+000	 1.058396249135302e+001
 1.554465454483415e+000	 2.176984646422526e+000	 1.052164474148123e+001
 1.532003684247702e+000	 2.192849678250104e+000	 1.044856466406735e+001
 1.509400532051537e+000	 2.208468934307613e+000	 1.036547630011604e+001
 1.486659992910876e+000	 2.223840611520381e+000	 1.027311834649949e+001
 1.463786090311330e+000	 2.238962992501355e+000	 1.017221276155827e+001
 1.701804941283634e+000	 2.096153606428781e+000	 1.068953578272702e+001
 1.680072252005922e+000	 2.113612364641936e+000	 1.068596674588327e+001
 1.658173395612215e+000	 2.130835749188027e+000	 1.066917382883968e+001
 1.636112184622171e+000	 2.147821435611342e+000	 1.063993967665308e+001
 1.613892473751192e+000	 2.164567181474696e+000	 1.059903776963817e+001
 1.591518157715502e+000	 2.181070827281338e+000	 1.054723074932942e+001
 1.568993169014392e+000	 2.197330297326785e+000	 1.048526879885881e+001
 1.546321475692212e+000	 2.213343600479970e+000	 1.041388808138421e+001
 1.523507079082741e+000	 2.229108830893226e+000	 1.033380923997851e+001
 1.500554011538533e+000	 2.244624168640715e+000	 1.024573596216005e+001
 1.477466334147870e+000	 2.259887880285039e+000	 1.015035361200160e+001
 1.717562394445926e+000	 2.115562436120359e+000	 1.067912640306362e+001
 1.695628476564358e+000	 2.133182849502547e+000	 1.066691786324969e+001
 1.673526852982252e+000	 2.150565709831819e+000	 1.064296449813158e+001
 1.651261371520371e+000	 2.167708671129724e+000	 1.060802551932171e+001
 1.628835922585932e+000	 2.184609470195770e+000	 1.056284925969461e+001
 1.606254436957343e+000	 2.201265927537867e+000	 1.050817150897765e+001
 1.583520883545926e+000	 2.217675948232044e+000	 1.044471390682866e+001
 1.560639267137183e+000	 2.233837522710836e+000	 1.037318239702990e+001
 1.537613626114280e+000	 2.249748727479839e+000	 1.029426574619721e+001
 1.514448030166371e+000	 2.265407725762049e+000	 1.020863413016058e+001
 1.491146577984406e+000	 2.280812768069723e+000	 1.011693779092602e+001
 1.733319847608720e+000	 2.134971265812937e+000	 1.067511239272425e+001
 1.711184701123380e+000	 2.152753334364159e+000	 1.065246712558067e+001
 1.688880310352929e+000	 2.170295670476612e+000	 1.061955024463040e+001
 1.666410558419238e+000	 2.187595906649108e+000	 1.057709912874936e+001
 1.643779371421331e+000	 2.204651758917846e+000	 1.052583854885116e+001
 1.620990716199807e+000	 2.221461027795396e+000	 1.046647901118330e+001
 1.598048598078017e+000	 2.238021599138303e+000	 1.039971516123084e+001
 1.574957058582615e+000	 2.254331444942703e+000	 1.032622425185611e+001
 1.551720173146156e+000	 2.270388624067453e+000	 1.024666467906203e+001
 1.528342048794390e+000	 2.286191282884385e+000	 1.016167458851834e+001
 1.504826821820936e+000	 2.301737655855408e+000	 1.007187055573215e+001
 1.368024383455396e+000	 2.092488778043565e+000	 1.000772936426351e+001
 1.346526050392599e+000	 2.106387332754106e+000	 9.706348280017991e+000
 1.324910670439301e+000	 2.120049932274017e+000	 9.489990879912769e+000
 1.303182070921886e+000	 2.133475214295430e+000	 9.359124480314959e+000
 1.281344097251811e+000	 2.146661898024328e+000	 9.314116643758602e+000
 1.259400610790523e+000	 2.159608784372368e+000	 9.355235136596425e+000
 1.237355486717287e+000	 2.172314756082764e+000	 9.256107780462394e+000
 1.215212611902257e+000	 2.184778777790677e+000	 9.078612419910353e+000
 1.192975882787096e+000	 2.196999896018612e+000	 8.991529667154611e+000
 1.170649203275409e+000	 2.208977239107448e+000	 8.993508379635854e+000
 1.148236482635196e+000	 2.220710017083810e+000	 9.083165694486278e+000
 1.381704627291974e+000	 2.113413665820249e+000	 1.006487283364847e+001
 1.359991310899373e+000	 2.127451206077835e+000	 9.778863105059939e+000
 1.338159777147214e+000	 2.141250431592865e+000	 9.571788839278483e+000
 1.316213891635144e+000	 2.154809966434391e+000	 9.444164874894110e+000
 1.294157538228737e+000	 2.168128517000457e+000	 9.396410594060425e+000
 1.271994616903055e+000	 2.181204872211835e+000	 9.428849780072424e+000
 1.249729041589154e+000	 2.194037903639174e+000	 9.536929179434472e+000
 1.227364738025892e+000	 2.206626565563986e+000	 9.338655426847751e+000
 1.204905641619349e+000	 2.218969894973999e+000	 9.224233773883997e+000
 1.182355695312166e+000	 2.231067011493503e+000	 9.192357793557294e+000
 1.159718847465025e+000	 2.242917117249388e+000	 9.241695987753449e+000
 1.395384871128547e+000	 2.134338553597933e+000	 1.011086363668183e+001
 1.373456571405956e+000	 2.148515079402566e+000	 9.840201524269885e+000
 1.351408883854781e+000	 2.162450930912713e+000	 9.642530155705254e+000
 1.329245712347934e+000	 2.176144718574352e+000	 9.518411866432459e+000
 1.306970979205101e+000	 2.189595135977586e+000	 9.468317725883878e+000
 1.284588623014961e+000	 2.202800960052303e+000	 9.492627295518318e+000
 1.262102596460362e+000	 2.215761051196585e+000	 9.591628541804008e+000
 1.239516864148863e+000	 2.228474353338295e+000	 9.584056732185061e+000
 1.216835400450964e+000	 2.240939893930386e+000	 9.443106390793622e+000
 1.194062187348342e+000	 2.253156783880557e+000	 9.378275622045422e+000
 1.171201212294357e+000	 2.265124217415967e+000	 9.388283401487794e+000
 1.409065114965114e+000	 2.155263441376618e+000	 1.014567506615985e+001
 1.386921831912350e+000	 2.169578952728295e+000	 9.890332368026572e+000
 1.364657990562005e+000	 2.183651430233561e+000	 9.702175837056997e+000
 1.342277533060255e+000	 2.197479470715313e+000	 9.581815300483770e+000
 1.319784420180903e+000	 2.211061754955715e+000	 9.529773404816099e+000
 1.297182629126240e+000	 2.224397047893771e+000	 9.546485274840769e+000
 1.274476151330910e+000	 2.237484198754996e+000	 9.632298324310927e+000
 1.251668990271172e+000	 2.250322141113604e+000	 9.787472217448178e+000
 1.228765159281943e+000	 2.262909892887774e+000	 9.649379736980725e+000
 1.205768679383936e+000	 2.275246556268613e+000	 9.552455981832758e+000
 1.182683577123193e+000	 2.287331317583545e+000	 9.524079802899186e+000
 1.422745358801676e+000	 2.176188329156302e+000	 1.016926924034888e+001
 1.400387092418553e+000	 2.190642826055024e+000	 9.929213321932979e+000
 1.377907097268885e+000	 2.204851929555409e+000	 9.750675916817645e+000
 1.355309353772108e+000	 2.218814222857275e+000	 9.634314358698136e+000
 1.332597861156142e+000	 2.232528373934844e+000	 9.580702782453022e+000
 1.309776635236894e+000	 2.245993135736240e+000	 9.590331684573433e+000
 1.286849706200798e+000	 2.259207346314407e+000	 9.663607632165716e+000
 1.263821116392817e+000	 2.272169928889912e+000	 9.800853119863199e+000
 1.240694918112284e+000	 2.284879891846161e+000	 9.844278995724542e+000
 1.217475171418949e+000	 2.297336328657667e+000	 9.716087088336806e+000
 1.194165941951533e+000	 2.309538417752123e+000	 9.650232426224157e+000
 1.436425602638232e+000	 2.197113216936987e+000	 1.018159763510583e+001
 1.413852352924566e+000	 2.211706699382753e+000	 9.956791457520287e+000
 1.391156203975419e+000	 2.226052428878257e+000	 9.787969976680492e+000
 1.368341174483492e+000	 2.240148975000236e+000	 9.675838066627224e+000
 1.345411302130819e+000	 2.253994992914973e+000	 9.621021282780145e+000
 1.322370641346922e+000	 2.267589223579707e+000	 9.624065324228306e+000
 1.299223261070027e+000	 2.280930493874818e+000	 9.685435641620670e+000
 1.275973242513799e+000	 2.294017716667221e+000	 9.805517190198026e+000
 1.252624676941988e+000	 2.306849890805547e+000	 9.984614327137635e+000
 1.229181663453380e+000	 2.319426101047722e+000	 9.870351536675027e+000
 1.205648306779377e+000	 2.331745517921702e+000	 9.767884093343682e+000
 1.450105846474784e+000	 2.218038104718671e+000	 1.018260158587895e+001
 1.427317613430390e+000	 2.232770572711484e+000	 9.973003732911460e+000
 1.404405310681609e+000	 2.247252928202105e+000	 9.813987639557061e+000
 1.381372995194408e+000	 2.261483727144197e+000	 9.706305772785305e+000
 1.358224743104934e+000	 2.275461611896102e+000	 9.650635061021758e+000
 1.334964647456323e+000	 2.289185311424176e+000	 9.647576258702417e+000
 1.311596815938596e+000	 2.302653641436229e+000	 9.697653453591105e+000
 1.288125368634118e+000	 2.315865504445530e+000	 9.801313716608965e+000
 1.264554435771056e+000	 2.328819889765935e+000	 9.958926893552729e+000
 1.240888155487231e+000	 2.341515873438777e+000	 1.001642656677352e+001
 1.217130671606725e+000	 2.353952618092280e+000	 9.878173421913163e+000
 1.463786090311330e+000	 2.238962992501355e+000	 1.017221276155827e+001
 1.440782873936023e+000	 2.253834446041212e+000	 9.977777465410396e+000
 1.417654417387455e+000	 2.268453427526952e+000	 9.828649034941073e+000
 1.394404815904855e+000	 2.282818479289158e+000	 9.725627600847222e+000
 1.371038184078486e+000	 2.296928230878231e+000	 9.669441436760783e+000
 1.347558653565099e+000	 2.310781399269644e+000	 9.660746226437210e+000
 1.323970370806506e+000	 2.324376788998640e+000	 9.700124471007703e+000
 1.300277494753773e+000	 2.337713292224839e+000	 9.788085036249205e+000
 1.276484194599485e+000	 2.350789888727321e+000	 9.925062839452831e+000
 1.252594647520499e+000	 2.363605645830832e+000	 1.011141867510738e+001
 1.228613036433577e+000	 2.376159718263858e+000	 9.982235021821616e+000
 1.477466334147870e+000	 2.259887880285039e+000	 1.015035361200160e+001
 1.454248134441466e+000	 2.274898319371942e+000	 9.971030777836068e+000
 1.430903524092956e+000	 2.289653926852800e+000	 9.831865238418169e+000
 1.407436636614834e+000	 2.304153231435119e+000	 9.733704876724390e+000
 1.383851625051477e+000	 2.318394849861360e+000	 9.677329302996220e+000
 1.360152659673249e+000	 2.332377487116112e+000	 9.663449024902683e+000
 1.336343925673756e+000	 2.346099936562050e+000	 9.692704755204449e+000
 1.312429620872766e+000	 2.359561080005148e+000	 9.765666857074400e+000
 1.288413953427279e+000	 2.372759887689709e+000	 9.882834926859550e+000
 1.264301139553187e+000	 2.385695418223886e+000	 1.004463751370138e+001
 1.240095401259933e+000	 2.398366818436436e+000	 1.008119968073633e+001
 1.491146577984406e+000	 2.280812768069723e+000	 1.011693779092602e+001
 1.467713394946719e+000	 2.295962192703671e+000	 9.952673020288135e+000
 1.444152630798113e+000	 2.310854426179648e+000	 9.823538686982946e+000
 1.420468457324345e+000	 2.325487983582081e+000	 9.730430532131896e+000
 1.396665066023906e+000	 2.339861468845489e+000	 9.674179512683635e+000
 1.372746665780774e+000	 2.353973574963581e+000	 9.655550874862236e+000
 1.348717480540347e+000	 2.367823084126461e+000	 9.675243362689283e+000
 1.324581746991095e+000	 2.381408867786456e+000	 9.733888561934535e+000
 1.300343712254434e+000	 2.394729886653096e+000	 9.832050379481567e+000
 1.276007631585293e+000	 2.407785190617941e+000	 9.970224657724074e+000
 1.251577766085793e+000	 2.420573918610014e+000	 1.014883892325094e+001
 1.504826821820936e+000	 2.301737655855408e+000	 1.007187055573215e+001
 1.481178655451783e+000	 2.317026066036402e+000	 9.922605168906495e+000
 1.457401737502926e+000	 2.332054925507497e+000	 9.803563571702162e+000
 1.433500278033387e+000	 2.346822735730043e+000	 9.715689486142852e+000
 1.409478506995772e+000	 2.361328087830619e+000	 9.659865244191744e+000
 1.385340671887672e+000	 2.375569662812049e+000	 9.636910764768345e+000
 1.361091035406279e+000	 2.389546231691873e+000	 9.647582663545304e+000
 1.336733873108762e+000	 2.403256655568766e+000	 9.692573496078516e+000
 1.312273471080953e+000	 2.416699885617484e+000	 9.772511134455447e+000
 1.287714123616818e+000	 2.429874963012997e+000	 9.887958277274601e+000
 1.263060130911157e+000	 2.442781018784593e+000	 1.003941209241011e+001
 1.148236482635196e+000	 2.220710017083810e+000	 9.083165694486278e+000
 1.125741633415527e+000	 2.232197521464456e+000	 9.064906200880747e+000
 1.103168569379458e+000	 2.243439124998900e+000	 9.033815921773888e+000
 1.080521203455544e+000	 2.254434281350881e+000	 8.989144472485107e+000
 1.057803445709806e+000	 2.265182524719623e+000	 8.930203787900359e+000
 1.035019201340097e+000	 2.275683469402266e+000	 8.856367570497538e+000
 1.012172368694828e+000	 2.285936809298535e+000	 8.767070618830873e+000
 9.892668373179077e-001	 2.295942317358883e+000	 8.661808040973192e+000
 9.663064860216967e-001	 2.305699844977406e+000	 8.540134357640644e+000
 9.432951809896932e-001	 2.315209321330896e+000	 8.401662499924999e+000
 9.202367739106159e-001	 2.324470752665467e+000	 8.246062706737202e+000
 1.159718847465025e+000	 2.242917117249388e+000	 9.241695987753449e+000
 1.136999049752618e+000	 2.254519496673615e+000	 9.185601227884982e+000
 1.114200255075764e+000	 2.265873516243221e+000	 9.121552710220270e+000
 1.091326415492304e+000	 2.276978624158585e+000	 9.048808956069786e+000
 1.068381480168918e+000	 2.287834349960926e+000	 8.966687651709668e+000
 1.045369393355437e+000	 2.298440304090351e+000	 8.874565109643609e+000
 1.022294092383756e+000	 2.308796177385584e+000	 8.771875612736826e+000
 9.991595056932210e-001	 2.318901740526580e+000	 8.658110645715590e+000
 9.759695508843165e-001	 2.328756843421378e+000	 8.532818018742063e+000
 9.527281328023748e-001	 2.338361414538538e+000	 8.395600887974252e+000
 9.294391416530002e-001	 2.347715460186632e+000	 8.246116678198764e+000
 1.171201212294357e+000	 2.265124217415967e+000	 9.388283401487794e+000
 1.148256466089302e+000	 2.276841471883772e+000	 9.295484533837227e+000
 1.125231940771734e+000	 2.288307907488541e+000	 9.199475563210861e+000
 1.102131627528776e+000	 2.299522966967293e+000	 9.099524138290796e+000
 1.078959514627771e+000	 2.310486175203229e+000	 8.994954030163775e+000
 1.055719585370527e+000	 2.321197138779436e+000	 8.885144604999761e+000
 1.032415816072421e+000	 2.331655545473632e+000	 8.769530181879452e+000
 1.009052174068241e+000	 2.341861163695277e+000	 8.647599280258703e+000
 9.856326157465916e-001	 2.351813841866349e+000	 8.518893761774748e+000
 9.621610846146407e-001	 2.361513507747179e+000	 8.383007871296275e+000
 9.386415093948795e-001	 2.370960167708796e+000	 8.239587182290807e+000
 1.182683577123193e+000	 2.287331317583545e+000	 9.524079802899186e+000
 1.159513882425580e+000	 2.299163447094930e+000	 9.395660038539107e+000
 1.136263626467366e+000	 2.310742298734863e+000	 9.268642803057320e+000
 1.112936839564960e+000	 2.322067309776997e+000	 9.142305103572026e+000
 1.089537549086365e+000	 2.333138000446532e+000	 9.015977137852110e+000
 1.066069777385366e+000	 2.343953973469521e+000	 8.889041776594812e+000
 1.042537539760825e+000	 2.354514913562680e+000	 8.760933932990000e+000
 1.018944842442968e+000	 2.364820586864974e+000	 8.631139824061474e+000
 9.952956806085229e-001	 2.374870840312322e+000	 8.499196128490553e+000
 9.715940364264921e-001	 2.384665600956820e+000	 8.364689045820756e+000
 9.478438771362536e-001	 2.394204875231962e+000	 8.227253262114449e+000
 1.194165941951533e+000	 2.309538417752123e+000	 9.650232426224157e+000
 1.170771298761452e+000	 2.321485422307088e+000	 9.487228490911644e+000
 1.147295312162661e+000	 2.333176689982184e+000	 9.330110927798657e+000
 1.123742051600857e+000	 2.344611652587702e+000	 9.178166343135953e+000
 1.100115583544699e+000	 2.355789825690836e+000	 9.030731711717664e+000
 1.076419969399954e+000	 2.366710808160606e+000	 8.887193866940548e+000
 1.052659263448968e+000	 2.377374281652728e+000	 8.746988880149539e+000
 1.028837510817402e+000	 2.387780010035671e+000	 8.609601333769350e+000
 1.004958745470110e+000	 2.397927838759293e+000	 8.474563492933557e+000
 9.810269882379288e-001	 2.407817694167461e+000	 8.341454380514575e+000
 9.570462448771225e-001	 2.417449582756126e+000	 8.209898760626382e+000
 1.205648306779377e+000	 2.331745517921702e+000	 9.767884093343682e+000
 1.182028715096917e+000	 2.343807397520245e+000	 9.571287619989560e+000
 1.158326997857619e+000	 2.355611081230504e+000	 9.384934698071424e+000
 1.134547263636465e+000	 2.367155995399408e+000	 9.208121783251196e+000
 1.110693618002774e+000	 2.378441650936138e+000	 9.040192986182571e+000
 1.086770161414292e+000	 2.389467642852691e+000	 8.880539568532553e+000
 1.062780987136848e+000	 2.400233649743777e+000	 8.728599330153498e+000
 1.038730179191543e+000	 2.410739433207369e+000	 8.583855891919290e+000
 1.014621810331353e+000	 2.420984837207266e+000	 8.445837878950474e+000
 9.904599400489506e-001	 2.430969787379103e+000	 8.314118009142023e+000
 9.662486126174865e-001	 2.440694290281291e+000	 8.188312092074495e+000
 1.217130671606725e+000	 2.353952618092280e+000	 9.878173421913163e+000
 1.193286131431976e+000	 2.366129372734403e+000	 9.648932277368754e+000
 1.169358683552240e+000	 2.378045472479826e+000	 9.434167219062616e+000
 1.145352475671785e+000	 2.389700338212114e+000	 9.233184811881506e+000
 1.121271652460591e+000	 2.401093476182441e+000	 9.045336669682234e+000
 1.097120353428380e+000	 2.412224477545776e+000	 8.870018955454691e+000
 1.072902710824466e+000	 2.423093017835825e+000	 8.706671774364647e+000
 1.048622847565390e+000	 2.433698856380066e+000	 8.554778464209189e+000
 1.024284875192252e+000	 2.444041835656237e+000	 8.413864788029661e+000
 9.998928918595572e-001	 2.454121880591744e+000	 8.283498033811952e+000
 9.754509803573452e-001	 2.463938997807456e+000	 8.163286026370818e+000
 1.228613036433577e+000	 2.376159718263858e+000	 9.982235021821616e+000
 1.204543547766628e+000	 2.388451347949561e+000	 9.721254571666226e+000
 1.180390369246525e+000	 2.400479863730146e+000	 9.478860017866968e+000
 1.156157687706817e+000	 2.412244681025819e+000	 9.254368303840066e+000
 1.131849686918148e+000	 2.423745301429745e+000	 9.047138922515202e+000
 1.107470545442218e+000	 2.434981312239862e+000	 8.856573418819064e+000
 1.083024434511823e+000	 2.445952385928873e+000	 8.682114786630624e+000
 1.058515515938945e+000	 2.456658279553762e+000	 8.523246764770883e+000
 1.033947940052806e+000	 2.467098834106210e+000	 8.379493036794910e+000
 1.009325843669749e+000	 2.477273973805384e+000	 8.250416339541310e+000
 9.846533480966987e-001	 2.487183705334621e+000	 8.135617485555786e+000
 1.240095401259933e+000	 2.398366818436436e+000	 1.008119968073633e+001
 1.215800964100875e+000	 2.410773323165718e+000	 9.789343995509610e+000
 1.191422054940472e+000	 2.422914254981468e+000	 9.520063116547247e+000
 1.166962899741562e+000	 2.434789023840525e+000	 9.272684644546413e+000
 1.142427721375446e+000	 2.446397126678048e+000	 9.046576335923623e+000
 1.117820737455804e+000	 2.457738146934946e+000	 8.841145605792240e+000
 1.093146158198918e+000	 2.468811754022922e+000	 8.655838926872498e+000
 1.068408184312206e+000	 2.479617702728460e+000	 8.490141128927558e+000
 1.043611004913017e+000	 2.490155832557182e+000	 8.343574603526779e+000
 1.018758795479526e+000	 2.500426067020025e+000	 8.217860110303697e+000
 9.938557158355471e-001	 2.510428412862785e+000	 8.157758083581800e+000
 1.251577766085793e+000	 2.420573918610014e+000	 1.014883892325094e+001
 1.227058380434714e+000	 2.433095298382876e+000	 9.854287545536749e+000
 1.202453740634082e+000	 2.445348646233789e+000	 9.558825101171838e+000
 1.177768111776018e+000	 2.457333366656231e+000	 9.289145752475916e+000
 1.153005755832485e+000	 2.469048951927352e+000	 9.044625912325015e+000
 1.128170929469140e+000	 2.480494981631032e+000	 8.824679361978413e+000
 1.103267881885750e+000	 2.491671122117970e+000	 8.628756649980614e+000
 1.078300852685174e+000	 2.502577125904156e+000	 8.471029654649158e+000
 1.053274069772883e+000	 2.513212831009154e+000	 8.381304062325929e+000
 1.028191747288888e+000	 2.523578160235667e+000	 8.311487839072367e+000
 1.003058083573891e+000	 2.533673120391951e+000	 8.261597512490877e+000
 1.263060130911157e+000	 2.442781018784593e+000	 1.003941209241011e+001
 1.238315796768149e+000	 2.455417273601034e+000	 9.917169835849956e+000
 1.213485426327356e+000	 2.467783037487111e+000	 9.596193187087662e+000
 1.188573323810187e+000	 2.479877709472937e+000	 9.304763100384266e+000
 1.163583790289265e+000	 2.491700777177655e+000	 9.042265046622795e+000
 1.138521121482226e+000	 2.503251816328117e+000	 8.827731379925229e+000
 1.113389605572322e+000	 2.514530490214019e+000	 8.688898948814705e+000
 1.088193521057850e+000	 2.525536549080854e+000	 8.575474995501725e+000
 1.062937134632406e+000	 2.536269829462126e+000	 8.487593758715720e+000
 1.037624699097836e+000	 2.546730253452308e+000	 8.425278108446038e+000
 1.012260451311729e+000	 2.556917827922117e+000	 8.388445594222741e+000
 9.202367739106159e-001	 2.324470752665467e+000	 8.246062706737202e+000
 8.971351001457416e-001	 2.333484221532295e+000	 8.137270625926668e+000
 8.739939769303398e-001	 2.342249885973674e+000	 8.044073363466934e+000
 8.508172016108218e-001	 2.350767978661280e+000	 7.966521806598736e+000
 8.276085499197399e-001	 2.359038805988395e+000	 7.904684921272813e+000
 8.043717742891903e-001	 2.367062747117389e+000	 7.858648526033885e+000
 7.811106022040246e-001	 2.374840252984291e+000	 7.828514036769161e+000
 7.578287345960121e-001	 2.382371845262165e+000	 7.814397186855890e+000
 7.345298442800083e-001	 2.389658115285038e+000	 7.816426727208391e+000
 7.112175744331125e-001	 2.396699722934155e+000	 7.834743110672878e+000
 6.878955371177123e-001	 2.403497395488342e+000	 7.869497165153364e+000
 9.294391416530002e-001	 2.347715460186632e+000	 8.246116678198764e+000
 9.061064511509912e-001	 2.356819063742346e+000	 8.159696631957809e+000
 8.827339167038776e-001	 2.365672384828394e+000	 8.088720180497418e+000
 8.593253736315352e-001	 2.374275658443166e+000	 8.033120546685634e+000
 8.358846354238427e-001	 2.382629194043878e+000	 7.992851750327807e+000
 8.124154920372169e-001	 2.390733374584523e+000	 7.967887430964628e+000
 7.889217082313591e-001	 2.398588655510490e+000	 7.958219636418870e+000
 7.654070219473562e-001	 2.406195563711575e+000	 7.963857581710041e+000
 7.418751427282131e-001	 2.413554696435142e+000	 7.984826382931171e+000
 7.183297501828003e-001	 2.420666720161248e+000	 8.021165770638277e+000
 6.947744924941302e-001	 2.427532369441510e+000	 8.072928787245740e+000
 9.386415093948795e-001	 2.370960167708796e+000	 8.239587182290807e+000
 9.150778021556407e-001	 2.380153905953393e+000	 8.170891926875374e+000
 8.914738564767309e-001	 2.389094883684093e+000	 8.117468376322458e+000
 8.678335456514899e-001	 2.397783338226006e+000	 8.079134607857162e+000
 8.441607209271220e-001	 2.406219582100278e+000	 8.055732224648219e+000
 8.204592097843662e-001	 2.414404002052529e+000	 8.047125224567221e+000
 7.967328142577717e-001	 2.422337058037505e+000	 8.053198829595580e+000
 7.729853092977440e-001	 2.430019282161732e+000	 8.073858280590441e+000
 7.492204411754374e-001	 2.437451277585919e+000	 8.109027602103366e+000
 7.254419259314929e-001	 2.444633717388930e+000	 8.158648341909004e+000
 7.016534478695476e-001	 2.451567343395171e+000	 8.222678289851510e+000
 9.478438771362536e-001	 2.394204875231962e+000	 8.227253262114449e+000
 9.240491531596904e-001	 2.403488748165434e+000	 8.171741519999094e+000
 9.002137962488996e-001	 2.412517382540771e+000	 8.131308239532560e+000
 8.763417176706850e-001	 2.421291018009798e+000	 8.105658831430663e+000
 8.524368064295779e-001	 2.429809970157597e+000	 8.094524973221061e+000
 8.285029275306374e-001	 2.438074629521406e+000	 8.097663521020390e+000
 8.045439202832622e-001	 2.446085460565335e+000	 8.114855376874507e+000
 7.805635966471758e-001	 2.453843000612641e+000	 8.145904316469750e+000
 7.565657396216809e-001	 2.461347858737370e+000	 8.190635782012066e+000
 7.325541016791903e-001	 2.468600714617200e+000	 8.248895645045629e+000
 7.085324032439653e-001	 2.475602317349326e+000	 8.320548943936563e+000
 9.570462448771225e-001	 2.417449582756126e+000	 8.209898760626382e+000
 9.330205041631401e-001	 2.426823590378469e+000	 8.163130529045649e+000
 9.089537360203834e-001	 2.435939881398428e+000	 8.131225481201268e+000
 8.848498896891215e-001	 2.444798697794545e+000	 8.113778802894583e+000
 8.607128919312104e-001	 2.453400358215832e+000	 8.110414700523744e+000
 8.365466452760311e-001	 2.461745256991155e+000	 8.120785352947937e+000
 8.123550263078310e-001	 2.469833863093982e+000	 8.144569813843276e+000
 7.881418839956514e-001	 2.477666719064299e+000	 8.181472869459403e+000
 7.639110380669438e-001	 2.485244439889495e+000	 8.231223856685674e+000
 7.396662774258928e-001	 2.492567711846060e+000	 8.293575446313835e+000
 7.154113586173831e-001	 2.499637291303976e+000	 8.368302396349126e+000
 9.662486126174865e-001	 2.440694290281291e+000	 8.188312092074495e+000
 9.419918551659895e-001	 2.450158432592499e+000	 8.145944174966557e+000
 9.176936757911829e-001	 2.459362380257065e+000	 8.118201452862451e+000
 8.933580617067988e-001	 2.468306377580245e+000	 8.104571292661870e+000
 8.689889774320195e-001	 2.476990746274987e+000	 8.104572849595607e+000
 8.445903630205472e-001	 2.485415884461776e+000	 8.117756056255221e+000
 8.201661323314781e-001	 2.493582265623445e+000	 8.143700557053869e+000
 7.957201713431709e-001	 2.501490437516708e+000	 8.182864478031238e+000
 7.712563365112262e-001	 2.509141021042294e+000	 8.234367528019471e+000
 7.467784531715996e-001	 2.516534709075508e+000	 8.292066242031266e+000
 7.222903139898008e-001	 2.523672265259119e+000	 8.355626434430148e+000
 9.754509803573452e-001	 2.463938997807456e+000	 8.163286026370818e+000
 9.509632061682393e-001	 2.473493274807525e+000	 8.121067777078848e+000
 9.264336155612976e-001	 2.482784879116681e+000	 8.093213352148958e+000
 9.018662337237170e-001	 2.491814057366899e+000	 8.079104671875649e+000
 8.772650629320055e-001	 2.500581134335059e+000	 8.079676012858290e+000
 8.526340807641859e-001	 2.509086511933269e+000	 8.111253904397382e+000
 8.279772383542032e-001	 2.517330668153723e+000	 8.149998750929177e+000
 8.032984586897343e-001	 2.525314155969867e+000	 8.195470812855039e+000
 7.786016349545281e-001	 2.533037602195768e+000	 8.247195356718367e+000
 7.538906289163119e-001	 2.540501706305546e+000	 8.304668108585721e+000
 7.291692693612184e-001	 2.547707239214755e+000	 8.367360654821269e+000
 9.846533480966987e-001	 2.487183705334621e+000	 8.135617485555786e+000
 9.599345571698887e-001	 2.496828117023545e+000	 8.089386748468529e+000
 9.351735553307278e-001	 2.506207377977277e+000	 8.081779880193659e+000
 9.103744057398764e-001	 2.515321737154507e+000	 8.096309271293851e+000
 8.855411484311677e-001	 2.524171522396047e+000	 8.119358124975408e+000
 8.606777985069467e-001	 2.532757139405634e+000	 8.150373819804928e+000
 8.357883443760064e-001	 2.541079070684818e+000	 8.188757595602299e+000
 8.108767460353414e-001	 2.549137874423776e+000	 8.233870403759243e+000
 7.859469333968494e-001	 2.556934183349917e+000	 8.285038731580059e+000
 7.610028046600288e-001	 2.564468703536172e+000	 8.341560383800974e+000
 7.360482247316361e-001	 2.571742213170885e+000	 8.402710205029313e+000
 9.938557158355471e-001	 2.510428412862785e+000	 8.157758083581800e+000
 9.689059081709385e-001	 2.520162959240560e+000	 8.149402867929410e+000
 9.439134950994733e-001	 2.529629876838852e+000	 8.151577360892123e+000
 9.188825777552764e-001	 2.538829416943069e+000	 8.163638544276749e+000
 8.938172339295070e-001	 2.547761910457955e+000	 8.184884640911365e+000
 8.687215162488302e-001	 2.556427766878872e+000	 8.214561317658509e+000
 8.435994503968877e-001	 2.564827473216728e+000	 8.251867893953191e+000
 8.184550333799924e-001	 2.572961592878435e+000	 8.295963537259262e+000
 7.932922318381903e-001	 2.580830764504740e+000	 8.345973427357285e+000
 7.681149804027504e-001	 2.588435700767387e+000	 8.400994871943558e+000
 7.429271801010537e-001	 2.595777187127509e+000	 8.460103356636306e+000
 1.003058083573891e+000	 2.533673120391951e+000	 8.261597512490877e+000
 9.778772591713881e-001	 2.543497801458570e+000	 8.247962657557233e+000
 9.526534348675341e-001	 2.553052375701406e+000	 8.245995573258696e+000
 9.273907497699173e-001	 2.562337096732584e+000	 8.254850695144658e+000
 9.020933194270226e-001	 2.571352298520780e+000	 8.273622710609498e+000
 8.767652339898359e-001	 2.580098394352981e+000	 8.301353121368074e+000
 8.514105564168474e-001	 2.588575875749455e+000	 8.337036807715547e+000
 8.260333207236873e-001	 2.596785311333844e+000	 8.379628575218248e+000
 8.006375302785507e-001	 2.604727345660238e+000	 8.428049665030775e+000
 7.752271561444770e-001	 2.612402697999191e+000	 8.481194209628624e+000
 7.498061354694716e-001	 2.619812161084627e+000	 8.537935616392645e+000
 1.012260451311729e+000	 2.556917827922117e+000	 8.388445594222741e+000
 9.868486101712383e-001	 2.566832643677576e+000	 8.368814676086517e+000
 9.613933746349105e-001	 2.576474874564940e+000	 8.362062088111751e+000
 9.358989217837996e-001	 2.585844776523053e+000	 8.367137313759709e+000
 9.103694049237151e-001	 2.594942686584524e+000	 8.382929021417752e+000
 8.848089517299641e-001	 2.603769021827961e+000	 8.408271992538891e+000
 8.592216624358853e-001	 2.612324278282998e+000	 8.441954047836617e+000
 8.336116080664262e-001	 2.620609029790004e+000	 8.482722951421991e+000
 8.079828287179304e-001	 2.628623926816410e+000	 8.529293273344463e+000
 7.823393318852088e-001	 2.636369695231585e+000	 8.580353191622814e+000
 7.566850908368894e-001	 2.643847135042238e+000	 8.634571215527384e+000
 6.878955371177123e-001	 2.403497395488342e+000	 7.869497165153364e+000
 6.645673118488593e-001	 2.410051926439911e+000	 7.771758890876017e+000
 6.412364442077186e-001	 2.416364174279133e+000	 7.616767611282990e+000
 6.179064445013772e-001	 2.422435061248221e+000	 7.398911483929011e+000
 5.945807864685849e-001	 2.428265572065930e+000	 7.176888478825539e+000
 5.712629060330334e-001	 2.433856752625838e+000	 6.999530895414967e+000
 5.479562001042998e-001	 2.439209708669709e+000	 6.869379744254388e+000
 5.246640254268120e-001	 2.444325604437782e+000	 6.788637824577462e+000
 5.013896974771264e-001	 2.449205661297806e+000	 6.759172860121962e+000
 4.781364894097328e-001	 2.453851156354649e+000	 6.782521272874066e+000
 4.549076310515292e-001	 2.458263421042266e+000	 6.859892568706656e+000
 6.947744924941302e-001	 2.427532369441510e+000	 8.072928787245740e+000
 6.712129849723891e-001	 2.434152445703129e+000	 7.950279584029721e+000
 6.476488086545391e-001	 2.440527816021247e+000	 7.777829274433842e+000
 6.240855089507390e-001	 2.446659411860499e+000	 7.554897082363410e+000
 6.005265943371264e-001	 2.452548227786828e+000	 7.333058501634246e+000
 5.769755350966314e-001	 2.458195320152747e+000	 7.171141822761749e+000
 5.534357621079273e-001	 2.463601805757441e+000	 7.071749368325099e+000
 5.299106656828874e-001	 2.468768860483547e+000	 7.037124289565756e+000
 5.064035944528342e-001	 2.473697717912495e+000	 7.069154003074043e+000
 4.829178543038038e-001	 2.478389667920199e+000	 7.169374293210222e+000
 4.594567073609638e-001	 2.482846055254957e+000	 7.338974052934567e+000
 7.016534478695476e-001	 2.451567343395171e+000	 8.222678289851510e+000
 6.778586580949291e-001	 2.458252964966745e+000	 8.076721832918356e+000
 6.540611731004010e-001	 2.464691457763677e+000	 7.888238028180164e+000
 6.302645733991937e-001	 2.470883762473018e+000	 7.656750375386258e+000
 6.064724022048331e-001	 2.476830883507902e+000	 7.433694784531828e+000
 5.826881641594867e-001	 2.482533887679779e+000	 7.287674781019407e+000
 5.589153241109244e-001	 2.487993902845249e+000	 7.219579973904417e+000
 5.351573059384641e-001	 2.493212116529355e+000	 7.231696172661750e+000
 5.114174914281953e-001	 2.498189774527202e+000	 7.325932528675082e+000
 4.876992191976991e-001	 2.502928179485754e+000	 7.452100924865450e+000
 4.640057836704129e-001	 2.507428689467647e+000	 7.610151611793523e+000
 7.085324032439653e-001	 2.475602317349326e+000	 8.320548943936563e+000
 6.845043312164796e-001	 2.482353484230761e+000	 8.152801591433805e+000
 6.604735375453047e-001	 2.488855099506419e+000	 7.949626800394550e+000
 6.364436378467417e-001	 2.495108113085776e+000	 7.710563467324085e+000
 6.124182100717048e-001	 2.501113539229152e+000	 7.473026096567222e+000
 5.884007932215993e-001	 2.506872455206933e+000	 7.301607906514295e+000
 5.643948861132908e-001	 2.512385999933136e+000	 7.206994156976721e+000
 5.404039461935424e-001	 2.517655372575207e+000	 7.184609624746400e+000
 5.164313884032095e-001	 2.522681831141929e+000	 7.230313469303631e+000
 4.924805840914187e-001	 2.527466691051314e+000	 7.340388367352959e+000
 4.685548599798770e-001	 2.532011323680339e+000	 7.511529082208304e+000
 7.154113586173831e-001	 2.499637291303976e+000	 8.368302396349126e+000
 6.911500043370404e-001	 2.506454003495176e+000	 8.164001453268835e+000
 6.668859019892492e-001	 2.513018741249476e+000	 7.924681685838528e+000
 6.426227022933826e-001	 2.519332463698774e+000	 7.650613693171255e+000
 6.183640179377417e-001	 2.525396194950578e+000	 7.367883916225113e+000
 5.941134222829690e-001	 2.531211022734207e+000	 7.195285527148123e+000
 5.698744481150269e-001	 2.536778097021101e+000	 7.101507239350165e+000
 5.456505864481224e-001	 2.542098628621103e+000	 7.081984140895913e+000
 5.214452853778768e-001	 2.547173887756675e+000	 7.132594435893708e+000
 4.972619489849625e-001	 2.552005202616878e+000	 7.249648211883057e+000
 4.731039362893555e-001	 2.556593957893029e+000	 7.429875631652007e+000
 7.222903139898008e-001	 2.523672265259119e+000	 8.355626434430148e+000
 6.977956774566120e-001	 2.530554522759990e+000	 8.133171779117054e+000
 6.732982664322361e-001	 2.537182382992848e+000	 7.883323448313957e+000
 6.488017667391167e-001	 2.543556814312013e+000	 7.605520279742429e+000
 6.243098258029439e-001	 2.549678850672179e+000	 7.302089160916719e+000
 5.998260513435961e-001	 2.555549590261605e+000	 7.126225718914697e+000
 5.753540101161321e-001	 2.561170194109142e+000	 7.030775065307766e+000
 5.508972267022037e-001	 2.566541884667042e+000	 7.011187745117210e+000
 5.264591823521972e-001	 2.571665944371441e+000	 7.063366566213007e+000
 5.020433138783306e-001	 2.576543714182448e+000	 7.183654983784249e+000
 4.776530125988488e-001	 2.581176592105721e+000	 7.368824898516725e+000
 7.291692693612184e-001	 2.547707239214755e+000	 8.367360654821269e+000
 7.044413505751935e-001	 2.554655042025202e+000	 8.132332508419278e+000
 6.797106308742640e-001	 2.561346024736534e+000	 7.876675325084676e+000
 6.549808311839440e-001	 2.567781164925491e+000	 7.599735115887690e+000
 6.302556336673110e-001	 2.573961506393957e+000	 7.300882668517946e+000
 6.055386804034806e-001	 2.579888157789124e+000	 7.098738557792950e+000
 5.808335721166071e-001	 2.585562291197262e+000	 6.998968557631028e+000
 5.561438669557863e-001	 2.590985140713025e+000	 6.976251886218664e+000
 5.314730793261709e-001	 2.596158000986225e+000	 7.026521583651133e+000
 5.068246787715230e-001	 2.601082225748022e+000	 7.146160500376941e+000
 4.822020889083566e-001	 2.605759226318411e+000	 7.331988685537677e+000
 7.360482247316361e-001	 2.571742213170885e+000	 8.402710205029313e+000
 7.110870236927857e-001	 2.578755561290814e+000	 8.159968512467289e+000
 6.861229953153335e-001	 2.585509666480533e+000	 7.903249220748446e+000
 6.611598956278644e-001	 2.592005515539209e+000	 7.631801841130757e+000
 6.362014415308431e-001	 2.598244162115911e+000	 7.344894879669053e+000
 6.112513094626224e-001	 2.604226725316765e+000	 7.117107630135233e+000
 5.863131341164515e-001	 2.609954388285460e+000	 7.010233589250865e+000
 5.613905072088706e-001	 2.615428396759050e+000	 6.981184249701853e+000
 5.364869762997979e-001	 2.620650057601029e+000	 7.025928582340038e+000
 5.116060436645397e-001	 2.625620737313601e+000	 7.140894932095526e+000
 4.867511652178794e-001	 2.630341860531103e+000	 7.322957980151295e+000
 7.429271801010537e-001	 2.595777187127509e+000	 8.460103356636306e+000
 7.177326968093882e-001	 2.602856080556824e+000	 8.214532434098844e+000
 6.925353597554443e-001	 2.609673308224849e+000	 7.961526774591590e+000
 6.673389600708780e-001	 2.616229866153168e+000	 7.700235644660835e+000
 6.421472493935406e-001	 2.622526817838040e+000	 7.429821608932097e+000
 6.169639385210213e-001	 2.628565292844528e+000	 7.185591259039240e+000
 5.917926961156652e-001	 2.634346485373736e+000	 7.068692142962828e+000
 5.666371474614564e-001	 2.639871652805121e+000	 7.029969857914561e+000
 5.415008732730777e-001	 2.645142114215853e+000	 7.065435074804872e+000
 5.163874085573806e-001	 2.650159248879185e+000	 7.171567804658673e+000
 4.913002415274165e-001	 2.654924494743793e+000	 7.345303918166411e+000
 7.498061354694716e-001	 2.619812161084627e+000	 8.537935616392645e+000
 7.243783699250013e-001	 2.626956599823234e+000	 8.294446166066896e+000
 6.989477241945968e-001	 2.633836949969477e+000	 8.049960748905711e+000
 6.735180245129846e-001	 2.640454216767366e+000	 7.803524570393598e+000
 6.480930572554030e-001	 2.646809473560346e+000	 7.554190520497029e+000
 6.226765675786774e-001	 2.652903860372411e+000	 7.308423663212648e+000
 5.972722581142484e-001	 2.658738582462088e+000	 7.178443407304981e+000
 5.718837877135435e-001	 2.664314908851234e+000	 7.126572109644636e+000
 5.465147702460110e-001	 2.669634170830696e+000	 7.148867981945702e+000
 5.211687734500459e-001	 2.674697760444774e+000	 7.241868946074950e+000
 4.958493178369686e-001	 2.679507128956484e+000	 7.402578694389336e+000
 7.566850908368894e-001	 2.643847135042238e+000	 8.634571215527384e+000
 7.310240430396248e-001	 2.651057119090043e+000	 8.398102248770902e+000
 7.053600886327910e-001	 2.658000591714422e+000	 8.166976341578820e+000
 6.796970889541847e-001	 2.664678567381807e+000	 7.940130750847789e+000
 6.540388651164307e-001	 2.671092129282827e+000	 7.716504885571033e+000
 6.283891966355913e-001	 2.677242427900419e+000	 7.495046152237736e+000
 6.027518201122013e-001	 2.683130679550520e+000	 7.343564812660337e+000
 5.771304279651326e-001	 2.688758164897393e+000	 7.274933763009484e+000
 5.515286672185974e-001	 2.694126227445558e+000	 7.280034569020874e+000
 5.259501383425356e-001	 2.699236272010369e+000	 7.355469381993475e+000
 5.003983941465354e-001	 2.704089763169176e+000	 7.498316423578767e+000
 4.549076310515292e-001	 2.458263421042266e+000	 6.859892568706656e+000
 4.317063079453936e-001	 2.462443839700501e+000	 6.761855075322435e+000
 4.085356604418978e-001	 2.466393848136456e+000	 6.671780881228727e+000
 3.853987828395771e-001	 2.470114932173583e+000	 6.589799188218937e+000
 3.622987225744608e-001	 2.473608626191483e+000	 6.515781803362408e+000
 3.392384794576846e-001	 2.476876511656139e+000	 6.449349314257148e+000
 3.162210049612343e-001	 2.479920215642903e+000	 6.389877669271148e+000
 2.932492015515175e-001	 2.482741409353888e+000	 6.336505135069218e+000
 2.703259220703981e-001	 2.485341806631372e+000	 6.288139603582170e+000
 2.474539691632796e-001	 2.487723162468774e+000	 6.243466220521039e+000
 2.246360947537655e-001	 2.489887271520747e+000	 6.200955307584016e+000
 4.594567073609638e-001	 2.482846055254957e+000	 7.338974052934567e+000
 4.360233710227999e-001	 2.487068278099993e+000	 7.325973714828404e+000
 4.126210170435670e-001	 2.491057786620465e+000	 7.333385548937662e+000
 3.892527706647829e-001	 2.494816081498057e+000	 7.361456979125574e+000
 3.659217097968351e-001	 2.498344712456170e+000	 7.410158867617515e+000
 3.426308642489683e-001	 2.501645276775445e+000	 7.404657688129935e+000
 3.193832150078860e-001	 2.504719417801991e+000	 7.326570301022812e+000
 2.961816935646570e-001	 2.507568823449939e+000	 7.241202737585184e+000
 2.730291812895615e-001	 2.510195224699992e+000	 7.148220887968720e+000
 2.499285088544547e-001	 2.512600394095503e+000	 7.047614255972452e+000
 2.268824557021734e-001	 2.514786144237676e+000	 6.939681016846965e+000
 4.640057836704129e-001	 2.507428689467647e+000	 7.610151611793523e+000
 4.403404341004001e-001	 2.511692716499485e+000	 7.554859612816930e+000
 4.167063736455675e-001	 2.515721725104473e+000	 7.499527501985375e+000
 3.931067584904167e-001	 2.519517230822531e+000	 7.442221287890982e+000
 3.695446970196931e-001	 2.523080798720856e+000	 7.381407275142554e+000
 3.460232490407513e-001	 2.526414041894752e+000	 7.315937706771566e+000
 3.225454250550121e-001	 2.529518619961077e+000	 7.245036095834270e+000
 2.991141855782066e-001	 2.532396237545988e+000	 7.168282291585063e+000
 2.757324405090316e-001	 2.535048642768611e+000	 7.085597324655615e+000
 2.524030485457940e-001	 2.537477625722233e+000	 6.997228074632208e+000
 2.291288166505648e-001	 2.539685016954604e+000	 6.903731802288545e+000
 4.685548599798770e-001	 2.532011323680339e+000	 7.511529082208304e+000
 4.446574971781941e-001	 2.536317154898977e+000	 7.461928799216542e+000
 4.207917302478996e-001	 2.540385663588481e+000	 7.412143629134179e+000
 3.969607463164783e-001	 2.544218380147005e+000	 7.360479816963226e+000
 3.731676842430350e-001	 2.547816884985544e+000	 7.305649180120272e+000
 3.494156338330333e-001	 2.551182807014058e+000	 7.246754187859247e+000
 3.257076351026126e-001	 2.554317822120163e+000	 7.183272731949238e+000
 3.020466775921665e-001	 2.557223651642039e+000	 7.115042635224379e+000
 2.784356997288085e-001	 2.559902060837231e+000	 7.042245943635594e+000
 2.548775882372977e-001	 2.562354857348963e+000	 6.965393046344149e+000
 2.313751775989394e-001	 2.564583889671531e+000	 6.885306667213511e+000
 4.731039362893555e-001	 2.556593957893029e+000	 7.429875631652007e+000
 4.489745602561820e-001	 2.560941593298469e+000	 7.387581531360178e+000
 4.248770868505629e-001	 2.565049602072488e+000	 7.344607657934069e+000
 4.008147341429679e-001	 2.568919529471480e+000	 7.299505002784896e+000
 3.767906714668604e-001	 2.572552971250230e+000	 7.251235740313740e+000
 3.528080186258144e-001	 2.575951572133364e+000	 7.199157729350092e+000
 3.288698451506876e-001	 2.579117024279250e+000	 7.143008707773196e+000
 3.049791696065365e-001	 2.582051065738089e+000	 7.082890228206139e+000
 2.811389589488919e-001	 2.584755478905850e+000	 7.019251381642290e+000
 2.573521279289656e-001	 2.587232088975692e+000	 6.952872354726181e+000
 2.336215385472976e-001	 2.589482762388461e+000	 6.884847865171581e+000
 4.776530125988488e-001	 2.581176592105721e+000	 7.368824898516725e+000
 4.532916233343635e-001	 2.585566031697960e+000	 7.335138934646000e+000
 4.289624434535578e-001	 2.589713540556496e+000	 7.299927358915802e+000
 4.046687219698854e-001	 2.593620678795952e+000	 7.261990573371075e+000
 3.804136586911696e-001	 2.597289057514917e+000	 7.220546107987803e+000
 3.562004034190944e-001	 2.600720337252671e+000	 7.175212528952073e+000
 3.320320551992371e-001	 2.603916226438336e+000	 7.125993041914979e+000
 3.079116616213166e-001	 2.606878479834140e+000	 7.073258839427510e+000
 2.838422181692820e-001	 2.609608896974470e+000	 7.017732240676243e+000
 2.598266676207978e-001	 2.612109320602423e+000	 6.960469670454213e+000
 2.358678994956391e-001	 2.614381635105389e+000	 6.902844523015178e+000
 4.822020889083566e-001	 2.605759226318411e+000	 7.331988685537677e+000
 4.576086864127388e-001	 2.610190470097453e+000	 7.307907495065702e+000
 4.330478000568840e-001	 2.614377479040504e+000	 7.281102942526226e+000
 4.085227097972309e-001	 2.618321828120427e+000	 7.250629657193800e+000
 3.840366459159625e-001	 2.622025143779602e+000	 7.215965675866059e+000
 3.595927882128737e-001	 2.625489102371976e+000	 7.176995742626702e+000
 3.351942652482610e-001	 2.628715428597423e+000	 7.133994305252503e+000
 3.108441536365070e-001	 2.631705893930189e+000	 7.087608258810678e+000
 2.865454773899787e-001	 2.634462315043090e+000	 7.038839485868869e+000
 2.623012073127942e-001	 2.636986552229152e+000	 6.989027241495400e+000
 2.381142604439641e-001	 2.639280507822317e+000	 6.939830429893758e+000
 4.867511652178794e-001	 2.630341860531103e+000	 7.322957980151295e+000
 4.619257494913080e-001	 2.634814908496944e+000	 7.309179743289056e+000
 4.371331566605418e-001	 2.639041417524512e+000	 7.291127412402777e+000
 4.123766976250043e-001	 2.643022977444900e+000	 7.268114811198427e+000
 3.876596331412391e-001	 2.646761230044289e+000	 7.239885785519807e+000
 3.629851730071521e-001	 2.650257867491282e+000	 7.206596879063119e+000
 3.383564752977594e-001	 2.653514630756510e+000	 7.168799707275452e+000
 3.137766456521076e-001	 2.656533308026239e+000	 7.127423081366654e+000
 2.892487366109821e-001	 2.659315733111709e+000	 7.083754933187204e+000
 2.647757470049549e-001	 2.661863783855882e+000	 7.039424090431109e+000
 2.403606213922725e-001	 2.664179380539246e+000	 6.996381950231566e+000
 4.913002415274165e-001	 2.654924494743793e+000	 7.345303918166411e+000
 4.662428125700708e-001	 2.659439346896436e+000	 7.342234900743578e+000
 4.412185132645307e-001	 2.663705356008520e+000	 7.332986899022349e+000
 4.162306854532058e-001	 2.667724126769374e+000	 7.317138047262842e+000
 3.912826203669995e-001	 2.671497316308976e+000	 7.294703451959171e+000
 3.663775578019295e-001	 2.675026632610588e+000	 7.266117227792435e+000
 3.415186853477322e-001	 2.678313832915597e+000	 7.232214233186556e+000
 3.167091376681183e-001	 2.681360722122288e+000	 7.194211558811821e+000
 2.919519958322920e-001	 2.684169151180329e+000	 7.153689821154663e+000
 2.672502866972798e-001	 2.686741015482612e+000	 7.112574311928497e+000
 2.426069823405643e-001	 2.689078253256174e+000	 7.073116052649699e+000
 4.958493178369686e-001	 2.679507128956484e+000	 7.402578694389336e+000
 4.705598756490275e-001	 2.684063785295928e+000	 7.410339490130665e+000
 4.453038698688512e-001	 2.688369294492528e+000	 7.409660974983716e+000
 4.200846732818352e-001	 2.692425276093848e+000	 7.400390857200820e+000
 3.949056075932435e-001	 2.696233402573661e+000	 7.382821103382965e+000
 3.697699425972060e-001	 2.699795397729894e+000	 7.357669318782111e+000
 3.446808953981795e-001	 2.703113035074683e+000	 7.326059828502110e+000
 3.196416296845391e-001	 2.706188136218339e+000	 7.289504514398134e+000
 2.946552550539088e-001	 2.709022569248948e+000	 7.249883461192203e+000
 2.697248263897690e-001	 2.711618247109342e+000	 7.209425463929374e+000
 2.448533432888395e-001	 2.713977125973103e+000	 7.170688447388360e+000
 5.003983941465354e-001	 2.704089763169176e+000	 7.498316423578767e+000
 4.748769387281781e-001	 2.708688223695421e+000	 7.516747912639609e+000
 4.493892264735033e-001	 2.713033232976536e+000	 7.524122953093039e+000
 4.239386611108925e-001	 2.717126425418323e+000	 7.520564236401258e+000
 3.985285948199714e-001	 2.720969488838350e+000	 7.506646335125397e+000
 3.731623273929819e-001	 2.724564162849201e+000	 7.483376411507324e+000
 3.478431054491013e-001	 2.727912237233770e+000	 7.452174628128514e+000
 3.225741217013704e-001	 2.731015550314390e+000	 7.414854316933952e+000
 2.973585142758322e-001	 2.733875987317568e+000	 7.373601961577767e+000
 2.721993660824226e-001	 2.736495478736074e+000	 7.330957046592098e+000
 2.470997042370982e-001	 2.738875998690031e+000	 7.289791825324539e+000
 2.246360947537655e-001	 2.489887271520747e+000	 6.200955307584016e+000
 2.018749995641979e-001	 2.491835966613445e+000	 6.192500294566643e+000
 1.791733326820581e-001	 2.493571117257746e+000	 6.198388554070172e+000
 1.565336911712554e-001	 2.495094628165967e+000	 6.216511094004456e+000
 1.339586197272681e-001	 2.496408437772546e+000	 6.244562959125828e+000
 1.114506103760082e-001	 2.497514516761370e+000	 6.280052566612641e+000
 8.901210221548993e-002	 2.498414866600590e+000	 6.320311181879255e+000
 6.664548119953383e-002	 2.499111518086177e+000	 6.362502508439774e+000
 4.435307996270520e-002	 2.499606529895404e+000	 6.403632366246876e+000
 2.213717768565474e-002	 2.499901987151415e+000	 6.440558433605302e+000
 0.000000000000000e+000	 2.500000000000000e+000	 6.470000028481968e+000
 2.268824557021734e-001	 2.514786144237676e+000	 6.939681016846965e+000
 2.038937495620015e-001	 2.516754326280969e+000	 6.864213640959774e+000
 1.809650660120170e-001	 2.518506828431417e+000	 6.793727655154677e+000
 1.580990280867715e-001	 2.520045574448460e+000	 6.729435155943514e+000
 1.352982059287010e-001	 2.521372522150882e+000	 6.672784089113730e+000
 1.125651164839799e-001	 2.522489661929406e+000	 6.625443403842776e+000
 8.990222324160553e-002	 2.523399015266865e+000	 6.589288293284645e+000
 6.731193601494005e-002	 2.524102633267189e+000	 6.566385552701219e+000
 4.479661076489755e-002	 2.524602595194424e+000	 6.558979084669404e+000
 2.235854946393852e-002	 2.524901007022946e+000	 6.569475579327828e+000
 0.000000000000000e+000	 2.525000000000000e+000	 6.600430396049884e+000
 2.291288166505648e-001	 2.539685016954604e+000	 6.903731802288545e+000
 2.059124995596093e-001	 2.541672685948493e+000	 6.851076011384095e+000
 1.827567993416422e-001	 2.543442539605088e+000	 6.801213389783286e+000
 1.596643650018568e-001	 2.544996520730956e+000	 6.755679318774917e+000
 1.366377921296466e-001	 2.546336606529219e+000	 6.716247488842540e+000
 1.136796225914477e-001	 2.547464807097442e+000	 6.684914454439785e+000
 9.079234426724051e-002	 2.548383163933141e+000	 6.663884287309674e+000
 6.797839082992800e-002	 2.549093748448203e+000	 6.655553360283721e+000
 4.524014156677282e-002	 2.549598660493445e+000	 6.662495291904124e+000
 2.257992124204479e-002	 2.549900026894476e+000	 6.687446080578630e+000
 0.000000000000000e+000	 2.550000000000000e+000	 6.733289455340017e+000
 2.313751775989394e-001	 2.564583889671531e+000	 6.885306667213511e+000
 2.079312495570213e-001	 2.566591045616016e+000	 6.854469767059482e+000
 1.845485326709337e-001	 2.568378250778760e+000	 6.824039103824905e+000
 1.612297019165114e-001	 2.569947467013449e+000	 6.795879250818154e+000
 1.379773783301049e-001	 2.571300690907556e+000	 6.772095700573884e+000
 1.147941286984118e-001	 2.572439952265479e+000	 6.755018807067493e+000
 9.168246529239485e-002	 2.573367312599416e+000	 6.747187838699403e+000
 6.864484564449770e-002	 2.574084863629215e+000	 6.751335174877964e+000
 4.568367236833103e-002	 2.574594725792466e+000	 6.770370677369170e+000
 2.280129301997355e-002	 2.574899046766007e+000	 6.807366265890946e+000
 0.000000000000000e+000	 2.575000000000000e+000	 6.865540725726891e+000
 2.336215385472976e-001	 2.589482762388461e+000	 6.884847865171581e+000
 2.099499995542375e-001	 2.591509405283540e+000	 6.874507277274273e+000
 1.863402659998916e-001	 2.593313961952431e+000	 6.861985399495747e+000
 1.627950388307353e-001	 2.594898413295944e+000	 6.849482085950449e+000
 1.393169645300759e-001	 2.596264775285892e+000	 6.839440869563607e+000
 1.159086348048721e-001	 2.597415097433515e+000	 6.834532278318723e+000
 9.257258631706855e-002	 2.598351461265692e+000	 6.837637274663568e+000
 6.931130045864915e-002	 2.599075978810228e+000	 6.851830851815961e+000
 4.612720316957215e-002	 2.599590791091487e+000	 6.880365818988816e+000
 2.302266479772481e-002	 2.599898066637538e+000	 6.926656805791196e+000
 0.000000000000000e+000	 2.600000000000000e+000	 6.994264514307660e+000
 2.358678994956391e-001	 2.614381635105389e+000	 6.902844523015178e+000
 2.119687495512579e-001	 2.616427764951064e+000	 6.911354400976901e+000
 1.881319993285157e-001	 2.618249673126103e+000	 6.914892950426069e+000
 1.643603757445284e-001	 2.619849359578438e+000	 6.916001574405591e+000
 1.406565507295597e-001	 2.621228859664229e+000	 6.917468263401940e+000
 1.170231409108286e-001	 2.622390242601552e+000	 6.922310272037016e+000
 9.346270734126161e-002	 2.623335609931967e+000	 6.933756931473575e+000
 6.997775527238233e-002	 2.624067093991242e+000	 6.955232632213780e+000
 4.657073397049620e-002	 2.624586856390508e+000	 6.990340010173842e+000
 2.324403657529854e-002	 2.624897086509069e+000	 7.042843367103027e+000
 0.000000000000000e+000	 2.625000000000000e+000	 7.116652354581048e+000
 2.381142604439641e-001	 2.639280507822317e+000	 6.939830429893758e+000
 2.139874995480826e-001	 2.641346124618587e+000	 6.965227963679609e+000
 1.899237326568062e-001	 2.643185384299774e+000	 6.982659668103644e+000
 1.659257126578909e-001	 2.644800305860933e+000	 6.995014940492866e+000
 1.419961369285562e-001	 2.646192944042565e+000	 7.005432822846697e+000
 1.181376470162813e-001	 2.647365387769589e+000	 7.017284025200421e+000
 9.435282836497402e-002	 2.648319758598243e+000	 7.034153097432615e+000
 7.064421008569725e-002	 2.649058209172255e+000	 7.059820785151437e+000
 4.701426477110317e-002	 2.649582921689529e+000	 7.098246603431149e+000
 2.346540835269477e-002	 2.649896106380599e+000	 7.153551660292887e+000
 0.000000000000000e+000	 2.650000000000000e+000	 7.230001759919022e+000
 2.403606213922725e-001	 2.664179380539246e+000	 6.996381950231566e+000
 2.160062495447116e-001	 2.666264484286111e+000	 7.036393375842389e+000
 1.917154659847630e-001	 2.668121095473445e+000	 7.065238027206809e+000
 1.674910495708227e-001	 2.669751252143427e+000	 7.086159916519422e+000
 1.433357231270654e-001	 2.671157028420902e+000	 7.102655906068438e+000
 1.192521531212302e-001	 2.672340532937625e+000	 7.118457064317649e+000
 9.524294938820582e-002	 2.673303907264519e+000	 7.137510183340449e+000
 7.131066489859390e-002	 2.674049324353267e+000	 7.163959494217249e+000
 4.745779557139308e-002	 2.674578986988550e+000	 7.202128615078816e+000
 2.368678012991349e-002	 2.674895126252130e+000	 7.256502764532501e+000
 0.000000000000000e+000	 2.675000000000000e+000	 7.331711271235940e+000
 2.426069823405643e-001	 2.689078253256174e+000	 7.073116052649699e+000
 2.180249995411448e-001	 2.691182843953635e+000	 7.125162383570412e+000
 1.935071993123861e-001	 2.693056806647117e+000	 7.162632539531031e+000
 1.690563864833238e-001	 2.694702198425921e+000	 7.189131941493273e+000
 1.446753093250873e-001	 2.696121112799238e+000	 7.208522213769713e+000
 1.203666592256753e-001	 2.697315678105662e+000	 7.224901858690057e+000
 9.613307041095698e-002	 2.698288055930795e+000	 7.242587105711041e+000
 7.197711971107230e-002	 2.699040439534280e+000	 7.266092972575744e+000
 4.790132637136590e-002	 2.699575052287571e+000	 7.300114574143268e+000
 2.390815190695469e-002	 2.699894146123661e+000	 7.349508712481353e+000
 0.000000000000000e+000	 2.699999999999999e+000	 7.419275779787339e+000
 2.448533432888395e-001	 2.713977125973103e+000	 7.170688447388360e+000
 2.200437495373822e-001	 2.716101203621158e+000	 7.231890943125920e+000
 1.952989326396756e-001	 2.717992517820788e+000	 7.274897366965602e+000
 1.706217233953940e-001	 2.719653144708416e+000	 7.303681514027555e+000
 1.460148955226219e-001	 2.721085197177575e+000	 7.322476883564160e+000
 1.214811653296167e-001	 2.722290823273699e+000	 7.335756657898543e+000
 9.702319143322748e-002	 2.723272204597070e+000	 7.348213869079361e+000
 7.264357452313244e-002	 2.724031554715293e+000	 7.364741791886937e+000
 4.834485717102164e-002	 2.724571117586591e+000	 7.390414599757543e+000
 2.412952368381839e-002	 2.724893165995192e+000	 7.430468318107559e+000
 0.000000000000000e+000	 2.724999999999999e+000	 7.490282107429191e+000
 2.470997042370982e-001	 2.738875998690031e+000	 7.289791825324539e+000
 2.220624995334239e-001	 2.741019563288683e+000	 7.356977211375121e+000
 1.970906659666314e-001	 2.742928228994460e+000	 7.402134064671012e+000
 1.721870603070337e-001	 2.744604090990911e+000	 7.429611689630626e+000
 1.473544817196693e-001	 2.746049281555912e+000	 7.444022742844931e+000
 1.225956714330543e-001	 2.747265968441736e+000	 7.450222501790409e+000
 9.791331245501737e-002	 2.748256353263346e+000	 7.453288334728175e+000
 7.331002933477435e-002	 2.749022669896307e+000	 7.458499411465092e+000
 4.878838797036033e-002	 2.749567182885613e+000	 7.471316692520953e+000
 2.435089546050458e-002	 2.749892185866723e+000	 7.497363232083095e+000
 0.000000000000000e+000	 2.750000000000000e+000	 7.542404827954135e+000
 2.750000000000000e+000	 0.000000000000000e+000	 1.102233408783629e+001
 2.749892185866724e+000	 2.435089546050380e-002	 1.111103391089130e+001
 2.749567182885613e+000	 4.878838797035964e-002	 1.117685154419596e+001
 2.749022669896307e+000	 7.331002933477374e-002	 1.122328294227635e+001
 2.748256353263346e+000	 9.791331245501683e-002	 1.125386229060794e+001
 2.747265968441735e+000	 1.225956714330538e-001	 1.127215256728003e+001
 2.746049281555912e+000	 1.473544817196689e-001	 1.128173568739481e+001
 2.744604090990912e+000	 1.721870603070334e-001	 1.128620223888515e+001
 2.742928228994461e+000	 1.970906659666313e-001	 1.128914081993009e+001
 2.741019563288683e+000	 2.220624995334238e-001	 1.129412698967836e+001
 2.738875998690032e+000	 2.470997042370982e-001	 1.130471184554554e+001
 2.775000000000000e+000	 0.000000000000000e+000	 1.107645215688646e+001
 2.774891205738252e+000	 2.457226723710123e-002	 1.116864227159765e+001
 2.774563248184625e+000	 4.923191876953977e-002	 1.123516308261276e+001
 2.774013785077298e+000	 7.397648414620646e-002	 1.127994179087104e+001
 2.773240501929583e+000	 9.880343347656635e-002	 1.130695323040958e+001
 2.772241113609713e+000	 1.237101775362395e-001	 1.132021004564013e+001
 2.771013365934162e+000	 1.486940679164726e-001	 1.132375242688593e+001
 2.769555037273286e+000	 1.737523972184576e-001	 1.132163741291509e+001
 2.767863940167976e+000	 1.988823992934202e-001	 1.131792777076137e+001
 2.765937922956008e+000	 2.240812495293675e-001	 1.131668046471642e+001
 2.763774871406714e+000	 2.493460651853486e-001	 1.132193472799651e+001
 2.800000000000000e+000	 0.000000000000000e+000	 1.109365040208548e+001
 2.799890225609775e+000	 2.479363901369865e-002	 1.119190315567630e+001
 2.799559313483616e+000	 4.967544956871989e-002	 1.126175970412110e+001
 2.799004900258245e+000	 7.464293895763922e-002	 1.130758210895070e+001
 2.798224650595743e+000	 9.969355449811594e-002	 1.133378948341250e+001
 2.797216258777568e+000	 1.248246836394252e-001	 1.134484777888131e+001
 2.795977450312236e+000	 1.500336541132763e-001	 1.134525910480119e+001
 2.794505983555422e+000	 1.753177341298819e-001	 1.133955059095114e+001
 2.792799651341178e+000	 2.006741326202091e-001	 1.133226280244616e+001
 2.790856282622936e+000	 2.260999995253113e-001	 1.132793771953756e+001
 2.788673744122905e+000	 2.515924261335989e-001	 1.133110629596090e+001
 2.825000000000000e+000	 0.000000000000000e+000	 1.107688327465309e+001
 2.824889245481293e+000	 2.501501079029607e-002	 1.118336335617233e+001
 2.824555378782589e+000	 5.011898036790001e-002	 1.125877877493157e+001
 2.823996015439152e+000	 7.530939376907195e-002	 1.130793023791076e+001
 2.823208799261825e+000	 1.005836755196655e-001	 1.133568494254414e+001
 2.822191403945302e+000	 1.259391897426109e-001	 1.134696596569375e+001
 2.820941534690137e+000	 1.513732403100800e-001	 1.134674116116089e+001
 2.819456929837322e+000	 1.768830710413061e-001	 1.134001157459522e+001
 2.817735362514068e+000	 2.024658659469981e-001	 1.133179938633631e+001
 2.815774642289468e+000	 2.281187495212551e-001	 1.132713539444011e+001
 2.813572616838604e+000	 2.538387870818492e-001	 1.133104605189169e+001
 2.850000000000000e+000	 0.000000000000000e+000	 1.102900156085407e+001
 2.849888265352808e+000	 2.523638256689349e-002	 1.114547504025505e+001
 2.849551444081544e+000	 5.056251116708015e-002	 1.122827213477289e+001
 2.848987130620012e+000	 7.597584858050469e-002	 1.128263614960040e+001
 2.848192947927831e+000	 1.014737965412150e-001	 1.131388634281246e+001
 2.847166549112915e+000	 1.270536958457965e-001	 1.132740691023596e+001
 2.845905619067861e+000	 1.527128265068837e-001	 1.132863545359827e+001
 2.844407876118980e+000	 1.784484079527304e-001	 1.132305094088264e+001
 2.842671073686645e+000	 2.042575992737870e-001	 1.131616116955709e+001
 2.840693001955603e+000	 2.301374995171988e-001	 1.131348974512498e+001
 2.838471489553812e+000	 2.560851480300996e-001	 1.132056258925991e+001
 2.875000000000000e+000	 0.000000000000000e+000	 1.095275688917023e+001
 2.874887285224318e+000	 2.545775434349091e-002	 1.108059986338619e+001
 2.874547509380478e+000	 5.100604196626029e-002	 1.117220981543487e+001
 2.873978245800831e+000	 7.664230339193742e-002	 1.123327676673837e+001
 2.873177096593760e+000	 1.023639175627646e-001	 1.126957618121522e+001
 2.872141694280408e+000	 1.281682019489822e-001	 1.128695753928844e+001
 2.870869703445413e+000	 1.540524127036874e-001	 1.129133236963768e+001
 2.869358822400401e+000	 1.800137448641546e-001	 1.128866174769843e+001
 2.867606784858910e+000	 2.060493326005759e-001	 1.128494327171277e+001
 2.865611361621339e+000	 2.321562495131426e-001	 1.128619752898263e+001
 2.863370362268527e+000	 2.583315089783499e-001	 1.129845406685811e+001
 2.900000000000000e+000	 0.000000000000000e+000	 1.085080600434286e+001
 2.899886305095822e+000	 2.567912612008834e-002	 1.099101287068707e+001
 2.899543574679393e+000	 5.144957276544040e-002	 1.109248356697247e+001
 2.898969360981606e+000	 7.730875820337015e-002	 1.116135911158178e+001
 2.898161245259613e+000	 1.032540385843141e-001	 1.120387548561986e+001
 2.897116839447780e+000	 1.292827080521679e-001	 1.122635178920955e+001
 2.895833787822788e+000	 1.553919989004911e-001	 1.123517782971614e+001
 2.894309768681584e+000	 1.815790817755789e-001	 1.123680115098171e+001
 2.892542496030862e+000	 2.078410659273649e-001	 1.123771351452102e+001
 2.890529721286680e+000	 2.341749995090863e-001	 1.124443684553745e+001
 2.888269234982751e+000	 2.605778699266002e-001	 1.126350865857113e+001
 2.925000000000000e+000	 0.000000000000000e+000	 1.072571482223329e+001
 2.924885324967321e+000	 2.590049789668575e-002	 1.087890619823489e+001
 2.924539639978291e+000	 5.189310356462054e-002	 1.099091020307939e+001
 2.923960476162338e+000	 7.797521301480291e-002	 1.106832329312564e+001
 2.923145393925387e+000	 1.041441596058636e-001	 1.111784644164926e+001
 2.922091984615031e+000	 1.303972141553535e-001	 1.114627287048372e+001
 2.920797872199990e+000	 1.567315850972948e-001	 1.116047518748642e+001
 2.919260714962528e+000	 1.831444186870031e-001	 1.116739193899713e+001
 2.917478207202503e+000	 2.096327992541539e-001	 1.117401358838936e+001
 2.915448080951624e+000	 2.361937495050301e-001	 1.118736793379247e+001
 2.913168107696484e+000	 2.628242308748505e-001	 1.121450498008136e+001
 2.949999999999999e+000	 0.000000000000000e+000	 1.057996227850417e+001
 2.949884344838818e+000	 2.612186967328318e-002	 1.074639258615797e+001
 2.949535705277168e+000	 5.233663436380066e-002	 1.086923477635711e+001
 2.948951591343028e+000	 7.864166782623562e-002	 1.095554534241050e+001
 2.948129542591084e+000	 1.050342806274132e-001	 1.101249488599754e+001
 2.947067129782162e+000	 1.315117202585392e-001	 1.104735541712254e+001
 2.945761956577017e+000	 1.580711712940985e-001	 1.106748703349426e+001
 2.944211661243234e+000	 1.847097555984273e-001	 1.108032398859208e+001
 2.942413918373829e+000	 2.114245325809427e-001	 1.109336015967407e+001
 2.940366440616170e+000	 2.382124995009738e-001	 1.111413392903106e+001
 2.938066980409724e+000	 2.650705918231008e-001	 1.115021249387753e+001
 2.974999999999999e+000	 0.000000000000000e+000	 1.041594398325001e+001
 2.974883364710307e+000	 2.634324144988059e-002	 1.059550871459963e+001
 2.974531770576026e+000	 5.278016516298079e-002	 1.072913359348731e+001
 2.973942706523673e+000	 7.930812263766840e-002	 1.082433990487327e+001
 2.973113691256704e+000	 1.059244016489627e-001	 1.088877267403163e+001
 2.972042274949171e+000	 1.326262263617249e-001	 1.093018752769313e+001
 2.970726040953869e+000	 1.594107574909022e-001	 1.095643690791402e+001
 2.969162607523700e+000	 1.862750925098516e-001	 1.097545564802951e+001
 2.967349629544843e+000	 2.132162659077317e-001	 1.099524592211083e+001
 2.965284800280319e+000	 2.402312494969176e-001	 1.102386158146074e+001
 2.962965853122473e+000	 2.673169527713512e-001	 1.106939189384257e+001
 3.000000000000000e+000	 0.000000000000000e+000	 1.023597569289542e+001
 2.999882384581794e+000	 2.656461322647803e-002	 1.042821837288490e+001
 2.999527835874867e+000	 5.322369596216094e-002	 1.057221707964501e+001
 2.998933821704276e+000	 7.997457744910114e-002	 1.067596279808099e+001
 2.998097839922250e+000	 1.068145226705123e-001	 1.074757992901373e+001
 2.997017420116060e+000	 1.337407324649106e-001	 1.079531270429529e+001
 2.995690125330548e+000	 1.607503436877060e-001	 1.082751092764741e+001
 2.994113553803930e+000	 1.878404294212759e-001	 1.085261505067894e+001
 2.992285340715546e+000	 2.150079992345207e-001	 1.087914059567407e+001
 2.990203159944073e+000	 2.422499994928614e-001	 1.091566193892449e+001
 2.987864725834731e+000	 2.695633137196016e-001	 1.097079547061219e+001
 2.738875998690032e+000	 2.470997042370982e-001	 1.130471184554554e+001
 2.736495478736073e+000	 2.721993660824219e-001	 1.122866266031436e+001
 2.733875987317569e+000	 2.973585142758315e-001	 1.115659653511359e+001
 2.731015550314390e+000	 3.225741217013698e-001	 1.109137073691815e+001
 2.727912237233771e+000	 3.478431054491009e-001	 1.103576562766709e+001
 2.724564162849201e+000	 3.731623273929816e-001	 1.099247209165942e+001
 2.720969488838349e+000	 3.985285948199712e-001	 1.096407871771169e+001
 2.717126425418323e+000	 4.239386611108925e-001	 1.095305876029873e+001
 2.713033232976537e+000	 4.493892264735033e-001	 1.096175690545682e+001
 2.708688223695421e+000	 4.748769387281783e-001	 1.099237586876593e+001
 2.704089763169176e+000	 5.003983941465353e-001	 1.104696285423283e+001
 2.763774871406714e+000	 2.493460651853486e-001	 1.132193472799651e+001
 2.761372710362509e+000	 2.746739057751574e-001	 1.122558308559218e+001
 2.758729405385852e+000	 3.000617734979081e-001	 1.113594078642877e+001
 2.755842964410066e+000	 3.255066137184060e-001	 1.105639964089873e+001
 2.752711439392451e+000	 3.510053155002598e-001	 1.099027886841133e+001
 2.749332927968071e+000	 3.765547121890067e-001	 1.094081187477181e+001
 2.745705575102577e+000	 4.021515820469409e-001	 1.091113276275006e+001
 2.741827574742320e+000	 4.277926489401637e-001	 1.090426260081032e+001
 2.737697171460055e+000	 4.534745830783211e-001	 1.092309547660531e+001
 2.733312662094415e+000	 4.791940018074255e-001	 1.097038436344842e+001
 2.728672397381367e+000	 5.049474704561092e-001	 1.104872682955682e+001
 2.788673744122905e+000	 2.515924261335989e-001	 1.133110629596090e+001
 2.786249941988360e+000	 2.771484454678931e-001	 1.121862009395918e+001
 2.783582823453462e+000	 3.027650327199848e-001	 1.111565283633268e+001
 2.780670378504992e+000	 3.284391057354422e-001	 1.102613388193152e+001
 2.777510641550316e+000	 3.541675255514188e-001	 1.095392425445163e+001
 2.774101693086072e+000	 3.799470969850320e-001	 1.090280276150169e+001
 2.770441661365887e+000	 4.057745692739104e-001	 1.087645182513612e+001
 2.766528724065364e+000	 4.316466367694350e-001	 1.087844304959004e+001
 2.762361109942594e+000	 4.575599396831386e-001	 1.091222255365857e+001
 2.757937100492415e+000	 4.835110648866728e-001	 1.098109609684803e+001
 2.753255031592557e+000	 5.094965467656832e-001	 1.108821403007919e+001
 2.813572616838604e+000	 2.538387870818492e-001	 1.133104605189169e+001
 2.811127173613622e+000	 2.796229851606287e-001	 1.120615389847431e+001
 2.808436241520401e+000	 3.054682919420614e-001	 1.109367404188523e+001
 2.805497792599172e+000	 3.313715977524784e-001	 1.099807660862975e+001
 2.802309843707365e+000	 3.573297356025777e-001	 1.092376759005013e+001
 2.798870458203201e+000	 3.833394817810573e-001	 1.087507429461386e+001
 2.795177747628282e+000	 4.093975565008801e-001	 1.085623048978656e+001
 2.791229873387455e+000	 4.355006245987063e-001	 1.087136126000406e+001
 2.787025048424154e+000	 4.616452962879563e-001	 1.092446760904131e+001
 2.782561538889420e+000	 4.878281279659203e-001	 1.101941083683444e+001
 2.777837665802749e+000	 5.140456230752573e-001	 1.115989672254246e+001
 2.838471489553812e+000	 2.560851480300996e-001	 1.132056258925991e+001
 2.836004405238297e+000	 2.820975248533642e-001	 1.118656408483101e+001
 2.833289659586666e+000	 3.081715511641380e-001	 1.106795543150095e+001
 2.830325206692602e+000	 3.343040897695145e-001	 1.096975095284780e+001
 2.827109045863601e+000	 3.604919456537368e-001	 1.089690498375894e+001
 2.823639223319458e+000	 3.867318665770823e-001	 1.085429664730480e+001
 2.819913833889759e+000	 4.130205437278497e-001	 1.084671429915149e+001
 2.815931022708593e+000	 4.393546124279776e-001	 1.087883966682043e+001
 2.811688986904735e+000	 4.657306528927738e-001	 1.095523171296232e+001
 2.807185977285430e+000	 4.921451910451676e-001	 1.108031025364887e+001
 2.802420300011939e+000	 5.185946993848312e-001	 1.125833936449061e+001
 2.863370362268527e+000	 2.583315089783499e-001	 1.129845406685811e+001
 2.860881636862386e+000	 2.845720645460999e-001	 1.115822963863403e+001
 2.858143077652259e+000	 3.108748103862146e-001	 1.103645728445520e+001
 2.855152620785284e+000	 3.372365817865506e-001	 1.093869916084460e+001
 2.851908248019021e+000	 3.636541557048958e-001	 1.087046153084233e+001
 2.848407988434845e+000	 3.901242513731076e-001	 1.083717885666208e+001
 2.844649920150318e+000	 4.166435309548194e-001	 1.084419753766964e+001
 2.840632172028777e+000	 4.432086002572488e-001	 1.089675932180017e+001
 2.836352925384337e+000	 4.698160094975915e-001	 1.099998442046741e+001
 2.831810415680446e+000	 4.964622541244149e-001	 1.115885435893143e+001
 2.827002934220130e+000	 5.231437756944052e-001	 1.137819459597319e+001
 2.888269234982751e+000	 2.605778699266002e-001	 1.126350865857113e+001
 2.885758868485888e+000	 2.870466042388355e-001	 1.111952897126509e+001
 2.882996495717180e+000	 3.135780696082913e-001	 1.099714873214016e+001
 2.879980034877217e+000	 3.401690738035869e-001	 1.090248176938687e+001
 2.876707450173628e+000	 3.668163657560547e-001	 1.084159006384950e+001
 2.873176753549361e+000	 3.935166361691328e-001	 1.082046714849679e+001
 2.869386006409961e+000	 4.202665181817890e-001	 1.084502113082050e+001
 2.865333321348009e+000	 4.470625880865201e-001	 1.092105736710282e+001
 2.861016863862959e+000	 4.739013661024092e-001	 1.105426081950679e+001
 2.856434854074466e+000	 5.007793172036623e-001	 1.125017812893682e+001
 2.851585568427321e+000	 5.276928520039791e-001	 1.151419943857546e+001
 2.913168107696484e+000	 2.628242308748505e-001	 1.121450498008136e+001
 2.910636100108802e+000	 2.895211439315710e-001	 1.106883994442266e+001
 2.907849913781428e+000	 3.162813288303680e-001	 1.094800737976945e+001
 2.904807448968402e+000	 3.431015658206231e-001	 1.085867682410356e+001
 2.901506652327419e+000	 3.699785758072137e-001	 1.080746996726051e+001
 2.897945518663008e+000	 3.969090209651581e-001	 1.080094334808168e+001
 2.894122092668686e+000	 4.238895054087587e-001	 1.084557065191755e+001
 2.890034470666286e+000	 4.509165759157914e-001	 1.094772463826095e+001
 2.885680802340603e+000	 4.779867227072268e-001	 1.111365873038363e+001
 2.881059292467492e+000	 5.050963802829096e-001	 1.134948830091821e+001
 2.876168202633513e+000	 5.322419283135530e-001	 1.166117168936983e+001
 2.938066980409724e+000	 2.650705918231008e-001	 1.115021249387753e+001
 2.935513331731131e+000	 2.919956836243067e-001	 1.100453989341337e+001
 2.932703331845003e+000	 3.189845880524446e-001	 1.088701894731760e+001
 2.929634863058839e+000	 3.460340578376593e-001	 1.080487913758485e+001
 2.926305854480396e+000	 3.731407858583726e-001	 1.076530605240455e+001
 2.922714283775782e+000	 4.003014057611832e-001	 1.077542337169970e+001
 2.918858178926495e+000	 4.275124926357283e-001	 1.084227443025078e+001
 2.914735619983611e+000	 4.547705637450627e-001	 1.097280338903723e+001
 2.910344740817267e+000	 4.820720793120443e-001	 1.117383604760349e+001
 2.905683730859524e+000	 5.094134433621569e-001	 1.145206033240707e+001
 2.900750836838703e+000	 5.367910046231269e-001	 1.181400649822584e+001
 2.962965853122473e+000	 2.673169527713512e-001	 1.106939189384257e+001
 2.960390563352871e+000	 2.944702233170423e-001	 1.092500564926944e+001
 2.957556749907905e+000	 3.216878472745212e-001	 1.081217692856397e+001
 2.954462277148526e+000	 3.489665498546954e-001	 1.073869958488807e+001
 2.951105056632558e+000	 3.763029959095316e-001	 1.071232748910479e+001
 2.947483048887686e+000	 4.036937905572084e-001	 1.074075579424828e+001
 2.943594265183386e+000	 4.311354798626980e-001	 1.083160175461731e+001
 2.939436769299983e+000	 4.586245515743339e-001	 1.099238513099452e+001
 2.935008679292952e+000	 4.861574359168621e-001	 1.123050821574830e+001
 2.930308169250560e+000	 5.137305064414043e-001	 1.155323551380656e+001
 2.925333471042894e+000	 5.413400809327010e-001	 1.196767311769236e+001
 2.987864725834731e+000	 2.695633137196016e-001	 1.097079547061219e+001
 2.985267794974027e+000	 2.969447630097781e-001	 1.082861355976016e+001
 2.982410167970137e+000	 3.243911064965980e-001	 1.072148226718409e+001
 2.979289691237467e+000	 3.518990418717317e-001	 1.065776443426817e+001
 2.975904258783907e+000	 3.794652059606907e-001	 1.064578679074140e+001
 2.972251813998720e+000	 4.070861753532337e-001	 1.069382048846405e+001
 2.968330351439360e+000	 4.347584670896676e-001	 1.081006116667512e+001
 2.964137918615402e+000	 4.624785394036054e-001	 1.100260858108767e+001
 2.959672617767659e+000	 4.902427925216799e-001	 1.127944583155640e+001
 2.954932607640602e+000	 5.180475695206518e-001	 1.164841822535523e+001
 2.949916105246086e+000	 5.458891572422751e-001	 1.211721181538644e+001
 2.704089763169176e+000	 5.003983941465353e-001	 1.104696285423283e+001
 2.699236272010369e+000	 5.259501383425348e-001	 1.115132652532167e+001
 2.694126227445558e+000	 5.515286672185968e-001	 1.126394953425713e+001
 2.688758164897393e+000	 5.771304279651320e-001	 1.138511592974124e+001
 2.683130679550521e+000	 6.027518201122010e-001	 1.151489699305487e+001
 2.677242427900419e+000	 6.283891966355910e-001	 1.161787137513167e+001
 2.671092129282827e+000	 6.540388651164306e-001	 1.150143493616066e+001
 2.664678567381806e+000	 6.796970889541845e-001	 1.140045031930457e+001
 2.658000591714422e+000	 7.053600886327910e-001	 1.131538569533923e+001
 2.651057119090043e+000	 7.310240430396249e-001	 1.124677136674675e+001
 2.643847135042239e+000	 7.566850908368894e-001	 1.119520486321108e+001
 2.728672397381367e+000	 5.049474704561092e-001	 1.104872682955682e+001
 2.723774783575466e+000	 5.307315032349365e-001	 1.113712893256240e+001
 2.718618284059930e+000	 5.565425641910099e-001	 1.123603517953394e+001
 2.713201420943072e+000	 5.823770682164715e-001	 1.134568130511178e+001
 2.707522776638490e+000	 6.082313821098385e-001	 1.146608257843706e+001
 2.701580995427987e+000	 6.341018256921331e-001	 1.151876702868954e+001
 2.695374785004896e+000	 6.599846729770404e-001	 1.143888755243639e+001
 2.688902917995866e+000	 6.858761533949309e-001	 1.137136995538356e+001
 2.682164233459023e+000	 7.117724530705059e-001	 1.131637212073813e+001
 2.675157638356550e+000	 7.376697161537533e-001	 1.127411517525924e+001
 2.667882108999597e+000	 7.635640462038071e-001	 1.124488904741158e+001
 2.753255031592557e+000	 5.094965467656832e-001	 1.108821403007919e+001
 2.748313295139561e+000	 5.355128681273381e-001	 1.114798299555734e+001
 2.743110340673302e+000	 5.615564611634224e-001	 1.122065932443184e+001
 2.737644676987750e+000	 5.876237084678109e-001	 1.130644033084532e+001
 2.731914873725460e+000	 6.137109441074761e-001	 1.140529509104290e+001
 2.725919562954553e+000	 6.398144547486753e-001	 1.142117336071861e+001
 2.719657440725966e+000	 6.659304808376508e-001	 1.137416334532369e+001
 2.713127268608924e+000	 6.920552178356770e-001	 1.133641038948450e+001
 2.706327875202622e+000	 7.181848175082203e-001	 1.130776155295226e+001
 2.699258157622057e+000	 7.443153892678819e-001	 1.128812830805048e+001
 2.691917082955955e+000	 7.704430015707247e-001	 1.127749256467404e+001
 2.777837665802749e+000	 5.140456230752573e-001	 1.115989672254246e+001
 2.772851806702656e+000	 5.402942330197397e-001	 1.117840845416398e+001
 2.767602397285674e+000	 5.665703581358352e-001	 1.121239054977366e+001
 2.762087933031430e+000	 5.928703487191506e-001	 1.126201181749819e+001
 2.756306970811430e+000	 6.191905061051135e-001	 1.132720497934361e+001
 2.750258130480121e+000	 6.455270838052174e-001	 1.132537082793658e+001
 2.743940096446035e+000	 6.718762886982610e-001	 1.130779272431146e+001
 2.737351619220983e+000	 6.982342822764236e-001	 1.129634995209599e+001
 2.730491516945223e+000	 7.245971819459351e-001	 1.129057807110458e+001
 2.723358676886566e+000	 7.509610623820104e-001	 1.129007827996409e+001
 2.715952056911313e+000	 7.773219569376425e-001	 1.129452391229085e+001
 2.802420300011939e+000	 5.185946993848312e-001	 1.125833936449061e+001
 2.797390318264753e+000	 5.450755979121414e-001	 1.122301092645314e+001
 2.792094453897046e+000	 5.715842551082483e-001	 1.120587702232783e+001
 2.786531189074109e+000	 5.981169889704899e-001	 1.120708789243761e+001
 2.780699067896399e+000	 6.246700681027509e-001	 1.122654976545556e+001
 2.774596698004689e+000	 6.512397128617599e-001	 1.123170074636740e+001
 2.768222752165105e+000	 6.778220965588712e-001	 1.124036077556284e+001
 2.761575969832041e+000	 7.044133467171696e-001	 1.125201550235150e+001
 2.754655158686824e+000	 7.310095463836498e-001	 1.126588817244845e+001
 2.747459196150073e+000	 7.576067354961390e-001	 1.128126895390067e+001
 2.739987030865671e+000	 7.842009123045602e-001	 1.129752190891607e+001
 2.827002934220130e+000	 5.231437756944052e-001	 1.137819459597319e+001
 2.821928829825849e+000	 5.498569628045430e-001	 1.127647817487363e+001
 2.816586510507418e+000	 5.765981520806611e-001	 1.119584303454997e+001
 2.810974445115789e+000	 6.033636292218294e-001	 1.113643081215417e+001
 2.805091164980370e+000	 6.301496301003886e-001	 1.110960445950129e+001
 2.798935265528255e+000	 6.569523419183017e-001	 1.114056264528453e+001
 2.792505407883173e+000	 6.837679044194810e-001	 1.117250488466855e+001
 2.785800320442101e+000	 7.105924111579161e-001	 1.120428031808814e+001
 2.778818800427425e+000	 7.374219108213646e-001	 1.123479892810087e+001
 2.771559715412581e+000	 7.642524086102674e-001	 1.126303896046717e+001
 2.764022004819029e+000	 7.910798676714779e-001	 1.128805437624533e+001
 2.851585568427321e+000	 5.276928520039791e-001	 1.151419943857546e+001
 2.846467341385945e+000	 5.546383276969448e-001	 1.133357656554633e+001
 2.841078567116790e+000	 5.816120490530741e-001	 1.117708572330332e+001
 2.835417701156468e+000	 6.086102694731690e-001	 1.104486993945494e+001
 2.829483262063339e+000	 6.356291920980260e-001	 1.099802604613184e+001
 2.823273833050822e+000	 6.626649709748441e-001	 1.105241175801885e+001
 2.816788063600243e+000	 6.897137122800912e-001	 1.110491248236104e+001
 2.810024671051159e+000	 7.167714755986625e-001	 1.115406209504068e+001
 2.802982442167025e+000	 7.438342752590792e-001	 1.119845623416931e+001
 2.795660234674087e+000	 7.708980817243959e-001	 1.123676019936896e+001
 2.788056978771388e+000	 7.979588230383955e-001	 1.126771688888477e+001
 2.876168202633513e+000	 5.322419283135530e-001	 1.166117168936983e+001
 2.871005852945042e+000	 5.594196925893464e-001	 1.138914770913278e+001
 2.865570623725160e+000	 5.866259460254867e-001	 1.114447195684983e+001
 2.859860957196147e+000	 6.138569097245085e-001	 1.092729887567204e+001
 2.853875359145309e+000	 6.411087540956634e-001	 1.089241690776572e+001
 2.847612400572389e+000	 6.683776000313860e-001	 1.096775664144379e+001
 2.841070719316312e+000	 6.956595201407014e-001	 1.103831890583343e+001
 2.834249021659218e+000	 7.229505400394087e-001	 1.110232104864067e+001
 2.827146083905626e+000	 7.502466396967938e-001	 1.115804315256386e+001
 2.819760753934596e+000	 7.775437548385245e-001	 1.120383641765334e+001
 2.812091952722746e+000	 8.048377784053130e-001	 1.123813158832913e+001
 2.900750836838703e+000	 5.367910046231269e-001	 1.181400649822584e+001
 2.895544364503137e+000	 5.642010574817481e-001	 1.143810527250760e+001
 2.890062680332532e+000	 5.916398429978996e-001	 1.109293538012994e+001
 2.884304213234825e+000	 6.191035499758478e-001	 1.077867273869144e+001
 2.878267456226280e+000	 6.465883160933010e-001	 1.079311332673460e+001
 2.871950968092957e+000	 6.740902290879284e-001	 1.088715691650285e+001
 2.865353375031381e+000	 7.016053280013114e-001	 1.097350536880463e+001
 2.858473372266277e+000	 7.291296044801551e-001	 1.105005811233421e+001
 2.851309725643227e+000	 7.566590041345086e-001	 1.111477833617509e+001
 2.843861273194103e+000	 7.841894279526531e-001	 1.116570186024621e+001
 2.836126926673104e+000	 8.117167337722308e-001	 1.120094605724621e+001
 2.925333471042894e+000	 5.413400809327010e-001	 1.196767311769236e+001
 2.920082876060233e+000	 5.689824223741498e-001	 1.147543195118609e+001
 2.914554736938903e+000	 5.966537399703125e-001	 1.101747360901983e+001
 2.908747469272504e+000	 6.243501902271874e-001	 1.059400557822364e+001
 2.902659553306250e+000	 6.520678780909385e-001	 1.070050549895688e+001
 2.896289535612524e+000	 6.798028581444706e-001	 1.081122112266059e+001
 2.889636030745451e+000	 7.075511358619215e-001	 1.091129703393418e+001
 2.882697722872335e+000	 7.353086689209013e-001	 1.099831322674127e+001
 2.875473367379827e+000	 7.630713685722234e-001	 1.106991453345485e+001
 2.867961792452610e+000	 7.908351010667816e-001	 1.112381998852832e+001
 2.860161900622463e+000	 8.185956891391486e-001	 1.115783225051989e+001
 2.949916105246086e+000	 5.458891572422751e-001	 1.211721181538644e+001
 2.944621387616330e+000	 5.737637872665515e-001	 1.149617659313118e+001
 2.939046793544276e+000	 6.016676369427255e-001	 1.091314556487573e+001
 2.933190725309185e+000	 6.295968304785271e-001	 1.047865028066744e+001
 2.927051650385221e+000	 6.575474400885762e-001	 1.061503528753803e+001
 2.920628103131091e+000	 6.855154872010131e-001	 1.074060467963085e+001
 2.913918686458520e+000	 7.134969437225318e-001	 1.085256118161639e+001
 2.906922073477395e+000	 7.414877333616480e-001	 1.094816371435654e+001
 2.899637009115428e+000	 7.694837330099382e-001	 1.102473716776766e+001
 2.892062311710120e+000	 7.974807741809104e-001	 1.107968226298288e+001
 2.884196874570821e+000	 8.254746445060665e-001	 1.111048547974121e+001
 2.643847135042239e+000	 7.566850908368894e-001	 1.119520486321108e+001
 2.636369695231585e+000	 7.823393318852079e-001	 1.128203787037924e+001
 2.628623926816410e+000	 8.079828287179298e-001	 1.136071441185108e+001
 2.620609029790005e+000	 8.336116080664259e-001	 1.143112419879446e+001
 2.612324278282998e+000	 8.592216624358847e-001	 1.149325579875625e+001
 2.603769021827961e+000	 8.848089517299637e-001	 1.154720259081625e+001
 2.594942686584524e+000	 9.103694049237150e-001	 1.159316861745575e+001
 2.585844776523054e+000	 9.358989217837995e-001	 1.163147431287789e+001
 2.576474874564940e+000	 9.613933746349105e-001	 1.166256208730433e+001
 2.566832643677576e+000	 9.868486101712384e-001	 1.168700174662424e+001
 2.556917827922116e+000	 1.012260451311729e+000	 1.170549572669455e+001
 2.667882108999597e+000	 7.635640462038071e-001	 1.124488904741158e+001
 2.660336692463774e+000	 7.894515076254417e-001	 1.132984962208318e+001
 2.652520507972429e+000	 8.153281271568192e-001	 1.140602266096789e+001
 2.644432748246060e+000	 8.411898954086865e-001	 1.147314779283459e+001
 2.636072680816487e+000	 8.670327684544615e-001	 1.153106552900555e+001
 2.627439649302939e+000	 8.928526694696530e-001	 1.157972352971931e+001
 2.618533074648314e+000	 9.186454904199954e-001	 1.161918276756268e+001
 2.609352456313619e+000	 9.444070937973023e-001	 1.164962356696703e+001
 2.599897373428621e+000	 9.701333144019444e-001	 1.167135149853505e+001
 2.590167485896778e+000	 9.958199611707879e-001	 1.168480310680119e+001
 2.580162535452529e+000	 1.021462819049315e+000	 1.169055144994108e+001
 2.691917082955955e+000	 7.704430015707247e-001	 1.127749256467404e+001
 2.684303689694970e+000	 7.965636833656756e-001	 1.136075746371268e+001
 2.676417089127467e+000	 8.226734255957088e-001	 1.143452502126652e+001
 2.668256466701160e+000	 8.487681827509468e-001	 1.149838242193826e+001
 2.659821083349055e+000	 8.748438744730380e-001	 1.155201985108945e+001
 2.651110276777040e+000	 9.008963872093422e-001	 1.159523707843292e+001
 2.642123462711282e+000	 9.269215759162763e-001	 1.162794993899316e+001
 2.632860136103426e+000	 9.529152658108047e-001	 1.165019668967232e+001
 2.623319872291618e+000	 9.788732541689786e-001	 1.166214421941373e+001
 2.613502328115381e+000	 1.004791312170338e+000	 1.166409409077925e+001
 2.603407242982436e+000	 1.030665186786900e+000	 1.165648839065489e+001
 2.715952056911313e+000	 7.773219569376425e-001	 1.129452391229085e+001
 2.708270686925169e+000	 8.036758591059093e-001	 1.137640358945091e+001
 2.700313670281525e+000	 8.300187240345980e-001	 1.144799629151056e+001
 2.692080185155305e+000	 8.563464700932075e-001	 1.150873431540775e+001
 2.683569485880700e+000	 8.826549804916150e-001	 1.155815516948662e+001
 2.674780904250262e+000	 9.089401049490316e-001	 1.159590848044017e+001
 2.665713850773425e+000	 9.351976614125571e-001	 1.162176279786428e+001
 2.656367815892474e+000	 9.614234378243071e-001	 1.163561227388786e+001
 2.646742371153929e+000	 9.876131939360126e-001	 1.163748319508180e+001
 2.636837170333382e+000	 1.013762663169887e+000	 1.162754034365907e+001
 2.626651950511838e+000	 1.039867554524486e+000	 1.160609316486569e+001
 2.739987030865671e+000	 7.842009123045602e-001	 1.129752190891607e+001
 2.732237684154373e+000	 8.107880348461433e-001	 1.137845820788553e+001
 2.724210251434601e+000	 8.373640224734873e-001	 1.144823696962751e+001
 2.715903903608492e+000	 8.639247574354682e-001	 1.150613307913724e+001
 2.707317888411426e+000	 8.904660865101917e-001	 1.155152893633146e+001
 2.698451531722607e+000	 9.169838226887207e-001	 1.158392169256140e+001
 2.689304238834745e+000	 9.434737469088375e-001	 1.160293038492523e+001
 2.679875495680764e+000	 9.699316098378095e-001	 1.160830294505753e+001
 2.670164870015556e+000	 9.963531337030464e-001	 1.159992305879236e+001
 2.660172012550785e+000	 1.022734014169437e+000	 1.157781685289330e+001
 2.649896658040735e+000	 1.049069922262071e+000	 1.154215938491879e+001
 2.764022004819029e+000	 7.910798676714779e-001	 1.128805437624533e+001
 2.756204681382582e+000	 8.179002105863771e-001	 1.136861832399114e+001
 2.748106832586698e+000	 8.447093209123768e-001	 1.143707213535392e+001
 2.739727622060724e+000	 8.715030447777291e-001	 1.149253067923930e+001
 2.731066290941226e+000	 8.982771925287684e-001	 1.153421873629875e+001
 2.722122159194074e+000	 9.250275404284098e-001	 1.156147857133078e+001
 2.712894626895242e+000	 9.517498324051180e-001	 1.157377740361684e+001
 2.703383175468293e+000	 9.784397818513121e-001	 1.157071475106410e+001
 2.693587368876499e+000	 1.005093073470081e+000	 1.155202962373163e+001
 2.683506854767586e+000	 1.031705365168986e+000	 1.151760754209750e+001
 2.673141365569126e+000	 1.058272289999657e+000	 1.146748735528735e+001
 2.788056978771388e+000	 7.979588230383955e-001	 1.126771688888477e+001
 2.780171678609796e+000	 8.250123863266109e-001	 1.134860658411263e+001
 2.772003413737814e+000	 8.520546193512663e-001	 1.141635039067452e+001
 2.763551340511999e+000	 8.790813321199896e-001	 1.146990047824236e+001
 2.754814693470106e+000	 9.060882985473453e-001	 1.150832141882149e+001
 2.745792786664664e+000	 9.330712581680991e-001	 1.153079810145695e+001
 2.736485014954915e+000	 9.600259179013986e-001	 1.153664354495557e+001
 2.726890855255063e+000	 9.869479538648144e-001	 1.152530658367580e+001
 2.717009867736758e+000	 1.013833013237114e+000	 1.149637940112512e+001
 2.706841696983789e+000	 1.040676716168536e+000	 1.144960488587056e+001
 2.696386073097013e+000	 1.067474657737242e+000	 1.138488378411857e+001
 2.812091952722746e+000	 8.048377784053130e-001	 1.123813158832913e+001
 2.804138675836015e+000	 8.321245620668447e-001	 1.132017018017999e+001
 2.795899994887949e+000	 8.593999177901556e-001	 1.138794285459806e+001
 2.787375058962319e+000	 8.866596194622503e-001	 1.144023632071392e+001
 2.778563095998066e+000	 9.138994045659219e-001	 1.147595227481076e+001
 2.769463414134377e+000	 9.411149759077886e-001	 1.149411566384969e+001
 2.760075403013765e+000	 9.683020033976790e-001	 1.149388284703874e+001
 2.750398535041075e+000	 9.954561258783168e-001	 1.147454962966235e+001
 2.740432366596330e+000	 1.022572953004148e+000	 1.143555914305660e+001
 2.730176539199392e+000	 1.049648067168086e+000	 1.137650954436819e+001
 2.719630780624395e+000	 1.076677025474828e+000	 1.129716150957249e+001
 2.836126926673104e+000	 8.117167337722308e-001	 1.120094605724621e+001
 2.828105673061239e+000	 8.392367378070784e-001	 1.128507980964119e+001
 2.819796576037104e+000	 8.667452162290449e-001	 1.135374220904590e+001
 2.811198777411681e+000	 8.942379068045109e-001	 1.140555166537752e+001
 2.802311498525101e+000	 9.217105105844986e-001	 1.143924425523725e+001
 2.793134041603211e+000	 9.491586936474777e-001	 1.145368234086562e+001
 2.783665791071792e+000	 9.765780888939598e-001	 1.144786308711735e+001
 2.773906214826328e+000	 1.003964297891819e+000	 1.142092684982019e+001
 2.763854865455219e+000	 1.031312892771182e+000	 1.137216540853320e+001
 2.753511381414393e+000	 1.058619418167635e+000	 1.130103001645718e+001
 2.742875488151270e+000	 1.085879393212413e+000	 1.120713924007561e+001
 2.860161900622463e+000	 8.185956891391486e-001	 1.115783225051989e+001
 2.852072670285467e+000	 8.463489135473123e-001	 1.124512868783541e+001
 2.843693157185278e+000	 8.740905146679343e-001	 1.131566179284745e+001
 2.835022495860088e+000	 9.018161941467714e-001	 1.136787876098848e+001
 2.826059901051216e+000	 9.295216166030753e-001	 1.140034722911163e+001
 2.816804669071168e+000	 9.572024113871669e-001	 1.141176425658352e+001
 2.807256179128995e+000	 9.848541743902404e-001	 1.140096520432075e+001
 2.797413894610822e+000	 1.012472469905322e+000	 1.136693248426563e+001
 2.787277364313423e+000	 1.040052832538216e+000	 1.130880415142997e+001
 2.776846223628796e+000	 1.067590769167185e+000	 1.122588231035777e+001
 2.766120195677642e+000	 1.095081760949999e+000	 1.111764130767098e+001
 2.884196874570821e+000	 8.254746445060665e-001	 1.111048547974121e+001
 2.876039667508701e+000	 8.534610892875464e-001	 1.120213160974743e+001
 2.867589738332473e+000	 8.814358131068238e-001	 1.127563474103551e+001
 2.858846214307540e+000	 9.093944814890325e-001	 1.132926786341598e+001
 2.849808303576409e+000	 9.373327226216522e-001	 1.136142727856651e+001
 2.840475296538247e+000	 9.652461291268561e-001	 1.137064195006594e+001
 2.830846567185376e+000	 9.931302598865214e-001	 1.135558275124501e+001
 2.820921574394556e+000	 1.020980641918824e+000	 1.131507158246306e+001
 2.810699863170943e+000	 1.048792772305250e+000	 1.124809032903694e+001
 2.800181065842599e+000	 1.076562120166735e+000	 1.115378963075396e+001
 2.789364903203508e+000	 1.104284128687585e+000	 1.103149743370095e+001
 2.556917827922116e+000	 1.012260451311729e+000	 1.170549572669455e+001
 2.546730253452309e+000	 1.037624699097835e+000	 1.158595739111578e+001
 2.536269829462126e+000	 1.062937134632405e+000	 1.149130619734960e+001
 2.525536549080854e+000	 1.088193521057849e+000	 1.142386584892527e+001
 2.514530490214018e+000	 1.113389605572321e+000	 1.138609790091422e+001
 2.503251816328118e+000	 1.138521121482225e+000	 1.138060436777889e+001
 2.491700777177656e+000	 1.163583790289264e+000	 1.141622147575789e+001
 2.479877709472937e+000	 1.188573323810186e+000	 1.149054910866592e+001
 2.467783037487111e+000	 1.213485426327355e+000	 1.160201773892391e+001
 2.455417273601035e+000	 1.238315796768148e+000	 1.175152781888996e+001
 2.442781018784593e+000	 1.263060130911157e+000	 1.181820025249051e+001
 2.580162535452529e+000	 1.021462819049315e+000	 1.169055144994108e+001
 2.569882346669243e+000	 1.047057650906575e+000	 1.158784173409451e+001
 2.559326827915428e+000	 1.072600199491755e+000	 1.150757338602722e+001
 2.548495972257905e+000	 1.098086189430378e+000	 1.145198342119780e+001
 2.537389858310435e+000	 1.123511329258761e+000	 1.142345241750699e+001
 2.526008651025578e+000	 1.148871313495186e+000	 1.142450737738801e+001
 2.514352602428330e+000	 1.174161824745914e+000	 1.145782427325197e+001
 2.502422052289999e+000	 1.199378535844211e+000	 1.152623025866442e+001
 2.490217428740764e+000	 1.224517112020460e+000	 1.163954306273719e+001
 2.477739248819490e+000	 1.249573213101379e+000	 1.179219659050808e+001
 2.464988118959423e+000	 1.274542495736273e+000	 1.178212814917115e+001
 2.603407242982436e+000	 1.030665186786900e+000	 1.165648839065489e+001
 2.593034439885761e+000	 1.056490602715315e+000	 1.157071272644309e+001
 2.582383826368383e+000	 1.082263264351105e+000	 1.150484607981813e+001
 2.571455395434662e+000	 1.107978857802907e+000	 1.146103729060364e+001
 2.560249226406592e+000	 1.133633052945201e+000	 1.144158461044942e+001
 2.548765485722786e+000	 1.159221505508146e+000	 1.144893882409408e+001
 2.537004427678744e+000	 1.184739859202564e+000	 1.148570604508181e+001
 2.524966395106772e+000	 1.210183747878236e+000	 1.155465016752438e+001
 2.512651819994080e+000	 1.235548797713565e+000	 1.165869495610668e+001
 2.500061224037538e+000	 1.260830629434609e+000	 1.172994366340759e+001
 2.487195219133758e+000	 1.286024860561388e+000	 1.173818062198938e+001
 2.626651950511838e+000	 1.039867554524486e+000	 1.160609316486569e+001
 2.616186533101865e+000	 1.065923554524055e+000	 1.153745464551512e+001
 2.605440824820995e+000	 1.091926329210455e+000	 1.148610404819052e+001
 2.594414818611126e+000	 1.117871526175435e+000	 1.145410048457933e+001
 2.583108594502486e+000	 1.143754776631642e+000	 1.144365846772806e+001
 2.571522320419746e+000	 1.169571697521107e+000	 1.145715129750202e+001
 2.559656252928899e+000	 1.195317893659214e+000	 1.149711411139800e+001
 2.547510737923258e+000	 1.220988959912260e+000	 1.156624658150163e+001
 2.535086211247058e+000	 1.246580483406670e+000	 1.166741523899966e+001
 2.522383199255180e+000	 1.272088045767840e+000	 1.168278061407679e+001
 2.509402319307596e+000	 1.297507225386504e+000	 1.169555943923353e+001
 2.649896658040735e+000	 1.049069922262071e+000	 1.154215938491879e+001
 2.639338626317554e+000	 1.075356506332795e+000	 1.149095717428135e+001
 2.628497823273262e+000	 1.101589394069805e+000	 1.145433088755588e+001
 2.617374241787298e+000	 1.127764194547964e+000	 1.143424829164276e+001
 2.605967962598117e+000	 1.153876500318082e+000	 1.143283868614827e+001
 2.594279155116453e+000	 1.179921889534068e+000	 1.145239655815819e+001
 2.582308078178795e+000	 1.205895928115864e+000	 1.149538489306219e+001
 2.570055080739456e+000	 1.231794171946284e+000	 1.156443812140567e+001
 2.557520602499700e+000	 1.257612169099775e+000	 1.163118223667245e+001
 2.544705174472415e+000	 1.283345462101070e+000	 1.164257361292052e+001
 2.531609419480937e+000	 1.308989590211620e+000	 1.166705932721402e+001
 2.673141365569126e+000	 1.058272289999657e+000	 1.146748735528735e+001
 2.662490719532829e+000	 1.084789458141534e+000	 1.143411516630296e+001
 2.651554821725185e+000	 1.111252458929155e+000	 1.141251385487994e+001
 2.640333664963176e+000	 1.137656862920493e+000	 1.140455816308508e+001
 2.628827330693487e+000	 1.163998224004522e+000	 1.141229064051579e+001
 2.617035989812912e+000	 1.190272081547028e+000	 1.143792557359620e+001
 2.604959903428432e+000	 1.216473962572514e+000	 1.148385256141982e+001
 2.592599423555366e+000	 1.242599383980309e+000	 1.155263971728243e+001
 2.579954993752005e+000	 1.268643854792879e+000	 1.158640072998928e+001
 2.567027149689245e+000	 1.294602878434300e+000	 1.160969506704284e+001
 2.553816519653783e+000	 1.320471955036735e+000	 1.164455213269415e+001
 2.696386073097013e+000	 1.067474657737242e+000	 1.138488378411857e+001
 2.685642812747688e+000	 1.094222409950274e+000	 1.136982842286116e+001
 2.674611820176765e+000	 1.120915523788505e+000	 1.136364370990018e+001
 2.663293088138761e+000	 1.147549531293021e+000	 1.136810961974788e+001
 2.651686698788596e+000	 1.174119947690962e+000	 1.138518035441266e+001
 2.639792824509119e+000	 1.200622273559988e+000	 1.141698855251880e+001
 2.627611728677810e+000	 1.227051997029165e+000	 1.146584913526192e+001
 2.615143766370987e+000	 1.253404596014333e+000	 1.152660989825403e+001
 2.602389385003972e+000	 1.279675540485985e+000	 1.155061773050248e+001
 2.589349124905668e+000	 1.305860294767531e+000	 1.158451114025958e+001
 2.576023619826133e+000	 1.331954319861851e+000	 1.162844331949405e+001
 2.719630780624395e+000	 1.076677025474828e+000	 1.129716150957249e+001
 2.708794905962132e+000	 1.103655361759014e+000	 1.130100148151622e+001
 2.697668818627999e+000	 1.130578588647855e+000	 1.131071456543485e+001
 2.686252511314053e+000	 1.157442199665550e+000	 1.132798416358066e+001
 2.674546066883441e+000	 1.184241671377402e+000	 1.135467447247190e+001
 2.662549659205076e+000	 1.210972465572949e+000	 1.139283497722619e+001
 2.650263553926928e+000	 1.237630031485815e+000	 1.144470457281469e+001
 2.637688109186321e+000	 1.264209808048358e+000	 1.148935458664421e+001
 2.624823776255603e+000	 1.290707226179089e+000	 1.152415483051076e+001
 2.611671100121684e+000	 1.317117711100762e+000	 1.156738201990549e+001
 2.598230719997987e+000	 1.343436684686967e+000	 1.161913110076230e+001
 2.742875488151270e+000	 1.085879393212413e+000	 1.120713924007561e+001
 2.731946999176162e+000	 1.113088313567753e+000	 1.123054341541763e+001
 2.720725817078891e+000	 1.140241653507206e+000	 1.125672374530300e+001
 2.709211934489051e+000	 1.167334868038079e+000	 1.128726519369578e+001
 2.697405434978026e+000	 1.194363395063842e+000	 1.132394023406149e+001
 2.685306493900782e+000	 1.221322657585909e+000	 1.136871363439611e+001
 2.672915379175788e+000	 1.248208065942465e+000	 1.142374685905146e+001
 2.660232452001367e+000	 1.275015020082382e+000	 1.146297036492196e+001
 2.647258167506898e+000	 1.301738911872195e+000	 1.150732913460070e+001
 2.633993075337294e+000	 1.328375127433993e+000	 1.155866217007506e+001
 2.620437820169345e+000	 1.354919049512082e+000	 1.161700674620789e+001
 2.766120195677642e+000	 1.095081760949999e+000	 1.111764130767098e+001
 2.755099092389776e+000	 1.122521265376493e+000	 1.116136764273311e+001
 2.743782815529437e+000	 1.149904718366555e+000	 1.120467164940881e+001
 2.732171357663757e+000	 1.177227536410608e+000	 1.124903792665557e+001
 2.720264803072348e+000	 1.204485118750283e+000	 1.129614544829569e+001
 2.708063328596238e+000	 1.231672849598870e+000	 1.134787264431143e+001
 2.695567204424388e+000	 1.258786100399115e+000	 1.140057413964393e+001
 2.682776794816125e+000	 1.285820232116407e+000	 1.144773334293793e+001
 2.669692558757854e+000	 1.312770597565299e+000	 1.150045344820602e+001
 2.656315050552499e+000	 1.339632543767223e+000	 1.155870057209482e+001
 2.642644920340206e+000	 1.366401414337198e+000	 1.162245487384127e+001
 2.789364903203508e+000	 1.104284128687585e+000	 1.103149743370095e+001
 2.778251185602976e+000	 1.131954217185233e+000	 1.109639174560618e+001
 2.766839813979641e+000	 1.159567783225906e+000	 1.115756162557105e+001
 2.755130780838170e+000	 1.187120204783136e+000	 1.121638932074531e+001
 2.743124171166409e+000	 1.214606842436723e+000	 1.127445847029559e+001
 2.730820163291444e+000	 1.242023041611831e+000	 1.133355948862671e+001
 2.718219029672730e+000	 1.269364134855765e+000	 1.138817306039223e+001
 2.705321137630596e+000	 1.296625444150432e+000	 1.144391665829997e+001
 2.692126950008475e+000	 1.323802283258404e+000	 1.150383645673884e+001
 2.678637025767297e+000	 1.350889960100454e+000	 1.156784095297183e+001
 2.664852020510573e+000	 1.377883779162314e+000	 1.163585372712853e+001
 2.442781018784593e+000	 1.263060130911157e+000	 1.181820025249051e+001
 2.429874963012998e+000	 1.287714123616817e+000	 1.183879908720364e+001
 2.416699885617485e+000	 1.312273471080953e+000	 1.185255736845863e+001
 2.403256655568767e+000	 1.336733873108761e+000	 1.185889072423971e+001
 2.389546231691873e+000	 1.361091035406278e+000	 1.185722276017735e+001
 2.375569662812050e+000	 1.385340671887671e+000	 1.184698551193419e+001
 2.361328087830620e+000	 1.409478506995771e+000	 1.182761988587982e+001
 2.346822735730043e+000	 1.433500278033387e+000	 1.179857608754277e+001
 2.332054925507497e+000	 1.457401737502925e+000	 1.175931403736177e+001
 2.317026066036402e+000	 1.481178655451782e+000	 1.170930377329196e+001
 2.301737655855408e+000	 1.504826821820936e+000	 1.164802583985613e+001
 2.464988118959423e+000	 1.274542495736273e+000	 1.178212814917115e+001
 2.451964735408257e+000	 1.299420615648048e+000	 1.180214503520289e+001
 2.438669884582033e+000	 1.324203229907142e+000	 1.181542752757751e+001
 2.425104443351200e+000	 1.348885999226073e+000	 1.182143668798914e+001
 2.411269379257375e+000	 1.373464590271839e+000	 1.181964185926252e+001
 2.397165750660582e+000	 1.397934677994195e+000	 1.180952106543646e+001
 2.382794706815789e+000	 1.422291947967267e+000	 1.179056139912145e+001
 2.368157487878027e+000	 1.446532098742073e+000	 1.176225939570673e+001
 2.353255424835356e+000	 1.470650844207406e+000	 1.172412139403034e+001
 2.338089939369135e+000	 1.494643915956548e+000	 1.167566388316132e+001
 2.322662543641093e+000	 1.518507065657215e+000	 1.161641383498091e+001
 2.487195219133758e+000	 1.286024860561388e+000	 1.173818062198938e+001
 2.474054507802924e+000	 1.311127107679275e+000	 1.175901368345135e+001
 2.460639883545905e+000	 1.336132988733313e+000	 1.177321232289528e+001
 2.446952231132881e+000	 1.361038125343341e+000	 1.178028253340901e+001
 2.432992526822060e+000	 1.385838145137323e+000	 1.177973889498208e+001
 2.418761838508240e+000	 1.410528684100595e+000	 1.177110492259143e+001
 2.404261325800040e+000	 1.435105388938584e+000	 1.175391340054377e+001
 2.389492240025056e+000	 1.459563919450516e+000	 1.172770670273690e+001
 2.374455924162235e+000	 1.483899950911571e+000	 1.169203709854365e+001
 2.359153812700872e+000	 1.508109176460913e+000	 1.164646704406162e+001
 2.343587431425777e+000	 1.532187309492996e+000	 1.159056945851198e+001
 2.509402319307596e+000	 1.297507225386504e+000	 1.169555943923353e+001
 2.496144280197001e+000	 1.322833599710497e+000	 1.170954930280244e+001
 2.482609882509102e+000	 1.348062747559464e+000	 1.172601864073757e+001
 2.468800018913809e+000	 1.373190251460564e+000	 1.173549786993576e+001
 2.454715674385928e+000	 1.398211700002727e+000	 1.173754632701571e+001
 2.440357926355026e+000	 1.423122690206871e+000	 1.173173254001036e+001
 2.425727944783373e+000	 1.447918829909723e+000	 1.171763450997742e+001
 2.410826992171133e+000	 1.472595740158717e+000	 1.169483997759559e+001
 2.395656423488133e+000	 1.497149057615417e+000	 1.166294667453916e+001
 2.380217686031613e+000	 1.521574436964875e+000	 1.162156255946788e+001
 2.364512319209461e+000	 1.545867553328280e+000	 1.157030603851208e+001
 2.531609419480937e+000	 1.308989590211620e+000	 1.166705932721402e+001
 2.518234052590487e+000	 1.334540091741714e+000	 1.167417706509691e+001
 2.504579881471621e+000	 1.359992506385595e+000	 1.167838289006934e+001
 2.490647806693987e+000	 1.385342377577744e+000	 1.168714773299404e+001
 2.476438821948977e+000	 1.410585254868052e+000	 1.169309326606030e+001
 2.461954014200937e+000	 1.435716696313024e+000	 1.169139724498638e+001
 2.447194563765786e+000	 1.460732270880685e+000	 1.168168243164057e+001
 2.432161744316254e+000	 1.485627560866675e+000	 1.166358148078490e+001
 2.416856922813053e+000	 1.510398164318945e+000	 1.163673713719880e+001
 2.401281559361361e+000	 1.535039697468434e+000	 1.160080241666417e+001
 2.385437206992146e+000	 1.559547797163067e+000	 1.155544077078667e+001
 2.553816519653783e+000	 1.320471955036735e+000	 1.164455213269415e+001
 2.540323824983382e+000	 1.346246583772926e+000	 1.164925535498177e+001
 2.526549880433464e+000	 1.371922265211707e+000	 1.165094700582187e+001
 2.512495594473411e+000	 1.397494503694878e+000	 1.164944536353532e+001
 2.498161969511209e+000	 1.422958809733298e+000	 1.164640561943799e+001
 2.483550102045977e+000	 1.448310702419053e+000	 1.165009032807353e+001
 2.468661182747280e+000	 1.473545711851467e+000	 1.164601399394821e+001
 2.453496496460421e+000	 1.498659381574389e+000	 1.163385375167085e+001
 2.438057422136992e+000	 1.523647271022156e+000	 1.161329692839924e+001
 2.422345432690113e+000	 1.548504957971591e+000	 1.158404117005642e+001
 2.406362094773829e+000	 1.573228040997356e+000	 1.154579455072116e+001
 2.576023619826133e+000	 1.331954319861851e+000	 1.162844331949405e+001
 2.562413597375686e+000	 1.357953075804133e+000	 1.163202418074450e+001
 2.548519879394631e+000	 1.383852024037798e+000	 1.163248014952339e+001
 2.534343382252085e+000	 1.409646629811968e+000	 1.162966937162238e+001
 2.519885117072623e+000	 1.435332364598465e+000	 1.162347100106818e+001
 2.505146189890143e+000	 1.460904708524959e+000	 1.161378568949085e+001
 2.490127801727858e+000	 1.486359152822072e+000	 1.161058518726210e+001
 2.474831248603635e+000	 1.511691202281862e+000	 1.160557959646352e+001
 2.459257921459952e+000	 1.536896377725050e+000	 1.159251585521628e+001
 2.443409306017870e+000	 1.561970218474346e+000	 1.157113583052053e+001
 2.427286982554514e+000	 1.586908284831148e+000	 1.154119181381618e+001
 2.598230719997987e+000	 1.343436684686967e+000	 1.161913110076230e+001
 2.584503369767397e+000	 1.369659567835335e+000	 1.162285303467885e+001
 2.570489878355120e+000	 1.395781782863870e+000	 1.162332306115242e+001
 2.556191170030005e+000	 1.421798755929014e+000	 1.162043854545744e+001
 2.541608264633220e+000	 1.447705919463553e+000	 1.161411858727545e+001
 2.526742277733436e+000	 1.473498714630740e+000	 1.160430447808053e+001
 2.511594420707515e+000	 1.499172593792499e+000	 1.159096011673545e+001
 2.496166000745893e+000	 1.524723022989091e+000	 1.157868207681350e+001
 2.480458420781933e+000	 1.550145484427626e+000	 1.157428503158322e+001
 2.464473179344633e+000	 1.575435478976698e+000	 1.156194576042497e+001
 2.448211870334198e+000	 1.600588528664443e+000	 1.154146038440078e+001
 2.620437820169345e+000	 1.354919049512082e+000	 1.161700674620789e+001
 2.606593142158518e+000	 1.381366059866532e+000	 1.162210550401560e+001
 2.592459877314934e+000	 1.407711541689923e+000	 1.162381161099343e+001
 2.578038957807174e+000	 1.433950882046016e+000	 1.162206101665817e+001
 2.563331412193000e+000	 1.460079474328562e+000	 1.161681214257726e+001
 2.548338365575856e+000	 1.486092720736399e+000	 1.160804630848572e+001
 2.533061039686253e+000	 1.511986034762747e+000	 1.159576811494202e+001
 2.517500752887198e+000	 1.537754843696077e+000	 1.158000578095631e+001
 2.501658920102934e+000	 1.563394591129884e+000	 1.156081143512724e+001
 2.485537052670400e+000	 1.588900739478647e+000	 1.155633257399140e+001
 2.469136758112883e+000	 1.614268772497240e+000	 1.154643133203777e+001
 2.642644920340206e+000	 1.366401414337198e+000	 1.162245487384127e+001
 2.628682914549048e+000	 1.393072551897724e+000	 1.163013951903477e+001
 2.614429876274071e+000	 1.419641300515955e+000	 1.163427700424595e+001
 2.599886745583592e+000	 1.446103008162973e+000	 1.163484124026598e+001
 2.585054559751962e+000	 1.472453029193492e+000	 1.163182935920956e+001
 2.569934453417402e+000	 1.498686726841934e+000	 1.162526211006921e+001
 2.554527658664074e+000	 1.524799475732817e+000	 1.161518420912112e+001
 2.538835505027548e+000	 1.550786664402821e+000	 1.160166464363981e+001
 2.522859419422954e+000	 1.576643697831824e+000	 1.158479692748668e+001
 2.506600925995174e+000	 1.602365999980195e+000	 1.156469930725292e+001
 2.490061645890567e+000	 1.627949016329540e+000	 1.155593883516957e+001
 2.664852020510573e+000	 1.377883779162314e+000	 1.163585372712853e+001
 2.650772686938987e+000	 1.404779043928912e+000	 1.164730758877159e+001
 2.636399875232532e+000	 1.431571059341969e+000	 1.165504597540308e+001
 2.621734533359258e+000	 1.458255134279886e+000	 1.165908014793665e+001
 2.606777707310107e+000	 1.484826584058343e+000	 1.165944534966896e+001
 2.591530541258077e+000	 1.511280732947345e+000	 1.165620117196861e+001
 2.575994277640976e+000	 1.537612916702709e+000	 1.164943187311313e+001
 2.560170257166945e+000	 1.563818485109321e+000	 1.163924664875352e+001
 2.544059918741997e+000	 1.589892804533448e+000	 1.162577985259918e+001
 2.527664799318953e+000	 1.615831260481341e+000	 1.160919116603527e+001
 2.510986533667252e+000	 1.641629260161343e+000	 1.158966571551143e+001
 2.301737655855408e+000	 1.504826821820936e+000	 1.164802583985613e+001
 2.286191282884384e+000	 1.528342048794389e+000	 1.166334608322637e+001
 2.270388624067453e+000	 1.551720173146155e+000	 1.167465901340854e+001
 2.254331444942703e+000	 1.574957058582615e+000	 1.168190235435313e+001
 2.238021599138304e+000	 1.598048598078016e+000	 1.168501917343112e+001
 2.221461027795396e+000	 1.620990716199806e+000	 1.168395770124758e+001
 2.204651758917846e+000	 1.643779371421331e+000	 1.167867114235712e+001
 2.187595906649108e+000	 1.666410558419238e+000	 1.166911747759889e+001
 2.170295670476613e+000	 1.688880310352928e+000	 1.165525925879459e+001
 2.152753334364160e+000	 1.711184701123380e+000	 1.163706339657824e+001
 2.134971265812936e+000	 1.733319847608720e+000	 1.161450094214740e+001
 2.322662543641093e+000	 1.518507065657215e+000	 1.161641383498091e+001
 2.306974840006722e+000	 1.542236067422203e+000	 1.164377283008481e+001
 2.291028520655076e+000	 1.565826720177869e+000	 1.166498302211785e+001
 2.274825367174592e+000	 1.589274850027924e+000	 1.167993153635957e+001
 2.258367250044602e+000	 1.612576312610017e+000	 1.168851264395091e+001
 2.241656128052988e+000	 1.635726995442207e+000	 1.169062763658827e+001
 2.224694047640011e+000	 1.658722820256689e+000	 1.168618469000376e+001
 2.207483142168612e+000	 1.681559745318081e+000	 1.167509871685764e+001
 2.190025631121565e+000	 1.704233767723595e+000	 1.165729120969919e+001
 2.172323819225973e+000	 1.726740925682399e+000	 1.163269007468265e+001
 2.154380095505764e+000	 1.749077300771513e+000	 1.160122945674814e+001
 2.343587431425777e+000	 1.532187309492996e+000	 1.159056945851198e+001
 2.327758397128064e+000	 1.556130086049429e+000	 1.162867033649209e+001
 2.311668417241718e+000	 1.579933267208925e+000	 1.165851525696350e+001
 2.295319289405525e+000	 1.603592641472524e+000	 1.167994163542103e+001
 2.278712900949981e+000	 1.627104027141278e+000	 1.169279581704669e+001
 2.261851228309703e+000	 1.650463274683859e+000	 1.169693300523681e+001
 2.244736336361354e+000	 1.673666269091308e+000	 1.169221717681591e+001
 2.227370377687361e+000	 1.696708932216214e+000	 1.167852098447421e+001
 2.209755591765835e+000	 1.719587225093601e+000	 1.165572564700003e+001
 2.191894304087190e+000	 1.742297150240827e+000	 1.162372082791195e+001
 2.173788925198088e+000	 1.764834753933805e+000	 1.158240450312546e+001
 2.364512319209461e+000	 1.545867553328280e+000	 1.157030603851208e+001
 2.348541954248410e+000	 1.570024104676068e+000	 1.161788553384884e+001
 2.332308313827381e+000	 1.594039814239324e+000	 1.165513533091928e+001
 2.315813211635502e+000	 1.617910432916416e+000	 1.168184400772557e+001
 2.299058551854437e+000	 1.641631741671800e+000	 1.169781083769151e+001
 2.282046328565542e+000	 1.665199553924760e+000	 1.170284577099074e+001
 2.264778625081876e+000	 1.688609717925187e+000	 1.169676940047842e+001
 2.247257613205353e+000	 1.711858119113636e+000	 1.167941291267567e+001
 2.229485552409424e+000	 1.734940682462945e+000	 1.165061802429538e+001
 2.211464788947810e+000	 1.757853374798664e+000	 1.161023690483514e+001
 2.193197754889913e+000	 1.780592207095596e+000	 1.155813208579689e+001
 2.385437206992146e+000	 1.559547797163067e+000	 1.155544077078667e+001
 2.369325511367762e+000	 1.583918123302120e+000	 1.161126796422553e+001
 2.352948210412062e+000	 1.608146361269064e+000	 1.165472424334896e+001
 2.336307133864524e+000	 1.632228224359600e+000	 1.168555020504368e+001
 2.319404202757974e+000	 1.656159456201584e+000	 1.170349888976690e+001
 2.302241428820505e+000	 1.679935833164913e+000	 1.170833581465816e+001
 2.284820913801577e+000	 1.703553166758325e+000	 1.169983898918696e+001
 2.267144848722589e+000	 1.727007306010347e+000	 1.167779891370027e+001
 2.249215513052332e+000	 1.750294139831629e+000	 1.164201856127696e+001
 2.231035273807834e+000	 1.773409599355910e+000	 1.159231334333792e+001
 2.212606584581236e+000	 1.796349660256885e+000	 1.152851105949889e+001
 2.406362094773829e+000	 1.573228040997356e+000	 1.154579455072116e+001
 2.390109068486118e+000	 1.597812141927584e+000	 1.160866966685506e+001
 2.373588106995765e+000	 1.622252908298146e+000	 1.165716431972822e+001
 2.356801056092591e+000	 1.646546015802075e+000	 1.169097196622468e+001
 2.339749853660591e+000	 1.670687170730628e+000	 1.170980023784970e+001
 2.322436529074593e+000	 1.694672112404316e+000	 1.171337102462248e+001
 2.304863202520458e+000	 1.718496615590724e+000	 1.170142053945178e+001
 2.287032084239069e+000	 1.742156492906349e+000	 1.167369936327541e+001
 2.268945473694559e+000	 1.765647597199652e+000	 1.162997247129111e+001
 2.250605758667262e+000	 1.788965823912565e+000	 1.157001924065258e+001
 2.232015414272057e+000	 1.812107113417673e+000	 1.149363344004668e+001
 2.427286982554514e+000	 1.586908284831148e+000	 1.154119181381618e+001
 2.410892625603480e+000	 1.611706160552461e+000	 1.160994507049637e+001
 2.394228003578486e+000	 1.636359455326572e+000	 1.166233915448488e+001
 2.377294978319703e+000	 1.660863807243842e+000	 1.169802120913297e+001
 2.360095504562287e+000	 1.685214885258934e+000	 1.171665426683703e+001
 2.342631629327805e+000	 1.709408391642969e+000	 1.171791738272277e+001
 2.324905491238517e+000	 1.733440064422382e+000	 1.170150574677389e+001
 2.306919319754793e+000	 1.757305679801639e+000	 1.166713077460512e+001
 2.288675434336104e+000	 1.781001054567014e+000	 1.161452017712960e+001
 2.270176243526094e+000	 1.804522048468628e+000	 1.154341800942056e+001
 2.251424243962378e+000	 1.827864566577960e+000	 1.145358469911536e+001
 2.448211870334198e+000	 1.600588528664443e+000	 1.154146038440078e+001
 2.431676182719846e+000	 1.625600179176749e+000	 1.161495089131806e+001
 2.414867900160228e+000	 1.650466002354339e+000	 1.167013355677010e+001
 2.397788900545858e+000	 1.675181598684901e+000	 1.170661002299791e+001
 2.380441155463061e+000	 1.699742599786501e+000	 1.172399951953965e+001
 2.362826729580142e+000	 1.724144670880873e+000	 1.172193904573004e+001
 2.344947779955756e+000	 1.748383513253301e+000	 1.170008352961970e+001
 2.326806555269760e+000	 1.772454866696219e+000	 1.165810596343520e+001
 2.308405394976968e+000	 1.796354511933715e+000	 1.159569751575404e+001
 2.289746728384329e+000	 1.820078273024100e+000	 1.151256762062371e+001
 2.270833073652197e+000	 1.843622019737746e+000	 1.140844404390419e+001
 2.469136758112883e+000	 1.614268772497240e+000	 1.154643133203777e+001
 2.452459739835218e+000	 1.639494197800451e+000	 1.162354603597411e+001
 2.435507796740989e+000	 1.664572549381447e+000	 1.168043349898701e+001
 2.418282822771060e+000	 1.689499390125252e+000	 1.171665066115238e+001
 2.400786806362917e+000	 1.714270314313329e+000	 1.173177373236341e+001
 2.383021829831603e+000	 1.738880950118027e+000	 1.172539842268071e+001
 2.364990068672173e+000	 1.763326962083479e+000	 1.169714014709218e+001
 2.346693790783973e+000	 1.787604053590088e+000	 1.164663420472502e+001
 2.328135355617151e+000	 1.811707969299755e+000	 1.157353593261086e+001
 2.309317213241968e+000	 1.835634497578981e+000	 1.147752083416294e+001
 2.290241903341514e+000	 1.859379472897029e+000	 1.135828468258033e+001
 2.490061645890567e+000	 1.627949016329540e+000	 1.155593883516957e+001
 2.473243296949594e+000	 1.653388216423565e+000	 1.163559150956679e+001
 2.456147693320770e+000	 1.678679096407899e+000	 1.169312606791459e+001
 2.438776744995305e+000	 1.703817181564894e+000	 1.172805553413797e+001
 2.421132457261850e+000	 1.728798028839418e+000	 1.173991386919194e+001
 2.403216930082187e+000	 1.753617229354432e+000	 1.172825624831065e+001
 2.385032357387770e+000	 1.778270410912917e+000	 1.169265931066857e+001
 2.366581026297427e+000	 1.802753240483247e+000	 1.163272138142036e+001
 2.347865316256653e+000	 1.827061426665134e+000	 1.154806266614870e+001
 2.328887698099011e+000	 1.851190722133270e+000	 1.143832541781150e+001
 2.309650733030330e+000	 1.875136926055812e+000	 1.130390966278622e+001
 2.510986533667252e+000	 1.641629260161343e+000	 1.158966571551143e+001
 2.494026854062975e+000	 1.667282235046092e+000	 1.165095032821126e+001
 2.476787589899573e+000	 1.692785643433693e+000	 1.170809941827540e+001
 2.459270667218596e+000	 1.718134973003828e+000	 1.174073720315434e+001
 2.441478108159864e+000	 1.743325743364768e+000	 1.174835615357497e+001
 2.423412030331897e+000	 1.768353508590087e+000	 1.173047165281789e+001
 2.405074646102547e+000	 1.793213859741615e+000	 1.168662229035166e+001
 2.386468261810128e+000	 1.817902427375695e+000	 1.161637012578696e+001
 2.367595276895474e+000	 1.842414884029852e+000	 1.151930092310996e+001
 2.348458182955458e+000	 1.866746946686970e+000	 1.139502435522001e+001
 2.329059562718645e+000	 1.890894379214094e+000	 1.132775564411803e+001
 2.134971265812936e+000	 1.733319847608720e+000	 1.161450094214740e+001
 2.116951914852261e+000	 1.755281911873847e+000	 1.168374477539909e+001
 2.098697812959695e+000	 1.777067103351779e+000	 1.172268708370618e+001
 2.080211571912335e+000	 1.798671680993865e+000	 1.173084300674411e+001
 2.061495882571019e+000	 1.820091955386313e+000	 1.170775422003940e+001
 2.042553513597452e+000	 1.841324290830751e+000	 1.165298923168355e+001
 2.023387310105893e+000	 1.862365107386282e+000	 1.156614364778754e+001
 2.004000192250767e+000	 1.883210882870655e+000	 1.150760283598194e+001
 1.984395153751670e+000	 1.903858154818206e+000	 1.151175419907098e+001
 1.964575260357303e+000	 1.924303522392291e+000	 1.148687515733027e+001
 1.944543648250000e+000	 1.944543648250000e+000	 1.143344862201284e+001
 2.154380095505764e+000	 1.749077300771513e+000	 1.160122945674814e+001
 2.136196932263273e+000	 1.771239020165651e+000	 1.164985486185867e+001
 2.117776883989519e+000	 1.793222258838262e+000	 1.166983291174115e+001
 2.099122586205026e+000	 1.815023241731164e+000	 1.166073995010925e+001
 2.080236754233004e+000	 1.836638245890440e+000	 1.162217735156112e+001
 2.061122181904812e+000	 1.858063602565916e+000	 1.155377174453122e+001
 2.041781740199380e+000	 1.879295699271775e+000	 1.148499185689703e+001
 2.022218375817995e+000	 1.900330981805929e+000	 1.150421993256161e+001
 2.002435109695884e+000	 1.921165956225753e+000	 1.149569074702139e+001
 1.982435035452192e+000	 1.941797190777907e+000	 1.145990667801323e+001
 1.962221317780000e+000	 1.962221317780000e+000	 1.139742488006801e+001
 2.173788925198088e+000	 1.764834753933805e+000	 1.158240450312546e+001
 2.155441949673878e+000	 1.787196128457048e+000	 1.161203201265247e+001
 2.136855955019020e+000	 1.809377414324423e+000	 1.161463498091298e+001
 2.118033600497471e+000	 1.831374802468217e+000	 1.158985032781172e+001
 2.098977625894810e+000	 1.853184536394388e+000	 1.153733851663130e+001
 2.079690850212046e+000	 1.874802914300954e+000	 1.145678370364216e+001
 2.060176170292788e+000	 1.896226291157187e+000	 1.148821962468045e+001
 2.040436559385178e+000	 1.917451080741156e+000	 1.149430481598615e+001
 2.020475065640079e+000	 1.938473757633280e+000	 1.147427007944780e+001
 2.000294810547076e+000	 1.959290859163518e+000	 1.142869231623419e+001
 1.979898987310000e+000	 1.979898987310000e+000	 1.135820294037261e+001
 2.193197754889913e+000	 1.780592207095596e+000	 1.155813208579689e+001
 2.174686967084077e+000	 1.803153236748038e+000	 1.157033859661556e+001
 2.155935026048202e+000	 1.825532569810264e+000	 1.155711291651166e+001
 2.136944614789670e+000	 1.847726363205024e+000	 1.151815193714343e+001
 2.117718497556434e+000	 1.869730826898153e+000	 1.145317462294226e+001
 2.098259518519155e+000	 1.891542226035867e+000	 1.146537841175740e+001
 2.078570600386115e+000	 1.913156883042519e+000	 1.148466075189712e+001
 2.058654742952317e+000	 1.934571179676340e+000	 1.147880165619965e+001
 2.038515021584253e+000	 1.955781559040786e+000	 1.144839676513754e+001
 2.018154585641954e+000	 1.976784527549124e+000	 1.139409747494932e+001
 1.997576656840000e+000	 1.997576656840000e+000	 1.131660949949600e+001
 2.212606584581236e+000	 1.796349660256885e+000	 1.152851105949889e+001
 2.193931984493869e+000	 1.819110345038622e+000	 1.152483129472564e+001
 2.175014097077062e+000	 1.841687725295783e+000	 1.149728208799849e+001
 2.155855629081623e+000	 1.864077923941585e+000	 1.144561972097111e+001
 2.136459369217878e+000	 1.886277117401738e+000	 1.143686066718279e+001
 2.116828186826138e+000	 1.908281537770655e+000	 1.146823946184644e+001
 2.096965030479361e+000	 1.930087474927769e+000	 1.147530057984964e+001
 2.076872926519410e+000	 1.951691278611478e+000	 1.145865705413602e+001
 2.056554977528407e+000	 1.973089360448274e+000	 1.141897904185653e+001
 2.036014360736829e+000	 1.994278195934725e+000	 1.135699242948274e+001
 2.015254326370000e+000	 2.015254326370001e+000	 1.127347729457619e+001
 2.232015414272057e+000	 1.812107113417673e+000	 1.149363344004668e+001
 2.213177001903255e+000	 1.835067453328800e+000	 1.147556134740097e+001
 2.194093168105600e+000	 1.857842880780981e+000	 1.143515379404196e+001
 2.174766643373330e+000	 1.880429484677900e+000	 1.140336992861074e+001
 2.155200240879140e+000	 1.902823407905142e+000	 1.144605860729846e+001
 2.135396855132995e+000	 1.925020849505317e+000	 1.146510090136298e+001
 2.115359460572527e+000	 1.947018066812940e+000	 1.146112555846092e+001
 2.095091110086457e+000	 1.968811377546571e+000	 1.143481993602355e+001
 2.074594933472542e+000	 1.990397161855740e+000	 1.138692865682843e+001
 2.053874135831698e+000	 2.011771864320321e+000	 1.131825211568434e+001
 2.032931995899999e+000	 2.032931995899999e+000	 1.122964484068621e+001
 2.251424243962378e+000	 1.827864566577960e+000	 1.145358469911536e+001
 2.232422019312235e+000	 1.851024561618572e+000	 1.142257478900743e+001
 2.213172239133817e+000	 1.873998036265857e+000	 1.137073543798304e+001
 2.193677657664791e+000	 1.896781045413970e+000	 1.141867270465637e+001
 2.173941112540222e+000	 1.919369698408366e+000	 1.144907094945341e+001
 2.153965523439727e+000	 1.941760161239853e+000	 1.145698689179639e+001
 2.133753890665613e+000	 1.963948658698031e+000	 1.144312319848899e+001
 2.113309293653459e+000	 1.985931476481618e+000	 1.140824145315691e+001
 2.092634889416656e+000	 2.007704963263187e+000	 1.135316071546497e+001
 2.071733910926561e+000	 2.029265532705912e+000	 1.127875592904505e+001
 2.050609665430000e+000	 2.050609665430000e+000	 1.118595618178530e+001
 2.270833073652197e+000	 1.843622019737746e+000	 1.140844404390419e+001
 2.251667036720809e+000	 1.866981669907937e+000	 1.136591267033938e+001
 2.232251310161714e+000	 1.890153191750413e+000	 1.138617410956308e+001
 2.212588671956006e+000	 1.913132606149792e+000	 1.142761361054957e+001
 2.192681984201123e+000	 1.935915988911408e+000	 1.144695747435580e+001
 2.172534191746333e+000	 1.958499472974264e+000	 1.144492146643238e+001
 2.152148320758619e+000	 1.980879250583041e+000	 1.142228202619193e+001
 2.131527477220416e+000	 2.003051575416620e+000	 1.137987488680874e+001
 2.110674845360750e+000	 2.025012764670613e+000	 1.131859353785361e+001
 2.089593686021420e+000	 2.046759201091498e+000	 1.123938753411383e+001
 2.068287334960000e+000	 2.068287334960000e+000	 1.114326065444175e+001
 2.290241903341514e+000	 1.859379472897029e+000	 1.135828468258033e+001
 2.270912054128976e+000	 1.882938778196897e+000	 1.134819489917428e+001
 2.251330381189289e+000	 1.906308347234647e+000	 1.140066750739080e+001
 2.231499686246975e+000	 1.929484166885369e+000	 1.143128599829374e+001
 2.211422855861843e+000	 1.952462279414270e+000	 1.144077671726111e+001
 2.191102860052814e+000	 1.975238784708548e+000	 1.142992853578533e+001
 2.170542750851544e+000	 1.997809842467970e+000	 1.139959154029842e+001
 2.149745660787329e+000	 2.020171674351577e+000	 1.135067555797628e+001
 2.128714801304825e+000	 2.042320566078019e+000	 1.128414852254246e+001
 2.107453461116274e+000	 2.064252869477079e+000	 1.120103468360550e+001
 2.085965004490000e+000	 2.085965004490000e+000	 1.110241266356968e+001
 2.309650733030330e+000	 1.875136926055812e+000	 1.130390966278622e+001
 2.290157071536736e+000	 1.898895886485449e+000	 1.136770908939847e+001
 2.270409452216543e+000	 1.922463502718561e+000	 1.140975480639562e+001
 2.250410700537698e+000	 1.945835727620701e+000	 1.143078092551422e+001
 2.230163727522383e+000	 1.969008569916951e+000	 1.143158602030204e+001
 2.209671528359169e+000	 1.991978096442708e+000	 1.141303189275677e+001
 2.188937180944389e+000	 2.014740434352820e+000	 1.137604217114750e+001
 2.167963844354195e+000	 2.037291773286488e+000	 1.132160074167894e+001
 2.146754757248878e+000	 2.059628367485406e+000	 1.125075001719321e+001
 2.125313236211122e+000	 2.081746537862655e+000	 1.116458904662904e+001
 2.103642674020000e+000	 2.103642674020000e+000	 1.106427146947350e+001
 2.329059562718645e+000	 1.890894379214094e+000	 1.132775564411803e+001
 2.309402088944092e+000	 1.914852994773596e+000	 1.138168219610830e+001
 2.289488523243476e+000	 1.938618658202153e+000	 1.141455764744982e+001
 2.269321714828176e+000	 1.962187288355787e+000	 1.142718725105714e+001
 2.248904599182743e+000	 1.985554860419452e+000	 1.142044158220189e+001
 2.228240196665399e+000	 2.008717408176742e+000	 1.139525521753596e+001
 2.207331611037154e+000	 2.031671026237589e+000	 1.135262524187150e+001
 2.186182027921018e+000	 2.054411872221356e+000	 1.129360958554028e+001
 2.164794713192912e+000	 2.076936168892772e+000	 1.121932519570141e+001
 2.143173011305967e+000	 2.099240206248227e+000	 1.113094604550437e+001
 2.121320343550000e+000	 2.121320343550000e+000	 1.102970098553982e+001
 1.944543648250000e+000	 1.944543648250000e+000	 1.143344862201284e+001
 1.924303522392292e+000	 1.964575260357303e+000	 1.136269408418171e+001
 1.903858154818207e+000	 1.984395153751669e+000	 1.129020776004981e+001
 1.883210882870656e+000	 2.004000192250766e+000	 1.121721507159529e+001
 1.862365107386283e+000	 2.023387310105892e+000	 1.115540871388142e+001
 1.841324290830752e+000	 2.042553513597451e+000	 1.109242410030012e+001
 1.820091955386314e+000	 2.061495882571018e+000	 1.102052298182037e+001
 1.798671680993865e+000	 2.080211571912334e+000	 1.094128241597885e+001
 1.777067103351780e+000	 2.098697812959694e+000	 1.085626840802066e+001
 1.755281911873849e+000	 2.116951914852261e+000	 1.076703316368551e+001
 1.733319847608720e+000	 2.134971265812937e+000	 1.067511239272425e+001
 1.962221317780000e+000	 1.962221317780000e+000	 1.139742488006801e+001
 1.941797190777907e+000	 1.982435035452191e+000	 1.133526483317395e+001
 1.921165956225753e+000	 2.002435109695884e+000	 1.127187245947006e+001
 1.900330981805930e+000	 2.022218375817995e+000	 1.120847194744743e+001
 1.879295699271775e+000	 2.041781740199379e+000	 1.114631244913955e+001
 1.858063602565916e+000	 2.061122181904811e+000	 1.109046309602826e+001
 1.836638245890441e+000	 2.080236754233004e+000	 1.102859075737098e+001
 1.815023241731165e+000	 2.099122586205025e+000	 1.096007139035365e+001
 1.793222258838262e+000	 2.117776883989518e+000	 1.088647615387005e+001
 1.771239020165652e+000	 2.136196932263272e+000	 1.080936127282910e+001
 1.749077300771513e+000	 2.154380095505764e+000	 1.073026530969573e+001
 1.979898987310000e+000	 1.979898987310000e+000	 1.135820294037261e+001
 1.959290859163519e+000	 2.000294810547075e+000	 1.130345651620740e+001
 1.938473757633281e+000	 2.020475065640078e+000	 1.124794025247528e+001
 1.917451080741158e+000	 2.040436559385178e+000	 1.119287834849946e+001
 1.896226291157188e+000	 2.060176170292787e+000	 1.113952066565524e+001
 1.874802914300955e+000	 2.079690850212045e+000	 1.108912984030500e+001
 1.853184536394388e+000	 2.098977625894809e+000	 1.103596287136505e+001
 1.831374802468217e+000	 2.118033600497470e+000	 1.097684055614550e+001
 1.809377414324423e+000	 2.136855955019020e+000	 1.091334064565212e+001
 1.787196128457048e+000	 2.155441949673877e+000	 1.084702480922223e+001
 1.764834753933805e+000	 2.173788925198089e+000	 1.077943587217498e+001
 1.997576656840000e+000	 1.997576656840000e+000	 1.131660949949600e+001
 1.976784527549125e+000	 2.018154585641954e+000	 1.126811508456879e+001
 1.955781559040787e+000	 2.038515021584253e+000	 1.121927615065952e+001
 1.934571179676341e+000	 2.058654742952316e+000	 1.117131814893171e+001
 1.913156883042519e+000	 2.078570600386114e+000	 1.112549293942026e+001
 1.891542226035868e+000	 2.098259518519154e+000	 1.108307634693693e+001
 1.869730826898154e+000	 2.117718497556433e+000	 1.104238459320631e+001
 1.847726363205025e+000	 2.136944614789669e+000	 1.099135515051626e+001
 1.825532569810264e+000	 2.155935026048201e+000	 1.093664752406124e+001
 1.803153236748039e+000	 2.174686967084076e+000	 1.087983024963982e+001
 1.780592207095596e+000	 2.193197754889913e+000	 1.082245182197055e+001
 2.015254326370000e+000	 2.015254326370001e+000	 1.127347729457619e+001
 1.994278195934726e+000	 2.036014360736828e+000	 1.123009164580168e+001
 1.973089360448274e+000	 2.056554977528407e+000	 1.118674942589231e+001
 1.951691278611479e+000	 2.076872926519409e+000	 1.114467857598475e+001
 1.930087474927771e+000	 2.096965030479361e+000	 1.110513424158169e+001
 1.908281537770655e+000	 2.116828186826137e+000	 1.106939629451594e+001
 1.886277117401739e+000	 2.136459369217877e+000	 1.103876676700180e+001
 1.864077923941586e+000	 2.155855629081622e+000	 1.100338003142081e+001
 1.841687725295783e+000	 2.175014097077061e+000	 1.095618109395427e+001
 1.819110345038623e+000	 2.193931984493868e+000	 1.090758176989777e+001
 1.796349660256885e+000	 2.212606584581236e+000	 1.085913762679452e+001
 2.032931995899999e+000	 2.032931995899999e+000	 1.122964484068621e+001
 2.011771864320322e+000	 2.053874135831696e+000	 1.119024223952126e+001
 1.990397161855741e+000	 2.074594933472541e+000	 1.115123342508945e+001
 1.968811377546571e+000	 2.095091110086456e+000	 1.111385006417390e+001
 1.947018066812941e+000	 2.115359460572527e+000	 1.107935187246715e+001
 1.925020849505317e+000	 2.135396855132994e+000	 1.104902410076236e+001
 1.902823407905143e+000	 2.155200240879139e+000	 1.102417493054998e+001
 1.880429484677901e+000	 2.174766643373329e+000	 1.100613278568365e+001
 1.857842880780981e+000	 2.194093168105599e+000	 1.097172438243032e+001
 1.835067453328801e+000	 2.213177001903255e+000	 1.093008134489443e+001
 1.812107113417673e+000	 2.232015414272058e+000	 1.088931462261447e+001
 2.050609665430000e+000	 2.050609665430000e+000	 1.118595618178530e+001
 2.029265532705913e+000	 2.071733910926561e+000	 1.114942762482498e+001
 2.007704963263187e+000	 2.092634889416655e+000	 1.111360539456442e+001
 1.985931476481619e+000	 2.113309293653459e+000	 1.107972611704487e+001
 1.963948658698032e+000	 2.133753890665613e+000	 1.104905536118902e+001
 1.941760161239854e+000	 2.153965523439726e+000	 1.102288508738321e+001
 1.919369698408366e+000	 2.173941112540221e+000	 1.100253100269458e+001
 1.896781045413970e+000	 2.193677657664790e+000	 1.098932982951534e+001
 1.873998036265858e+000	 2.213172239133817e+000	 1.098305919390667e+001
 1.851024561618573e+000	 2.232422019312234e+000	 1.094712884347791e+001
 1.827864566577960e+000	 2.251424243962378e+000	 1.091280114864250e+001
 2.068287334960000e+000	 2.068287334960000e+000	 1.114326065444175e+001
 2.046759201091498e+000	 2.089593686021419e+000	 1.110851307860554e+001
 2.025012764670613e+000	 2.110674845360750e+000	 1.107474631338737e+001
 2.003051575416621e+000	 2.131527477220416e+000	 1.104320317601855e+001
 1.980879250583042e+000	 2.152148320758618e+000	 1.101515637039741e+001
 1.958499472974264e+000	 2.172534191746333e+000	 1.099190589622265e+001
 1.935915988911409e+000	 2.192681984201123e+000	 1.097477636190058e+001
 1.913132606149793e+000	 2.212588671956005e+000	 1.096511420815210e+001
 1.890153191750414e+000	 2.232251310161713e+000	 1.096428484954905e+001
 1.866981669907938e+000	 2.251667036720807e+000	 1.095852211844815e+001
 1.843622019737746e+000	 2.270833073652197e+000	 1.092941267540168e+001
 2.085965004490000e+000	 2.085965004490000e+000	 1.110241266356968e+001
 2.064252869477080e+000	 2.107453461116273e+000	 1.106836820411857e+001
 2.042320566078020e+000	 2.128714801304823e+000	 1.103554073521756e+001
 2.020171674351577e+000	 2.149745660787327e+000	 1.100518049590467e+001
 1.997809842467971e+000	 2.170542750851543e+000	 1.097856860587586e+001
 1.975238784708549e+000	 2.191102860052813e+000	 1.095701443332424e+001
 1.952462279414271e+000	 2.211422855861843e+000	 1.094185286360083e+001
 1.929484166885371e+000	 2.231499686246975e+000	 1.093444147576260e+001
 1.906308347234648e+000	 2.251330381189288e+000	 1.093615763438235e+001
 1.882938778196897e+000	 2.270912054128975e+000	 1.094839550428224e+001
 1.859379472897029e+000	 2.290241903341515e+000	 1.093896192628078e+001
 2.103642674020000e+000	 2.103642674020000e+000	 1.106427146947350e+001
 2.081746537862656e+000	 2.125313236211122e+000	 1.102986674920289e+001
 2.059628367485406e+000	 2.146754757248877e+000	 1.099687663811059e+001
 2.037291773286489e+000	 2.167963844354194e+000	 1.096656002669226e+001
 2.014740434352821e+000	 2.188937180944389e+000	 1.094020773069549e+001
 1.991978096442709e+000	 2.209671528359169e+000	 1.091913981581297e+001
 1.969008569916952e+000	 2.230163727522383e+000	 1.090470282015520e+001
 1.945835727620701e+000	 2.250410700537697e+000	 1.089826688170990e+001
 1.922463502718562e+000	 2.270409452216542e+000	 1.090122277831437e+001
 1.898895886485450e+000	 2.290157071536736e+000	 1.091497888796223e+001
 1.875136926055812e+000	 2.309650733030330e+000	 1.094095807753179e+001
 2.121320343550000e+000	 2.121320343550000e+000	 1.102970098553982e+001
 2.099240206248228e+000	 2.143173011305966e+000	 1.099388643358950e+001
 2.076936168892773e+000	 2.164794713192911e+000	 1.095964528183501e+001
 2.054411872221357e+000	 2.186182027921017e+000	 1.092824630125053e+001
 2.031671026237590e+000	 2.207331611037153e+000	 1.090099128366133e+001
 2.008717408176743e+000	 2.228240196665399e+000	 1.087921232143389e+001
 1.985554860419452e+000	 2.248904599182742e+000	 1.086426898181211e+001
 1.962187288355787e+000	 2.269321714828175e+000	 1.085754538325155e+001
 1.938618658202154e+000	 2.289488523243475e+000	 1.086044718143478e+001
 1.914852994773597e+000	 2.309402088944092e+000	 1.087439847295406e+001
 1.890894379214094e+000	 2.329059562718646e+000	 1.090083862492119e+001
 1.733319847608720e+000	 2.134971265812937e+000	 1.067511239272425e+001
 1.711184701123380e+000	 2.152753334364159e+000	 1.065246712558067e+001
 1.688880310352929e+000	 2.170295670476612e+000	 1.061955024463040e+001
 1.666410558419238e+000	 2.187595906649108e+000	 1.057709912874936e+001
 1.643779371421331e+000	 2.204651758917846e+000	 1.052583854885116e+001
 1.620990716199807e+000	 2.221461027795396e+000	 1.046647901118330e+001
 1.598048598078017e+000	 2.238021599138303e+000	 1.039971516123084e+001
 1.574957058582615e+000	 2.254331444942703e+000	 1.032622425185611e+001
 1.551720173146156e+000	 2.270388624067453e+000	 1.024666467906203e+001
 1.528342048794390e+000	 2.286191282884385e+000	 1.016167458851834e+001
 1.504826821820936e+000	 2.301737655855408e+000	 1.007187055573215e+001
 1.749077300771513e+000	 2.154380095505764e+000	 1.073026530969573e+001
 1.726740925682399e+000	 2.172323819225972e+000	 1.070037626959145e+001
 1.704233767723596e+000	 2.190025631121564e+000	 1.066031908375268e+001
 1.681559745318082e+000	 2.207483142168611e+000	 1.061090277614758e+001
 1.658722820256690e+000	 2.224694047640010e+000	 1.055292283428775e+001
 1.635726995442208e+000	 2.241656128052987e+000	 1.048715945583149e+001
 1.612576312610017e+000	 2.258367250044601e+000	 1.041437585855615e+001
 1.589274850027924e+000	 2.274825367174592e+000	 1.033531665750440e+001
 1.565826720177870e+000	 2.291028520655075e+000	 1.025070631286006e+001
 1.542236067422204e+000	 2.306974840006721e+000	 1.016124765184952e+001
 1.518507065657215e+000	 2.322662543641092e+000	 1.006762046769730e+001
 1.764834753933805e+000	 2.173788925198089e+000	 1.077943587217498e+001
 1.742297150240828e+000	 2.191894304087189e+000	 1.074306024469568e+001
 1.719587225093601e+000	 2.209755591765834e+000	 1.069663637922395e+001
 1.696708932216215e+000	 2.227370377687360e+000	 1.064104528299802e+001
 1.673666269091309e+000	 2.244736336361353e+000	 1.057715347316222e+001
 1.650463274683859e+000	 2.261851228309702e+000	 1.050581112591200e+001
 1.627104027141279e+000	 2.278712900949980e+000	 1.042785029182391e+001
 1.603592641472525e+000	 2.295319289405524e+000	 1.034408318135461e+001
 1.579933267208926e+000	 2.311668417241718e+000	 1.025530052423202e+001
 1.556130086049430e+000	 2.327758397128063e+000	 1.016227000619439e+001
 1.532187309492996e+000	 2.343587431425777e+000	 1.006573478625327e+001
 1.780592207095596e+000	 2.193197754889913e+000	 1.082245182197055e+001
 1.757853374798665e+000	 2.211464788947809e+000	 1.078031352598059e+001
 1.734940682462946e+000	 2.229485552409423e+000	 1.072826349098069e+001
 1.711858119113637e+000	 2.247257613205352e+000	 1.066725506790690e+001
 1.688609717925187e+000	 2.264778625081875e+000	 1.059822613852267e+001
 1.665199553924762e+000	 2.282046328565541e+000	 1.052209716631641e+001
 1.641631741671801e+000	 2.299058551854437e+000	 1.043976931645591e+001
 1.617910432916417e+000	 2.315813211635502e+000	 1.035212264896279e+001
 1.594039814239324e+000	 2.332308313827379e+000	 1.026001438900159e+001
 1.570024104676069e+000	 2.348541954248411e+000	 1.016427727789768e+001
 1.545867553328280e+000	 2.364512319209462e+000	 1.006571800821030e+001
 1.796349660256885e+000	 2.212606584581236e+000	 1.085913762679452e+001
 1.773409599355911e+000	 2.231035273807834e+000	 1.081192826206997e+001
 1.750294139831630e+000	 2.249215513052330e+000	 1.075496040251728e+001
 1.727007306010349e+000	 2.267144848722588e+000	 1.068926012498825e+001
 1.703553166758326e+000	 2.284820913801577e+000	 1.061583703234378e+001
 1.679935833164914e+000	 2.302241428820505e+000	 1.053568220529192e+001
 1.656159456201584e+000	 2.319404202757973e+000	 1.044976622621013e+001
 1.632228224359601e+000	 2.336307133864524e+000	 1.035903727929736e+001
 1.608146361269064e+000	 2.352948210412062e+000	 1.026441933112127e+001
 1.583918123302121e+000	 2.369325511367761e+000	 1.016681039533698e+001
 1.559547797163067e+000	 2.385437206992145e+000	 1.006708088505268e+001
 1.812107113417673e+000	 2.232015414272058e+000	 1.088931462261447e+001
 1.788965823912565e+000	 2.250605758667261e+000	 1.083769437627481e+001
 1.765647597199653e+000	 2.268945473694558e+000	 1.077648578073126e+001
 1.742156492906350e+000	 2.287032084239068e+000	 1.070678804231989e+001
 1.718496615590724e+000	 2.304863202520457e+000	 1.062968286252997e+001
 1.694672112404317e+000	 2.322436529074593e+000	 1.054623228994726e+001
 1.670687170730629e+000	 2.339749853660590e+000	 1.045747664716614e+001
 1.646546015802076e+000	 2.356801056092591e+000	 1.036443253719919e+001
 1.622252908298147e+000	 2.373588106995764e+000	 1.026809093362312e+001
 1.597812141927584e+000	 2.390109068486117e+000	 1.016941535839931e+001
 1.573228040997356e+000	 2.406362094773829e+000	 1.006934015099626e+001
 1.827864566577960e+000	 2.251424243962378e+000	 1.091280114864250e+001
 1.804522048468628e+000	 2.270176243526093e+000	 1.085739966251197e+001
 1.781001054567015e+000	 2.288675434336103e+000	 1.079259703267331e+001
 1.757305679801639e+000	 2.306919319754792e+000	 1.071956601944522e+001
 1.733440064422383e+000	 2.324905491238517e+000	 1.063946082110801e+001
 1.709408391642970e+000	 2.342631629327805e+000	 1.055341482509495e+001
 1.685214885258935e+000	 2.360095504562285e+000	 1.046253843719384e+001
 1.660863807243844e+000	 2.377294978319702e+000	 1.036791699347350e+001
 1.636359455326572e+000	 2.394228003578486e+000	 1.027060875934814e+001
 1.611706160552461e+000	 2.410892625603479e+000	 1.017164301988172e+001
 1.586908284831148e+000	 2.427286982554514e+000	 1.007201826511249e+001
 1.843622019737746e+000	 2.270833073652197e+000	 1.092941267540168e+001
 1.820078273024101e+000	 2.289746728384328e+000	 1.087082987630384e+001
 1.796354511933716e+000	 2.308405394976967e+000	 1.080305035938674e+001
 1.772454866696220e+000	 2.326806555269760e+000	 1.072732088397701e+001
 1.748383513253301e+000	 2.344947779955755e+000	 1.064486856353820e+001
 1.724144670880873e+000	 2.362826729580141e+000	 1.055689851522988e+001
 1.699742599786501e+000	 2.380441155463060e+000	 1.046459159057802e+001
 1.675181598684902e+000	 2.397788900545858e+000	 1.036910219215631e+001
 1.650466002354339e+000	 2.414867900160227e+000	 1.027155618086896e+001
 1.625600179176750e+000	 2.431676182719845e+000	 1.017304887810191e+001
 1.600588528664443e+000	 2.448211870334198e+000	 1.007464316667590e+001
 1.859379472897029e+000	 2.290241903341515e+000	 1.093896192628078e+001
 1.835634497578981e+000	 2.309317213241967e+000	 1.087776882115108e+001
 1.811707969299756e+000	 2.328135355617151e+000	 1.080760080700954e+001
 1.787604053590089e+000	 2.346693790783972e+000	 1.072977910735749e+001
 1.763326962083480e+000	 2.364990068672173e+000	 1.064560418907715e+001
 1.738880950118028e+000	 2.383021829831602e+000	 1.055635330945792e+001
 1.714270314313330e+000	 2.400786806362916e+000	 1.046327814749211e+001
 1.689499390125253e+000	 2.418282822771059e+000	 1.036760252452990e+001
 1.664572549381449e+000	 2.435507796740989e+000	 1.027052021906059e+001
 1.639494197800452e+000	 2.452459739835217e+000	 1.017319288005423e+001
 1.614268772497240e+000	 2.469136758112883e+000	 1.007674804295256e+001
 1.875136926055812e+000	 2.309650733030330e+000	 1.094095807753179e+001
 1.851190722133271e+000	 2.328887698099010e+000	 1.087799843055038e+001
 1.827061426665134e+000	 2.347865316256653e+000	 1.080600231529990e+001
 1.802753240483248e+000	 2.366581026297427e+000	 1.072666681982313e+001
 1.778270410912918e+000	 2.385032357387770e+000	 1.064136622213105e+001
 1.753617229354433e+000	 2.403216930082186e+000	 1.055145034920132e+001
 1.728798028839419e+000	 2.421132457261850e+000	 1.045824210803665e+001
 1.703817181564895e+000	 2.438776744995304e+000	 1.036303510949099e+001
 1.678679096407900e+000	 2.456147693320770e+000	 1.026709138981026e+001
 1.653388216423566e+000	 2.473243296949593e+000	 1.017163923449037e+001
 1.627949016329540e+000	 2.490061645890567e+000	 1.007787110869611e+001
 1.890894379214094e+000	 2.329059562718646e+000	 1.090083862492119e+001
 1.866746946686970e+000	 2.348458182955457e+000	 1.087129884591113e+001
 1.842414884029853e+000	 2.367595276895474e+000	 1.079800776373524e+001
 1.817902427375696e+000	 2.386468261810127e+000	 1.071770982462184e+001
 1.793213859741616e+000	 2.405074646102546e+000	 1.063185359454100e+001
 1.768353508590089e+000	 2.423412030331897e+000	 1.054186191851898e+001
 1.743325743364769e+000	 2.441478108159864e+000	 1.044912935057556e+001
 1.718134973003829e+000	 2.459270667218595e+000	 1.035501967989970e+001
 1.692785643433694e+000	 2.476787589899572e+000	 1.026086355839219e+001
 1.667282235046093e+000	 2.494026854062976e+000	 1.016795623434622e+001
 1.641629260161343e+000	 2.510986533667252e+000	 1.014727653806842e+001
 1.504826821820936e+000	 2.301737655855408e+000	 1.007187055573215e+001
 1.481178655451783e+000	 2.317026066036402e+000	 9.922605168906495e+000
 1.457401737502926e+000	 2.332054925507497e+000	 9.803563571702162e+000
 1.433500278033387e+000	 2.346822735730043e+000	 9.715689486142852e+000
 1.409478506995772e+000	 2.361328087830619e+000	 9.659865244191744e+000
 1.385340671887672e+000	 2.375569662812049e+000	 9.636910764768345e+000
 1.361091035406279e+000	 2.389546231691873e+000	 9.647582663545304e+000
 1.336733873108762e+000	 2.403256655568766e+000	 9.692573496078516e+000
 1.312273471080953e+000	 2.416699885617484e+000	 9.772511134455447e+000
 1.287714123616818e+000	 2.429874963012997e+000	 9.887958277274601e+000
 1.263060130911157e+000	 2.442781018784593e+000	 1.003941209241011e+001
 1.518507065657215e+000	 2.322662543641092e+000	 1.006762046769730e+001
 1.494643915956549e+000	 2.338089939369133e+000	 9.927548337207444e+000
 1.470650844207407e+000	 2.353255424835356e+000	 9.812561018928806e+000
 1.446532098742074e+000	 2.368157487878027e+000	 9.723653743276458e+000
 1.422291947967268e+000	 2.382794706815789e+000	 9.661764068689774e+000
 1.397934677994196e+000	 2.397165750660581e+000	 9.627770755262821e+000
 1.373464590271841e+000	 2.411269379257375e+000	 9.622492768487742e+000
 1.348885999226074e+000	 2.425104443351199e+000	 9.646688413883556e+000
 1.324203229907143e+000	 2.438669884582033e+000	 9.701054602907197e+000
 1.299420615648050e+000	 2.451964735408256e+000	 9.786226250177014e+000
 1.274542495736273e+000	 2.464988118959423e+000	 9.902775801675027e+000
 1.532187309492996e+000	 2.343587431425777e+000	 1.006573478625327e+001
 1.508109176460914e+000	 2.359153812700871e+000	 9.934814297097828e+000
 1.483899950911571e+000	 2.374455924162234e+000	 9.823964418887510e+000
 1.459563919450517e+000	 2.389492240025056e+000	 9.734231997713819e+000
 1.435105388938585e+000	 2.404261325800040e+000	 9.666609828210035e+000
 1.410528684100596e+000	 2.418761838508240e+000	 9.622035424108399e+000
 1.385838145137324e+000	 2.432992526822059e+000	 9.601389916384164e+000
 1.361038125343342e+000	 2.446952231132880e+000	 9.605497079969499e+000
 1.336132988733314e+000	 2.460639883545905e+000	 9.635122489650437e+000
 1.311127107679276e+000	 2.474054507802924e+000	 9.690972805386998e+000
 1.286024860561388e+000	 2.487195219133758e+000	 9.773695186936076e+000
 1.545867553328280e+000	 2.364512319209462e+000	 1.006571800821030e+001
 1.521574436964876e+000	 2.380217686031613e+000	 9.943902646673980e+000
 1.497149057615418e+000	 2.395656423488133e+000	 9.837266010354952e+000
 1.472595740158718e+000	 2.410826992171132e+000	 9.746906685322617e+000
 1.447918829909725e+000	 2.425727944783372e+000	 9.673872730426618e+000
 1.423122690206872e+000	 2.440357926355025e+000	 9.619160345068401e+000
 1.398211700002728e+000	 2.454715674385927e+000	 9.583712662167788e+000
 1.373190251460565e+000	 2.468800018913809e+000	 9.568418667521337e+000
 1.348062747559465e+000	 2.482609882509102e+000	 9.574112246374938e+000
 1.322833599710498e+000	 2.496144280197001e+000	 9.601571357663175e+000
 1.297507225386504e+000	 2.509402319307596e+000	 9.705067400872236e+000
 1.559547797163067e+000	 2.385437206992145e+000	 1.006708088505268e+001
 1.535039697468435e+000	 2.401281559361360e+000	 9.954319281159105e+000
 1.510398164318946e+000	 2.416856922813052e+000	 9.851964468430925e+000
 1.485627560866675e+000	 2.432161744316253e+000	 9.761166913836957e+000
 1.460732270880686e+000	 2.447194563765786e+000	 9.683029986317091e+000
 1.435716696313025e+000	 2.461954014200938e+000	 9.618608522027072e+000
 1.410585254868053e+000	 2.476438821948977e+000	 9.568907512522388e+000
 1.385342377577744e+000	 2.490647806693986e+000	 9.534880917290195e+000
 1.359992506385596e+000	 2.504579881471621e+000	 9.543113158982246e+000
 1.334540091741715e+000	 2.518234052590486e+000	 9.618039107512219e+000
 1.308989590211620e+000	 2.531609419480937e+000	 9.707618541785422e+000
 1.573228040997356e+000	 2.406362094773829e+000	 1.006934015099626e+001
 1.548504957971592e+000	 2.422345432690113e+000	 9.965576119115207e+000
 1.523647271022157e+000	 2.438057422136991e+000	 9.867564624697970e+000
 1.498659381574390e+000	 2.453496496460421e+000	 9.776508172776374e+000
 1.473545711851468e+000	 2.468661182747280e+000	 9.693565505670973e+000
 1.448310702419054e+000	 2.483550102045976e+000	 9.619850065941023e+000
 1.422958809733299e+000	 2.498161969511208e+000	 9.556428580154142e+000
 1.397494503694879e+000	 2.512495594473410e+000	 9.573179301219579e+000
 1.371922265211707e+000	 2.526549880433463e+000	 9.607744552815843e+000
 1.346246583772927e+000	 2.540323824983381e+000	 9.651249272883558e+000
 1.320471955036735e+000	 2.553816519653783e+000	 9.705135980286986e+000
 1.586908284831148e+000	 2.427286982554514e+000	 1.007201826511249e+001
 1.561970218474347e+000	 2.443409306017870e+000	 9.977190842816427e+000
 1.536896377725050e+000	 2.459257921459952e+000	 9.883577201855735e+000
 1.511691202281862e+000	 2.474831248603634e+000	 9.792432058368773e+000
 1.486359152822073e+000	 2.490127801727857e+000	 9.704969608347582e+000
 1.460904708524959e+000	 2.505146189890142e+000	 9.651277666061061e+000
 1.435332364598466e+000	 2.519885117072623e+000	 9.654449996113270e+000
 1.409646629811969e+000	 2.534343382252084e+000	 9.659076771401706e+000
 1.383852024037799e+000	 2.548519879394630e+000	 9.666781384567862e+000
 1.357953075804134e+000	 2.562413597375684e+000	 9.679150586183921e+000
 1.331954319861851e+000	 2.576023619826133e+000	 9.697731479408908e+000
 1.600588528664443e+000	 2.448211870334198e+000	 1.007464316667590e+001
 1.575435478976699e+000	 2.464473179344633e+000	 9.988686651936595e+000
 1.550145484427626e+000	 2.480458420781932e+000	 9.899518561964008e+000
 1.524723022989091e+000	 2.496166000745893e+000	 9.808446012580040e+000
 1.499172593792499e+000	 2.511594420707514e+000	 9.782300497545512e+000
 1.473498714630741e+000	 2.526742277733436e+000	 9.772096910453378e+000
 1.447705919463554e+000	 2.541608264633219e+000	 9.757218135120100e+000
 1.421798755929015e+000	 2.556191170030004e+000	 9.739416510622245e+000
 1.395781782863871e+000	 2.570489878355119e+000	 9.720414252151421e+000
 1.369659567835336e+000	 2.584503369767397e+000	 9.701900156934245e+000
 1.343436684686967e+000	 2.598230719997987e+000	 9.685526416524539e+000
 1.614268772497240e+000	 2.469136758112883e+000	 1.007674804295256e+001
 1.588900739478649e+000	 2.485537052670400e+000	 9.999592029760970e+000
 1.563394591129885e+000	 2.501658920102933e+000	 9.924790848603236e+000
 1.537754843696078e+000	 2.517500752887198e+000	 9.924589275390655e+000
 1.511986034762748e+000	 2.533061039686253e+000	 9.911571024952965e+000
 1.486092720736399e+000	 2.548338365575855e+000	 9.887627370271840e+000
 1.460079474328563e+000	 2.563331412192999e+000	 9.854630031873953e+000
 1.433950882046017e+000	 2.578038957807173e+000	 9.814427515148767e+000
 1.407711541689924e+000	 2.592459877314933e+000	 9.768841537262468e+000
 1.381366059866533e+000	 2.606593142158518e+000	 9.719663551434731e+000
 1.354919049512082e+000	 2.620437820169344e+000	 9.668651375961321e+000
 1.627949016329540e+000	 2.490061645890567e+000	 1.007787110869611e+001
 1.602365999980196e+000	 2.506600925995173e+000	 1.004986501759930e+001
 1.576643697831826e+000	 2.522859419422954e+000	 1.006386778026277e+001
 1.550786664402821e+000	 2.538835505027548e+000	 1.005859085189381e+001
 1.524799475732817e+000	 2.554527658664073e+000	 1.003602738069539e+001
 1.498686726841934e+000	 2.569934453417402e+000	 9.998158509291198e+000
 1.472453029193493e+000	 2.585054559751961e+000	 9.946949454828921e+000
 1.446103008162974e+000	 2.599886745583591e+000	 9.884345667831960e+000
 1.419641300515956e+000	 2.614429876274070e+000	 9.812269078330473e+000
 1.393072551897726e+000	 2.628682914549048e+000	 9.732614437438080e+000
 1.366401414337198e+000	 2.642644920340206e+000	 9.647245762153901e+000
 1.641629260161343e+000	 2.510986533667252e+000	 1.014727653806842e+001
 1.615831260481341e+000	 2.527664799318952e+000	 1.018612044689243e+001
 1.589892804533449e+000	 2.544059918741996e+000	 1.019913144777856e+001
 1.563818485109322e+000	 2.560170257166945e+000	 1.018839385924666e+001
 1.537612916702710e+000	 2.575994277640975e+000	 1.015598789794442e+001
 1.511280732947346e+000	 2.591530541258077e+000	 1.010398551474808e+001
 1.484826584058344e+000	 2.606777707310106e+000	 1.003444629771521e+001
 1.458255134279887e+000	 2.621734533359257e+000	 9.949413451164654e+000
 1.431571059341970e+000	 2.636399875232531e+000	 9.850909859820890e+000
 1.404779043928913e+000	 2.650772686938987e+000	 9.740934246588934e+000
 1.377883779162314e+000	 2.664852020510572e+000	 9.621457432139746e+000
 1.263060130911157e+000	 2.442781018784593e+000	 1.003941209241011e+001
 1.238315796768149e+000	 2.455417273601034e+000	 9.917169835849956e+000
 1.213485426327356e+000	 2.467783037487111e+000	 9.596193187087662e+000
 1.188573323810187e+000	 2.479877709472937e+000	 9.304763100384266e+000
 1.163583790289265e+000	 2.491700777177655e+000	 9.042265046622795e+000
 1.138521121482226e+000	 2.503251816328117e+000	 8.827731379925229e+000
 1.113389605572322e+000	 2.514530490214019e+000	 8.688898948814705e+000
 1.088193521057850e+000	 2.525536549080854e+000	 8.575474995501725e+000
 1.062937134632406e+000	 2.536269829462126e+000	 8.487593758715720e+000
 1.037624699097836e+000	 2.546730253452308e+000	 8.425278108446038e+000
 1.012260451311729e+000	 2.556917827922117e+000	 8.388445594222741e+000
 1.274542495736273e+000	 2.464988118959423e+000	 9.902775801675027e+000
 1.249573213101380e+000	 2.477739248819489e+000	 9.949169279159957e+000
 1.224517112020461e+000	 2.490217428740764e+000	 9.594202285670258e+000
 1.199378535844212e+000	 2.502422052289998e+000	 9.287783420693570e+000
 1.174161824745915e+000	 2.514352602428328e+000	 9.072246810701698e+000
 1.148871313495187e+000	 2.526008651025577e+000	 8.887908482338654e+000
 1.123511329258762e+000	 2.537389858310435e+000	 8.734991209053961e+000
 1.098086189430379e+000	 2.548495972257904e+000	 8.613586929521846e+000
 1.072600199491756e+000	 2.559326827915427e+000	 8.523662850906407e+000
 1.047057650906576e+000	 2.569882346669243e+000	 8.465067738299853e+000
 1.021462819049315e+000	 2.580162535452528e+000	 8.437538367506113e+000
 1.286024860561388e+000	 2.487195219133758e+000	 9.773695186936076e+000
 1.260830629434610e+000	 2.500061224037538e+000	 9.796084768796476e+000
 1.235548797713566e+000	 2.512651819994079e+000	 9.677942444628203e+000
 1.210183747878237e+000	 2.524966395106772e+000	 9.398759260605614e+000
 1.184739859202565e+000	 2.537004427678743e+000	 9.156993482338518e+000
 1.159221505508147e+000	 2.548765485722787e+000	 8.952859086828800e+000
 1.133633052945202e+000	 2.560249226406592e+000	 8.786424997628846e+000
 1.107978857802907e+000	 2.571455395434661e+000	 8.657621367109899e+000
 1.082263264351106e+000	 2.582383826368382e+000	 8.566246076151336e+000
 1.056490602715316e+000	 2.593034439885761e+000	 8.511971427429272e+000
 1.030665186786900e+000	 2.603407242982436e+000	 8.494351008433537e+000
 1.297507225386504e+000	 2.509402319307596e+000	 9.705067400872236e+000
 1.272088045767840e+000	 2.522383199255179e+000	 9.766671859992576e+000
 1.246580483406671e+000	 2.535086211247057e+000	 9.820967721499105e+000
 1.220988959912261e+000	 2.547510737923258e+000	 9.509588470461173e+000
 1.195317893659215e+000	 2.559656252928899e+000	 9.242228632246306e+000
 1.169571697521108e+000	 2.571522320419744e+000	 9.018954503814269e+000
 1.143754776631643e+000	 2.583108594502486e+000	 8.839678922207806e+000
 1.117871526175436e+000	 2.594414818611126e+000	 8.704167940417120e+000
 1.091926329210456e+000	 2.605440824820994e+000	 8.612047729222757e+000
 1.065923554524055e+000	 2.616186533101864e+000	 8.562811680136448e+000
 1.039867554524486e+000	 2.626651950511838e+000	 8.555827684512863e+000
 1.308989590211620e+000	 2.531609419480937e+000	 9.707618541785422e+000
 1.283345462101071e+000	 2.544705174472416e+000	 9.730393101273732e+000
 1.257612169099776e+000	 2.557520602499699e+000	 9.815627638506761e+000
 1.231794171946286e+000	 2.570055080739456e+000	 9.616446216963615e+000
 1.205895928115865e+000	 2.582308078178795e+000	 9.324225510352783e+000
 1.179921889534068e+000	 2.594279155116453e+000	 9.082569890825786e+000
 1.153876500318082e+000	 2.605967962598116e+000	 8.891233788974038e+000
 1.127764194547965e+000	 2.617374241787296e+000	 8.749816759647718e+000
 1.101589394069806e+000	 2.628497823273261e+000	 8.657770791806060e+000
 1.075356506332795e+000	 2.639338626317554e+000	 8.614407827039514e+000
 1.049069922262071e+000	 2.649896658040735e+000	 8.618907460763971e+000
 1.320471955036735e+000	 2.553816519653783e+000	 9.705135980286986e+000
 1.294602878434302e+000	 2.567027149689244e+000	 9.687370440617841e+000
 1.268643854792880e+000	 2.579954993752005e+000	 9.737567361576893e+000
 1.242599383980310e+000	 2.592599423555365e+000	 9.715514289903782e+000
 1.216473962572515e+000	 2.604959903428432e+000	 9.399262553508288e+000
 1.190272081547029e+000	 2.617035989812911e+000	 9.140084085240371e+000
 1.163998224004523e+000	 2.628827330693487e+000	 8.937572507038048e+000
 1.137656862920494e+000	 2.640333664963176e+000	 8.791158392274040e+000
 1.111252458929156e+000	 2.651554821725185e+000	 8.700116989590908e+000
 1.084789458141535e+000	 2.662490719532828e+000	 8.663576163058753e+000
 1.058272289999657e+000	 2.673141365569126e+000	 8.680524521566323e+000
 1.331954319861851e+000	 2.576023619826133e+000	 9.697731479408908e+000
 1.305860294767532e+000	 2.589349124905667e+000	 9.637734704650116e+000
 1.279675540485985e+000	 2.602389385003972e+000	 9.651143087951887e+000
 1.253404596014335e+000	 2.615143766370987e+000	 9.738703164952732e+000
 1.227051997029165e+000	 2.627611728677810e+000	 9.463623161911460e+000
 1.200622273559989e+000	 2.639792824509118e+000	 9.187879445667390e+000
 1.174119947690963e+000	 2.651686698788594e+000	 8.975179997794166e+000
 1.147549531293022e+000	 2.663293088138760e+000	 8.824783843326335e+000
 1.120915523788506e+000	 2.674611820176764e+000	 8.735786846408479e+000
 1.094222409950275e+000	 2.685642812747687e+000	 8.707130078265633e+000
 1.067474657737242e+000	 2.696386073097013e+000	 8.737608381031199e+000
 1.343436684686967e+000	 2.598230719997987e+000	 9.685526416524539e+000
 1.317117711100763e+000	 2.611671100121684e+000	 9.581625219213743e+000
 1.290707226179090e+000	 2.624823776255602e+000	 9.556514067488283e+000
 1.264209808048359e+000	 2.637688109186321e+000	 9.610923213036548e+000
 1.237630031485815e+000	 2.650263553926928e+000	 9.513595487000547e+000
 1.210972465572950e+000	 2.662549659205076e+000	 9.222341701468556e+000
 1.184241671377403e+000	 2.674546066883441e+000	 9.000543108925648e+000
 1.157442199665551e+000	 2.686252511314051e+000	 8.847284536694264e+000
 1.130578588647856e+000	 2.697668818627999e+000	 8.761479735593376e+000
 1.103655361759015e+000	 2.708794905962131e+000	 8.741880182021911e+000
 1.076677025474828e+000	 2.719630780624395e+000	 8.787084082585880e+000
 1.354919049512082e+000	 2.620437820169344e+000	 9.668651375961321e+000
 1.328375127433993e+000	 2.633993075337294e+000	 9.519189449233624e+000
 1.301738911872195e+000	 2.647258167506897e+000	 9.453846556427713e+000
 1.275015020082384e+000	 2.660232452001367e+000	 9.473338766602561e+000
 1.248208065942466e+000	 2.672915379175787e+000	 9.545472230129480e+000
 1.221322657585910e+000	 2.685306493900782e+000	 9.239859809929232e+000
 1.194363395063843e+000	 2.697405434978026e+000	 9.010150532782042e+000
 1.167334868038080e+000	 2.709211934489051e+000	 8.855252297378225e+000
 1.140241653507206e+000	 2.720725817078891e+000	 8.773893928733306e+000
 1.113088313567754e+000	 2.731946999176161e+000	 8.764634420805955e+000
 1.085879393212413e+000	 2.742875488151270e+000	 8.825872388409488e+000
 1.366401414337198e+000	 2.642644920340206e+000	 9.647245762153901e+000
 1.339632543767224e+000	 2.656315050552498e+000	 9.450582656738000e+000
 1.312770597565300e+000	 2.669692558757853e+000	 9.343313523010654e+000
 1.285820232116408e+000	 2.682776794816125e+000	 9.326142340329062e+000
 1.258786100399116e+000	 2.695567204424388e+000	 9.399661090363399e+000
 1.231672849598871e+000	 2.708063328596238e+000	 9.236825820631816e+000
 1.204485118750283e+000	 2.720264803072348e+000	 9.000492728872420e+000
 1.177227536410608e+000	 2.732171357663756e+000	 8.845279334636066e+000
 1.149904718366556e+000	 2.743782815529436e+000	 8.769726641961057e+000
 1.122521265376494e+000	 2.755099092389776e+000	 8.772198190098722e+000
 1.095081760949999e+000	 2.766120195677642e+000	 8.850889959317254e+000
 1.377883779162314e+000	 2.664852020510572e+000	 9.621457432139746e+000
 1.350889960100455e+000	 2.678637025767296e+000	 9.375967575979313e+000
 1.323802283258406e+000	 2.692126950008474e+000	 9.225094367809968e+000
 1.296625444150433e+000	 2.705321137630596e+000	 9.169531782593882e+000
 1.269364134855766e+000	 2.718219029672730e+000	 9.209856551384672e+000
 1.242023041611831e+000	 2.730820163291444e+000	 9.209634746609497e+000
 1.214606842436724e+000	 2.743124171166410e+000	 8.968061850233610e+000
 1.187120204783137e+000	 2.755130780838170e+000	 8.813958225972502e+000
 1.159567783225907e+000	 2.766839813979640e+000	 8.745674079931616e+000
 1.131954217185234e+000	 2.778251185602976e+000	 8.761374440675576e+000
 1.104284128687585e+000	 2.789364903203509e+000	 8.859049525650827e+000
 1.012260451311729e+000	 2.556917827922117e+000	 8.388445594222741e+000
 9.868486101712383e-001	 2.566832643677576e+000	 8.368814676086517e+000
 9.613933746349105e-001	 2.576474874564940e+000	 8.362062088111751e+000
 9.358989217837996e-001	 2.585844776523053e+000	 8.367137313759709e+000
 9.103694049237151e-001	 2.594942686584524e+000	 8.382929021417752e+000
 8.848089517299641e-001	 2.603769021827961e+000	 8.408271992538891e+000
 8.592216624358853e-001	 2.612324278282998e+000	 8.441954047836617e+000
 8.336116080664262e-001	 2.620609029790004e+000	 8.482722951421991e+000
 8.079828287179304e-001	 2.628623926816410e+000	 8.529293273344463e+000
 7.823393318852088e-001	 2.636369695231585e+000	 8.580353191622814e+000
 7.566850908368894e-001	 2.643847135042238e+000	 8.634571215527384e+000
 1.021462819049315e+000	 2.580162535452528e+000	 8.437538367506113e+000
 9.958199611707879e-001	 2.590167485896778e+000	 8.406271617943711e+000
 9.701333144019444e-001	 2.599897373428621e+000	 8.389271314845747e+000
 9.444070937973023e-001	 2.609352456313620e+000	 8.385301826552700e+000
 9.186454904199957e-001	 2.618533074648314e+000	 8.393065127046262e+000
 8.928526694696534e-001	 2.627439649302939e+000	 8.411208080670997e+000
 8.670327684544621e-001	 2.636072680816487e+000	 8.438329722016922e+000
 8.411898954086871e-001	 2.644432748246060e+000	 8.472988510081997e+000
 8.153281271568199e-001	 2.652520507972429e+000	 8.513709536433233e+000
 7.894515076254423e-001	 2.660336692463774e+000	 8.558991667739660e+000
 7.635640462038073e-001	 2.667882108999597e+000	 8.607314603754885e+000
 1.030665186786900e+000	 2.603407242982436e+000	 8.494351008433537e+000
 1.004791312170337e+000	 2.613502328115380e+000	 8.451724392704639e+000
 9.788732541689785e-001	 2.623319872291618e+000	 8.424822905485463e+000
 9.529152658108047e-001	 2.632860136103426e+000	 8.412222923532875e+000
 9.269215759162764e-001	 2.642123462711282e+000	 8.412436777275898e+000
 9.008963872093427e-001	 2.651110276777039e+000	 8.423920398708148e+000
 8.748438744730388e-001	 2.659821083349055e+000	 8.445080961546852e+000
 8.487681827509475e-001	 2.668256466701160e+000	 8.474284491994691e+000
 8.226734255957094e-001	 2.676417089127467e+000	 8.509863429067336e+000
 7.965636833656763e-001	 2.684303689694969e+000	 8.550124114130314e+000
 7.704430015707247e-001	 2.691917082955955e+000	 8.593354190026458e+000
 1.039867554524486e+000	 2.626651950511838e+000	 8.555827684512863e+000
 1.013762663169887e+000	 2.636837170333383e+000	 8.502251037243347e+000
 9.876131939360127e-001	 2.646742371153929e+000	 8.465930178583745e+000
 9.614234378243071e-001	 2.656367815892474e+000	 8.445250527418899e+000
 9.351976614125571e-001	 2.665713850773425e+000	 8.438531731202954e+000
 9.089401049490317e-001	 2.674780904250262e+000	 8.444035683720603e+000
 8.826549804916154e-001	 2.683569485880700e+000	 8.459974532220771e+000
 8.563464700932082e-001	 2.692080185155304e+000	 8.484518651461144e+000
 8.300187240345988e-001	 2.700313670281525e+000	 8.515804562853582e+000
 8.036758591059100e-001	 2.708270686925168e+000	 8.551942777613373e+000
 7.773219569376425e-001	 2.715952056911313e+000	 8.591025543578933e+000
 1.049069922262071e+000	 2.649896658040735e+000	 8.618907460763971e+000
 1.022734014169437e+000	 2.660172012550785e+000	 8.554922179775387e+000
 9.963531337030465e-001	 2.670164870015556e+000	 8.509796737140519e+000
 9.699316098378097e-001	 2.679875495680764e+000	 8.481722538792731e+000
 9.434737469088375e-001	 2.689304238834745e+000	 8.468823420536767e+000
 9.169838226887210e-001	 2.698451531722607e+000	 8.469164042487142e+000
 8.904660865101921e-001	 2.707317888411424e+000	 8.480758269983935e+000
 8.639247574354689e-001	 2.715903903608492e+000	 8.501577517709462e+000
 8.373640224734882e-001	 2.724210251434601e+000	 8.529559034411170e+000
 8.107880348461440e-001	 2.732237684154373e+000	 8.562614106374070e+000
 7.842009123045602e-001	 2.739987030865671e+000	 8.598636158584817e+000
 1.058272289999657e+000	 2.673141365569126e+000	 8.680524521566323e+000
 1.031705365168986e+000	 2.683506854767587e+000	 8.606801361973364e+000
 1.005093073470081e+000	 2.693587368876500e+000	 8.553616891018219e+000
 9.784397818513120e-001	 2.703383175468292e+000	 8.518965358800875e+000
 9.517498324051182e-001	 2.712894626895242e+000	 8.500771572529233e+000
 9.250275404284101e-001	 2.722122159194074e+000	 8.496899674551599e+000
 8.982771925287689e-001	 2.731066290941227e+000	 8.505161903969471e+000
 8.715030447777294e-001	 2.739727622060723e+000	 8.523327317724650e+000
 8.447093209123776e-001	 2.748106832586698e+000	 8.549130447762423e+000
 8.179002105863777e-001	 2.756204681382581e+000	 8.580279871643906e+000
 7.910798676714780e-001	 2.764022004819030e+000	 8.614466674807753e+000
 1.067474657737242e+000	 2.696386073097013e+000	 8.737608381031199e+000
 1.040676716168536e+000	 2.706841696983788e+000	 8.654945344421527e+000
 1.013833013237114e+000	 2.717009867736757e+000	 8.594576057508073e+000
 9.869479538648146e-001	 2.726890855255064e+000	 8.554294384820119e+000
 9.600259179013990e-001	 2.736485014954915e+000	 8.531822800684589e+000
 9.330712581680994e-001	 2.745792786664664e+000	 8.524821557879164e+000
 9.060882985473456e-001	 2.754814693470107e+000	 8.530897836964478e+000
 8.790813321199904e-001	 2.763551340511999e+000	 8.547614851344816e+000
 8.520546193512668e-001	 2.772003413737813e+000	 8.572500883841109e+000
 8.250123863266116e-001	 2.780171678609796e+000	 8.603058231362397e+000
 7.979588230383954e-001	 2.788056978771388e+000	 8.636772035119876e+000
 1.076677025474828e+000	 2.719630780624395e+000	 8.787084082585880e+000
 1.049648067168086e+000	 2.730176539199391e+000	 8.696404396405701e+000
 1.022572953004148e+000	 2.740432366596331e+000	 8.629851141354617e+000
 9.954561258783169e-001	 2.750398535041075e+000	 8.585014480703746e+000
 9.683020033976793e-001	 2.760075403013765e+000	 8.559411165175753e+000
 9.411149759077887e-001	 2.769463414134376e+000	 8.550494099351560e+000
 9.138994045659223e-001	 2.778563095998065e+000	 8.555661885852127e+000
 8.866596194622508e-001	 2.787375058962318e+000	 8.572268321481403e+000
 8.593999177901561e-001	 2.795899994887948e+000	 8.597631820282938e+000
 8.321245620668455e-001	 2.804138675836015e+000	 8.629044739292249e+000
 8.048377784053131e-001	 2.812091952722746e+000	 8.663782583659669e+000
 1.085879393212413e+000	 2.742875488151270e+000	 8.825872388409488e+000
 1.058619418167635e+000	 2.753511381414393e+000	 8.728222570968462e+000
 1.031312892771182e+000	 2.763854865455219e+000	 8.656610895456657e+000
 1.003964297891820e+000	 2.773906214826328e+000	 8.608420423117527e+000
 9.765780888939600e-001	 2.783665791071792e+000	 8.580958704765155e+000
 9.491586936474781e-001	 2.793134041603211e+000	 8.571467752185706e+000
 9.217105105844992e-001	 2.802311498525101e+000	 8.577133984404066e+000
 8.942379068045113e-001	 2.811198777411681e+000	 8.595098122124400e+000
 8.667452162290457e-001	 2.819796576037103e+000	 8.622465004446402e+000
 8.392367378070794e-001	 2.828105673061238e+000	 8.656313302823326e+000
 8.117167337722309e-001	 2.836126926673104e+000	 8.693705108151129e+000
 1.095081760949999e+000	 2.766120195677642e+000	 8.850889959317254e+000
 1.067590769167185e+000	 2.776846223628796e+000	 8.747437966095690e+000
 1.040052832538216e+000	 2.787277364313423e+000	 8.672016263381984e+000
 1.012472469905322e+000	 2.797413894610821e+000	 8.621797325371103e+000
 9.848541743902408e-001	 2.807256179128995e+000	 8.593875941906161e+000
 9.572024113871673e-001	 2.816804669071168e+000	 8.585279602221993e+000
 9.295216166030758e-001	 2.826059901051216e+000	 8.592978850638524e+000
 9.018161941467721e-001	 2.835022495860089e+000	 8.613897586616703e+000
 8.740905146679351e-001	 2.843693157185278e+000	 8.644923282416134e+000
 8.463489135473132e-001	 2.852072670285467e+000	 8.682917092484312e+000
 8.185956891391485e-001	 2.860161900622463e+000	 8.724723829669374e+000
 1.104284128687585e+000	 2.789364903203509e+000	 8.859049525650827e+000
 1.076562120166735e+000	 2.800181065842599e+000	 8.751082972844102e+000
 1.048792772305250e+000	 2.810699863170943e+000	 8.673220704756083e+000
 1.020980641918825e+000	 2.820921574394557e+000	 8.622421040057857e+000
 9.931302598865216e-001	 2.830846567185376e+000	 8.595562362589252e+000
 9.652461291268568e-001	 2.840475296538248e+000	 8.589453924898805e+000
 9.373327226216526e-001	 2.849808303576409e+000	 8.600846620809476e+000
 9.093944814890329e-001	 2.858846214307540e+000	 8.626443698513997e+000
 8.814358131068247e-001	 2.867589738332472e+000	 8.662911386555839e+000
 8.534610892875471e-001	 2.876039667508702e+000	 8.706889405978554e+000
 8.254746445060665e-001	 2.884196874570822e+000	 8.755001342917343e+000
 7.566850908368894e-001	 2.643847135042238e+000	 8.634571215527384e+000
 7.310240430396248e-001	 2.651057119090043e+000	 8.398102248770902e+000
 7.053600886327910e-001	 2.658000591714422e+000	 8.166976341578820e+000
 6.796970889541847e-001	 2.664678567381807e+000	 7.940130750847789e+000
 6.540388651164307e-001	 2.671092129282827e+000	 7.716504885571033e+000
 6.283891966355913e-001	 2.677242427900419e+000	 7.495046152237736e+000
 6.027518201122013e-001	 2.683130679550520e+000	 7.343564812660337e+000
 5.771304279651326e-001	 2.688758164897393e+000	 7.274933763009484e+000
 5.515286672185974e-001	 2.694126227445558e+000	 7.280034569020874e+000
 5.259501383425356e-001	 2.699236272010369e+000	 7.355469381993475e+000
 5.003983941465354e-001	 2.704089763169176e+000	 7.498316423578767e+000
 7.635640462038073e-001	 2.667882108999597e+000	 8.607314603754885e+000
 7.376697161537533e-001	 2.675157638356550e+000	 8.377117842059835e+000
 7.117724530705057e-001	 2.682164233459022e+000	 8.160546513481714e+000
 6.858761533949311e-001	 2.688902917995866e+000	 7.956209160995086e+000
 6.599846729770409e-001	 2.695374785004896e+000	 7.762712676168417e+000
 6.341018256921334e-001	 2.701580995427987e+000	 7.578668683723647e+000
 6.082313821098390e-001	 2.707522776638490e+000	 7.419051269592541e+000
 5.823770682164720e-001	 2.713201420943071e+000	 7.333215549866966e+000
 5.565425641910105e-001	 2.718618284059930e+000	 7.321026833282279e+000
 5.307315032349372e-001	 2.723774783575465e+000	 7.378953644538827e+000
 5.049474704561093e-001	 2.728672397381367e+000	 7.503953939980156e+000
 7.704430015707247e-001	 2.691917082955955e+000	 8.593354190026458e+000
 7.443153892678818e-001	 2.699258157622057e+000	 8.368034719607127e+000
 7.181848175082203e-001	 2.706327875202622e+000	 8.164510432128857e+000
 6.920552178356773e-001	 2.713127268608924e+000	 7.981060043036791e+000
 6.659304808376511e-001	 2.719657440725966e+000	 7.815956866213942e+000
 6.398144547486757e-001	 2.725919562954553e+000	 7.667475740878005e+000
 6.137109441074764e-001	 2.731914873725460e+000	 7.517218166830777e+000
 5.876237084678115e-001	 2.737644676987751e+000	 7.403820923155958e+000
 5.615564611634231e-001	 2.743110340673302e+000	 7.363564727602463e+000
 5.355128681273389e-001	 2.748313295139561e+000	 7.392793687671700e+000
 5.094965467656832e-001	 2.753255031592557e+000	 7.488355060972146e+000
 7.773219569376425e-001	 2.715952056911313e+000	 8.591025543578933e+000
 7.509610623820103e-001	 2.723358676886565e+000	 8.369391832367739e+000
 7.245971819459354e-001	 2.730491516945223e+000	 8.177614970817585e+000
 6.982342822764238e-001	 2.737351619220983e+000	 8.013642585410990e+000
 6.718762886982611e-001	 2.743940096446035e+000	 7.875413203203292e+000
 6.455270838052176e-001	 2.750258130480120e+000	 7.760863724400767e+000
 6.191905061051140e-001	 2.756306970811431e+000	 7.643166072734831e+000
 5.928703487191510e-001	 2.762087933031430e+000	 7.491890873394400e+000
 5.665703581358359e-001	 2.767602397285673e+000	 7.412828590222659e+000
 5.402942330197406e-001	 2.772851806702656e+000	 7.402208125935487e+000
 5.140456230752573e-001	 2.777837665802749e+000	 7.456775611737744e+000
 7.842009123045602e-001	 2.739987030865671e+000	 8.598636158584817e+000
 7.576067354961388e-001	 2.747459196150073e+000	 8.379695701544915e+000
 7.310095463836498e-001	 2.754655158686824e+000	 8.198570085929077e+000
 7.044133467171699e-001	 2.761575969832041e+000	 8.052874442943489e+000
 6.778220965588713e-001	 2.768222752165104e+000	 7.940211157778550e+000
 6.512397128617600e-001	 2.774596698004688e+000	 7.858177891375137e+000
 6.246700681027514e-001	 2.780699067896400e+000	 7.801939424819801e+000
 5.981169889704904e-001	 2.786531189074109e+000	 7.602505155655954e+000
 5.715842551082488e-001	 2.792094453897045e+000	 7.473932305086691e+000
 5.450755979121422e-001	 2.797390318264752e+000	 7.412343789613332e+000
 5.185946993848312e-001	 2.802420300011939e+000	 7.414394195295491e+000
 7.910798676714780e-001	 2.764022004819030e+000	 8.614466674807753e+000
 7.642524086102673e-001	 2.771559715412581e+000	 8.397421828579006e+000
 7.374219108213646e-001	 2.778818800427425e+000	 8.226050422011499e+000
 7.105924111579161e-001	 2.785800320442100e+000	 8.097633542657366e+000
 6.837679044194813e-001	 2.792505407883174e+000	 8.009435935765312e+000
 6.569523419183022e-001	 2.798935265528255e+000	 7.958714578902606e+000
 6.301496301003889e-001	 2.805091164980370e+000	 7.942727055425078e+000
 6.033636292218301e-001	 2.810974445115788e+000	 7.740684951980751e+000
 5.765981520806618e-001	 2.816586510507417e+000	 7.551926191157855e+000
 5.498569628045440e-001	 2.821928829825849e+000	 7.428278845783002e+000
 5.231437756944052e-001	 2.827002934220130e+000	 7.366315549985201e+000
 7.979588230383954e-001	 2.788056978771388e+000	 8.636772035119876e+000
 7.708980817243957e-001	 2.795660234674088e+000	 8.421016032206557e+000
 7.438342752590791e-001	 2.802982442167025e+000	 8.258696833841785e+000
 7.167714755986625e-001	 2.810024671051159e+000	 8.146759796177816e+000
 6.897137122800915e-001	 2.816788063600243e+000	 8.082130386138701e+000
 6.626649709748443e-001	 2.823273833050822e+000	 8.061723312723061e+000
 6.356291920980265e-001	 2.829483262063340e+000	 8.082451449058668e+000
 6.086102694731694e-001	 2.835417701156467e+000	 7.911395396074961e+000
 5.816120490530746e-001	 2.841078567116789e+000	 7.651799742288949e+000
 5.546383276969454e-001	 2.846467341385945e+000	 7.455025757937531e+000
 5.276928520039791e-001	 2.851585568427321e+000	 7.317573733289803e+000
 8.048377784053131e-001	 2.812091952722746e+000	 8.663782583659669e+000
 7.775437548385245e-001	 2.819760753934596e+000	 8.448895716951759e+000
 7.502466396967938e-001	 2.827146083905626e+000	 8.295117830433121e+000
 7.229505400394088e-001	 2.834249021659218e+000	 8.199056724322306e+000
 6.956595201407014e-001	 2.841070719316311e+000	 8.157296811145509e+000
 6.683776000313867e-001	 2.847612400572390e+000	 8.166408807700563e+000
 6.411087540956640e-001	 2.853875359145310e+000	 8.222959209520191e+000
 6.138569097245089e-001	 2.859860957196146e+000	 8.119547968538681e+000
 5.866259460254876e-001	 2.865570623725161e+000	 7.778484226585735e+000
 5.594196925893472e-001	 2.871005852945041e+000	 7.497534093831105e+000
 5.322419283135530e-001	 2.876168202633512e+000	 7.273135142385145e+000
 8.117167337722309e-001	 2.836126926673104e+000	 8.693705108151129e+000
 7.841894279526530e-001	 2.843861273194103e+000	 8.479451077118689e+000
 7.566590041345087e-001	 2.851309725643227e+000	 8.333890945618171e+000
 7.291296044801553e-001	 2.858473372266277e+000	 8.253292999083701e+000
 7.016053280013117e-001	 2.865353375031381e+000	 8.233898684385798e+000
 6.740902290879288e-001	 2.871950968092957e+000	 8.271932866588822e+000
 6.465883160933014e-001	 2.878267456226280e+000	 8.363613859798157e+000
 6.191035499758486e-001	 2.884304213234826e+000	 8.370002770303021e+000
 5.916398429979003e-001	 2.890062680332532e+000	 7.936855153599856e+000
 5.642010574817489e-001	 2.895544364503137e+000	 7.560693190552176e+000
 5.367910046231269e-001	 2.900750836838703e+000	 7.237901381101989e+000
 8.185956891391485e-001	 2.860161900622463e+000	 8.724723829669374e+000
 7.908351010667816e-001	 2.867961792452611e+000	 8.511046240077651e+000
 7.630713685722232e-001	 2.875473367379827e+000	 8.373564039526933e+000
 7.353086689209014e-001	 2.882697722872335e+000	 8.308203907866366e+000
 7.075511358619219e-001	 2.889636030745451e+000	 8.310862282268467e+000
 6.798028581444710e-001	 2.896289535612524e+000	 8.377416183061433e+000
 6.520678780909389e-001	 2.902659553306250e+000	 8.503733805083723e+000
 6.243501902271879e-001	 2.908747469272504e+000	 8.667570681438933e+000
 5.966537399703132e-001	 2.914554736938904e+000	 8.131734617124931e+000
 5.689824223741505e-001	 2.920082876060233e+000	 7.649334685224002e+000
 5.413400809327010e-001	 2.925333471042894e+000	 7.216711982335330e+000
 8.254746445060665e-001	 2.884196874570822e+000	 8.755001342917343e+000
 7.974807741809102e-001	 2.892062311710120e+000	 8.542020352387594e+000
 7.694837330099383e-001	 2.899637009115428e+000	 8.412656534991573e+000
 7.414877333616482e-001	 2.906922073477396e+000	 8.362492744511487e+000
 7.134969437225321e-001	 2.913918686458521e+000	 8.387078233894497e+000
 6.855154872010134e-001	 2.920628103131091e+000	 8.481940054590103e+000
 6.575474400885766e-001	 2.927051650385220e+000	 8.642594212678597e+000
 6.295968304785277e-001	 2.933190725309184e+000	 8.864556560558510e+000
 6.016676369427263e-001	 2.939046793544276e+000	 8.367893520853324e+000
 5.737637872665523e-001	 2.944621387616329e+000	 7.768234919169958e+000
 5.458891572422751e-001	 2.949916105246086e+000	 7.214346994333539e+000
 5.003983941465354e-001	 2.704089763169176e+000	 7.498316423578767e+000
 4.748769387281781e-001	 2.708688223695421e+000	 7.516747912639609e+000
 4.493892264735033e-001	 2.713033232976536e+000	 7.524122953093039e+000
 4.239386611108925e-001	 2.717126425418323e+000	 7.520564236401258e+000
 3.985285948199714e-001	 2.720969488838350e+000	 7.506646335125397e+000
 3.731623273929819e-001	 2.724564162849201e+000	 7.483376411507324e+000
 3.478431054491013e-001	 2.727912237233770e+000	 7.452174628128514e+000
 3.225741217013704e-001	 2.731015550314390e+000	 7.414854316933952e+000
 2.973585142758322e-001	 2.733875987317568e+000	 7.373601961577767e+000
 2.721993660824226e-001	 2.736495478736074e+000	 7.330957046592098e+000
 2.470997042370982e-001	 2.738875998690031e+000	 7.289791825324539e+000
 5.049474704561093e-001	 2.728672397381367e+000	 7.503953939980156e+000
 4.791940018074254e-001	 2.733312662094415e+000	 7.542071443949403e+000
 4.534745830783211e-001	 2.737697171460055e+000	 7.561242311270177e+000
 4.277926489401638e-001	 2.741827574742321e+000	 7.562124926867522e+000
 4.021515820469411e-001	 2.745705575102578e+000	 7.545836719415872e+000
 3.765547121890071e-001	 2.749332927968071e+000	 7.513933955963304e+000
 3.510053155002603e-001	 2.752711439392450e+000	 7.468391246054694e+000
 3.255066137184066e-001	 2.755842964410066e+000	 7.411580813334703e+000
 3.000617734979088e-001	 2.758729405385852e+000	 7.346251591207032e+000
 2.746739057751582e-001	 2.761372710362509e+000	 7.275508197604707e+000
 2.493460651853486e-001	 2.763774871406714e+000	 7.202789842288449e+000
 5.094965467656832e-001	 2.753255031592557e+000	 7.488355060972146e+000
 4.835110648866728e-001	 2.757937100492415e+000	 7.552534839261007e+000
 4.575599396831386e-001	 2.762361109942594e+000	 7.589573694519093e+000
 4.316466367694351e-001	 2.766528724065365e+000	 7.600667982983004e+000
 4.057745692739107e-001	 2.770441661365887e+000	 7.587480623088631e+000
 3.799470969850324e-001	 2.774101693086072e+000	 7.552119962109035e+000
 3.541675255514193e-001	 2.777510641550315e+000	 7.497118359527052e+000
 3.284391057354428e-001	 2.780670378504993e+000	 7.425410546849985e+000
 3.027650327199853e-001	 2.783582823453462e+000	 7.340311822101874e+000
 2.771484454678938e-001	 2.786249941988359e+000	 7.245496135629531e+000
 2.515924261335989e-001	 2.788673744122905e+000	 7.144974122147501e+000
 5.140456230752573e-001	 2.777837665802749e+000	 7.456775611737744e+000
 4.878281279659201e-001	 2.782561538889420e+000	 7.552942620764219e+000
 4.616452962879563e-001	 2.787025048424154e+000	 7.613467202310577e+000
 4.355006245987065e-001	 2.791229873387455e+000	 7.640086194111023e+000
 4.093975565008804e-001	 2.795177747628282e+000	 7.635010870706751e+000
 3.833394817810576e-001	 2.798870458203200e+000	 7.600904867824486e+000
 3.573297356025782e-001	 2.802309843707365e+000	 7.540861830544226e+000
 3.313715977524789e-001	 2.805497792599172e+000	 7.458382846725604e+000
 3.054682919420621e-001	 2.808436241520401e+000	 7.357353725620065e+000
 2.796229851606294e-001	 2.811127173613622e+000	 7.242022179923112e+000
 2.538387870818492e-001	 2.813572616838604e+000	 7.116974967731175e+000
 5.185946993848312e-001	 2.802420300011939e+000	 7.414394195295491e+000
 4.921451910451676e-001	 2.807185977285431e+000	 7.548033649558939e+000
 4.657306528927738e-001	 2.811688986904735e+000	 7.637218805301733e+000
 4.393546124279777e-001	 2.815931022708593e+000	 7.684229719816379e+000
 4.130205437278500e-001	 2.819913833889759e+000	 7.691829118405953e+000
 3.867318665770828e-001	 2.823639223319459e+000	 7.663239361989978e+000
 3.604919456537373e-001	 2.827109045863601e+000	 7.602119145375801e+000
 3.343040897695151e-001	 2.830325206692602e+000	 7.512539989463215e+000
 3.081715511641387e-001	 2.833289659586666e+000	 7.398962589035827e+000
 2.820975248533651e-001	 2.836004405238298e+000	 7.266213076045895e+000
 2.560851480300995e-001	 2.838471489553812e+000	 7.119459256429068e+000
 5.231437756944052e-001	 2.827002934220130e+000	 7.366315549985201e+000
 4.964622541244147e-001	 2.831810415680446e+000	 7.542483980484819e+000
 4.698160094975916e-001	 2.836352925384337e+000	 7.665072698762353e+000
 4.432086002572490e-001	 2.840632172028776e+000	 7.736907943334503e+000
 4.166435309548197e-001	 2.844649920150318e+000	 7.761307209043365e+000
 3.901242513731080e-001	 2.848407988434845e+000	 7.742055243138491e+000
 3.636541557048961e-001	 2.851908248019021e+000	 7.683379778724408e+000
 3.372365817865514e-001	 2.855152620785284e+000	 7.589927070679074e+000
 3.108748103862155e-001	 2.858143077652259e+000	 7.466737297457239e+000
 2.845720645461007e-001	 2.860881636862386e+000	 7.319219890370981e+000
 2.583315089783498e-001	 2.863370362268527e+000	 7.153128849992833e+000
 5.276928520039791e-001	 2.851585568427321e+000	 7.317573733289803e+000
 5.007793172036622e-001	 2.856434854074466e+000	 7.540909569287752e+000
 4.739013661024092e-001	 2.861016863862959e+000	 7.701223534273076e+000
 4.470625880865202e-001	 2.865333321348009e+000	 7.801891229171883e+000
 4.202665181817892e-001	 2.869386006409961e+000	 7.846788457252709e+000
 3.935166361691331e-001	 2.873176753549361e+000	 7.840266233694639e+000
 3.668163657560552e-001	 2.876707450173628e+000	 7.787125539051727e+000
 3.401690738035875e-001	 2.879980034877218e+000	 7.692591883590306e+000
 3.135780696082920e-001	 2.882996495717180e+000	 7.562289747711986e+000
 2.870466042388363e-001	 2.885758868485887e+000	 7.402216961773034e+000
 2.605778699266002e-001	 2.888269234982751e+000	 7.218719086588679e+000
 5.322419283135530e-001	 2.876168202633512e+000	 7.273135142385145e+000
 5.050963802829095e-001	 2.881059292467493e+000	 7.547868840957294e+000
 4.779867227072269e-001	 2.885680802340604e+000	 7.749818536976556e+000
 4.509165759157915e-001	 2.890034470666287e+000	 7.882912590573235e+000
 4.238895054087589e-001	 2.894122092668686e+000	 7.951588868599148e+000
 3.969090209651583e-001	 2.897945518663007e+000	 7.960768752458176e+000
 3.699785758072141e-001	 2.901506652327419e+000	 7.915830896195680e+000
 3.431015658206237e-001	 2.904807448968402e+000	 7.822584803732790e+000
 3.162813288303687e-001	 2.907849913781428e+000	 7.687244292291386e+000
 2.895211439315719e-001	 2.910636100108802e+000	 7.516400907076987e+000
 2.628242308748505e-001	 2.913168107696484e+000	 7.316997350182594e+000
 5.367910046231269e-001	 2.900750836838703e+000	 7.237901381101989e+000
 5.094134433621568e-001	 2.905683730859524e+000	 7.567865127470277e+000
 4.820720793120443e-001	 2.910344740817267e+000	 7.814959515172689e+000
 4.547705637450628e-001	 2.914735619983611e+000	 7.983669272201939e+000
 4.275124926357287e-001	 2.918858178926494e+000	 8.078998296743025e+000
 4.003014057611836e-001	 2.922714283775782e+000	 8.106442647808009e+000
 3.731407858583731e-001	 2.926305854480396e+000	 8.071963292329171e+000
 3.460340578376599e-001	 2.929634863058838e+000	 7.981958679540948e+000
 3.189845880524453e-001	 2.932703331845003e+000	 7.843237211567820e+000
 2.919956836243075e-001	 2.935513331731130e+000	 7.662989677077071e+000
 2.650705918231008e-001	 2.938066980409724e+000	 7.448761712666495e+000
 5.413400809327010e-001	 2.925333471042894e+000	 7.216711982335330e+000
 5.137305064414042e-001	 2.930308169250560e+000	 7.605348982623561e+000
 4.861574359168621e-001	 2.935008679292952e+000	 7.900704768589068e+000
 4.586245515743341e-001	 2.939436769299983e+000	 8.107824253021702e+000
 4.311354798626982e-001	 2.943594265183386e+000	 8.232281542259392e+000
 4.036937905572088e-001	 2.947483048887685e+000	 8.280151893938800e+000
 3.763029959095320e-001	 2.951105056632558e+000	 8.257983437240061e+000
 3.489665498546961e-001	 2.954462277148526e+000	 8.172768728444286e+000
 3.216878472745220e-001	 2.957556749907906e+000	 8.031916212623552e+000
 2.944702233170431e-001	 2.960390563352871e+000	 7.843221660152001e+000
 2.673169527713512e-001	 2.962965853122473e+000	 7.614839644449986e+000
 5.458891572422751e-001	 2.949916105246086e+000	 7.214346994333539e+000
 5.180475695206517e-001	 2.954932607640603e+000	 7.664720381124409e+000
 4.902427925216797e-001	 2.959672617767659e+000	 8.011070901238050e+000
 4.624785394036054e-001	 2.964137918615402e+000	 8.259007674033731e+000
 4.347584670896679e-001	 2.968330351439360e+000	 8.414679396516982e+000
 4.070861753532341e-001	 2.972251813998719e+000	 8.484745252284874e+000
 3.794652059606912e-001	 2.975904258783907e+000	 8.476345588847169e+000
 3.518990418717324e-001	 2.979289691237467e+000	 8.397072438159430e+000
 3.243911064965986e-001	 2.982410167970137e+000	 8.254939953137415e+000
 2.969447630097788e-001	 2.985267794974027e+000	 8.058354830697889e+000
 2.695633137196015e-001	 2.987864725834731e+000	 7.816086789521978e+000
 2.470997042370982e-001	 2.738875998690031e+000	 7.289791825324539e+000
 2.220624995334239e-001	 2.741019563288683e+000	 7.356977211375121e+000
 1.970906659666314e-001	 2.742928228994460e+000	 7.402134064671012e+000
 1.721870603070337e-001	 2.744604090990911e+000	 7.429611689630626e+000
 1.473544817196693e-001	 2.746049281555912e+000	 7.444022742844931e+000
 1.225956714330543e-001	 2.747265968441736e+000	 7.450222501790409e+000
 9.791331245501737e-002	 2.748256353263346e+000	 7.453288334728175e+000
 7.331002933477435e-002	 2.749022669896307e+000	 7.458499411465092e+000
 4.878838797036033e-002	 2.749567182885613e+000	 7.471316692520953e+000
 2.435089546050458e-002	 2.749892185866723e+000	 7.497363232083095e+000
 0.000000000000000e+000	 2.750000000000000e+000	 7.542404827954135e+000
 2.493460651853486e-001	 2.763774871406714e+000	 7.202789842288449e+000
 2.240812495293676e-001	 2.765937922956008e+000	 7.248079410485435e+000
 1.988823992934204e-001	 2.767863940167976e+000	 7.273203164071100e+000
 1.737523972184580e-001	 2.769555037273287e+000	 7.283025121302819e+000
 1.486940679164730e-001	 2.771013365934162e+000	 7.282668855469057e+000
 1.237101775362400e-001	 2.772241113609713e+000	 7.277496092949976e+000
 9.880343347656692e-002	 2.773240501929583e+000	 7.273085533459808e+000
 7.397648414620710e-002	 2.774013785077298e+000	 7.275211932918568e+000
 4.923191876954048e-002	 2.774563248184625e+000	 7.289825487191693e+000
 2.457226723710201e-002	 2.774891205738251e+000	 7.323031552696981e+000
 0.000000000000000e+000	 2.775000000000000e+000	 7.381070737632249e+000
 2.515924261335989e-001	 2.788673744122905e+000	 7.144974122147501e+000
 2.260999995253115e-001	 2.790856282622937e+000	 7.171522318286669e+000
 2.006741326202093e-001	 2.792799651341178e+000	 7.179426033484491e+000
 1.753177341298821e-001	 2.794505983555422e+000	 7.174070091829139e+000
 1.500336541132767e-001	 2.795977450312236e+000	 7.161095312665678e+000
 1.248246836394257e-001	 2.797216258777568e+000	 7.146376422363192e+000
 9.969355449811647e-002	 2.798224650595742e+000	 7.136000209387440e+000
 7.464293895763982e-002	 2.799004900258246e+000	 7.136243963919434e+000
 4.967544956872060e-002	 2.799559313483617e+000	 7.153554240981372e+000
 2.479363901369944e-002	 2.799890225609775e+000	 7.194525983710443e+000
 0.000000000000000e+000	 2.800000000000000e+000	 7.265882041102326e+000
 2.538387870818492e-001	 2.813572616838604e+000	 7.116974967731175e+000
 2.281187495212552e-001	 2.815774642289468e+000	 7.127472761873563e+000
 2.024658659469983e-001	 2.817735362514068e+000	 7.120507189970359e+000
 1.768830710413064e-001	 2.819456929837321e+000	 7.101990175488931e+000
 1.513732403100804e-001	 2.820941534690136e+000	 7.078086312192789e+000
 1.259391897426113e-001	 2.822191403945302e+000	 7.055190073818067e+000
 1.005836755196660e-001	 2.823208799261827e+000	 7.039903288308692e+000
 7.530939376907257e-002	 2.823996015439150e+000	 7.039012918676661e+000
 5.011898036790074e-002	 2.824555378782590e+000	 7.059469190187128e+000
 2.501501079029687e-002	 2.824889245481295e+000	 7.108364101183315e+000
 0.000000000000000e+000	 2.825000000000000e+000	 7.192910352456158e+000
 2.560851480300995e-001	 2.838471489553812e+000	 7.119459256429068e+000
 2.301374995171990e-001	 2.840693001955602e+000	 7.116144924335221e+000
 2.042575992737872e-001	 2.842671073686646e+000	 7.096209149178795e+000
 1.784484079527307e-001	 2.844407876118981e+000	 7.066097446176151e+000
 1.527128265068841e-001	 2.845905619067862e+000	 7.032504908258773e+000
 1.270536958457970e-001	 2.847166549112915e+000	 7.002352697704335e+000
 1.014737965412156e-001	 2.848192947927831e+000	 6.982764823716223e+000
 7.597584858050532e-002	 2.848987130620012e+000	 6.981045248870426e+000
 5.056251116708087e-002	 2.849551444081544e+000	 7.004655364899276e+000
 2.523638256689429e-002	 2.849888265352808e+000	 7.061191875813978e+000
 0.000000000000000e+000	 2.850000000000000e+000	 7.158365123887318e+000
 2.583315089783498e-001	 2.863370362268527e+000	 7.153128849992833e+000
 2.321562495131427e-001	 2.865611361621340e+000	 7.137798285798491e+000
 2.060493326005761e-001	 2.867606784858910e+000	 7.106349903673123e+000
 1.800137448641549e-001	 2.869358822400401e+000	 7.065769499154966e+000
 1.540524127036878e-001	 2.870869703445412e+000	 7.023289582980429e+000
 1.281682019489827e-001	 2.872141694280408e+000	 6.986365138552573e+000
 1.023639175627651e-001	 2.873177096593760e+000	 6.962649686896723e+000
 7.664230339193809e-002	 2.873978245800831e+000	 6.959971702892490e+000
 5.100604196626101e-002	 2.874547509380479e+000	 6.986311424052933e+000
 2.545775434349172e-002	 2.874887285224317e+000	 7.049778090562382e+000
 0.000000000000000e+000	 2.875000000000000e+000	 7.158587652730370e+000
 2.605778699266002e-001	 2.888269234982751e+000	 7.218719086588679e+000
 2.341749995090864e-001	 2.890529721286680e+000	 7.192735670970301e+000
 2.078410659273651e-001	 2.892542496030862e+000	 7.150800531683177e+000
 1.815790817755792e-001	 2.894309768681584e+000	 7.100446626862653e+000
 1.553919989004915e-001	 2.895833787822788e+000	 7.049450995179578e+000
 1.292827080521683e-001	 2.897116839447780e+000	 7.005809762873423e+000
 1.032540385843147e-001	 2.898161245259612e+000	 6.977713479958435e+000
 7.730875820337083e-002	 2.898969360981607e+000	 6.973522830298269e+000
 5.144957276544113e-002	 2.899543574679394e+000	 7.001744757633851e+000
 2.567912612008915e-002	 2.899886305095822e+000	 7.071009047019501e+000
 0.000000000000000e+000	 2.900000000000000e+000	 7.190045398480328e+000
 2.628242308748505e-001	 2.913168107696484e+000	 7.316997350182594e+000
 2.361937495050302e-001	 2.915448080951624e+000	 7.281301396803992e+000
 2.096327992541540e-001	 2.917478207202503e+000	 7.229482928487233e+000
 1.831444186870034e-001	 2.919260714962528e+000	 7.169629139543726e+000
 1.567315850972952e-001	 2.920797872199990e+000	 7.110068895909536e+000
 1.303972141553540e-001	 2.922091984615031e+000	 7.059346975310959e+000
 1.041441596058642e-001	 2.923145393925386e+000	 7.026198658444821e+000
 7.797521301480355e-002	 2.923960476162338e+000	 7.019524716800146e+000
 5.189310356462128e-002	 2.924539639978292e+000	 7.048366840051703e+000
 2.590049789668658e-002	 2.924885324967322e+000	 7.121883543243080e+000
 0.000000000000000e+000	 2.925000000000000e+000	 7.249326591247711e+000
 2.650705918231008e-001	 2.938066980409724e+000	 7.448761712666495e+000
 2.382124995009740e-001	 2.940366440616170e+000	 7.403879514354313e+000
 2.114245325809429e-001	 2.942413918373830e+000	 7.342367653147679e+000
 1.847097555984276e-001	 2.944211661243234e+000	 7.272874822121927e+000
 1.580711712940989e-001	 2.945761956577017e+000	 7.204289200817503e+000
 1.315117202585397e-001	 2.947067129782162e+000	 7.145711911943767e+000
 1.050342806274138e-001	 2.948129542591084e+000	 7.106430851104389e+000
 7.864166782623630e-002	 2.948951591343027e+000	 7.095894936124362e+000
 5.233663436380141e-002	 2.949535705277168e+000	 7.123688819783907e+000
 2.612186967328401e-002	 2.949884344838817e+000	 7.199508106958263e+000
 0.000000000000000e+000	 2.949999999999999e+000	 7.333135114359674e+000
 2.673169527713512e-001	 2.962965853122473e+000	 7.614839644449986e+000
 2.402312494969177e-001	 2.965284800280320e+000	 7.560892139276678e+000
 2.132162659077319e-001	 2.967349629544843e+000	 7.489471883813558e+000
 1.862750925098519e-001	 2.969162607523701e+000	 7.409796519298342e+000
 1.594107574909026e-001	 2.970726040953869e+000	 7.331321210119597e+000
 1.326262263617254e-001	 2.972042274949171e+000	 7.263711300307516e+000
 1.059244016489633e-001	 2.973113691256705e+000	 7.216815365218045e+000
 7.930812263766905e-002	 2.973942706523673e+000	 7.200638705977905e+000
 5.278016516298154e-002	 2.974531770576026e+000	 7.225317331388465e+000
 2.634324144988144e-002	 2.974883364710307e+000	 7.301092469100599e+000
 0.000000000000000e+000	 2.974999999999999e+000	 7.438285644980485e+000
 2.695633137196015e-001	 2.987864725834731e+000	 7.816086789521978e+000
 2.422499994928616e-001	 2.990203159944074e+000	 7.752797865802346e+000
 2.150079992345209e-001	 2.992285340715546e+000	 7.670857475258895e+000
 1.878404294212762e-001	 2.994113553803930e+000	 7.580059841393131e+000
 1.607503436877064e-001	 2.995690125330548e+000	 7.490434967577490e+000
 1.337407324649111e-001	 2.997017420116061e+000	 7.412220476418036e+000
 1.068145226705129e-001	 2.998097839922249e+000	 7.355833866660813e+000
 7.997457744910182e-002	 2.998933821704276e+000	 7.331845236215409e+000
 5.322369596216169e-002	 2.999527835874867e+000	 7.350950516918271e+000
 2.656461322647888e-002	 2.999882384581793e+000	 7.423945263682997e+000
 0.000000000000000e+000	 3.000000000000000e+000	 7.561699037702616e+000
 3.000000000000000e+000	 0.000000000000000e+000	 1.023597569289542e+001
 2.999882384581794e+000	 2.656461322647803e-002	 1.042821837288490e+001
 2.999527835874867e+000	 5.322369596216094e-002	 1.057221707964501e+001
 2.998933821704276e+000	 7.997457744910114e-002	 1.067596279808099e+001
 2.998097839922250e+000	 1.068145226705123e-001	 1.074757992901373e+001
 2.997017420116060e+000	 1.337407324649106e-001	 1.079531270429529e+001
 2.995690125330548e+000	 1.607503436877060e-001	 1.082751092764741e+001
 2.994113553803930e+000	 1.878404294212759e-001	 1.085261505067894e+001
 2.992285340715546e+000	 2.150079992345207e-001	 1.087914059567407e+001
 2.990203159944073e+000	 2.422499994928614e-001	 1.091566193892449e+001
 2.987864725834731e+000	 2.695633137196016e-001	 1.097079547061219e+001
 3.025000000000000e+000	 0.000000000000000e+000	 1.001901438455887e+001
 3.024881404453279e+000	 2.678598500307306e-002	 1.023193453523231e+001
 3.024523901173706e+000	 5.366722676133150e-002	 1.039639469430829e+001
 3.023924936884879e+000	 8.064103226051231e-002	 1.052054298638155e+001
 3.023081988587792e+000	 1.077046436920233e-001	 1.061266291190860e+001
 3.021992565282949e+000	 1.348552385680358e-001	 1.068115943188656e+001
 3.020654209707225e+000	 1.620899298844223e-001	 1.073454436317791e+001
 3.019064500084158e+000	 1.894057663325809e-001	 1.078142109421319e+001
 3.017221051886248e+000	 2.167997325611533e-001	 1.083046863298681e+001
 3.015121519607826e+000	 2.442687494886067e-001	 1.089042500149728e+001
 3.012763598546988e+000	 2.718096746676061e-001	 1.097006999306867e+001
 3.050000000000000e+000	 0.000000000000000e+000	 9.936567449731673e+000
 3.049880424324768e+000	 2.700735677966334e-002	 1.015748366038386e+001
 3.049519966472564e+000	 5.411075756048293e-002	 1.032971540416048e+001
 3.048916052065525e+000	 8.130748707188022e-002	 1.046157694396390e+001
 3.048066137253414e+000	 1.085947647134573e-001	 1.056152001892811e+001
 3.046967710449958e+000	 1.359697446710403e-001	 1.063811959018365e+001
 3.045618294084077e+000	 1.634295160809641e-001	 1.070005888175490e+001
 3.044015446364626e+000	 1.909711032436473e-001	 1.075611372659582e+001
 3.042156763057262e+000	 2.185914658874734e-001	 1.081513623001089e+001
 3.040039879271976e+000	 2.462874994839550e-001	 1.088603776499560e+001
 3.037662471259737e+000	 2.740560356151188e-001	 1.097777131637053e+001
 3.075000000000000e+000	 0.000000000000000e+000	 9.987167818466942e+000
 3.074879444196264e+000	 2.722872855624884e-002	 1.020334741109898e+001
 3.074516031771441e+000	 5.455428835961522e-002	 1.037060963850868e+001
 3.073907167246214e+000	 8.197394188320498e-002	 1.049744395580112e+001
 3.073050285919110e+000	 1.094848857348141e-001	 1.059247953589814e+001
 3.071942855617088e+000	 1.370842507739238e-001	 1.066447066785357e+001
 3.070582378461104e+000	 1.647691022773312e-001	 1.072228143434031e+001
 3.068966392645331e+000	 1.925364401544753e-001	 1.077486967859984e+001
 3.067092474228590e+000	 2.203831992134809e-001	 1.083127027343367e+001
 3.064958238936522e+000	 2.483062494789064e-001	 1.090057770716070e+001
 3.062561343972977e+000	 2.763023965621398e-001	 1.099192800386038e+001
 3.100000000000000e+000	 0.000000000000000e+000	 1.016939574565483e+001
 3.099878464067764e+000	 2.745010033282959e-002	 1.036805158861483e+001
 3.099512097070338e+000	 5.499781915872840e-002	 1.051754877608558e+001
 3.098898282426945e+000	 8.264039669448649e-002	 1.062656106571698e+001
 3.098034434584885e+000	 1.103750067560939e-001	 1.070390431659338e+001
 3.096918000784339e+000	 1.381987568766865e-001	 1.075852153149531e+001
 3.095546462838306e+000	 1.661086884735237e-001	 1.079946716193017e+001
 3.093917338926274e+000	 1.941017770650647e-001	 1.083589068650522e+001
 3.092028185400229e+000	 2.221749325391758e-001	 1.087701947556308e+001
 3.089876598601466e+000	 2.503249994734608e-001	 1.093214095739714e+001
 3.087460216686710e+000	 2.785487575086693e-001	 1.101058410382160e+001
 3.125000000000000e+000	 0.000000000000000e+000	 1.048187691802867e+001
 3.124877483939268e+000	 2.767147210940556e-002	 1.065016436710794e+001
 3.124508162369254e+000	 5.544134995782243e-002	 1.076904350707159e+001
 3.123889397607720e+000	 8.330685150572482e-002	 1.084738156603209e+001
 3.123018583250737e+000	 1.112651277772966e-001	 1.089419040001908e+001
 3.121893145951711e+000	 1.393132629793283e-001	 1.091861117052269e+001
 3.120510547215681e+000	 1.674482746695415e-001	 1.092989826795324e+001
 3.118868285207457e+000	 1.956671139754157e-001	 1.093740249187875e+001
 3.116963896572181e+000	 2.239666658645581e-001	 1.095055350130301e+001
 3.114794958266806e+000	 2.523437494676182e-001	 1.097884155070645e+001
 3.112359089400934e+000	 2.807951184547070e-001	 1.103179853008047e+001
 3.150000000000000e+000	 0.000000000000000e+000	 1.085708908651459e+001
 3.149876503810778e+000	 2.789284388597678e-002	 1.098950408927129e+001
 3.149504227668188e+000	 5.588488075689733e-002	 1.107430672236848e+001
 3.148880512788539e+000	 8.397330631691997e-002	 1.111997661296112e+001
 3.148002731916666e+000	 1.121552487984222e-001	 1.113507001459021e+001
 3.146868291119203e+000	 1.404277690818493e-001	 1.112823195901729e+001
 3.145474631593232e+000	 1.687878608653847e-001	 1.110820919561205e+001
 3.143819231488878e+000	 1.972324508855280e-001	 1.108386391072461e+001
 3.141899607744446e+000	 2.257583991896277e-001	 1.106418821634177e+001
 3.139713317932544e+000	 2.543624994613787e-001	 1.105831939408157e+001
 3.137257962115649e+000	 2.830414794002528e-001	 1.107555587723145e+001
 3.175000000000000e+000	 0.000000000000000e+000	 1.110541702104655e+001
 3.174875523682292e+000	 2.811421566254322e-002	 1.120873282712866e+001
 3.174500292967143e+000	 5.632841155595311e-002	 1.126689666742053e+001
 3.173871627969401e+000	 8.463976112807191e-002	 1.128802888265506e+001
 3.172986880582671e+000	 1.130453698194708e-001	 1.128031552029142e+001
 3.171843436286817e+000	 1.415422751842494e-001	 1.125202103378541e+001
 3.170438715970958e+000	 1.701274470610533e-001	 1.121150180983504e+001
 3.168770177770539e+000	 1.987977877954020e-001	 1.116722051607558e+001
 3.166835318917023e+000	 2.275501325143849e-001	 1.112776125846026e+001
 3.164631677598678e+000	 2.563812494547423e-001	 1.110184553420515e+001
 3.162156834830856e+000	 2.852878403453070e-001	 1.109834896271125e+001
 3.199999999999999e+000	 0.000000000000000e+000	 1.122561222282104e+001
 3.199874543553811e+000	 2.833558743910490e-002	 1.130670556116521e+001
 3.199496358266115e+000	 5.677194235498975e-002	 1.134521205021719e+001
 3.198862743150305e+000	 8.530621593918064e-002	 1.134888190249608e+001
 3.197971029248754e+000	 1.139354908404423e-001	 1.132551981444990e+001
 3.196818581454552e+000	 1.426567812865288e-001	 1.128299822354870e+001
 3.195402800348857e+000	 1.714670332565473e-001	 1.122927143460089e+001
 3.193721124052436e+000	 2.003631247050374e-001	 1.117239060781769e+001
 3.191771030089913e+000	 2.293418658388294e-001	 1.112051959779688e+001
 3.189550037265209e+000	 2.583999994477089e-001	 1.108195162913034e+001
 3.187055707546556e+000	 2.875342012898696e-001	 1.106512679075226e+001
 3.224999999999999e+000	 0.000000000000000e+000	 1.121646490617591e+001
 3.224873563425334e+000	 2.855695921566181e-002	 1.128260058497834e+001
 3.224492423565108e+000	 5.721547315400726e-002	 1.130882091096406e+001
 3.223853858331254e+000	 8.597267075024617e-002	 1.130249492424783e+001
 3.222955177914914e+000	 1.148256118613367e-001	 1.127103461819310e+001
 3.221793726622407e+000	 1.437712873886872e-001	 1.122190876483646e+001
 3.220366884726932e+000	 1.728066194518667e-001	 1.116265765162353e+001
 3.218672070334573e+000	 2.019284616144343e-001	 1.110090872203140e+001
 3.216706741263116e+000	 2.311335991629613e-001	 1.104439310919027e+001
 3.214468396932137e+000	 2.604187494402785e-001	 1.100096304802952e+001
 3.211954580262747e+000	 2.897805622339404e-001	 1.097861014776843e+001
 3.250000000000000e+000	 0.000000000000000e+000	 1.107680250962294e+001
 3.249872583296864e+000	 2.877833099221397e-002	 1.113563091005372e+001
 3.249488488864120e+000	 5.765900395300565e-002	 1.115732349934937e+001
 3.248844973512246e+000	 8.663912556126854e-002	 1.114885689955490e+001
 3.247939326581152e+000	 1.157157328821541e-001	 1.111723884266961e+001
 3.246768871790384e+000	 1.448857934907248e-001	 1.106952257503635e+001
 3.245330969105183e+000	 1.741462056470114e-001	 1.101282221597808e+001
 3.243623016616949e+000	 2.034937985235927e-001	 1.095432906331289e+001
 3.241642452436632e+000	 2.329253324867807e-001	 1.090132883479986e+001
 3.239386756599464e+000	 2.624374994324513e-001	 1.086121983086427e+001
 3.236853452979430e+000	 2.920269231775197e-001	 1.084153200012158e+001
 2.987864725834731e+000	 2.695633137196016e-001	 1.097079547061219e+001
 2.985267794974027e+000	 2.969447630097781e-001	 1.082861355976016e+001
 2.982410167970137e+000	 3.243911064965980e-001	 1.072148226718409e+001
 2.979289691237467e+000	 3.518990418717317e-001	 1.065776443426817e+001
 2.975904258783907e+000	 3.794652059606907e-001	 1.064578679074140e+001
 2.972251813998720e+000	 4.070861753532337e-001	 1.069382048846405e+001
 2.968330351439360e+000	 4.347584670896676e-001	 1.081006116667512e+001
 2.964137918615402e+000	 4.624785394036054e-001	 1.100260858108767e+001
 2.959672617767659e+000	 4.902427925216799e-001	 1.127944583155640e+001
 2.954932607640602e+000	 5.180475695206518e-001	 1.164841822535523e+001
 2.949916105246086e+000	 5.458891572422751e-001	 1.211721181538644e+001
 3.012763598546988e+000	 2.718096746676061e-001	 1.097006999306867e+001
 3.010145026595181e+000	 2.994193027022249e-001	 1.084596733989012e+001
 3.007263586032368e+000	 3.270943657183576e-001	 1.075864913333151e+001
 3.004117105326406e+000	 3.548315338884370e-001	 1.071675420370862e+001
 3.000703460935254e+000	 3.826274160115197e-001	 1.072888519843280e+001
 2.997020579109751e+000	 4.104785601489447e-001	 1.080358858180538e+001
 2.993066437695334e+000	 4.383814543163541e-001	 1.094933415238989e+001
 2.988839067930820e+000	 4.663325272326392e-001	 1.117449411117691e+001
 2.984336556242366e+000	 4.943281491263213e-001	 1.148732171615538e+001
 2.979557046030643e+000	 5.223646325997995e-001	 1.189592956128309e+001
 2.974498739449277e+000	 5.504382335518415e-001	 1.240826752019156e+001
 3.037662471259737e+000	 2.740560356151188e-001	 1.097777131637053e+001
 3.035022258216923e+000	 3.018938423940945e-001	 1.086304367377223e+001
 3.032117004095270e+000	 3.297976249394831e-001	 1.078692773560382e+001
 3.028944519416094e+000	 3.577640259044807e-001	 1.075834690225672e+001
 3.025502663087416e+000	 3.857896260616889e-001	 1.078618833247925e+001
 3.021789344221656e+000	 4.138709449440278e-001	 1.087928239728429e+001
 3.017802523952225e+000	 4.420044415424737e-001	 1.104638163724377e+001
 3.013540217247192e+000	 4.701865150611985e-001	 1.129613925722794e+001
 3.009000494718050e+000	 4.984135057306106e-001	 1.163708719511261e+001
 3.004181484421680e+000	 5.266816956787483e-001	 1.207761380341755e+001
 2.999081373653468e+000	 5.549873098613937e-001	 1.262594118524836e+001
 3.062561343972977e+000	 2.763023965621398e-001	 1.099192800386038e+001
 3.059899489839250e+000	 3.043683820853868e-001	 1.087773393938226e+001
 3.056970422158846e+000	 3.325008841599745e-001	 1.080407271760709e+001
 3.053771933506530e+000	 3.606965179198626e-001	 1.078016098404416e+001
 3.050301865240394e+000	 3.889518361111983e-001	 1.081517909695205e+001
 3.046558109334431e+000	 4.172633297384824e-001	 1.091825002335753e+001
 3.042538610210034e+000	 4.456274287680268e-001	 1.109841772395892e+001
 3.038241366564517e+000	 4.740405028892829e-001	 1.136462506183198e+001
 3.033664433194715e+000	 5.024988623345476e-001	 1.172569127238717e+001
 3.028805922813712e+000	 5.309987587574983e-001	 1.219028903453263e+001
 3.023664007858659e+000	 5.595363861709308e-001	 1.276692118547084e+001
 3.087460216686710e+000	 2.785487575086693e-001	 1.101058410382160e+001
 3.084776721462165e+000	 3.068429217761016e-001	 1.088794470679930e+001
 3.081823840223092e+000	 3.352041433798317e-001	 1.080785363736962e+001
 3.078599347597716e+000	 3.636290099345829e-001	 1.077982955536004e+001
 3.075101067394185e+000	 3.921140461600480e-001	 1.081335480148618e+001
 3.071326874448076e+000	 4.206557145323085e-001	 1.091785372337270e+001
 3.067274696468760e+000	 4.492504159930133e-001	 1.110267047564137e+001
 3.062942515882795e+000	 4.778944907168927e-001	 1.137704632986135e+001
 3.058328371672358e+000	 5.065842189381321e-001	 1.175009653275401e+001
 3.053430361206738e+000	 5.353158218360491e-001	 1.223078675361672e+001
 3.048246642064849e+000	 5.640854624804536e-001	 1.282790916447023e+001
 3.112359089400934e+000	 2.807951184547070e-001	 1.103179853008047e+001
 3.109653953085667e+000	 3.093174614662391e-001	 1.089159713052143e+001
 3.106677258288014e+000	 3.379074025990549e-001	 1.079605437076510e+001
 3.103426761689648e+000	 3.665615019486414e-001	 1.075499978856451e+001
 3.099900269548793e+000	 3.952762562082376e-001	 1.077822658505770e+001
 3.096095639562592e+000	 4.240480993255069e-001	 1.087546936857276e+001
 3.092010782728402e+000	 4.528734032174331e-001	 1.105638135736564e+001
 3.087643665202026e+000	 4.817484785440278e-001	 1.133051107797829e+001
 3.082992310150981e+000	 5.106695755413646e-001	 1.170727859857102e+001
 3.078054799600758e+000	 5.396328849144008e-001	 1.219595133922403e+001
 3.072829276272041e+000	 5.686345387899614e-001	 1.280561950380705e+001
 3.137257962115649e+000	 2.830414794002528e-001	 1.107555587723145e+001
 3.134531184709755e+000	 3.117920011557995e-001	 1.090767037222799e+001
 3.131530676353607e+000	 3.406106618176440e-001	 1.078328305829487e+001
 3.128254175782330e+000	 3.694939939620384e-001	 1.071268114062885e+001
 3.124699471704214e+000	 3.984384662557676e-001	 1.070731886720049e+001
 3.120864404677979e+000	 4.274404841180767e-001	 1.078848589810020e+001
 3.116746868988961e+000	 4.564963904412863e-001	 1.095680470435062e+001
 3.112344814522210e+000	 4.856024663706879e-001	 1.122214001035744e+001
 3.107656248630582e+000	 5.147549321442447e-001	 1.159422561241506e+001
 3.102679237995774e+000	 5.439499479925537e-001	 1.208263953838080e+001
 3.097411910480231e+000	 5.731836150994546e-001	 1.269677881751712e+001
 3.162156834830856e+000	 2.852878403453070e-001	 1.109834896271125e+001
 3.159408416334431e+000	 3.142665408447823e-001	 1.092151805877732e+001
 3.156384094419872e+000	 3.433139210355990e-001	 1.078700645161167e+001
 3.153081589875761e+000	 3.724264859747735e-001	 1.070477034293789e+001
 3.149498673860448e+000	 4.016006763026376e-001	 1.068500221967669e+001
 3.145633169794238e+000	 4.308328689100185e-001	 1.073815076694769e+001
 3.141482955250438e+000	 4.601193776645728e-001	 1.087494135918533e+001
 3.137045963843348e+000	 4.894564541968736e-001	 1.110639708538590e+001
 3.132320187111163e+000	 5.188402887467726e-001	 1.144386026059267e+001
 3.127303676391783e+000	 5.482670110705075e-001	 1.189901437181498e+001
 3.121994544689422e+000	 5.777326914089332e-001	 1.249812547051772e+001
 3.187055707546556e+000	 2.875342012898696e-001	 1.106512679075226e+001
 3.184285647959694e+000	 3.167410805331879e-001	 1.088990212661571e+001
 3.181237512486810e+000	 3.460171802529199e-001	 1.075580772451367e+001
 3.177909003969941e+000	 3.753589779868470e-001	 1.067245427557729e+001
 3.174297876017497e+000	 4.047628863488477e-001	 1.064968670038561e+001
 3.170401934911367e+000	 4.342252537013319e-001	 1.069760495326648e+001
 3.166219041512832e+000	 4.637423648872929e-001	 1.082658543731552e+001
 3.161747113165438e+000	 4.933104420225843e-001	 1.104730298493759e+001
 3.156984125592723e+000	 5.229256453489481e-001	 1.137075335467198e+001
 3.151928114788788e+000	 5.525840741482623e-001	 1.180827619101879e+001
 3.146577178899613e+000	 5.822817677183971e-001	 1.237157838995818e+001
 3.211954580262747e+000	 2.897805622339404e-001	 1.097861014776843e+001
 3.209162879585543e+000	 3.192156202210161e-001	 1.081586521828986e+001
 3.206090930554421e+000	 3.487204394696067e-001	 1.069305068790276e+001
 3.202736418064867e+000	 3.782914699982588e-001	 1.061941701488126e+001
 3.199097078175363e+000	 4.079250963943982e-001	 1.060444664580462e+001
 3.195170700029367e+000	 4.376176384920170e-001	 1.065787573052111e+001
 3.190955127776143e+000	 4.673653521094462e-001	 1.078971648124145e+001
 3.186448262488483e+000	 4.971644298478204e-001	 1.101028012933573e+001
 3.181648064075263e+000	 5.270110019507714e-001	 1.133020042922715e+001
 3.176552553186789e+000	 5.569011372258180e-001	 1.176045765459441e+001
 3.171159813110805e+000	 5.868308440278466e-001	 1.231240302793254e+001
 3.236853452979430e+000	 2.920269231775197e-001	 1.084153200012158e+001
 3.234040111211981e+000	 3.216901599082671e-001	 1.070246192595790e+001
 3.230944348622705e+000	 3.514236986856595e-001	 1.060211088387741e+001
 3.227563832160544e+000	 3.812239620090089e-001	 1.054935416209143e+001
 3.223896280334044e+000	 4.110873064392889e-001	 1.055329660800753e+001
 3.219939465148238e+000	 4.410100232820741e-001	 1.062329527342992e+001
 3.215691214040371e+000	 4.709883393310330e-001	 1.076898273811877e+001
 3.211149411812481e+000	 5.010184176725819e-001	 1.100029106403170e+001
 3.206312002558782e+000	 5.310963585522426e-001	 1.132747632825024e+001
 3.201176991585784e+000	 5.612182003031750e-001	 1.176114367827239e+001
 3.195742447322996e+000	 5.913799203372813e-001	 1.231227284905080e+001
 2.949916105246086e+000	 5.458891572422751e-001	 1.211721181538644e+001
 2.944621387616330e+000	 5.737637872665515e-001	 1.149617659313118e+001
 2.939046793544276e+000	 6.016676369427255e-001	 1.091314556487573e+001
 2.933190725309185e+000	 6.295968304785271e-001	 1.047865028066744e+001
 2.927051650385221e+000	 6.575474400885762e-001	 1.061503528753803e+001
 2.920628103131091e+000	 6.855154872010131e-001	 1.074060467963085e+001
 2.913918686458520e+000	 7.134969437225318e-001	 1.085256118161639e+001
 2.906922073477395e+000	 7.414877333616480e-001	 1.094816371435654e+001
 2.899637009115428e+000	 7.694837330099382e-001	 1.102473716776766e+001
 2.892062311710120e+000	 7.974807741809104e-001	 1.107968226298288e+001
 2.884196874570821e+000	 8.254746445060665e-001	 1.111048547974121e+001
 2.974498739449277e+000	 5.504382335518415e-001	 1.240826752019156e+001
 2.969159899172426e+000	 5.785451521590409e-001	 1.163824875301683e+001
 2.963538850149648e+000	 6.066815339153120e-001	 1.091067469670086e+001
 2.957633981345864e+000	 6.348434707301158e-001	 1.051399628074502e+001
 2.951443747464190e+000	 6.630270020865290e-001	 1.066066016564692e+001
 2.944966670649659e+000	 6.912281162579266e-001	 1.079482987459586e+001
 2.938201342171590e+000	 7.194427515835593e-001	 1.091353873607086e+001
 2.931146424082455e+000	 7.476667978028478e-001	 1.101387820712006e+001
 2.923800650851030e+000	 7.758960974481323e-001	 1.109300800735844e+001
 2.916162830967627e+000	 8.041264472955336e-001	 1.114816634594544e+001
 2.908231848519180e+000	 8.323535998734841e-001	 1.117668021670715e+001
 2.999081373653468e+000	 5.549873098613937e-001	 1.262594118524836e+001
 2.993698410729522e+000	 5.833265170517062e-001	 1.169882624343224e+001
 2.988030906756019e+000	 6.116954308882450e-001	 1.081876240939596e+001
 2.982077237383543e+000	 6.400901109822029e-001	 1.051234020889351e+001
 2.975835844544160e+000	 6.685065640851122e-001	 1.067221962561629e+001
 2.969305238169226e+000	 6.969407453155827e-001	 1.081788359034305e+001
 2.962483997885659e+000	 7.253885594454219e-001	 1.094619217953266e+001
 2.955370774688512e+000	 7.538458622449543e-001	 1.105406556177905e+001
 2.947964292587630e+000	 7.823084618872848e-001	 1.113849449979013e+001
 2.940263350226134e+000	 8.107721204111464e-001	 1.119655094910420e+001
 2.932266822468538e+000	 8.392325552419018e-001	 1.122539872792831e+001
 3.023664007858659e+000	 5.595363861709308e-001	 1.276692118547084e+001
 3.018236922287618e+000	 5.881078819445471e-001	 1.167448679064771e+001
 3.012522963363392e+000	 6.167093278615249e-001	 1.063387748827990e+001
 3.006520493422222e+000	 6.453367512347888e-001	 1.047519991421491e+001
 3.000227941625130e+000	 6.739861260843261e-001	 1.065132821721769e+001
 2.993643805689794e+000	 7.026533743739817e-001	 1.081147587530407e+001
 2.986766653600728e+000	 7.313343673081192e-001	 1.095232578778076e+001
 2.979595125295572e+000	 7.600249266879680e-001	 1.107062294114797e+001
 2.972127934325230e+000	 7.887208263273956e-001	 1.116318528599487e+001
 2.964363869485643e+000	 8.174177935277492e-001	 1.122691471446493e+001
 2.956301796418896e+000	 8.461115106113193e-001	 1.125880811188784e+001
 3.048246642064849e+000	 5.640854624804536e-001	 1.282790916447023e+001
 3.042775433846714e+000	 5.928892468375639e-001	 1.156182068682391e+001
 3.037015019971764e+000	 6.217232248351519e-001	 1.035250058947437e+001
 3.030963749461900e+000	 6.505833914878730e-001	 1.040410442960496e+001
 3.024620038707100e+000	 6.794656880841704e-001	 1.059961099544134e+001
 3.017982373211361e+000	 7.083660034331236e-001	 1.077732661334702e+001
 3.011049309316797e+000	 7.372801751716516e-001	 1.093375301139895e+001
 3.003819475903630e+000	 7.662039911318882e-001	 1.106545603172174e+001
 2.996291576063830e+000	 7.951331907684651e-001	 1.116907688932191e+001
 2.988464388746150e+000	 8.240634666453414e-001	 1.124134353540425e+001
 2.980336770370254e+000	 8.529904659817371e-001	 1.127908209796101e+001
 3.072829276272041e+000	 5.686345387899614e-001	 1.280561950380705e+001
 3.067313945406811e+000	 5.976706117307563e-001	 1.135743028737632e+001
 3.061507076581136e+000	 6.267371218091253e-001	 1.006657456902419e+001
 3.055407005502580e+000	 6.558300317414558e-001	 1.030059352440131e+001
 3.049012135790070e+000	 6.849452500846452e-001	 1.051870310028747e+001
 3.042320940733927e+000	 7.140786324930076e-001	 1.071716513035918e+001
 3.035331965033866e+000	 7.432259830360185e-001	 1.089229610878378e+001
 3.028043826512689e+000	 7.723830555767157e-001	 1.104047870272788e+001
 3.020455217803432e+000	 8.015455552104932e-001	 1.115817340024127e+001
 3.012564908007657e+000	 8.307091397639229e-001	 1.124193026661454e+001
 3.004371744322612e+000	 8.598694213531548e-001	 1.128840078117948e+001
 3.097411910480231e+000	 5.731836150994546e-001	 1.269677881751712e+001
 3.091852456967906e+000	 6.024519766241243e-001	 1.105792953227463e+001
 3.085999133191508e+000	 6.317510187834460e-001	 9.904562816025454e+000
 3.079850261544259e+000	 6.610766719955371e-001	 1.016621727833461e+001
 3.073404232874039e+000	 6.904248120857505e-001	 1.041024935656725e+001
 3.066659508257495e+000	 7.197912615536350e-001	 1.063272981956349e+001
 3.059614620751936e+000	 7.491717909012207e-001	 1.082978579662799e+001
 3.052268177122748e+000	 7.785621200224497e-001	 1.099761268141519e+001
 3.044618859544032e+000	 8.079579196534795e-001	 1.113248617606136e+001
 3.036665427270164e+000	 8.373548128834940e-001	 1.123077444786139e+001
 3.028406718275971e+000	 8.667483767255725e-001	 1.128895036962593e+001
 3.121994544689422e+000	 5.777326914089332e-001	 1.249812547051772e+001
 3.116390968530002e+000	 6.072333415176683e-001	 1.065994348995757e+001
 3.110491189802878e+000	 6.367649157581131e-001	 9.709787653940737e+000
 3.104293517586938e+000	 6.663233122501170e-001	 1.000253567560714e+001
 3.097796329959009e+000	 6.959043740874865e-001	 1.027590389261137e+001
 3.090998075782062e+000	 7.255038906150046e-001	 1.052576778453740e+001
 3.083897276471005e+000	 7.551175987672575e-001	 1.074806091691719e+001
 3.076492527733806e+000	 7.847411844690908e-001	 1.093878724368300e+001
 3.068782501285632e+000	 8.143702840974243e-001	 1.109403355483246e+001
 3.060765946533673e+000	 8.440004860040550e-001	 1.120998204079177e+001
 3.052441692230329e+000	 8.736273320989901e-001	 1.128292294376302e+001
 3.146577178899613e+000	 5.822817677183971e-001	 1.237157838995818e+001
 3.140929480093099e+000	 6.120147064113878e-001	 1.028260804337777e+001
 3.134983246415251e+000	 6.417788127331275e-001	 9.557470668723017e+000
 3.128736773630616e+000	 6.715699525051951e-001	 9.837102142954764e+000
 3.122188427044979e+000	 7.013839360898529e-001	 1.011732977685121e+001
 3.115336643307630e+000	 7.312165196771173e-001	 1.039803449896402e+001
 3.108179932191074e+000	 7.610634066341294e-001	 1.064896811953523e+001
 3.100716878345865e+000	 7.909202489166386e-001	 1.086593891921175e+001
 3.092946143028234e+000	 8.207826485423280e-001	 1.104484058266204e+001
 3.084866465798181e+000	 8.506461591256058e-001	 1.118166517807958e+001
 3.076476666185687e+000	 8.805062874734078e-001	 1.127251622704323e+001
 3.171159813110805e+000	 5.868308440278466e-001	 1.231240302793254e+001
 3.165467991657194e+000	 6.167960713052830e-001	 1.000558159235808e+001
 3.159475303028622e+000	 6.467927097084883e-001	 9.598765044834368e+000
 3.153180029675295e+000	 6.768165927607720e-001	 9.879702034751551e+000
 3.146580524131949e+000	 7.068634980928501e-001	 1.014305201945159e+001
 3.139675210834196e+000	 7.369291487399725e-001	 1.038420004396493e+001
 3.132462587912144e+000	 7.670092145018360e-001	 1.059835325505053e+001
 3.124941228958923e+000	 7.970993133650934e-001	 1.078101121030901e+001
 3.117109784771834e+000	 8.271950129881899e-001	 1.098693875371239e+001
 3.108966985063688e+000	 8.572918322481459e-001	 1.114794192423824e+001
 3.100511640142045e+000	 8.873852428488256e-001	 1.125993336718867e+001
 3.195742447322996e+000	 5.913799203372813e-001	 1.231227284905080e+001
 3.190006503222291e+000	 6.215774361993541e-001	 9.797389406937292e+000
 3.183967359642995e+000	 6.518066066841965e-001	 9.773491032276024e+000
 3.177623285720975e+000	 6.820632330168474e-001	 1.005103822940780e+001
 3.170972621219919e+000	 7.123430600964776e-001	 1.031131743084465e+001
 3.164013778361765e+000	 7.426417778035709e-001	 1.054979337451227e+001
 3.156745243634214e+000	 7.729550223703777e-001	 1.076174951342375e+001
 3.149165579572983e+000	 8.032783778144553e-001	 1.094227913531859e+001
 3.141273426516435e+000	 8.336073774350107e-001	 1.108627657210369e+001
 3.133067504330197e+000	 8.639375053716757e-001	 1.118842853296269e+001
 3.124546614099405e+000	 8.942641982252434e-001	 1.124738272756519e+001
 2.884196874570821e+000	 8.254746445060665e-001	 1.111048547974121e+001
 2.876039667508701e+000	 8.534610892875464e-001	 1.120213160974743e+001
 2.867589738332473e+000	 8.814358131068238e-001	 1.127563474103551e+001
 2.858846214307540e+000	 9.093944814890325e-001	 1.132926786341598e+001
 2.849808303576409e+000	 9.373327226216522e-001	 1.136142727856651e+001
 2.840475296538247e+000	 9.652461291268561e-001	 1.137064195006594e+001
 2.830846567185376e+000	 9.931302598865214e-001	 1.135558275124501e+001
 2.820921574394556e+000	 1.020980641918824e+000	 1.131507158246306e+001
 2.810699863170943e+000	 1.048792772305250e+000	 1.124809032903694e+001
 2.800181065842599e+000	 1.076562120166735e+000	 1.115378963075396e+001
 2.789364903203508e+000	 1.104284128687585e+000	 1.103149743370095e+001
 2.908231848519180e+000	 8.323535998734841e-001	 1.117668021670715e+001
 2.900006664731933e+000	 8.605732650282778e-001	 1.127500556151847e+001
 2.891486319479657e+000	 8.887811115462038e-001	 1.135269434669033e+001
 2.882669932754969e+000	 9.169727688317708e-001	 1.140783720402205e+001
 2.873556706101563e+000	 9.451438286406900e-001	 1.143865179496960e+001
 2.864145924005265e+000	 9.732898468669845e-001	 1.144349255218633e+001
 2.854436955241667e+000	 1.001406345383214e+000	 1.142086031802700e+001
 2.844429254178170e+000	 1.029488813932706e+000	 1.136941185068531e+001
 2.834122362028305e+000	 1.057532712072627e+000	 1.128796916823399e+001
 2.823515908056200e+000	 1.085533471166585e+000	 1.117552870052820e+001
 2.812609610729128e+000	 1.113486496425423e+000	 1.103127021871971e+001
 2.932266822468538e+000	 8.392325552419018e-001	 1.122539872792831e+001
 2.923973661956154e+000	 8.676854407700045e-001	 1.133188098089010e+001
 2.915382900627801e+000	 8.961264099865641e-001	 1.141515673181623e+001
 2.906493651203310e+000	 9.245510561754659e-001	 1.147313118315246e+001
 2.897305108627561e+000	 9.529549346606492e-001	 1.150384037407940e+001
 2.887816551473039e+000	 9.813335646079899e-001	 1.150546132039732e+001
 2.878027343298605e+000	 1.009682430880729e+000	 1.147632205047597e+001
 2.867936933962303e+000	 1.037996985947348e+000	 1.141491150698477e+001
 2.857544860886037e+000	 1.066272651840688e+000	 1.131988928369864e+001
 2.846850750270003e+000	 1.094504822167034e+000	 1.119009516635051e+001
 2.835854318254756e+000	 1.122688864163766e+000	 1.102455844627828e+001
 2.956301796418896e+000	 8.461115106113193e-001	 1.125880811188784e+001
 2.947940659181365e+000	 8.747976165127259e-001	 1.137503816052484e+001
 2.939279481776907e+000	 9.034717084279046e-001	 1.146541389033668e+001
 2.930317369652564e+000	 9.321293435201170e-001	 1.152765192753719e+001
 2.921053511154402e+000	 9.607660406815307e-001	 1.155960363216174e+001
 2.911487178941568e+000	 9.893772823498734e-001	 1.155926564323077e+001
 2.901617731356191e+000	 1.017958516379068e+000	 1.152479031903786e+001
 2.891444613746953e+000	 1.046505157962748e+000	 1.145449604130328e+001
 2.880967359744137e+000	 1.075012591609433e+000	 1.134687735149833e+001
 2.870185592484005e+000	 1.103476173168084e+000	 1.120061488730554e+001
 2.859099025780396e+000	 1.131891231902615e+000	 1.101458508694341e+001
 2.980336770370254e+000	 8.529904659817371e-001	 1.127908209796101e+001
 2.971907656407567e+000	 8.819097922564430e-001	 1.140676256444287e+001
 2.963176062926975e+000	 9.108170068702260e-001	 1.150586153330559e+001
 2.954141088102729e+000	 9.397076308657240e-001	 1.157390383279281e+001
 2.944801913682087e+000	 9.685771467033344e-001	 1.160855301278688e+001
 2.935157806410852e+000	 9.974210000926341e-001	 1.160762230228622e+001
 2.925208119414423e+000	 1.026234601878231e+000	 1.156908546102064e+001
 2.914952293532121e+000	 1.055013329978907e+000	 1.149108749295828e+001
 2.904389858602606e+000	 1.083752531378863e+000	 1.137195518899992e+001
 2.893520434698207e+000	 1.112447524169733e+000	 1.121020746580278e+001
 2.882343733306045e+000	 1.141093599641968e+000	 1.100456546742622e+001
 3.004371744322612e+000	 8.598694213531548e-001	 1.128840078117948e+001
 2.995874653634759e+000	 8.890219680011550e-001	 1.142934462116782e+001
 2.987072644078003e+000	 9.181623053135278e-001	 1.153889894022269e+001
 2.977964806553807e+000	 9.472859182122874e-001	 1.161439347266684e+001
 2.968550316210615e+000	 9.763882527260590e-001	 1.165330075373755e+001
 2.958828433880890e+000	 1.005464717836273e+000	 1.165324749650814e+001
 2.948798507473301e+000	 1.034510687378217e+000	 1.161202586191968e+001
 2.938459973317808e+000	 1.063521501995825e+000	 1.152760458866806e+001
 2.927812357461445e+000	 1.092492471148978e+000	 1.139813994921782e+001
 2.916855276912608e+000	 1.121418875171983e+000	 1.122198649784355e+001
 2.905588440831705e+000	 1.150295967381827e+000	 1.099770757633610e+001
 3.028406718275971e+000	 8.667483767255725e-001	 1.128895036962593e+001
 3.019841650862942e+000	 8.961341437468621e-001	 1.144507952672255e+001
 3.010969225229993e+000	 9.255076037578103e-001	 1.156692881742801e+001
 3.001788525005798e+000	 9.548642055598068e-001	 1.165162951260415e+001
 2.992298718739988e+000	 9.841993587497060e-001	 1.169645985549222e+001
 2.982499061351685e+000	 1.013508435580789e+000	 1.169885686530716e+001
 2.972388895532827e+000	 1.042786772879026e+000	 1.165642803287076e+001
 2.961967653104012e+000	 1.072029674013502e+000	 1.156696287400404e+001
 2.951234856320653e+000	 1.101232410919777e+000	 1.142844430590754e+001
 2.940190119127212e+000	 1.130390226174833e+000	 1.123905981137053e+001
 2.928833148357375e+000	 1.159498335122191e+000	 1.099721235537543e+001
 3.052441692230329e+000	 8.736273320989901e-001	 1.128292294376302e+001
 3.043808648092115e+000	 9.032463194935644e-001	 1.145626705693265e+001
 3.034865806382944e+000	 9.328529022030734e-001	 1.159235716318731e+001
 3.025612243458701e+000	 9.624424929082824e-001	 1.168812262739677e+001
 3.016047121270204e+000	 9.920104647742749e-001	 1.174064405119823e+001
 3.006169688823234e+000	 1.021552153326183e+000	 1.174716551058921e+001
 2.995979283592998e+000	 1.051062858380658e+000	 1.170510668444379e+001
 2.985475332890734e+000	 1.080537846031939e+000	 1.161207483863290e+001
 2.974657355180231e+000	 1.109972350691261e+000	 1.146587662991410e+001
 2.963524961342014e+000	 1.139361577178282e+000	 1.126452969335687e+001
 2.952077855883055e+000	 1.168700702863060e+000	 1.100627397677683e+001
 3.076476666185687e+000	 8.805062874734078e-001	 1.127251622704323e+001
 3.067775645322278e+000	 9.103584952412617e-001	 1.146521138852762e+001
 3.058762387536855e+000	 9.401982006493168e-001	 1.161759313910113e+001
 3.049435961912515e+000	 9.700207802577142e-001	 1.172638542269353e+001
 3.039795523801263e+000	 9.998215707997655e-001	 1.178846777805163e+001
 3.029840316295539e+000	 1.029595871072454e+000	 1.180088801775156e+001
 3.019569671653818e+000	 1.059338943883114e+000	 1.176087479697744e+001
 3.008983012677976e+000	 1.089046018051134e+000	 1.166585003568765e+001
 2.998079854040177e+000	 1.118712290463430e+000	 1.151344115725495e+001
 2.986859803557016e+000	 1.148332928182332e+000	 1.130149310625012e+001
 2.975322563408745e+000	 1.177903070604434e+000	 1.102808010773553e+001
 3.100511640142045e+000	 8.873852428488256e-001	 1.125993336718867e+001
 3.091742642553431e+000	 9.174706709899544e-001	 1.147422092856357e+001
 3.082658968691728e+000	 9.475434990965410e-001	 1.164504894749490e+001
 3.073259680367243e+000	 9.775990676081020e-001	 1.176893236016092e+001
 3.063543926333167e+000	 1.007632676826178e+000	 1.184254615000859e+001
 3.053510943768599e+000	 1.037639588819603e+000	 1.186273847570270e+001
 3.043160059715283e+000	 1.067615029386394e+000	 1.182654368764230e+001
 3.032490692465735e+000	 1.097554190071089e+000	 1.173119519558718e+001
 3.021502352900493e+000	 1.127452230236283e+000	 1.157413814938427e+001
 3.010194645772219e+000	 1.157304279186982e+000	 1.135304189434934e+001
 2.998567270934446e+000	 1.187105438346313e+000	 1.106581216254272e+001
 3.124546614099405e+000	 8.942641982252434e-001	 1.124738272756519e+001
 3.115709639785576e+000	 9.245828467396423e-001	 1.148560815171800e+001
 3.106555549847563e+000	 9.548887975447460e-001	 1.167713971446830e+001
 3.097083398822884e+000	 9.851773549594466e-001	 1.181827968609793e+001
 3.087292328865915e+000	 1.015443782853513e+000	 1.190549493175628e+001
 3.077181571242415e+000	 1.045683306567630e+000	 1.193543049595821e+001
 3.066750447777396e+000	 1.075891114890497e+000	 1.190492307440910e+001
 3.055998372254013e+000	 1.106062362091802e+000	 1.181101433460184e+001
 3.044924851761178e+000	 1.136192170009821e+000	 1.165096404606102e+001
 3.033529487987622e+000	 1.166275630192232e+000	 1.142226298065694e+001
 3.021811978460158e+000	 1.196307806088698e+000	 1.112264554308177e+001
 2.789364903203508e+000	 1.104284128687585e+000	 1.103149743370095e+001
 2.778251185602976e+000	 1.131954217185233e+000	 1.109639174560618e+001
 2.766839813979641e+000	 1.159567783225906e+000	 1.115756162557105e+001
 2.755130780838170e+000	 1.187120204783136e+000	 1.121638932074531e+001
 2.743124171166409e+000	 1.214606842436723e+000	 1.127445847029559e+001
 2.730820163291444e+000	 1.242023041611831e+000	 1.133355948862671e+001
 2.718219029672730e+000	 1.269364134855765e+000	 1.138817306039223e+001
 2.705321137630596e+000	 1.296625444150432e+000	 1.144391665829997e+001
 2.692126950008475e+000	 1.323802283258404e+000	 1.150383645673884e+001
 2.678637025767297e+000	 1.350889960100454e+000	 1.156784095297183e+001
 2.664852020510573e+000	 1.377883779162314e+000	 1.163585372712853e+001
 2.812609610729128e+000	 1.113486496425423e+000	 1.103127021871971e+001
 2.801403278815884e+000	 1.141387168994181e+000	 1.110909746113743e+001
 2.789896812429516e+000	 1.169230848085428e+000	 1.117887136671487e+001
 2.778090204012230e+000	 1.197012873155812e+000	 1.124188332640377e+001
 2.765983539260102e+000	 1.224728566123294e+000	 1.129963417420024e+001
 2.753576997986275e+000	 1.252373233624916e+000	 1.135317527031441e+001
 2.740870854920701e+000	 1.279942169312545e+000	 1.139978374495034e+001
 2.727865480444710e+000	 1.307430656184601e+000	 1.144850718135999e+001
 2.714561341258763e+000	 1.334833968951678e+000	 1.149919931574720e+001
 2.700959000981799e+000	 1.362147376433888e+000	 1.155173028523727e+001
 2.687059120680686e+000	 1.389366143987678e+000	 1.160598719981723e+001
 2.835854318254756e+000	 1.122688864163766e+000	 1.102455844627828e+001
 2.824555372028621e+000	 1.150820120803543e+000	 1.111680213805189e+001
 2.812953810879078e+000	 1.178893912945294e+000	 1.119656840342428e+001
 2.801049627185874e+000	 1.206905541528780e+000	 1.126505553032260e+001
 2.788842907353317e+000	 1.234850289810127e+000	 1.132367944685401e+001
 2.776333832680606e+000	 1.262723425638253e+000	 1.137073295197703e+001
 2.763522680168190e+000	 1.290520203769584e+000	 1.141191529542746e+001
 2.750409823258400e+000	 1.318235868219057e+000	 1.145306006019126e+001
 2.736995732508725e+000	 1.345865654645288e+000	 1.149398109634278e+001
 2.723280976196111e+000	 1.373404792767727e+000	 1.153451047827949e+001
 2.709266220850791e+000	 1.400848508813537e+000	 1.157449914256875e+001
 2.859099025780396e+000	 1.131891231902615e+000	 1.101458508694341e+001
 2.847707465241187e+000	 1.160253072613320e+000	 1.112280187313678e+001
 2.836010809328329e+000	 1.188556977805505e+000	 1.121401958183004e+001
 2.824009050359106e+000	 1.216798209902041e+000	 1.128934109614492e+001
 2.811702275446056e+000	 1.244972013497222e+000	 1.135009528450592e+001
 2.799090667374439e+000	 1.273073617651839e+000	 1.138990219908047e+001
 2.786174505415198e+000	 1.301098238226882e+000	 1.142510553587029e+001
 2.772954166071667e+000	 1.329041080253802e+000	 1.145813280987425e+001
 2.759430123758361e+000	 1.356897340339235e+000	 1.148875826982255e+001
 2.745602951410239e+000	 1.384662209101975e+000	 1.151677621204518e+001
 2.731473321020889e+000	 1.412330873639893e+000	 1.154200168408685e+001
 2.882343733306045e+000	 1.141093599641968e+000	 1.100456546742622e+001
 2.870859558453585e+000	 1.169686024423512e+000	 1.113038444836207e+001
 2.859067807777270e+000	 1.198220042666059e+000	 1.123458278003795e+001
 2.846968473531923e+000	 1.226690878275596e+000	 1.131816558443692e+001
 2.834561643538318e+000	 1.255093737184578e+000	 1.137848327164571e+001
 2.821847502067773e+000	 1.283423809665676e+000	 1.141118960583421e+001
 2.808826330661722e+000	 1.311676272684439e+000	 1.143988089493575e+001
 2.795498508884508e+000	 1.339846292288834e+000	 1.146427099153764e+001
 2.781864515007672e+000	 1.367929026033520e+000	 1.148409481501554e+001
 2.767924926624176e+000	 1.395919625436627e+000	 1.149910915589423e+001
 2.753680421190979e+000	 1.423813238466745e+000	 1.150909344510676e+001
 2.905588440831705e+000	 1.150295967381827e+000	 1.099770757633610e+001
 2.894011651665810e+000	 1.179118976234119e+000	 1.114282966347330e+001
 2.882124806225898e+000	 1.207883107526959e+000	 1.126160726684966e+001
 2.869927896704328e+000	 1.236583546649444e+000	 1.135494533681070e+001
 2.857421011630106e+000	 1.265215460872196e+000	 1.140733922541259e+001
 2.844604336760607e+000	 1.293774001679764e+000	 1.143509138199137e+001
 2.831478155907766e+000	 1.322254307142255e+000	 1.145675686170659e+001
 2.818042851696925e+000	 1.350651504324154e+000	 1.147200869051605e+001
 2.804298906256656e+000	 1.378960711728141e+000	 1.148054271798139e+001
 2.790246901837927e+000	 1.407177041771686e+000	 1.148207848902258e+001
 2.775887521361062e+000	 1.435295603294094e+000	 1.147636007871394e+001
 2.928833148357375e+000	 1.159498335122191e+000	 1.099721235537543e+001
 2.917163744877866e+000	 1.188551928045140e+000	 1.116340965274624e+001
 2.905181804674213e+000	 1.217546172388201e+000	 1.129843404340178e+001
 2.892887319876318e+000	 1.246476215023584e+000	 1.140308784175590e+001
 2.880280379721415e+000	 1.275337184560077e+000	 1.143980256149759e+001
 2.867361171452943e+000	 1.304124193694102e+000	 1.146209376493037e+001
 2.854129981153330e+000	 1.332832341600331e+000	 1.147623841980133e+001
 2.840587194508919e+000	 1.361456716359762e+000	 1.148186897173900e+001
 2.826733297505314e+000	 1.389992397423099e+000	 1.147864244791408e+001
 2.812568877051492e+000	 1.418434458107151e+000	 1.146624139610419e+001
 2.798094621531136e+000	 1.446777968121937e+000	 1.144437478493324e+001
 2.952077855883055e+000	 1.168700702863060e+000	 1.100627397677683e+001
 2.940315838089752e+000	 1.197984879856577e+000	 1.119538918677740e+001
 2.928238803122218e+000	 1.227209237249788e+000	 1.134839616866445e+001
 2.915846743047895e+000	 1.256368883398018e+000	 1.145022662571317e+001
 2.903139747812249e+000	 1.285458908248219e+000	 1.147633106803692e+001
 2.890118006144780e+000	 1.314474385708691e+000	 1.149267341226805e+001
 2.876781806398410e+000	 1.343410376058665e+000	 1.149882046097546e+001
 2.863131537320488e+000	 1.372261928395659e+000	 1.149436431360504e+001
 2.849167688753645e+000	 1.401024083118394e+000	 1.147892341056175e+001
 2.834890852264868e+000	 1.429691874443022e+000	 1.145214353951584e+001
 2.820301721701203e+000	 1.458260332950277e+000	 1.141369880100694e+001
 2.975322563408745e+000	 1.177903070604434e+000	 1.102808010773553e+001
 2.963467931301467e+000	 1.207417831668428e+000	 1.124202596012736e+001
 2.951295801569911e+000	 1.236872302111720e+000	 1.141481906968229e+001
 2.938806166219057e+000	 1.266261551772745e+000	 1.149569137320849e+001
 2.925999115902607e+000	 1.295580631936623e+000	 1.151737383615060e+001
 2.912874840836117e+000	 1.324824577723530e+000	 1.152729777606908e+001
 2.899433631643009e+000	 1.353988410517259e+000	 1.152498817933465e+001
 2.885675880131633e+000	 1.383067140431843e+000	 1.150999702151797e+001
 2.871602080001652e+000	 1.412055768814027e+000	 1.148190438039259e+001
 2.857212827478058e+000	 1.440949290779301e+000	 1.144031950942720e+001
 2.842508821871260e+000	 1.469742697779114e+000	 1.138488186869105e+001
 2.998567270934446e+000	 1.187105438346313e+000	 1.106581216254272e+001
 2.986620024513012e+000	 1.216850783480695e+000	 1.130657086558615e+001
 2.974352800017292e+000	 1.246535366973995e+000	 1.150102083738548e+001
 2.961765589389805e+000	 1.276154220147765e+000	 1.154657248062293e+001
 2.948858483992488e+000	 1.305702355625289e+000	 1.156337159703593e+001
 2.935631675526956e+000	 1.335174769738619e+000	 1.156642545965039e+001
 2.922085456887126e+000	 1.364566444976112e+000	 1.155521744721261e+001
 2.908220222942354e+000	 1.393872352468315e+000	 1.152925962218924e+001
 2.894036471249331e+000	 1.423087454509996e+000	 1.148809391265992e+001
 2.879534802691060e+000	 1.452206707115984e+000	 1.143129325295608e+001
 2.864715922041312e+000	 1.481225062608446e+000	 1.135846267981656e+001
 3.021811978460158e+000	 1.196307806088698e+000	 1.112264554308177e+001
 3.009772117724388e+000	 1.226283735293376e+000	 1.139226825577947e+001
 2.997409798464362e+000	 1.256198431836615e+000	 1.157667653667921e+001
 2.984725012560141e+000	 1.286046888523079e+000	 1.160328466232645e+001
 2.971717852081893e+000	 1.315824079314216e+000	 1.161475704350301e+001
 2.958388510217296e+000	 1.345524961753960e+000	 1.161050655791756e+001
 2.944737282130763e+000	 1.375144479435224e+000	 1.158997517370100e+001
 2.930764565752652e+000	 1.404677564505075e+000	 1.155263523974119e+001
 2.916470862496686e+000	 1.434119140206302e+000	 1.149799073644886e+001
 2.901856777903874e+000	 1.463464123453075e+000	 1.142557848351648e+001
 2.886923022211355e+000	 1.492707427438275e+000	 1.133496930128683e+001
 2.664852020510573e+000	 1.377883779162314e+000	 1.163585372712853e+001
 2.650772686938987e+000	 1.404779043928912e+000	 1.164730758877159e+001
 2.636399875232532e+000	 1.431571059341969e+000	 1.165504597540308e+001
 2.621734533359258e+000	 1.458255134279886e+000	 1.165908014793665e+001
 2.606777707310107e+000	 1.484826584058343e+000	 1.165944534966896e+001
 2.591530541258077e+000	 1.511280732947345e+000	 1.165620117196861e+001
 2.575994277640976e+000	 1.537612916702709e+000	 1.164943187311313e+001
 2.560170257166945e+000	 1.563818485109321e+000	 1.163924664875352e+001
 2.544059918741997e+000	 1.589892804533448e+000	 1.162577985259918e+001
 2.527664799318953e+000	 1.615831260481341e+000	 1.160919116603527e+001
 2.510986533667252e+000	 1.641629260161343e+000	 1.158966571551143e+001
 2.687059120680686e+000	 1.389366143987678e+000	 1.160598719981723e+001
 2.672862459328722e+000	 1.416485535960390e+000	 1.160595068141939e+001
 2.658369874190830e+000	 1.443500818168300e+000	 1.160348828194626e+001
 2.643582321134798e+000	 1.470407260397131e+000	 1.159868814639357e+001
 2.628500854868161e+000	 1.497200138923524e+000	 1.159166200902667e+001
 2.613126629098687e+000	 1.523874739053069e+000	 1.158254547818530e+001
 2.597460896617837e+000	 1.550426357672882e+000	 1.157149827359655e+001
 2.581505009306318e+000	 1.576850305816056e+000	 1.155870441479398e+001
 2.565260418061028e+000	 1.603141911235243e+000	 1.154437235935701e+001
 2.548728672642728e+000	 1.629296520982581e+000	 1.152873508980779e+001
 2.531911421443936e+000	 1.655309503993148e+000	 1.151205014813138e+001
 2.709266220850791e+000	 1.400848508813537e+000	 1.157449914256875e+001
 2.694952231718638e+000	 1.428192027992455e+000	 1.156495556435004e+001
 2.680339873149482e+000	 1.455430576995289e+000	 1.155423670726482e+001
 2.665430108910843e+000	 1.482559386515082e+000	 1.154250651444932e+001
 2.650224002426849e+000	 1.509573693789443e+000	 1.152995215000019e+001
 2.634722716940044e+000	 1.536468745159543e+000	 1.151678420410942e+001
 2.618927515595536e+000	 1.563239798643795e+000	 1.150323685004002e+001
 2.602839761446601e+000	 1.589882126523502e+000	 1.148956795165703e+001
 2.586460917381020e+000	 1.616391017937701e+000	 1.147605912034684e+001
 2.569792545967494e+000	 1.642761781484413e+000	 1.146301572028455e+001
 2.552836309221620e+000	 1.668989747825456e+000	 1.145076682114064e+001
 2.731473321020889e+000	 1.412330873639893e+000	 1.154200168408685e+001
 2.717042004108736e+000	 1.439898520025105e+000	 1.152489056166205e+001
 2.702309872108487e+000	 1.467360335822934e+000	 1.150781633525957e+001
 2.687277896687393e+000	 1.494711512633742e+000	 1.149101768289764e+001
 2.671947149986172e+000	 1.521947248656101e+000	 1.147475615989415e+001
 2.656318804782146e+000	 1.549062751266766e+000	 1.145931632552524e+001
 2.640394134574071e+000	 1.576053239615449e+000	 1.144500582083015e+001
 2.624174513587790e+000	 1.602913947231660e+000	 1.143215539639084e+001
 2.607661416701969e+000	 1.629640124640820e+000	 1.142111888903585e+001
 2.590856419293248e+000	 1.656227041986838e+000	 1.141227314654886e+001
 2.573761197000304e+000	 1.682669991658267e+000	 1.140601789959627e+001
 2.753680421190979e+000	 1.423813238466745e+000	 1.150909344510676e+001
 2.739131776499018e+000	 1.451605012058342e+000	 1.148631196419066e+001
 2.724279871067844e+000	 1.479290094651236e+000	 1.146474166918956e+001
 2.709125684464445e+000	 1.506863638753110e+000	 1.144469493165098e+001
 2.693670297546130e+000	 1.534320803523497e+000	 1.142650668126332e+001
 2.677914892624995e+000	 1.561656757374738e+000	 1.141053445521138e+001
 2.661860753553444e+000	 1.588866680587844e+000	 1.139715839795749e+001
 2.645509265729889e+000	 1.615945767940529e+000	 1.138678121038594e+001
 2.628861916023878e+000	 1.642889231344601e+000	 1.137982804737664e+001
 2.611920292619992e+000	 1.669692302489856e+000	 1.137674636300579e+001
 2.594686084779988e+000	 1.696350235491580e+000	 1.137800570270860e+001
 2.775887521361062e+000	 1.435295603294094e+000	 1.147636007871394e+001
 2.761221548889481e+000	 1.463311504092165e+000	 1.144976451083872e+001
 2.746249870027555e+000	 1.491219853480195e+000	 1.142551705489785e+001
 2.730973472242002e+000	 1.519015764873184e+000	 1.140400275577585e+001
 2.715393445106723e+000	 1.546694358391632e+000	 1.138562892170262e+001
 2.699510980468590e+000	 1.574250763483460e+000	 1.137082509746131e+001
 2.683327372533654e+000	 1.601680121560978e+000	 1.136004298727248e+001
 2.666844017872895e+000	 1.628977588650108e+000	 1.135375632640157e+001
 2.650062415346747e+000	 1.656138338049044e+000	 1.135246070066802e+001
 2.632984165947727e+000	 1.683157562993466e+000	 1.135667331316940e+001
 2.615610972560673e+000	 1.710030479325396e+000	 1.136693269767510e+001
 2.798094621531136e+000	 1.446777968121937e+000	 1.144437478493324e+001
 2.783311321280128e+000	 1.475017996126575e+000	 1.141578184698624e+001
 2.768219868987619e+000	 1.503149612309810e+000	 1.139063708388351e+001
 2.752821260020063e+000	 1.531167890993967e+000	 1.136939721409768e+001
 2.737116592667952e+000	 1.559067913260506e+000	 1.135254094888528e+001
 2.721107068312931e+000	 1.586844769592932e+000	 1.134056889048323e+001
 2.704793991514702e+000	 1.614493562534853e+000	 1.133400337920511e+001
 2.688178770016812e+000	 1.642009409360400e+000	 1.133338828859081e+001
 2.671262914670574e+000	 1.669387444754150e+000	 1.133928876789838e+001
 2.654048039276451e+000	 1.696622823497668e+000	 1.135229093136483e+001
 2.636535860342357e+000	 1.723710723159714e+000	 1.137300149380786e+001
 2.820301721701203e+000	 1.458260332950277e+000	 1.141369880100694e+001
 2.805401093670956e+000	 1.486724488161570e+000	 1.138488696124385e+001
 2.790189867948035e+000	 1.515079371140083e+000	 1.136058697733103e+001
 2.774669047798628e+000	 1.543320017115456e+000	 1.134132626133639e+001
 2.758839740229815e+000	 1.571441468130117e+000	 1.132765397166199e+001
 2.742703156158019e+000	 1.599438775703153e+000	 1.132014083734849e+001
 2.726260610496588e+000	 1.627307003509469e+000	 1.131937893047449e+001
 2.709513522161635e+000	 1.655041230071403e+000	 1.132598138591016e+001
 2.692463413995361e+000	 1.682636551459918e+000	 1.134058206782078e+001
 2.675111912606165e+000	 1.710088084002463e+000	 1.136383518245996e+001
 2.657460748125041e+000	 1.737390966994536e+000	 1.139641483693854e+001
 2.842508821871260e+000	 1.469742697779114e+000	 1.138488186869105e+001
 2.827490866061967e+000	 1.498430980197152e+000	 1.135759260173214e+001
 2.812159866908805e+000	 1.527009129971012e+000	 1.133584295213807e+001
 2.796516835577696e+000	 1.555472143237654e+000	 1.132023006467293e+001
 2.780562887792313e+000	 1.583815023000468e+000	 1.131137260798375e+001
 2.764299244003853e+000	 1.612032781814124e+000	 1.130991052611406e+001
 2.747727229479310e+000	 1.640120444484825e+000	 1.131650473728083e+001
 2.730848274307367e+000	 1.668073050783117e+000	 1.133183677927577e+001
 2.713663913321107e+000	 1.695885658166347e+000	 1.135660840099353e+001
 2.696175785936869e+000	 1.723553344507850e+000	 1.139154109973505e+001
 2.678385635908726e+000	 1.751071210829859e+000	 1.143737560408546e+001
 2.864715922041312e+000	 1.481225062608446e+000	 1.135846267981656e+001
 2.849580638453159e+000	 1.510137472233320e+000	 1.133440167300058e+001
 2.834129865869927e+000	 1.538938888802598e+000	 1.131687256991894e+001
 2.818364623357269e+000	 1.567624269360559e+000	 1.130654130559204e+001
 2.802286035355447e+000	 1.596188577871557e+000	 1.130409514036312e+001
 2.785895331850433e+000	 1.624626787925844e+000	 1.131024233970697e+001
 2.769193848462869e+000	 1.652933885460922e+000	 1.132571180044152e+001
 2.752183026454008e+000	 1.681104871495542e+000	 1.135125262280525e+001
 2.734864412647812e+000	 1.709134764873439e+000	 1.138763362800481e+001
 2.717239659268563e+000	 1.737018605013831e+000	 1.143564282099055e+001
 2.699310523693410e+000	 1.764751454665686e+000	 1.149608679836909e+001
 2.886923022211355e+000	 1.492707427438275e+000	 1.133496930128683e+001
 2.871670410844536e+000	 1.521843964270075e+000	 1.131580761462593e+001
 2.856099864831404e+000	 1.550868647634841e+000	 1.130413506990020e+001
 2.840212411137347e+000	 1.579776395484173e+000	 1.130068546779346e+001
 2.824009182919216e+000	 1.608562132743385e+000	 1.130621375954488e+001
 2.807491419697759e+000	 1.637220794038314e+000	 1.132149565612131e+001
 2.790660467447268e+000	 1.665747326437759e+000	 1.134732718290616e+001
 2.773517778601558e+000	 1.694136692208679e+000	 1.138452417946371e+001
 2.756064911975477e+000	 1.722383871581193e+000	 1.143392174408674e+001
 2.738303532601247e+000	 1.750483865520403e+000	 1.149637362298891e+001
 2.720235411479095e+000	 1.778431698502015e+000	 1.157275154416177e+001
 2.510986533667252e+000	 1.641629260161343e+000	 1.158966571551143e+001
 2.494026854062975e+000	 1.667282235046092e+000	 1.165095032821126e+001
 2.476787589899573e+000	 1.692785643433693e+000	 1.170809941827540e+001
 2.459270667218596e+000	 1.718134973003828e+000	 1.174073720315434e+001
 2.441478108159864e+000	 1.743325743364768e+000	 1.174835615357497e+001
 2.423412030331897e+000	 1.768353508590087e+000	 1.173047165281789e+001
 2.405074646102547e+000	 1.793213859741615e+000	 1.168662229035166e+001
 2.386468261810128e+000	 1.817902427375695e+000	 1.161637012578696e+001
 2.367595276895474e+000	 1.842414884029852e+000	 1.151930092310996e+001
 2.348458182955458e+000	 1.866746946686970e+000	 1.139502435522001e+001
 2.329059562718645e+000	 1.890894379214094e+000	 1.132775564411803e+001
 2.531911421443936e+000	 1.655309503993148e+000	 1.151205014813138e+001
 2.514810411176357e+000	 1.681176253668529e+000	 1.155476867353339e+001
 2.497427486478374e+000	 1.706892190459319e+000	 1.158242605333807e+001
 2.479764589441885e+000	 1.732452764442532e+000	 1.161533556481360e+001
 2.461823759057877e+000	 1.757853457889840e+000	 1.162302656582656e+001
 2.443607130581606e+000	 1.783089787825431e+000	 1.160503266747720e+001
 2.425116934817323e+000	 1.808157308569984e+000	 1.156091103097268e+001
 2.406355497322827e+000	 1.833051614267811e+000	 1.149024260474984e+001
 2.387325237534295e+000	 1.857768341394250e+000	 1.139263233127924e+001
 2.368028667811903e+000	 1.882303171240375e+000	 1.130740041302518e+001
 2.348468392406961e+000	 1.906651832372125e+000	 1.128271100520492e+001
 2.552836309221620e+000	 1.668989747825456e+000	 1.145076682114064e+001
 2.535593968290734e+000	 1.695070272291373e+000	 1.148525276844653e+001
 2.518067383058155e+000	 1.720998737485267e+000	 1.149934661170810e+001
 2.500258511666132e+000	 1.746770555881482e+000	 1.149286064130646e+001
 2.482169409956812e+000	 1.772381172415093e+000	 1.150052775818085e+001
 2.463802230832191e+000	 1.797826067060901e+000	 1.148287431009662e+001
 2.445159223532919e+000	 1.823100757398434e+000	 1.143893180753013e+001
 2.426242732836283e+000	 1.848200801159972e+000	 1.136830007830871e+001
 2.407055198173797e+000	 1.873121798758668e+000	 1.127060323204781e+001
 2.387599152668946e+000	 1.897859395793784e+000	 1.127004332609800e+001
 2.367877222095776e+000	 1.922409285530155e+000	 1.124350160543740e+001
 2.573761197000304e+000	 1.682669991658267e+000	 1.140601789959627e+001
 2.556377525406104e+000	 1.708964290914625e+000	 1.143267198920097e+001
 2.538707279638917e+000	 1.735105284511538e+000	 1.143842847129116e+001
 2.520752433891333e+000	 1.761088347320680e+000	 1.142311761667372e+001
 2.502515060856666e+000	 1.786908886940527e+000	 1.138661112619031e+001
 2.483997331083652e+000	 1.812562346296497e+000	 1.136385349343393e+001
 2.465201512249338e+000	 1.838044206226964e+000	 1.132052908781237e+001
 2.446129968350494e+000	 1.863349988052178e+000	 1.125037456309207e+001
 2.426785158813979e+000	 1.888475256123105e+000	 1.122940574423015e+001
 2.407169637526585e+000	 1.913415620347200e+000	 1.123894610697284e+001
 2.387286051785095e+000	 1.938166738688187e+000	 1.121104768647458e+001
 2.594686084779988e+000	 1.696350235491580e+000	 1.137800570270860e+001
 2.577161082522472e+000	 1.722858309538284e+000	 1.139721956419174e+001
 2.559347176220658e+000	 1.749211831538130e+000	 1.139502098673219e+001
 2.541246356117489e+000	 1.775406138760124e+000	 1.137125808318896e+001
 2.522860711757442e+000	 1.801436601466144e+000	 1.132582144453995e+001
 2.504192431335989e+000	 1.827298625532220e+000	 1.125864450718710e+001
 2.485243800966575e+000	 1.852987655055575e+000	 1.120554946862244e+001
 2.466017203865462e+000	 1.878499174944430e+000	 1.115712370913595e+001
 2.446515119454843e+000	 1.903828713487563e+000	 1.120542089115495e+001
 2.426740122384821e+000	 1.928971844900621e+000	 1.121504226885079e+001
 2.406694881474913e+000	 1.953924191846217e+000	 1.118627295879633e+001
 2.615610972560673e+000	 1.710030479325396e+000	 1.136693269767510e+001
 2.597944639639833e+000	 1.736752328162351e+000	 1.137908918187885e+001
 2.579987072803380e+000	 1.763318378565045e+000	 1.136930888636945e+001
 2.561740278344600e+000	 1.789723930199815e+000	 1.133745763199171e+001
 2.543206362659138e+000	 1.815964315991942e+000	 1.128344477898210e+001
 2.524387531589200e+000	 1.842034904768068e+000	 1.120722358092280e+001
 2.505286089684635e+000	 1.867931103884267e+000	 1.110879145857741e+001
 2.485904439381186e+000	 1.893648361836729e+000	 1.113914393943816e+001
 2.466245080096389e+000	 1.919182170852042e+000	 1.118905241683676e+001
 2.446310607243652e+000	 1.944528069454046e+000	 1.119926833245346e+001
 2.426103711165233e+000	 1.969681645004247e+000	 1.117010446295017e+001
 2.636535860342357e+000	 1.723710723159714e+000	 1.137300149380786e+001
 2.618728196758190e+000	 1.750646346786826e+000	 1.137847497253058e+001
 2.600626969387082e+000	 1.777424925592283e+000	 1.136147764172773e+001
 2.582234200572667e+000	 1.804041721639753e+000	 1.132189290033168e+001
 2.563552013561754e+000	 1.830492030517922e+000	 1.125964876132088e+001
 2.544582631843288e+000	 1.856771184004044e+000	 1.117471819248013e+001
 2.525328378403515e+000	 1.882874552713040e+000	 1.111778434634592e+001
 2.505791674897667e+000	 1.908797548729071e+000	 1.114698313937434e+001
 2.485975040738615e+000	 1.934535628216541e+000	 1.118124829570905e+001
 2.465881092103080e+000	 1.960084294007476e+000	 1.119256370667698e+001
 2.445512540856055e+000	 1.985439098162278e+000	 1.116347243740586e+001
 2.657460748125041e+000	 1.737390966994536e+000	 1.139641483693854e+001
 2.639511753877541e+000	 1.764540365411708e+000	 1.139557149082955e+001
 2.621266865971764e+000	 1.791531472619842e+000	 1.137171343825878e+001
 2.602728122801689e+000	 1.818359513079939e+000	 1.132474153038344e+001
 2.583897664465291e+000	 1.845019745044084e+000	 1.125460232063327e+001
 2.564777732098252e+000	 1.871507463240145e+000	 1.116128839243244e+001
 2.545370667123217e+000	 1.897818001541893e+000	 1.119456600338608e+001
 2.525678910414903e+000	 1.923946735621459e+000	 1.121651577907512e+001
 2.505705001381524e+000	 1.949889085581060e+000	 1.120187240719527e+001
 2.485451576963104e+000	 1.975640518560912e+000	 1.119587057488430e+001
 2.464921370547378e+000	 2.001196551320309e+000	 1.116731019265293e+001
 2.678385635908726e+000	 1.751071210829859e+000	 1.143737560408546e+001
 2.660295310997888e+000	 1.778434384036998e+000	 1.143057369929409e+001
 2.641906762557427e+000	 1.805638019647725e+000	 1.140020314745363e+001
 2.623222045031667e+000	 1.832677304520372e+000	 1.134618212999138e+001
 2.604243315369748e+000	 1.859547459570426e+000	 1.126847563259456e+001
 2.584972832354092e+000	 1.886243742476372e+000	 1.124406860220673e+001
 2.565412955843740e+000	 1.912761450370828e+000	 1.129435689828369e+001
 2.545566145932896e+000	 1.939095922513894e+000	 1.130960639164010e+001
 2.525434962025113e+000	 1.965242542945599e+000	 1.128806949864589e+001
 2.505022061823725e+000	 1.991196743114353e+000	 1.122800794952043e+001
 2.484330200239203e+000	 2.016954004478340e+000	 1.118255399119997e+001
 2.699310523693410e+000	 1.764751454665686e+000	 1.149608679836909e+001
 2.681078868119230e+000	 1.792328402662695e+000	 1.148367695247046e+001
 2.662546659144069e+000	 1.819744566675930e+000	 1.144713430025200e+001
 2.643715967262599e+000	 1.846995095961051e+000	 1.138639423524076e+001
 2.624588966275126e+000	 1.874075174096951e+000	 1.130144007116025e+001
 2.605167932610807e+000	 1.900980021712726e+000	 1.137260264890136e+001
 2.585455244565083e+000	 1.927704899199843e+000	 1.141689087920770e+001
 2.565453381451643e+000	 1.954245109406374e+000	 1.142598581092177e+001
 2.545164922669383e+000	 1.980596000310158e+000	 1.139810947370529e+001
 2.524592546684942e+000	 2.006752967667798e+000	 1.133149267936000e+001
 2.503739029931528e+000	 2.032711457636371e+000	 1.122437843743742e+001
 2.720235411479095e+000	 1.778431698502015e+000	 1.157275154416177e+001
 2.701862425241567e+000	 1.806222421288800e+000	 1.155507698185509e+001
 2.683186555731693e+000	 1.833851113704457e+000	 1.151269506167882e+001
 2.664209889494488e+000	 1.861312887401978e+000	 1.144555827475611e+001
 2.644934617181425e+000	 1.888602888623658e+000	 1.145073622254395e+001
 2.625363032868398e+000	 1.915716300949206e+000	 1.152308188186646e+001
 2.605497533287248e+000	 1.942648348028940e+000	 1.156190346894059e+001
 2.585340616971148e+000	 1.969394296298900e+000	 1.156538680790858e+001
 2.564894883314336e+000	 1.995949457674739e+000	 1.153172251974056e+001
 2.544163031546756e+000	 2.022309192221250e+000	 1.145910945366420e+001
 2.523147859624355e+000	 2.048468910794402e+000	 1.134575816940646e+001
 2.329059562718645e+000	 1.890894379214094e+000	 1.132775564411803e+001
 2.309402088944092e+000	 1.914852994773596e+000	 1.138168219610830e+001
 2.289488523243476e+000	 1.938618658202153e+000	 1.141455764744982e+001
 2.269321714828176e+000	 1.962187288355787e+000	 1.142718725105714e+001
 2.248904599182743e+000	 1.985554860419452e+000	 1.142044158220189e+001
 2.228240196665399e+000	 2.008717408176742e+000	 1.139525521753596e+001
 2.207331611037154e+000	 2.031671026237589e+000	 1.135262524187150e+001
 2.186182027921018e+000	 2.054411872221356e+000	 1.129360958554028e+001
 2.164794713192912e+000	 2.076936168892772e+000	 1.121932519570141e+001
 2.143173011305967e+000	 2.099240206248227e+000	 1.113094604550437e+001
 2.121320343550000e+000	 2.121320343550000e+000	 1.102970098553982e+001
 2.348468392406961e+000	 1.906651832372125e+000	 1.128271100520492e+001
 2.328647106351446e+000	 1.930810103061539e+000	 1.134381592671191e+001
 2.308567594270409e+000	 1.954773813685585e+000	 1.138350055985401e+001
 2.288232729118653e+000	 1.978538849090749e+000	 1.140256744949184e+001
 2.267645470843101e+000	 2.002101150921862e+000	 1.140188631996746e+001
 2.246808864971628e+000	 2.025456719910713e+000	 1.138239274583740e+001
 2.225726041129919e+000	 2.048601618122318e+000	 1.134508664566874e+001
 2.204400211487839e+000	 2.071531971156199e+000	 1.129103060174858e+001
 2.182834669136946e+000	 2.094243970300128e+000	 1.122134800911961e+001
 2.161032786400811e+000	 2.116733874633795e+000	 1.113722105790551e+001
 2.138998013080000e+000	 2.138998013080000e+000	 1.103988855343026e+001
 2.367877222095776e+000	 1.922409285530155e+000	 1.124350160543740e+001
 2.347892123759207e+000	 1.946767211349483e+000	 1.131124404329062e+001
 2.327646665297662e+000	 1.970928969169016e+000	 1.135715440386705e+001
 2.307143743409376e+000	 1.994890409825711e+000	 1.138203314357607e+001
 2.286386342503641e+000	 2.018647441424271e+000	 1.138674981623628e+001
 2.265377533277984e+000	 2.042196031644684e+000	 1.137224173477025e+001
 2.244120471222763e+000	 2.065532210007047e+000	 1.133951245115108e+001
 2.222618395054706e+000	 2.088652070091043e+000	 1.128963005748082e+001
 2.200874625081000e+000	 2.111551771707484e+000	 1.122372531165821e+001
 2.178892561495660e+000	 2.134227543019363e+000	 1.114298959165868e+001
 2.156675682610000e+000	 2.156675682610000e+000	 1.104867268300469e+001
 2.387286051785095e+000	 1.938166738688187e+000	 1.121104768647458e+001
 2.367137141167375e+000	 1.962724319637426e+000	 1.128490071363470e+001
 2.346725736325239e+000	 1.987084124652448e+000	 1.133646685965420e+001
 2.326054757700345e+000	 2.011241970560673e+000	 1.136654510830676e+001
 2.305127214164361e+000	 2.035193731926682e+000	 1.137600552003607e+001
 2.283946201584464e+000	 2.058935343378656e+000	 1.136578788386665e+001
 2.262514901315688e+000	 2.082462801891775e+000	 1.133690018263579e+001
 2.240836578621618e+000	 2.105772169025887e+000	 1.129041687445995e+001
 2.218914581025074e+000	 2.128859573114840e+000	 1.122747699393736e+001
 2.196752336590512e+000	 2.151721211404932e+000	 1.114928207717292e+001
 2.174353352140000e+000	 2.174353352140000e+000	 1.105709391527909e+001
 2.406694881474913e+000	 1.953924191846217e+000	 1.118627295879633e+001
 2.386382158575948e+000	 1.978681427925369e+000	 1.126572311512549e+001
 2.365804807353135e+000	 2.003239280135879e+000	 1.132238815223131e+001
 2.344965771991560e+000	 2.027593531295635e+000	 1.135706619349561e+001
 2.323868085825263e+000	 2.051740022429092e+000	 1.137062848009863e+001
 2.302514869891071e+000	 2.075674655112627e+000	 1.136401801240058e+001
 2.280909331408693e+000	 2.099393393776504e+000	 1.133824799959576e+001
 2.259054762188574e+000	 2.122892267960731e+000	 1.129440012058409e+001
 2.236954536969168e+000	 2.146167374522196e+000	 1.123362259961130e+001
 2.214612111685371e+000	 2.169214879790500e+000	 1.115712810082608e+001
 2.192031021670000e+000	 2.192031021670000e+000	 1.106619144648747e+001
 2.426103711165233e+000	 1.969681645004247e+000	 1.117010446295017e+001
 2.405627175984928e+000	 1.994638536213313e+000	 1.125465131435178e+001
 2.384883878381352e+000	 2.019394435619311e+000	 1.131587094967050e+001
 2.363876786283021e+000	 2.043945092030598e+000	 1.135456124077652e+001
 2.342608957486344e+000	 2.068286312931501e+000	 1.137159528087167e+001
 2.321083538197803e+000	 2.092413966846598e+000	 1.136792001459852e+001
 2.299303761501780e+000	 2.116323985661232e+000	 1.134455467125310e+001
 2.277272945755578e+000	 2.140012366895575e+000	 1.130258900407940e+001
 2.254994492913282e+000	 2.163475175929552e+000	 1.124318133924701e+001
 2.232471886780236e+000	 2.186708548176069e+000	 1.116755643872591e+001
 2.209708691200000e+000	 2.209708691200000e+000	 1.107700318187302e+001
 2.445512540856055e+000	 1.985439098162278e+000	 1.116347243740586e+001
 2.424872193394315e+000	 2.010595644501256e+000	 1.125262815245877e+001
 2.403962949409890e+000	 2.035549591102742e+000	 1.131787026615375e+001
 2.382787800574728e+000	 2.060296652765560e+000	 1.135999700456508e+001
 2.361349829147607e+000	 2.084832603433911e+000	 1.137988398157773e+001
 2.339652206504660e+000	 2.109153278580569e+000	 1.137848281698225e+001
 2.317698191594945e+000	 2.133254577545961e+000	 1.135681955238294e+001
 2.295491129322625e+000	 2.157132465830419e+000	 1.131599286793167e+001
 2.273034448857417e+000	 2.180782977336908e+000	 1.125717210354198e+001
 2.250331661875104e+000	 2.204202216561637e+000	 1.118159508886385e+001
 2.227386360730000e+000	 2.227386360730000e+000	 1.109056578691796e+001
 2.464921370547378e+000	 2.001196551320309e+000	 1.116731019265293e+001
 2.444117210804107e+000	 2.026552752789199e+000	 1.126059913591354e+001
 2.423042020438750e+000	 2.051704746586174e+000	 1.132934336960625e+001
 2.401698814866681e+000	 2.076648213500522e+000	 1.137434207675214e+001
 2.380090700809050e+000	 2.101378893936321e+000	 1.139647405815217e+001
 2.358220874811643e+000	 2.125892590314540e+000	 1.139669633772761e+001
 2.336092621688192e+000	 2.150185169430690e+000	 1.137604256025997e+001
 2.313709312889718e+000	 2.174252564765262e+000	 1.133562118458063e+001
 2.291074404801571e+000	 2.198090778744264e+000	 1.127661347591740e+001
 2.268191436969978e+000	 2.221695884947205e+000	 1.120027130174927e+001
 2.245064030260000e+000	 2.245064030260000e+000	 1.110791473615299e+001
 2.484330200239203e+000	 2.016954004478340e+000	 1.118255399119997e+001
 2.463362228214306e+000	 2.042509861077142e+000	 1.127951233239085e+001
 2.442121091467931e+000	 2.067859902069606e+000	 1.135124969365967e+001
 2.420609829158880e+000	 2.092999774235484e+000	 1.139856681492746e+001
 2.398831572470674e+000	 2.117925184438731e+000	 1.142234634790286e+001
 2.376789543118752e+000	 2.142631902048511e+000	 1.142355144792781e+001
 2.354487051781519e+000	 2.167115761315418e+000	 1.140322415268602e+001
 2.331927496456856e+000	 2.191372663700106e+000	 1.136248355086331e+001
 2.309114360745745e+000	 2.215398580151621e+000	 1.130252374452131e+001
 2.286051212064857e+000	 2.239189553332774e+000	 1.122461160960821e+001
 2.262741699790000e+000	 2.262741699790000e+000	 1.113008435967890e+001
 2.503739029931528e+000	 2.032711457636371e+000	 1.122437843743742e+001
 2.482607245624910e+000	 2.058466969365085e+000	 1.131031827150171e+001
 2.461200162497433e+000	 2.084015057553037e+000	 1.138455075370987e+001
 2.439520843451325e+000	 2.109351334970446e+000	 1.143364327394178e+001
 2.417572444132480e+000	 2.134471474941141e+000	 1.145848299674380e+001
 2.395358211425986e+000	 2.159371213782483e+000	 1.146003993465868e+001
 2.372881481874927e+000	 2.184046353200147e+000	 1.143936530703917e+001
 2.350145680024039e+000	 2.208492762634950e+000	 1.139758968319237e+001
 2.327154316689940e+000	 2.232706381558976e+000	 1.133592091367309e+001
 2.303910987159742e+000	 2.256683221718342e+000	 1.125564185422374e+001
 2.280419369320000e+000	 2.280419369320000e+000	 1.115810788752431e+001
 2.523147859624355e+000	 2.048468910794402e+000	 1.134575816940646e+001
 2.501852263035922e+000	 2.074424077653029e+000	 1.136149445417229e+001
 2.480279233527257e+000	 2.100170213036469e+000	 1.143021006684922e+001
 2.458431857744017e+000	 2.125702895705409e+000	 1.148054514062756e+001
 2.436313315794467e+000	 2.151017765443551e+000	 1.150586740886410e+001
 2.413926879733346e+000	 2.176110525516454e+000	 1.150715446574868e+001
 2.391275911968415e+000	 2.200976945084876e+000	 1.148546750029018e+001
 2.368363863591268e+000	 2.225612861569795e+000	 1.144194941295707e+001
 2.345194272634155e+000	 2.250014182966333e+000	 1.137782271478015e+001
 2.321770762254631e+000	 2.274176890103911e+000	 1.129438721349139e+001
 2.298097038850000e+000	 2.298097038850000e+000	 1.119301749195601e+001
 2.121320343550000e+000	 2.121320343550000e+000	 1.102970098553982e+001
 2.099240206248228e+000	 2.143173011305966e+000	 1.099388643358950e+001
 2.076936168892773e+000	 2.164794713192911e+000	 1.095964528183501e+001
 2.054411872221357e+000	 2.186182027921017e+000	 1.092824630125053e+001
 2.031671026237590e+000	 2.207331611037153e+000	 1.090099128366133e+001
 2.008717408176743e+000	 2.228240196665399e+000	 1.087921232143389e+001
 1.985554860419452e+000	 2.248904599182742e+000	 1.086426898181211e+001
 1.962187288355787e+000	 2.269321714828175e+000	 1.085754538325155e+001
 1.938618658202154e+000	 2.289488523243475e+000	 1.086044718143478e+001
 1.914852994773597e+000	 2.309402088944092e+000	 1.087439847295406e+001
 1.890894379214094e+000	 2.329059562718646e+000	 1.090083862492119e+001
 2.138998013080000e+000	 2.138998013080000e+000	 1.103988855343026e+001
 2.116733874633795e+000	 2.161032786400810e+000	 1.100541271397176e+001
 2.094243970300128e+000	 2.182834669136945e+000	 1.097077765880216e+001
 2.071531971156200e+000	 2.204400211487839e+000	 1.093731331535837e+001
 2.048601618122318e+000	 2.225726041129917e+000	 1.090638545065333e+001
 2.025456719910714e+000	 2.246808864971628e+000	 1.087939284719616e+001
 2.002101150921863e+000	 2.267645470843100e+000	 1.085776436824370e+001
 1.978538849090749e+000	 2.288232729118652e+000	 1.084295591998962e+001
 1.954773813685585e+000	 2.308567594270408e+000	 1.083644731864075e+001
 1.930810103061540e+000	 2.328647106351446e+000	 1.083973907064702e+001
 1.906651832372125e+000	 2.348468392406962e+000	 1.085434907463676e+001
 2.156675682610000e+000	 2.156675682610000e+000	 1.104867268300469e+001
 2.134227543019364e+000	 2.178892561495658e+000	 1.101574951333460e+001
 2.111551771707485e+000	 2.200874625080999e+000	 1.098092415627869e+001
 2.088652070091044e+000	 2.222618395054705e+000	 1.094558830630596e+001
 2.065532210007047e+000	 2.244120471222762e+000	 1.091117235005080e+001
 2.042196031644685e+000	 2.265377533277983e+000	 1.087914243717568e+001
 2.018647441424273e+000	 2.286386342503640e+000	 1.085099743517766e+001
 1.994890409825711e+000	 2.307143743409375e+000	 1.082826577600219e+001
 1.970928969169017e+000	 2.327646665297662e+000	 1.081250220268388e+001
 1.946767211349483e+000	 2.347892123759207e+000	 1.080528442456531e+001
 1.922409285530155e+000	 2.367877222095777e+000	 1.080820968994070e+001
 2.174353352140000e+000	 2.174353352140000e+000	 1.105709391527909e+001
 2.151721211404932e+000	 2.196752336590512e+000	 1.102591910748851e+001
 2.128859573114841e+000	 2.218914581025073e+000	 1.099108778570487e+001
 2.105772169025888e+000	 2.240836578621617e+000	 1.095405403736993e+001
 2.082462801891776e+000	 2.262514901315687e+000	 1.091631352940000e+001
 2.058935343378656e+000	 2.283946201584463e+000	 1.087940047268314e+001
 2.035193731926682e+000	 2.305127214164361e+000	 1.084488446505809e+001
 2.011241970560674e+000	 2.326054757700344e+000	 1.081436722089896e+001
 1.987084124652449e+000	 2.346725736325237e+000	 1.078947919580005e+001
 1.962724319637427e+000	 2.367137141167374e+000	 1.077187611519886e+001
 1.938166738688187e+000	 2.387286051785094e+000	 1.076323541608489e+001
 2.192031021670000e+000	 2.192031021670000e+000	 1.106619144648747e+001
 2.169214879790501e+000	 2.214612111685371e+000	 1.103694282478561e+001
 2.146167374522197e+000	 2.236954536969167e+000	 1.100227102361795e+001
 2.122892267960732e+000	 2.259054762188574e+000	 1.096369316450806e+001
 2.099393393776505e+000	 2.280909331408692e+000	 1.092277087132924e+001
 2.075674655112628e+000	 2.302514869891070e+000	 1.088110712710712e+001
 2.051740022429092e+000	 2.323868085825262e+000	 1.084034300376688e+001
 2.027593531295636e+000	 2.344965771991559e+000	 1.080215427321206e+001
 2.003239280135880e+000	 2.365804807353133e+000	 1.076824790850813e+001
 1.978681427925370e+000	 2.386382158575948e+000	 1.074035848430042e+001
 1.953924191846217e+000	 2.406694881474913e+000	 1.072024448591775e+001
 2.209708691200000e+000	 2.209708691200000e+000	 1.107700318187302e+001
 2.186708548176069e+000	 2.232471886780235e+000	 1.104984108401814e+001
 2.163475175929553e+000	 2.254994492913281e+000	 1.101547583304835e+001
 2.140012366895575e+000	 2.277272945755577e+000	 1.097548824065220e+001
 2.116323985661234e+000	 2.299303761501778e+000	 1.093150658014552e+001
 2.092413966846599e+000	 2.321083538197802e+000	 1.088520333423084e+001
 2.068286312931502e+000	 2.342608957486344e+000	 1.083829181008623e+001
 2.043945092030598e+000	 2.363876786283020e+000	 1.079252263043893e+001
 2.019394435619312e+000	 2.384883878381352e+000	 1.074968010967851e+001
 1.994638536213314e+000	 2.405627175984928e+000	 1.071157852443490e+001
 1.969681645004248e+000	 2.426103711165233e+000	 1.068005828838043e+001
 2.227386360730000e+000	 2.227386360730000e+000	 1.109056578691796e+001
 2.204202216561638e+000	 2.250331661875104e+000	 1.106563343051192e+001
 2.180782977336909e+000	 2.273034448857415e+000	 1.103170368389694e+001
 2.157132465830420e+000	 2.295491129322624e+000	 1.099042171979642e+001
 2.133254577545962e+000	 2.317698191594944e+000	 1.094348316906966e+001
 2.109153278580570e+000	 2.339652206504659e+000	 1.089263075805787e+001
 2.084832603433911e+000	 2.361349829147606e+000	 1.083965080756775e+001
 2.060296652765561e+000	 2.382787800574727e+000	 1.078636960241697e+001
 2.035549591102744e+000	 2.403962949409890e+000	 1.073464964088448e+001
 2.010595644501257e+000	 2.424872193394314e+000	 1.068638577378841e+001
 1.985439098162278e+000	 2.445512540856055e+000	 1.064350124326494e+001
 2.245064030260000e+000	 2.245064030260000e+000	 1.110791473615299e+001
 2.221695884947205e+000	 2.268191436969977e+000	 1.108533857051507e+001
 2.198090778744265e+000	 2.291074404801570e+000	 1.105195557234946e+001
 2.174252564765263e+000	 2.313709312889717e+000	 1.100947596089234e+001
 2.150185169430690e+000	 2.336092621688191e+000	 1.095966344807408e+001
 2.125892590314541e+000	 2.358220874811642e+000	 1.090433176406332e+001
 2.101378893936322e+000	 2.380090700809050e+000	 1.084534103867522e+001
 2.076648213500523e+000	 2.401698814866681e+000	 1.078459404784539e+001
 2.051704746586175e+000	 2.423042020438749e+000	 1.072403233479944e+001
 2.026552752789200e+000	 2.444117210804106e+000	 1.066563221594708e+001
 2.001196551320309e+000	 2.464921370547378e+000	 1.061140068188934e+001
 2.262741699790000e+000	 2.262741699790000e+000	 1.113008435967890e+001
 2.239189553332774e+000	 2.286051212064856e+000	 1.110997440397410e+001
 2.215398580151621e+000	 2.309114360745745e+000	 1.107723203938119e+001
 2.191372663700107e+000	 2.331927496456855e+000	 1.103363323156162e+001
 2.167115761315420e+000	 2.354487051781518e+000	 1.098101051229123e+001
 2.142631902048512e+000	 2.376789543118751e+000	 1.092124939179236e+001
 2.117925184438732e+000	 2.398831572470674e+000	 1.085628462107737e+001
 2.092999774235485e+000	 2.420609829158880e+000	 1.078809631378296e+001
 2.067859902069607e+000	 2.442121091467930e+000	 1.071870593741982e+001
 2.042509861077143e+000	 2.463362228214304e+000	 1.065017218437347e+001
 2.016954004478340e+000	 2.484330200239203e+000	 1.058458673336634e+001
 2.280419369320000e+000	 2.280419369320000e+000	 1.115810788752431e+001
 2.256683221718343e+000	 2.303910987159740e+000	 1.114055805578629e+001
 2.232706381558977e+000	 2.327154316689938e+000	 1.110853318840062e+001
 2.208492762634951e+000	 2.350145680024038e+000	 1.106387571163596e+001
 2.184046353200148e+000	 2.372881481874926e+000	 1.100848773096066e+001
 2.159371213782483e+000	 2.395358211425985e+000	 1.094432732873386e+001
 2.134471474941142e+000	 2.417572444132479e+000	 1.087340470597303e+001
 2.109351334970447e+000	 2.439520843451324e+000	 1.079777817795956e+001
 2.084015057553038e+000	 2.461200162497432e+000	 1.071955003390516e+001
 2.058466969365087e+000	 2.482607245624910e+000	 1.064086227132618e+001
 2.032711457636371e+000	 2.503739029931528e+000	 1.060219066239988e+001
 2.298097038850000e+000	 2.298097038850000e+000	 1.119301749195601e+001
 2.274176890103912e+000	 2.321770762254630e+000	 1.117810590560906e+001
 2.250014182966333e+000	 2.345194272634154e+000	 1.114685870207904e+001
 2.225612861569796e+000	 2.368363863591268e+000	 1.110118549653356e+001
 2.200976945084877e+000	 2.391275911968414e+000	 1.104305873688659e+001
 2.176110525516455e+000	 2.413926879733346e+000	 1.097450988539928e+001
 2.151017765443552e+000	 2.436313315794465e+000	 1.089762543834001e+001
 2.125702895705410e+000	 2.458431857744016e+000	 1.081454279375031e+001
 2.100170213036470e+000	 2.480279233527256e+000	 1.072744597784113e+001
 2.074424077653031e+000	 2.501852263035922e+000	 1.065789344394147e+001
 2.048468910794402e+000	 2.523147859624355e+000	 1.078876055240949e+001
 1.890894379214094e+000	 2.329059562718646e+000	 1.090083862492119e+001
 1.866746946686970e+000	 2.348458182955457e+000	 1.087129884591113e+001
 1.842414884029853e+000	 2.367595276895474e+000	 1.079800776373524e+001
 1.817902427375696e+000	 2.386468261810127e+000	 1.071770982462184e+001
 1.793213859741616e+000	 2.405074646102546e+000	 1.063185359454100e+001
 1.768353508590089e+000	 2.423412030331897e+000	 1.054186191851898e+001
 1.743325743364769e+000	 2.441478108159864e+000	 1.044912935057556e+001
 1.718134973003829e+000	 2.459270667218595e+000	 1.035501967989970e+001
 1.692785643433694e+000	 2.476787589899572e+000	 1.026086355839219e+001
 1.667282235046093e+000	 2.494026854062976e+000	 1.016795623434622e+001
 1.641629260161343e+000	 2.510986533667252e+000	 1.014727653806842e+001
 1.906651832372125e+000	 2.348468392406962e+000	 1.085434907463676e+001
 1.882303171240375e+000	 2.368028667811902e+000	 1.082877250743579e+001
 1.857768341394251e+000	 2.387325237534294e+000	 1.075915559120183e+001
 1.833051614267812e+000	 2.406355497322827e+000	 1.066558942549820e+001
 1.808157308569985e+000	 2.425116934817322e+000	 1.056677533075846e+001
 1.783089787825432e+000	 2.443607130581606e+000	 1.046419621479690e+001
 1.757853457889841e+000	 2.461823759057876e+000	 1.035930553398482e+001
 1.732452764442533e+000	 2.479764589441885e+000	 1.025352473468398e+001
 1.706892190459320e+000	 2.497427486478373e+000	 1.014824079932543e+001
 1.681176253668530e+000	 2.514810411176357e+000	 1.014287770253039e+001
 1.655309503993148e+000	 2.531911421443936e+000	 1.014675918573173e+001
 1.922409285530155e+000	 2.367877222095777e+000	 1.080820968994070e+001
 1.897859395793785e+000	 2.387599152668946e+000	 1.076686428711353e+001
 1.873121798758668e+000	 2.407055198173796e+000	 1.071947711813239e+001
 1.848200801159973e+000	 2.426242732836282e+000	 1.061273460761832e+001
 1.823100757398435e+000	 2.445159223532919e+000	 1.050107723921625e+001
 1.797826067060902e+000	 2.463802230832190e+000	 1.038604865376577e+001
 1.772381172415094e+000	 2.482169409956811e+000	 1.026916184713592e+001
 1.746770555881483e+000	 2.500258511666131e+000	 1.015377479238329e+001
 1.720998737485268e+000	 2.518067383058154e+000	 1.016129668530783e+001
 1.695070272291374e+000	 2.535593968290733e+000	 1.015844357900473e+001
 1.668989747825456e+000	 2.552836309221620e+000	 1.014716947577672e+001
 1.938166738688187e+000	 2.387286051785094e+000	 1.076323541608489e+001
 1.913415620347201e+000	 2.407169637526585e+000	 1.070592872244635e+001
 1.888475256123106e+000	 2.426785158813978e+000	 1.064680406295299e+001
 1.863349988052179e+000	 2.446129968350495e+000	 1.055873223244105e+001
 1.838044206226965e+000	 2.465201512249336e+000	 1.043433118573137e+001
 1.812562346296499e+000	 2.483997331083651e+000	 1.030697623901149e+001
 1.786908886940529e+000	 2.502515060856667e+000	 1.019753532156199e+001
 1.761088347320681e+000	 2.520752433891332e+000	 1.020189092830896e+001
 1.735105284511538e+000	 2.538707279638916e+000	 1.019386556272756e+001
 1.708964290914626e+000	 2.556377525406105e+000	 1.017550228409000e+001
 1.682669991658267e+000	 2.573761197000304e+000	 1.014883840086858e+001
 1.953924191846217e+000	 2.406694881474913e+000	 1.072024448591775e+001
 1.928971844900621e+000	 2.426740122384820e+000	 1.064676453721611e+001
 1.903828713487564e+000	 2.446515119454843e+000	 1.057109864117723e+001
 1.878499174944432e+000	 2.466017203865462e+000	 1.049494612898079e+001
 1.852987655055576e+000	 2.485243800966575e+000	 1.036611351617350e+001
 1.827298625532221e+000	 2.504192431335988e+000	 1.026062892504048e+001
 1.801436601466145e+000	 2.522860711757441e+000	 1.026378237889818e+001
 1.775406138760125e+000	 2.541246356117488e+000	 1.025237849480057e+001
 1.749211831538131e+000	 2.559347176220657e+000	 1.022854646854473e+001
 1.722858309538286e+000	 2.577161082522470e+000	 1.019441410996859e+001
 1.696350235491580e+000	 2.594686084779988e+000	 1.015210332834623e+001
 1.969681645004248e+000	 2.426103711165233e+000	 1.068005828838043e+001
 1.944528069454047e+000	 2.446310607243651e+000	 1.059017389173774e+001
 1.919182170852043e+000	 2.466245080096388e+000	 1.049771999647927e+001
 1.893648361836729e+000	 2.485904439381186e+000	 1.040446995190699e+001
 1.867931103884267e+000	 2.505286089684634e+000	 1.034169300099109e+001
 1.842034904768070e+000	 2.524387531589200e+000	 1.034584433859633e+001
 1.815964315991943e+000	 2.543206362659137e+000	 1.033309207363819e+001
 1.789723930199816e+000	 2.561740278344599e+000	 1.030564817408855e+001
 1.763318378565047e+000	 2.579987072803380e+000	 1.026572790949597e+001
 1.736752328162353e+000	 2.597944639639832e+000	 1.021554515802653e+001
 1.710030479325396e+000	 2.615610972560673e+000	 1.015730774523524e+001
 1.985439098162278e+000	 2.445512540856055e+000	 1.064350124326494e+001
 1.960084294007477e+000	 2.465881092103079e+000	 1.053696224648875e+001
 1.934535628216542e+000	 2.485975040738615e+000	 1.042745410204829e+001
 1.908797548729072e+000	 2.505791674897666e+000	 1.036988822092782e+001
 1.882874552713041e+000	 2.525328378403515e+000	 1.042994582165015e+001
 1.856771184004044e+000	 2.544582631843288e+000	 1.043485921780134e+001
 1.830492030517923e+000	 2.563552013561753e+000	 1.040590171341708e+001
 1.804041721639754e+000	 2.582234200572666e+000	 1.036211563877943e+001
 1.777424925592284e+000	 2.600626969387082e+000	 1.030580367545942e+001
 1.750646346786827e+000	 2.618728196758188e+000	 1.023926710832939e+001
 1.723710723159714e+000	 2.636535860342358e+000	 1.016480101540325e+001
 2.001196551320309e+000	 2.464921370547378e+000	 1.061140068188934e+001
 1.975640518560913e+000	 2.485451576963104e+000	 1.048793823218172e+001
 1.949889085581061e+000	 2.505705001381523e+000	 1.041587861664507e+001
 1.923946735621461e+000	 2.525678910414902e+000	 1.047164448294101e+001
 1.897818001541895e+000	 2.545370667123217e+000	 1.051145620798252e+001
 1.871507463240145e+000	 2.564777732098251e+000	 1.052813647709501e+001
 1.845019745044084e+000	 2.583897664465289e+000	 1.048265312133997e+001
 1.818359513079940e+000	 2.602728122801688e+000	 1.042220135538411e+001
 1.791531472619844e+000	 2.621266865971764e+000	 1.034917263145691e+001
 1.764540365411709e+000	 2.639511753877541e+000	 1.026595699998938e+001
 1.737390966994536e+000	 2.657460748125041e+000	 1.017493814818810e+001
 2.016954004478340e+000	 2.484330200239203e+000	 1.058458673336634e+001
 1.991196743114353e+000	 2.505022061823724e+000	 1.049395567832543e+001
 1.965242542945600e+000	 2.525434962025112e+000	 1.054664089459025e+001
 1.939095922513895e+000	 2.545566145932894e+000	 1.058298607125317e+001
 1.912761450370829e+000	 2.565412955843739e+000	 1.060273295376855e+001
 1.886243742476373e+000	 2.584972832354091e+000	 1.060567457420994e+001
 1.859547459570428e+000	 2.604243315369748e+000	 1.056379245959661e+001
 1.832677304520373e+000	 2.623222045031666e+000	 1.048633039705623e+001
 1.805638019647726e+000	 2.641906762557427e+000	 1.039623851940625e+001
 1.778434384036999e+000	 2.660295310997887e+000	 1.029599702182742e+001
 1.751071210829859e+000	 2.678385635908726e+000	 1.018807957787176e+001
 2.032711457636371e+000	 2.503739029931528e+000	 1.060219066239988e+001
 2.006752967667799e+000	 2.524592546684941e+000	 1.065299630533713e+001
 1.980596000310160e+000	 2.545164922669383e+000	 1.068710986238536e+001
 1.954245109406375e+000	 2.565453381451643e+000	 1.070422307533835e+001
 1.927704899199844e+000	 2.585455244565082e+000	 1.070407988383186e+001
 1.900980021712727e+000	 2.605167932610806e+000	 1.068647709119154e+001
 1.874075174096952e+000	 2.624588966275125e+000	 1.064977006127982e+001
 1.846995095961052e+000	 2.643715967262599e+000	 1.055493226503985e+001
 1.819744566675930e+000	 2.662546659144069e+000	 1.044740976909431e+001
 1.792328402662696e+000	 2.681078868119229e+000	 1.032977431277219e+001
 1.764751454665686e+000	 2.699310523693410e+000	 1.020459095341112e+001
 2.048468910794402e+000	 2.523147859624355e+000	 1.078876055240949e+001
 2.022309192221251e+000	 2.544163031546754e+000	 1.082186574321821e+001
 1.995949457674740e+000	 2.564894883314335e+000	 1.083760455779346e+001
 1.969394296298900e+000	 2.585340616971147e+000	 1.083566886945514e+001
 1.942648348028941e+000	 2.605497533287247e+000	 1.081580434685968e+001
 1.915716300949207e+000	 2.625363032868397e+000	 1.077781112690690e+001
 1.888602888623659e+000	 2.644934617181425e+000	 1.072154435735176e+001
 1.861312887401979e+000	 2.664209889494488e+000	 1.062844071835841e+001
 1.833851113704458e+000	 2.683186555731692e+000	 1.050309931787426e+001
 1.806222421288801e+000	 2.701862425241567e+000	 1.036768077147127e+001
 1.778431698502015e+000	 2.720235411479095e+000	 1.022484293787357e+001
 1.641629260161343e+000	 2.510986533667252e+000	 1.014727653806842e+001
 1.615831260481341e+000	 2.527664799318952e+000	 1.018612044689243e+001
 1.589892804533449e+000	 2.544059918741996e+000	 1.019913144777856e+001
 1.563818485109322e+000	 2.560170257166945e+000	 1.018839385924666e+001
 1.537612916702710e+000	 2.575994277640975e+000	 1.015598789794442e+001
 1.511280732947346e+000	 2.591530541258077e+000	 1.010398551474808e+001
 1.484826584058344e+000	 2.606777707310106e+000	 1.003444629771521e+001
 1.458255134279887e+000	 2.621734533359257e+000	 9.949413451164654e+000
 1.431571059341970e+000	 2.636399875232531e+000	 9.850909859820890e+000
 1.404779043928913e+000	 2.650772686938987e+000	 9.740934246588934e+000
 1.377883779162314e+000	 2.664852020510572e+000	 9.621457432139746e+000
 1.655309503993148e+000	 2.531911421443936e+000	 1.014675918573173e+001
 1.629296520982582e+000	 2.548728672642727e+000	 1.017806736816859e+001
 1.603141911235245e+000	 2.565260418061028e+000	 1.018593161833446e+001
 1.576850305816057e+000	 2.581505009306318e+000	 1.017248043501065e+001
 1.550426357672883e+000	 2.597460896617837e+000	 1.013983588559925e+001
 1.523874739053070e+000	 2.613126629098686e+000	 1.009010936386583e+001
 1.497200138923525e+000	 2.628500854868159e+000	 1.002539741872681e+001
 1.470407260397131e+000	 2.643582321134798e+000	 9.947777663522009e+000
 1.443500818168301e+000	 2.658369874190830e+000	 9.859304774855252e+000
 1.416485535960391e+000	 2.672862459328721e+000	 9.762006589708733e+000
 1.389366143987678e+000	 2.687059120680686e+000	 9.657880309130983e+000
 1.668989747825456e+000	 2.552836309221620e+000	 1.014716947577672e+001
 1.642761781484414e+000	 2.569792545967492e+000	 1.017001644075459e+001
 1.616391017937702e+000	 2.586460917381019e+000	 1.017177906290954e+001
 1.589882126523503e+000	 2.602839761446600e+000	 1.015463172432592e+001
 1.563239798643796e+000	 2.618927515595535e+000	 1.012074005380531e+001
 1.536468745159544e+000	 2.634722716940044e+000	 1.007225660363369e+001
 1.509573693789444e+000	 2.650224002426848e+000	 1.001131660161292e+001
 1.482559386515084e+000	 2.665430108910843e+000	 9.940033787962676e+000
 1.455430576995290e+000	 2.680339873149481e+000	 9.860496346332104e+000
 1.428192027992455e+000	 2.694952231718637e+000	 9.774762937765990e+000
 1.400848508813537e+000	 2.709266220850791e+000	 9.684858846055400e+000
 1.682669991658267e+000	 2.573761197000304e+000	 1.014883840086858e+001
 1.656227041986839e+000	 2.590856419293247e+000	 1.016229272810029e+001
 1.629640124640821e+000	 2.607661416701968e+000	 1.015699357509311e+001
 1.602913947231660e+000	 2.624174513587790e+000	 1.013516292003763e+001
 1.576053239615450e+000	 2.640394134574071e+000	 1.009901167305956e+001
 1.549062751266767e+000	 2.656318804782146e+000	 1.005073526938196e+001
 1.521947248656102e+000	 2.671947149986172e+000	 9.992509341995543e+000
 1.494711512633743e+000	 2.687277896687392e+000	 9.926485483616947e+000
 1.467360335822935e+000	 2.702309872108486e+000	 9.854787107332752e+000
 1.439898520025106e+000	 2.717042004108736e+000	 9.779505414921937e+000
 1.412330873639893e+000	 2.731473321020890e+000	 9.702695481417202e+000
 1.696350235491580e+000	 2.594686084779988e+000	 1.015210332834623e+001
 1.669692302489857e+000	 2.611920292619992e+000	 1.015522742951691e+001
 1.642889231344602e+000	 2.628861916023877e+000	 1.014190082122376e+001
 1.615945767940529e+000	 2.645509265729889e+000	 1.011439480053457e+001
 1.588866680587844e+000	 2.661860753553444e+000	 1.007496728832533e+001
 1.561656757374740e+000	 2.677914892624994e+000	 1.002585833619267e+001
 1.534320803523498e+000	 2.693670297546130e+000	 9.969285717145604e+000
 1.506863638753111e+000	 2.709125684464445e+000	 9.907440610033877e+000
 1.479290094651237e+000	 2.724279871067844e+000	 9.842483387275298e+000
 1.451605012058343e+000	 2.739131776499017e+000	 9.776539515026641e+000
 1.423813238466745e+000	 2.753680421190979e+000	 9.711695574495407e+000
 1.710030479325396e+000	 2.615610972560673e+000	 1.015730774523524e+001
 1.683157562993467e+000	 2.632984165947726e+000	 1.014915763474271e+001
 1.656138338049046e+000	 2.650062415346746e+000	 1.012683210547902e+001
 1.628977588650109e+000	 2.666844017872896e+000	 1.009265350632755e+001
 1.601680121560980e+000	 2.683327372533654e+000	 1.004892850805362e+001
 1.574250763483462e+000	 2.699510980468590e+000	 9.997943521309669e+000
 1.546694358391633e+000	 2.715393445106723e+000	 9.941960202716938e+000
 1.519015764873185e+000	 2.730973472242001e+000	 9.883211059164838e+000
 1.491219853480195e+000	 2.746249870027554e+000	 9.823895160060928e+000
 1.463311504092166e+000	 2.761221548889481e+000	 9.766173966831378e+000
 1.435295603294094e+000	 2.775887521361062e+000	 9.712167288512832e+000
 1.723710723159714e+000	 2.636535860342358e+000	 1.016480101540325e+001
 1.696622823497669e+000	 2.654048039276451e+000	 1.014442609019578e+001
 1.669387444754151e+000	 2.671262914670574e+000	 1.011212414615193e+001
 1.642009409360401e+000	 2.688178770016811e+000	 1.007027032726655e+001
 1.614493562534854e+000	 2.704793991514702e+000	 1.002122180325097e+001
 1.586844769592933e+000	 2.721107068312931e+000	 9.967313095957676e+000
 1.559067913260507e+000	 2.737116592667952e+000	 9.910851498207288e+000
 1.531167890993968e+000	 2.752821260020062e+000	 9.854112595347420e+000
 1.503149612309811e+000	 2.768219868987618e+000	 9.799335899451513e+000
 1.475017996126575e+000	 2.783311321280127e+000	 9.748720605619681e+000
 1.446777968121937e+000	 2.798094621531136e+000	 9.704421479368516e+000
 1.737390966994536e+000	 2.657460748125041e+000	 1.017493814818810e+001
 1.710088084002464e+000	 2.675111912606165e+000	 1.014138097627024e+001
 1.682636551459918e+000	 2.692463413995360e+000	 1.009811886249667e+001
 1.655041230071404e+000	 2.709513522161635e+000	 1.004758149981109e+001
 1.627307003509470e+000	 2.726260610496586e+000	 9.992178316040357e+000
 1.599438775703154e+000	 2.742703156158019e+000	 9.934293706051509e+000
 1.571441468130119e+000	 2.758839740229814e+000	 9.876282360665350e+000
 1.543320017115457e+000	 2.774669047798627e+000	 9.820464702849412e+000
 1.515079371140083e+000	 2.790189867948034e+000	 9.769122441280244e+000
 1.486724488161571e+000	 2.805401093670955e+000	 9.724494250902822e+000
 1.458260332950278e+000	 2.820301721701202e+000	 9.688771589626748e+000
 1.751071210829859e+000	 2.678385635908726e+000	 1.018807957787176e+001
 1.723553344507851e+000	 2.696175785936869e+000	 1.014037569507127e+001
 1.695885658166348e+000	 2.713663913321106e+000	 1.008516317156605e+001
 1.668073050783117e+000	 2.730848274307367e+000	 1.002492801380313e+001
 1.640120444484826e+000	 2.747727229479309e+000	 9.962133677195594e+000
 1.612032781814125e+000	 2.764299244003852e+000	 9.899216201309949e+000
 1.583815023000469e+000	 2.780562887792313e+000	 9.838579446192567e+000
 1.555472143237655e+000	 2.796516835577696e+000	 9.782590440558804e+000
 1.527009129971013e+000	 2.812159866908804e+000	 9.733574852120126e+000
 1.498430980197153e+000	 2.827490866061966e+000	 9.693812589848555e+000
 1.469742697779114e+000	 2.842508821871260e+000	 9.665533547475624e+000
 1.764751454665686e+000	 2.699310523693410e+000	 1.020459095341112e+001
 1.737018605013831e+000	 2.717239659268562e+000	 1.014176866802366e+001
 1.709134764873440e+000	 2.734864412647811e+000	 1.007360879449856e+001
 1.681104871495543e+000	 2.752183026454008e+000	 1.000265542822751e+001
 1.652933885460923e+000	 2.769193848462868e+000	 9.931427832162806e+000
 1.624626787925845e+000	 2.785895331850432e+000	 9.862415472317430e+000
 1.596188577871558e+000	 2.802286035355447e+000	 9.798073158817070e+000
 1.567624269360560e+000	 2.818364623357268e+000	 9.740816303432951e+000
 1.538938888802599e+000	 2.834129865869927e+000	 9.693016304062013e+000
 1.510137472233321e+000	 2.849580638453160e+000	 9.656996066131427e+000
 1.481225062608446e+000	 2.864715922041312e+000	 9.635025670384904e+000
 1.778431698502015e+000	 2.720235411479095e+000	 1.022484293787357e+001
 1.750483865520404e+000	 2.738303532601247e+000	 1.014592314282061e+001
 1.722383871581194e+000	 2.756064911975476e+000	 1.006381207174557e+001
 1.694136692208681e+000	 2.773517778601558e+000	 9.981113695475615e+000
 1.665747326437761e+000	 2.790660467447267e+000	 9.900404875111306e+000
 1.637220794038315e+000	 2.807491419697759e+000	 9.824230295106268e+000
 1.608562132743385e+000	 2.824009182919216e+000	 9.755097506342830e+000
 1.579776395484174e+000	 2.840212411137346e+000	 9.695472090341728e+000
 1.550868647634842e+000	 2.856099864831403e+000	 9.647772955271435e+000
 1.521843964270076e+000	 2.871670410844536e+000	 9.614367773913429e+000
 1.492707427438275e+000	 2.886923022211355e+000	 9.597568573210634e+000
 1.377883779162314e+000	 2.664852020510572e+000	 9.621457432139746e+000
 1.350889960100455e+000	 2.678637025767296e+000	 9.375967575979313e+000
 1.323802283258406e+000	 2.692126950008474e+000	 9.225094367809968e+000
 1.296625444150433e+000	 2.705321137630596e+000	 9.169531782593882e+000
 1.269364134855766e+000	 2.718219029672730e+000	 9.209856551384672e+000
 1.242023041611831e+000	 2.730820163291444e+000	 9.209634746609497e+000
 1.214606842436724e+000	 2.743124171166410e+000	 8.968061850233610e+000
 1.187120204783137e+000	 2.755130780838170e+000	 8.813958225972502e+000
 1.159567783225907e+000	 2.766839813979640e+000	 8.745674079931616e+000
 1.131954217185234e+000	 2.778251185602976e+000	 8.761374440675576e+000
 1.104284128687585e+000	 2.789364903203509e+000	 8.859049525650827e+000
 1.389366143987678e+000	 2.687059120680686e+000	 9.657880309130983e+000
 1.362147376433888e+000	 2.700959000981797e+000	 9.411238986022736e+000
 1.334833968951679e+000	 2.714561341258762e+000	 9.254769394720253e+000
 1.307430656184602e+000	 2.727865480444710e+000	 9.189283774158913e+000
 1.279942169312546e+000	 2.740870854920701e+000	 9.215479441213493e+000
 1.252373233624917e+000	 2.753576997986275e+000	 9.333937578483406e+000
 1.224728566123295e+000	 2.765983539260101e+000	 9.129891106586950e+000
 1.197012873155813e+000	 2.778090204012228e+000	 8.972046588134845e+000
 1.169230848085429e+000	 2.789896812429515e+000	 8.897470348230266e+000
 1.141387168994182e+000	 2.801403278815884e+000	 8.904293830416579e+000
 1.113486496425423e+000	 2.812609610729128e+000	 8.990472460943732e+000
 1.400848508813537e+000	 2.709266220850791e+000	 9.684858846055400e+000
 1.373404792767729e+000	 2.723280976196111e+000	 9.437595615828640e+000
 1.345865654645289e+000	 2.736995732508725e+000	 9.276162392012912e+000
 1.318235868219059e+000	 2.750409823258400e+000	 9.201489950698393e+000
 1.290520203769585e+000	 2.763522680168190e+000	 9.214396390855351e+000
 1.262723425638253e+000	 2.776333832680606e+000	 9.315585727590584e+000
 1.234850289810128e+000	 2.788842907353316e+000	 9.271567519800016e+000
 1.206905541528781e+000	 2.801049627185873e+000	 9.114616004726917e+000
 1.178893912945295e+000	 2.812953810879078e+000	 9.038565868610458e+000
 1.150820120803544e+000	 2.824555372028620e+000	 9.041509511313850e+000
 1.122688864163766e+000	 2.835854318254756e+000	 9.121361969276313e+000
 1.412330873639893e+000	 2.731473321020890e+000	 9.702695481417202e+000
 1.384662209101975e+000	 2.745602951410237e+000	 9.455300168886007e+000
 1.356897340339236e+000	 2.759430123758361e+000	 9.289494244643738e+000
 1.329041080253802e+000	 2.772954166071665e+000	 9.206327333506865e+000
 1.301098238226883e+000	 2.786174505415196e+000	 9.206738552089892e+000
 1.273073617651840e+000	 2.799090667374439e+000	 9.291554907175859e+000
 1.244972013497223e+000	 2.811702275446057e+000	 9.389353011777267e+000
 1.216798209902043e+000	 2.824009050359105e+000	 9.237951703766436e+000
 1.188556977805506e+000	 2.836010809328329e+000	 9.165268810366491e+000
 1.160253072613321e+000	 2.847707465241187e+000	 9.169352202565307e+000
 1.131891231902615e+000	 2.859099025780396e+000	 9.248070901661338e+000
 1.423813238466745e+000	 2.753680421190979e+000	 9.711695574495407e+000
 1.395919625436628e+000	 2.767924926624177e+000	 9.464619114015049e+000
 1.367929026033521e+000	 2.781864515007671e+000	 9.294990516705838e+000
 1.339846292288835e+000	 2.795498508884507e+000	 9.203978605310141e+000
 1.311676272684440e+000	 2.808826330661722e+000	 9.192643788111582e+000
 1.283423809665677e+000	 2.821847502067772e+000	 9.261936262013858e+000
 1.255093737184579e+000	 2.834561643538318e+000	 9.412694428189070e+000
 1.226690878275597e+000	 2.846968473531923e+000	 9.338349172259500e+000
 1.198220042666061e+000	 2.859067807777269e+000	 9.273898913840819e+000
 1.169686024423513e+000	 2.870859558453584e+000	 9.284165569662218e+000
 1.141093599641968e+000	 2.882343733306045e+000	 9.366966492839749e+000
 1.435295603294094e+000	 2.775887521361062e+000	 9.712167288512832e+000
 1.407177041771687e+000	 2.790246901837927e+000	 9.465822534753848e+000
 1.378960711728142e+000	 2.804298906256655e+000	 9.292881264264249e+000
 1.350651504324155e+000	 2.818042851696925e+000	 9.194631883808130e+000
 1.322254307142256e+000	 2.831478155907767e+000	 9.172256405073119e+000
 1.293774001679765e+000	 2.844604336760606e+000	 9.226828452002643e+000
 1.265215460872198e+000	 2.857421011630105e+000	 9.359311481957620e+000
 1.236583546649445e+000	 2.869927896704327e+000	 9.412113745840966e+000
 1.207883107526959e+000	 2.882124806225896e+000	 9.360787027582466e+000
 1.179118976234119e+000	 2.894011651665810e+000	 9.382305706537577e+000
 1.150295967381827e+000	 2.905588440831705e+000	 9.474429785931568e+000
 1.446777968121937e+000	 2.798094621531136e+000	 9.704421479368516e+000
 1.418434458107152e+000	 2.812568877051492e+000	 9.459183985917157e+000
 1.389992397423100e+000	 2.826733297505313e+000	 9.283400857102929e+000
 1.361456716359764e+000	 2.840587194508919e+000	 9.178480506001414e+000
 1.332832341600332e+000	 2.854129981153329e+000	 9.145726896412413e+000
 1.304124193694103e+000	 2.867361171452942e+000	 9.186337353944136e+000
 1.275337184560078e+000	 2.880280379721415e+000	 9.301400592302041e+000
 1.246476215023585e+000	 2.892887319876318e+000	 9.455560217955839e+000
 1.217546172388202e+000	 2.905181804674212e+000	 9.422274667544967e+000
 1.188551928045141e+000	 2.917163744877865e+000	 9.460140642373856e+000
 1.159498335122191e+000	 2.928833148357375e+000	 9.566855084484322e+000
 1.458260332950278e+000	 2.820301721701202e+000	 9.688771589626748e+000
 1.429691874443023e+000	 2.834890852264868e+000	 9.444980356932152e+000
 1.401024083118395e+000	 2.849167688753644e+000	 9.266787808893369e+000
 1.372261928395660e+000	 2.863131537320488e+000	 9.155722822706780e+000
 1.343410376058666e+000	 2.876781806398410e+000	 9.113211699258645e+000
 1.314474385708692e+000	 2.890118006144780e+000	 9.140575777414369e+000
 1.285458908248220e+000	 2.903139747812249e+000	 9.239029265001598e+000
 1.256368883398019e+000	 2.915846743047893e+000	 9.409677289485812e+000
 1.227209237249790e+000	 2.928238803122218e+000	 9.454713597109901e+000
 1.197984879856578e+000	 2.940315838089751e+000	 9.514049871711471e+000
 1.168700702863060e+000	 2.952077855883055e+000	 9.640649430408804e+000
 1.469742697779114e+000	 2.842508821871260e+000	 9.665533547475624e+000
 1.440949290779301e+000	 2.857212827478057e+000	 9.423491741579964e+000
 1.412055768814028e+000	 2.871602080001652e+000	 9.243284615324100e+000
 1.383067140431844e+000	 2.885675880131633e+000	 9.126562002705166e+000
 1.353988410517260e+000	 2.899433631643008e+000	 9.074872962256956e+000
 1.324824577723531e+000	 2.912874840836117e+000	 9.089663193951745e+000
 1.295580631936624e+000	 2.925999115902606e+000	 9.172272674399986e+000
 1.266261551772746e+000	 2.938806166219056e+000	 9.323933513705137e+000
 1.236872302111721e+000	 2.951295801569910e+000	 9.454465426796736e+000
 1.207417831668429e+000	 2.963467931301467e+000	 9.540423906582955e+000
 1.177903070604434e+000	 2.975322563408745e+000	 9.692232106386937e+000
 1.481225062608446e+000	 2.864715922041312e+000	 9.635025670384904e+000
 1.452206707115985e+000	 2.879534802691059e+000	 9.395001313795921e+000
 1.423087454509997e+000	 2.894036471249331e+000	 9.213137599758765e+000
 1.393872352468316e+000	 2.908220222942354e+000	 9.091205845998776e+000
 1.364566444976113e+000	 2.922085456887126e+000	 9.030878324191805e+000
 1.335174769738621e+000	 2.935631675526955e+000	 9.033725478841731e+000
 1.305702355625290e+000	 2.948858483992487e+000	 9.101213366174591e+000
 1.276154220147766e+000	 2.961765589389805e+000	 9.234701316765971e+000
 1.246535366973996e+000	 2.974352800017292e+000	 9.417901232590729e+000
 1.216850783480696e+000	 2.986620024513012e+000	 9.535663849478414e+000
 1.187105438346313e+000	 2.998567270934446e+000	 9.718034161423111e+000
 1.492707427438275e+000	 2.886923022211355e+000	 9.597568573210634e+000
 1.463464123453077e+000	 2.901856777903874e+000	 9.359795209202224e+000
 1.434119140206303e+000	 2.916470862496686e+000	 9.176596766017985e+000
 1.404677564505076e+000	 2.930764565752652e+000	 9.049866605687182e+000
 1.375144479435225e+000	 2.944737282130762e+000	 8.981400702827683e+000
 1.345524961753961e+000	 2.958388510217295e+000	 8.972894664818504e+000
 1.315824079314218e+000	 2.971717852081893e+000	 9.025940973823348e+000
 1.286046888523080e+000	 2.984725012560140e+000	 9.142026454739776e+000
 1.256198431836616e+000	 2.997409798464362e+000	 9.322529972468820e+000
 1.226283735293377e+000	 3.009772117724387e+000	 9.496180986020566e+000
 1.196307806088698e+000	 3.021811978460158e+000	 9.714497958293466e+000
 1.104284128687585e+000	 2.789364903203509e+000	 8.859049525650827e+000
 1.076562120166735e+000	 2.800181065842599e+000	 8.751082972844102e+000
 1.048792772305250e+000	 2.810699863170943e+000	 8.673220704756083e+000
 1.020980641918825e+000	 2.820921574394557e+000	 8.622421040057857e+000
 9.931302598865216e-001	 2.830846567185376e+000	 8.595562362589252e+000
 9.652461291268568e-001	 2.840475296538248e+000	 8.589453924898805e+000
 9.373327226216526e-001	 2.849808303576409e+000	 8.600846620809476e+000
 9.093944814890329e-001	 2.858846214307540e+000	 8.626443698513997e+000
 8.814358131068247e-001	 2.867589738332472e+000	 8.662911386555839e+000
 8.534610892875471e-001	 2.876039667508702e+000	 8.706889405978554e+000
 8.254746445060665e-001	 2.884196874570822e+000	 8.755001342917343e+000
 1.113486496425423e+000	 2.812609610729128e+000	 8.990472460943732e+000
 1.085533471166585e+000	 2.823515908056200e+000	 8.842544853784348e+000
 1.057532712072626e+000	 2.834122362028305e+000	 8.729528820259064e+000
 1.029488813932706e+000	 2.844429254178170e+000	 8.648140885819426e+000
 1.001406345383214e+000	 2.854436955241667e+000	 8.595013423780813e+000
 9.732898468669849e-001	 2.864145924005266e+000	 8.566705940649374e+000
 9.451438286406904e-001	 2.873556706101563e+000	 8.559716328920560e+000
 9.169727688317716e-001	 2.882669932754969e+000	 8.570492057808844e+000
 8.887811115462043e-001	 2.891486319479657e+000	 8.595441273253789e+000
 8.605732650282787e-001	 2.900006664731932e+000	 8.630943779506724e+000
 8.323535998734841e-001	 2.908231848519181e+000	 8.673361875627437e+000
 1.122688864163766e+000	 2.835854318254756e+000	 9.121361969276313e+000
 1.094504822167034e+000	 2.846850750270003e+000	 8.934687694003719e+000
 1.066272651840688e+000	 2.857544860886037e+000	 8.787779651056408e+000
 1.037996985947348e+000	 2.867936933962303e+000	 8.677109230550874e+000
 1.009682430880730e+000	 2.878027343298605e+000	 8.599059394035113e+000
 9.813335646079905e-001	 2.887816551473039e+000	 8.549936448689797e+000
 9.529549346606500e-001	 2.897305108627561e+000	 8.525981787424016e+000
 9.245510561754664e-001	 2.906493651203309e+000	 8.523383564268466e+000
 8.961264099865648e-001	 2.915382900627802e+000	 8.538288275384804e+000
 8.676854407700052e-001	 2.923973661956154e+000	 8.566812216998315e+000
 8.392325552419019e-001	 2.932266822468538e+000	 8.605052792629657e+000
 1.131891231902615e+000	 2.859099025780396e+000	 9.248070901661338e+000
 1.103476173168084e+000	 2.870185592484005e+000	 9.023986602365545e+000
 1.075012591609433e+000	 2.880967359744138e+000	 8.844572879689432e+000
 1.046505157962748e+000	 2.891444613746953e+000	 8.706052555505108e+000
 1.017958516379069e+000	 2.901617731356191e+000	 8.604555686569773e+000
 9.893772823498737e-001	 2.911487178941568e+000	 8.536131834804319e+000
 9.607660406815313e-001	 2.921053511154402e+000	 8.496762301870026e+000
 9.321293435201175e-001	 2.930317369652563e+000	 8.482372296372290e+000
 9.034717084279054e-001	 2.939279481776907e+000	 8.488843002964897e+000
 8.747976165127267e-001	 2.947940659181365e+000	 8.512023523656769e+000
 8.461115106113193e-001	 2.956301796418897e+000	 8.547742662718958e+000
 1.141093599641968e+000	 2.882343733306045e+000	 9.366966492839749e+000
 1.112447524169733e+000	 2.893520434698208e+000	 9.106929325836976e+000
 1.083752531378863e+000	 2.904389858602606e+000	 8.896519051367664e+000
 1.055013329978907e+000	 2.914952293532121e+000	 8.731706400339427e+000
 1.026234601878231e+000	 2.925208119414422e+000	 8.608364940902762e+000
 9.974210000926347e-001	 2.935157806410852e+000	 8.522283852130013e+000
 9.685771467033345e-001	 2.944801913682086e+000	 8.469180660373434e+000
 9.397076308657247e-001	 2.954141088102729e+000	 8.444713905541267e+000
 9.108170068702268e-001	 2.963176062926975e+000	 8.444495705507087e+000
 8.819097922564438e-001	 2.971907656407566e+000	 8.464104187928298e+000
 8.529904659817370e-001	 2.980336770370254e+000	 8.499095759885663e+000
 1.150295967381827e+000	 2.905588440831705e+000	 9.474429785931568e+000
 1.121418875171983e+000	 2.916855276912609e+000	 9.180015743964837e+000
 1.092492471148978e+000	 2.927812357461445e+000	 8.940239139462738e+000
 1.063521501995825e+000	 2.938459973317807e+000	 8.750815000778980e+000
 1.034510687378217e+000	 2.948798507473301e+000	 8.607356733800140e+000
 1.005464717836273e+000	 2.958828433880890e+000	 8.505389406462978e+000
 9.763882527260597e-001	 2.968550316210615e+000	 8.440362994311062e+000
 9.472859182122878e-001	 2.977964806553807e+000	 8.407665553221232e+000
 9.181623053135287e-001	 2.987072644078003e+000	 8.402636286440961e+000
 8.890219680011556e-001	 2.995874653634759e+000	 8.420578474171885e+000
 8.598694213531549e-001	 3.004371744322613e+000	 8.456772235108540e+000
 1.159498335122191e+000	 2.928833148357375e+000	 9.566855084484322e+000
 1.130390226174833e+000	 2.940190119127211e+000	 9.239757387424083e+000
 1.101232410919777e+000	 2.951234856320653e+000	 8.972364131692030e+000
 1.072029674013503e+000	 2.961967653104012e+000	 8.760130943535046e+000
 1.042786772879026e+000	 2.972388895532827e+000	 8.598407303988575e+000
 1.013508435580789e+000	 2.982499061351685e+000	 8.482450351787481e+000
 9.841993587497065e-001	 2.992298718739988e+000	 8.407438645652571e+000
 9.548642055598077e-001	 3.001788525005798e+000	 8.368485850960628e+000
 9.255076037578108e-001	 3.010969225229992e+000	 8.360654316846338e+000
 8.961341437468628e-001	 3.019841650862942e+000	 8.378968510916492e+000
 8.667483767255724e-001	 3.028406718275971e+000	 8.418428279965925e+000
 1.168700702863060e+000	 2.952077855883055e+000	 9.640649430408804e+000
 1.139361577178282e+000	 2.963524961342014e+000	 9.282676979311894e+000
 1.109972350691261e+000	 2.974657355180230e+000	 8.989534635853161e+000
 1.080537846031939e+000	 2.985475332890735e+000	 8.756414837525652e+000
 1.051062858380658e+000	 2.995979283592998e+000	 8.578399289873445e+000
 1.021552153326183e+000	 3.006169688823234e+000	 8.450473295465363e+000
 9.920104647742754e-001	 3.016047121270204e+000	 8.367540040559131e+000
 9.624424929082831e-001	 3.025612243458701e+000	 8.324434803319962e+000
 9.328529022030739e-001	 3.034865806382943e+000	 8.315939048537972e+000
 9.032463194935652e-001	 3.043808648092114e+000	 8.336794374949013e+000
 8.736273320989901e-001	 3.052441692230329e+000	 8.381716282517413e+000
 1.177903070604434e+000	 2.975322563408745e+000	 9.692232106386937e+000
 1.148332928182332e+000	 2.986859803557016e+000	 9.305307997943611e+000
 1.118712290463430e+000	 2.998079854040177e+000	 8.988400504039584e+000
 1.089046018051134e+000	 3.008983012677976e+000	 8.736435000508333e+000
 1.059338943883114e+000	 3.019569671653817e+000	 8.544221479551036e+000
 1.029595871072455e+000	 3.029840316295539e+000	 8.406469412557451e+000
 9.998215707997659e-001	 3.039795523801263e+000	 8.317802568907023e+000
 9.700207802577148e-001	 3.049435961912515e+000	 8.272773753457264e+000
 9.401982006493176e-001	 3.058762387536854e+000	 8.265879426536527e+000
 9.103584952412627e-001	 3.067775645322278e+000	 8.291574171460496e+000
 8.805062874734078e-001	 3.076476666185687e+000	 8.344284975879070e+000
 1.187105438346313e+000	 2.998567270934446e+000	 9.718034161423111e+000
 1.157304279186982e+000	 3.010194645772219e+000	 9.304194259983809e+000
 1.127452230236283e+000	 3.021502352900493e+000	 8.965620474334456e+000
 1.097554190071088e+000	 3.032490692465735e+000	 8.696967160287786e+000
 1.067615029386394e+000	 3.043160059715283e+000	 8.492768572448796e+000
 1.037639588819604e+000	 3.053510943768599e+000	 8.347454268780343e+000
 1.007632676826179e+000	 3.063543926333167e+000	 8.255364469415257e+000
 9.775990676081028e-001	 3.073259680367243e+000	 8.210765331244499e+000
 9.475434990965419e-001	 3.082658968691729e+000	 8.207864100960117e+000
 9.174706709899553e-001	 3.091742642553431e+000	 8.240824110464088e+000
 8.873852428488256e-001	 3.100511640142046e+000	 8.303779579887786e+000
 1.196307806088698e+000	 3.021811978460158e+000	 9.714497958293466e+000
 1.166275630192232e+000	 3.033529487987621e+000	 9.275889522817558e+000
 1.136192170009821e+000	 3.044924851761178e+000	 8.917861829041875e+000
 1.106062362091802e+000	 3.055998372254013e+000	 8.634794169714020e+000
 1.075891114890497e+000	 3.066750447777396e+000	 8.420940951966051e+000
 1.045683306567630e+000	 3.077181571242415e+000	 8.270447651635767e+000
 1.015443782853513e+000	 3.087292328865914e+000	 8.177366720074154e+000
 9.851773549594470e-001	 3.097083398822883e+000	 8.135673403778322e+000
 9.548887975447467e-001	 3.106555549847562e+000	 8.139281438366222e+000
 9.245828467396433e-001	 3.115709639785576e+000	 8.182058579687118e+000
 8.942641982252435e-001	 3.124546614099404e+000	 8.257841936227274e+000
 8.254746445060665e-001	 2.884196874570822e+000	 8.755001342917343e+000
 7.974807741809102e-001	 2.892062311710120e+000	 8.542020352387594e+000
 7.694837330099383e-001	 2.899637009115428e+000	 8.412656534991573e+000
 7.414877333616482e-001	 2.906922073477396e+000	 8.362492744511487e+000
 7.134969437225321e-001	 2.913918686458521e+000	 8.387078233894497e+000
 6.855154872010134e-001	 2.920628103131091e+000	 8.481940054590103e+000
 6.575474400885766e-001	 2.927051650385220e+000	 8.642594212678597e+000
 6.295968304785277e-001	 2.933190725309184e+000	 8.864556560558510e+000
 6.016676369427263e-001	 2.939046793544276e+000	 8.367893520853324e+000
 5.737637872665523e-001	 2.944621387616329e+000	 7.768234919169958e+000
 5.458891572422751e-001	 2.949916105246086e+000	 7.214346994333539e+000
 8.323535998734841e-001	 2.908231848519181e+000	 8.673361875627437e+000
 8.041264472955336e-001	 2.916162830967627e+000	 8.449579937636411e+000
 7.758960974481322e-001	 2.923800650851029e+000	 8.313962246222893e+000
 7.476667978028480e-001	 2.931146424082454e+000	 8.261916886565665e+000
 7.194427515835596e-001	 2.938201342171590e+000	 8.288814940920505e+000
 6.912281162579268e-001	 2.944966670649659e+000	 8.390002297263319e+000
 6.630270020865294e-001	 2.951443747464190e+000	 8.560811209406927e+000
 6.348434707301163e-001	 2.957633981345863e+000	 8.796571586607184e+000
 6.066815339153127e-001	 2.963538850149649e+000	 8.377629164855675e+000
 5.785451521590419e-001	 2.969159899172426e+000	 7.620295352792124e+000
 5.504382335518416e-001	 2.974498739449277e+000	 6.902871152823779e+000
 8.392325552419019e-001	 2.932266822468538e+000	 8.605052792629657e+000
 8.107721204111463e-001	 2.940263350226134e+000	 8.375209435577858e+000
 7.823084618872848e-001	 2.947964292587630e+000	 8.238044680956419e+000
 7.538458622449544e-001	 2.955370774688512e+000	 8.188787214222145e+000
 7.253885594454220e-001	 2.962483997885658e+000	 8.222625363991117e+000
 6.969407453155831e-001	 2.969305238169226e+000	 8.334719326417771e+000
 6.685065640851128e-001	 2.975835844544160e+000	 8.520213135528479e+000
 6.400901109822036e-001	 2.982077237383543e+000	 8.774246356762676e+000
 6.116954308882457e-001	 2.988030906756020e+000	 8.491049578616391e+000
 5.833265170517071e-001	 2.993698410729522e+000	 7.569553405179664e+000
 5.549873098613937e-001	 2.999081373653468e+000	 6.681711218799617e+000
 8.461115106113193e-001	 2.956301796418897e+000	 8.547742662718958e+000
 8.174177935277489e-001	 2.964363869485642e+000	 8.316640420961940e+000
 7.887208263273956e-001	 2.972127934325231e+000	 8.182700891230121e+000
 7.600249266879682e-001	 2.979595125295572e+000	 8.140968657346599e+000
 7.313343673081195e-001	 2.986766653600728e+000	 8.186444639738564e+000
 7.026533743739820e-001	 2.993643805689794e+000	 8.314098742082861e+000
 6.739861260843266e-001	 3.000227941625130e+000	 8.518882238181917e+000
 6.453367512347894e-001	 3.006520493422221e+000	 8.795739875552101e+000
 6.167093278615257e-001	 3.012522963363392e+000	 8.711491481144787e+000
 5.881078819445480e-001	 3.018236922287617e+000	 7.619229307709635e+000
 5.595363861709308e-001	 3.023664007858659e+000	 6.553968420570878e+000
 8.529904659817370e-001	 2.980336770370254e+000	 8.499095759885663e+000
 8.240634666453410e-001	 2.988464388746150e+000	 8.271600698481901e+000
 7.951331907684651e-001	 2.996291576063831e+000	 8.145724628730616e+000
 7.662039911318883e-001	 3.003819475903631e+000	 8.116323260339428e+000
 7.372801751716516e-001	 3.011049309316797e+000	 8.178205379649711e+000
 7.083660034331238e-001	 3.017982373211361e+000	 8.326145925177167e+000
 6.794656880841709e-001	 3.024620038707099e+000	 8.554898797452902e+000
 6.505833914878735e-001	 3.030963749461901e+000	 8.859209378867805e+000
 6.217232248351524e-001	 3.037015019971764e+000	 9.042289967960290e+000
 5.928892468375647e-001	 3.042775433846714e+000	 7.772541760527019e+000
 5.640854624804536e-001	 3.048246642064849e+000	 6.522742495003172e+000
 8.598694213531549e-001	 3.004371744322613e+000	 8.456772235108540e+000
 8.307091397639229e-001	 3.012564908007657e+000	 8.237814453576261e+000
 8.015455552104932e-001	 3.020455217803432e+000	 8.124906476807345e+000
 7.723830555767156e-001	 3.028043826512689e+000	 8.112710297555093e+000
 7.432259830360187e-001	 3.035331965033866e+000	 8.195837771072570e+000
 7.140786324930083e-001	 3.042320940733928e+000	 8.368864126272557e+000
 6.849452500846459e-001	 3.049012135790069e+000	 8.626341205055640e+000
 6.558300317414565e-001	 3.055407005502580e+000	 8.962810404712785e+000
 6.267371218091262e-001	 3.061507076581135e+000	 9.372815299877395e+000
 5.976706117307571e-001	 3.067313945406810e+000	 8.032707993793819e+000
 5.686345387899615e-001	 3.072829276272041e+000	 6.591131747175829e+000
 8.667483767255724e-001	 3.028406718275971e+000	 8.418428279965925e+000
 8.373548128834940e-001	 3.036665427270165e+000	 8.213002396050008e+000
 8.079579196534796e-001	 3.044618859544032e+000	 8.118033976199671e+000
 7.785621200224497e-001	 3.052268177122747e+000	 8.127986383224259e+000
 7.491717909012210e-001	 3.059614620751936e+000	 8.237269673411298e+000
 7.197912615536355e-001	 3.066659508257494e+000	 8.440254550131833e+000
 6.904248120857510e-001	 3.073404232874039e+000	 8.731286039268840e+000
 6.610766719955377e-001	 3.079850261544259e+000	 9.104696860577251e+000
 6.317510187834466e-001	 3.085999133191507e+000	 9.554820470690160e+000
 6.024519766241253e-001	 3.091852456967906e+000	 8.402943826021920e+000
 5.731836150994546e-001	 3.097411910480231e+000	 6.762233107198270e+000
 8.736273320989901e-001	 3.052441692230329e+000	 8.381716282517413e+000
 8.440004860040550e-001	 3.060765946533674e+000	 8.194881896910427e+000
 8.143702840974244e-001	 3.068782501285632e+000	 8.122891744825360e+000
 7.847411844690907e-001	 3.076492527733806e+000	 8.160005576182792e+000
 7.551175987672576e-001	 3.083897276471005e+000	 8.300426709778385e+000
 7.255038906150052e-001	 3.090998075782062e+000	 8.538316436252272e+000
 6.959043740874871e-001	 3.097796329959009e+000	 8.867808136330291e+000
 6.663233122501175e-001	 3.104293517586938e+000	 9.283021087632028e+000
 6.367649157581141e-001	 3.110491189802879e+000	 9.778073934996110e+000
 6.072333415176692e-001	 3.116390968530002e+000	 8.886463719649932e+000
 5.777326914089334e-001	 3.121994544689422e+000	 7.039142184343577e+000
 8.805062874734078e-001	 3.076476666185687e+000	 8.344284975879070e+000
 8.506461591256057e-001	 3.084866465798181e+000	 8.181167118789098e+000
 8.207826485423281e-001	 3.092946143028234e+000	 8.137261591952710e+000
 7.909202489166389e-001	 3.100716878345866e+000	 8.206619479692339e+000
 7.610634066341295e-001	 3.108179932191074e+000	 8.383232354349104e+000
 7.312165196771178e-001	 3.115336643307629e+000	 8.661047135633782e+000
 7.013839360898535e-001	 3.122188427044979e+000	 9.033980658485309e+000
 6.715699525051959e-001	 3.128736773630617e+000	 9.423054790887326e+000
 6.417788127331282e-001	 3.134983246415251e+000	 9.845631705407838e+000
 6.120147064113888e-001	 3.140929480093098e+000	 9.178468690648622e+000
 5.822817677183971e-001	 3.146577178899613e+000	 7.021272748823662e+000
 8.873852428488256e-001	 3.100511640142046e+000	 8.303779579887786e+000
 8.572918322481457e-001	 3.108966985063688e+000	 8.169569140297156e+000
 8.271950129881900e-001	 3.117109784771833e+000	 8.158922627062939e+000
 7.970993133650935e-001	 3.124941228958923e+000	 8.265677336616824e+000
 7.670092145018362e-001	 3.132462587912144e+000	 8.322638691702387e+000
 7.369291487399730e-001	 3.139675210834197e+000	 8.482355588029719e+000
 7.068634980928505e-001	 3.146580524131949e+000	 8.741933971152985e+000
 6.768165927607727e-001	 3.153180029675295e+000	 9.097265595666801e+000
 6.467927097084893e-001	 3.159475303028622e+000	 9.544251990861737e+000
 6.167960713052839e-001	 3.165467991657194e+000	 9.275700498403433e+000
 5.868308440278466e-001	 3.171159813110805e+000	 6.910122501046518e+000
 8.942641982252435e-001	 3.124546614099404e+000	 8.257841936227274e+000
 8.639375053716756e-001	 3.133067504330197e+000	 7.983252321327824e+000
 8.336073774350107e-001	 3.141273426516435e+000	 7.818501630539835e+000
 8.032783778144554e-001	 3.149165579572984e+000	 7.768884605028251e+000
 7.729550223703781e-001	 3.156745243634213e+000	 7.830376999642999e+000
 7.426417778035712e-001	 3.164013778361765e+000	 7.998990842884498e+000
 7.123430600964783e-001	 3.170972621219919e+000	 8.270764244464655e+000
 6.820632330168482e-001	 3.177623285720976e+000	 8.641751455310557e+000
 6.518066066841973e-001	 3.183967359642995e+000	 9.108013209820427e+000
 6.215774361993552e-001	 3.190006503222291e+000	 9.307231224048188e+000
 5.913799203372813e-001	 3.195742447322996e+000	 6.745853897892868e+000
 5.458891572422751e-001	 2.949916105246086e+000	 7.214346994333539e+000
 5.180475695206517e-001	 2.954932607640603e+000	 7.664720381124409e+000
 4.902427925216797e-001	 2.959672617767659e+000	 8.011070901238050e+000
 4.624785394036054e-001	 2.964137918615402e+000	 8.259007674033731e+000
 4.347584670896679e-001	 2.968330351439360e+000	 8.414679396516982e+000
 4.070861753532341e-001	 2.972251813998719e+000	 8.484745252284874e+000
 3.794652059606912e-001	 2.975904258783907e+000	 8.476345588847169e+000
 3.518990418717324e-001	 2.979289691237467e+000	 8.397072438159430e+000
 3.243911064965986e-001	 2.982410167970137e+000	 8.254939953137415e+000
 2.969447630097788e-001	 2.985267794974027e+000	 8.058354830697889e+000
 2.695633137196015e-001	 2.987864725834731e+000	 7.816086789521978e+000
 5.504382335518416e-001	 2.974498739449277e+000	 6.902871152823779e+000
 5.223646325997995e-001	 2.979557046030643e+000	 7.384677403141413e+000
 4.943281491263213e-001	 2.984336556242365e+000	 7.761519233783486e+000
 4.663325272326394e-001	 2.988839067930820e+000	 8.039203081315055e+000
 4.383814543163543e-001	 2.993066437695334e+000	 8.224084188510037e+000
 4.104785601489451e-001	 2.997020579109751e+000	 8.323036835023435e+000
 3.826274160115203e-001	 3.000703460935255e+000	 8.343424334735719e+000
 3.548315338884377e-001	 3.004117105326406e+000	 8.293068876287533e+000
 3.270943657183583e-001	 3.007263586032367e+000	 8.180221281196749e+000
 2.994193027022258e-001	 3.010145026595180e+000	 8.013530751677227e+000
 2.718096746676061e-001	 3.012763598546989e+000	 7.802014677861379e+000
 5.549873098613937e-001	 2.999081373653468e+000	 6.681711218799617e+000
 5.266816956787482e-001	 3.004181484421681e+000	 7.188630540135338e+000
 4.984135057306106e-001	 3.009000494718050e+000	 7.589178714162814e+000
 4.701865150611986e-001	 3.013540217247192e+000	 7.889368660073933e+000
 4.420044415424739e-001	 3.017802523952225e+000	 8.095771699145438e+000
 4.138709449440282e-001	 3.021789344221656e+000	 8.215487086900449e+000
 3.857896260616895e-001	 3.025502663087416e+000	 8.256111310166086e+000
 3.577640259044813e-001	 3.028944519416094e+000	 8.225707227268110e+000
 3.297976249394838e-001	 3.032117004095269e+000	 8.132773127422484e+000
 3.018938423940954e-001	 3.035022258216922e+000	 7.986211783050469e+000
 2.740560356151188e-001	 3.037662471259737e+000	 7.795299566270046e+000
 5.595363861709308e-001	 3.023664007858659e+000	 6.553968420570878e+000
 5.309987587574980e-001	 3.028805922813711e+000	 7.079536454730201e+000
 5.024988623345476e-001	 3.033664433194716e+000	 7.496861220463432e+000
 4.740405028892831e-001	 3.038241366564517e+000	 7.812171364657869e+000
 4.456274287680271e-001	 3.042538610210033e+000	 8.032263900389980e+000
 4.172633297384827e-001	 3.046558109334431e+000	 8.164473020205918e+000
 3.889518361111988e-001	 3.050301865240394e+000	 8.216638672452277e+000
 3.606965179198633e-001	 3.053771933506531e+000	 8.197074980660350e+000
 3.325008841599752e-001	 3.056970422158846e+000	 8.114538583753493e+000
 3.043683820853876e-001	 3.059899489839250e+000	 7.978196972453318e+000
 2.763023965621398e-001	 3.062561343972977e+000	 7.797596894722603e+000
 5.640854624804536e-001	 3.048246642064849e+000	 6.522742495003172e+000
 5.353158218360488e-001	 3.053430361206738e+000	 7.060351052083341e+000
 5.065842189381322e-001	 3.058328371672358e+000	 7.487378487230997e+000
 4.778944907168928e-001	 3.062942515882795e+000	 7.810278500567780e+000
 4.492504159930136e-001	 3.067274696468759e+000	 8.036083491707162e+000
 4.206557145323091e-001	 3.071326874448076e+000	 8.172372633651987e+000
 3.921140461600485e-001	 3.075101067394186e+000	 8.227239707824138e+000
 3.636290099345835e-001	 3.078599347597715e+000	 8.209260782038031e+000
 3.352041433798325e-001	 3.081823840223093e+000	 8.127461810935669e+000
 3.068429217761025e-001	 3.084776721462165e+000	 7.991286235948743e+000
 2.785487575086692e-001	 3.087460216686710e+000	 7.810562659251334e+000
 5.686345387899615e-001	 3.072829276272041e+000	 6.591131747175829e+000
 5.396328849144008e-001	 3.078054799600758e+000	 7.134029510183617e+000
 5.106695755413646e-001	 3.082992310150981e+000	 7.563542111211026e+000
 4.817484785440276e-001	 3.087643665202025e+000	 7.886357710411769e+000
 4.528734032174335e-001	 3.092010782728402e+000	 8.109753870957762e+000
 4.240480993255072e-001	 3.096095639562592e+000	 8.241564872916049e+000
 3.952762562082381e-001	 3.099900269548792e+000	 8.290148786270425e+000
 3.665615019486421e-001	 3.103426761689649e+000	 8.264354386749293e+000
 3.379074025990557e-001	 3.106677258288014e+000	 8.173487995769696e+000
 3.093174614662401e-001	 3.109653953085667e+000	 8.027280323290524e+000
 2.807951184547069e-001	 3.112359089400934e+000	 7.835853389704260e+000
 5.731836150994546e-001	 3.097411910480231e+000	 6.762233107198270e+000
 5.439499479925536e-001	 3.102679237995774e+000	 7.303526308707498e+000
 5.147549321442447e-001	 3.107656248630582e+000	 7.728163556817278e+000
 4.856024663706881e-001	 3.112344814522210e+000	 8.043076960527895e+000
 4.564963904412866e-001	 3.116746868988962e+000	 8.255799106685387e+000
 4.274404841180771e-001	 3.120864404677979e+000	 8.374429593062954e+000
 3.984384662557681e-001	 3.124699471704212e+000	 8.407601318532452e+000
 3.694939939620390e-001	 3.128254175782331e+000	 8.335893952528105e+000
 3.406106618176448e-001	 3.131530676353608e+000	 8.204658529588771e+000
 3.117920011558003e-001	 3.134531184709755e+000	 8.026889698769292e+000
 2.830414794002528e-001	 3.137257962115649e+000	 7.812698785864189e+000
 5.777326914089334e-001	 3.121994544689422e+000	 7.039142184343577e+000
 5.482670110705072e-001	 3.127303676391783e+000	 7.536820611459003e+000
 5.188402887467726e-001	 3.132320187111164e+000	 7.877611741186184e+000
 4.894564541968736e-001	 3.137045963843347e+000	 8.118003074109868e+000
 4.601193776645732e-001	 3.141482955250438e+000	 8.267524394358798e+000
 4.308328689100188e-001	 3.145633169794237e+000	 8.335692188329684e+000
 4.016006763026381e-001	 3.149498673860448e+000	 8.332027809420424e+000
 3.724264859747741e-001	 3.153081589875761e+000	 8.266074602432957e+000
 3.433139210355998e-001	 3.156384094419873e+000	 8.147413963644617e+000
 3.142665408447832e-001	 3.159408416334431e+000	 7.985680317119236e+000
 2.852878403453070e-001	 3.162156834830856e+000	 7.790574992296608e+000
 5.822817677183971e-001	 3.146577178899613e+000	 7.021272748823662e+000
 5.525840741482619e-001	 3.151928114788789e+000	 7.461077168285557e+000
 5.229256453489481e-001	 3.156984125592723e+000	 7.797283068681942e+000
 4.933104420225845e-001	 3.161747113165439e+000	 8.038994293524867e+000
 4.637423648872932e-001	 3.166219041512833e+000	 8.195284092861796e+000
 4.342252537013323e-001	 3.170401934911366e+000	 8.275215385224771e+000
 4.047628863488483e-001	 3.174297876017498e+000	 8.287859965928440e+000
 3.753589779868476e-001	 3.177909003969940e+000	 8.242316631880682e+000
 3.460171802529206e-001	 3.181237512486810e+000	 8.147728197899946e+000
 3.167410805331888e-001	 3.184285647959694e+000	 8.013297384264591e+000
 2.875342012898696e-001	 3.187055707546556e+000	 7.848301559837087e+000
 5.868308440278466e-001	 3.171159813110805e+000	 6.910122501046518e+000
 5.569011372258178e-001	 3.176552553186789e+000	 7.351988653445408e+000
 5.270110019507714e-001	 3.181648064075263e+000	 7.696502567535529e+000
 4.971644298478207e-001	 3.186448262488483e+000	 7.952292741796601e+000
 4.673653521094464e-001	 3.190955127776142e+000	 8.127959296234572e+000
 4.376176384920174e-001	 3.195170700029366e+000	 8.232095339708444e+000
 4.079250963943987e-001	 3.199097078175363e+000	 8.273307240539538e+000
 3.782914699982594e-001	 3.202736418064867e+000	 8.260233769393071e+000
 3.487204394696075e-001	 3.206090930554422e+000	 8.201564088413594e+000
 3.192156202210170e-001	 3.209162879585543e+000	 8.106054565484925e+000
 2.897805622339404e-001	 3.211954580262747e+000	 7.982544397262338e+000
 5.913799203372813e-001	 3.195742447322996e+000	 6.745853897892868e+000
 5.612182003031748e-001	 3.201176991585784e+000	 7.203123020109680e+000
 5.310963585522425e-001	 3.206312002558782e+000	 7.569172334293438e+000
 5.010184176725820e-001	 3.211149411812480e+000	 7.852137797148833e+000
 4.709883393310333e-001	 3.215691214040371e+000	 8.060129538322608e+000
 4.410100232820745e-001	 3.219939465148238e+000	 8.201254353197948e+000
 4.110873064392894e-001	 3.223896280334043e+000	 8.283637054823242e+000
 3.812239620090096e-001	 3.227563832160543e+000	 8.315440652777671e+000
 3.514236986856603e-001	 3.230944348622705e+000	 8.304885331935486e+000
 3.216901599082681e-001	 3.234040111211980e+000	 8.260266209138532e+000
 2.920269231775196e-001	 3.236853452979430e+000	 8.189969850727291e+000
 2.695633137196015e-001	 2.987864725834731e+000	 7.816086789521978e+000
 2.422499994928616e-001	 2.990203159944074e+000	 7.752797865802346e+000
 2.150079992345209e-001	 2.992285340715546e+000	 7.670857475258895e+000
 1.878404294212762e-001	 2.994113553803930e+000	 7.580059841393131e+000
 1.607503436877064e-001	 2.995690125330548e+000	 7.490434967577490e+000
 1.337407324649111e-001	 2.997017420116061e+000	 7.412220476418036e+000
 1.068145226705129e-001	 2.998097839922249e+000	 7.355833866660813e+000
 7.997457744910182e-002	 2.998933821704276e+000	 7.331845236215409e+000
 5.322369596216169e-002	 2.999527835874867e+000	 7.350950516918271e+000
 2.656461322647888e-002	 2.999882384581793e+000	 7.423945263682997e+000
 0.000000000000000e+000	 3.000000000000000e+000	 7.561699037702616e+000
 2.718096746676061e-001	 3.012763598546989e+000	 7.802014677861379e+000
 2.442687494886068e-001	 3.015121519607826e+000	 7.775713615422790e+000
 2.167997325611536e-001	 3.017221051886249e+000	 7.730329388655749e+000
 1.894057663325812e-001	 3.019064500084159e+000	 7.675816741540245e+000
 1.620899298844227e-001	 3.020654209707224e+000	 7.622372247200764e+000
 1.348552385680364e-001	 3.021992565282949e+000	 7.580405531581634e+000
 1.077046436920239e-001	 3.023081988587792e+000	 7.560510922708777e+000
 8.064103226051297e-002	 3.023924936884880e+000	 7.573439575260472e+000
 5.366722676133227e-002	 3.024523901173706e+000	 7.630072117157194e+000
 2.678598500307392e-002	 3.024881404453279e+000	 7.741391861829461e+000
 0.000000000000000e+000	 3.025000000000000e+000	 7.918458626781360e+000
 2.740560356151188e-001	 3.037662471259737e+000	 7.795299566270046e+000
 2.462874994839552e-001	 3.040039879271976e+000	 7.791527399104909e+000
 2.185914658874736e-001	 3.042156763057263e+000	 7.767922680825659e+000
 1.909711032436476e-001	 3.044015446364626e+000	 7.734613697140395e+000
 1.634295160809645e-001	 3.045618294084077e+000	 7.701976738104311e+000
 1.359697446710408e-001	 3.046967710449958e+000	 7.680606686863638e+000
 1.085947647134578e-001	 3.048066137253413e+000	 7.681288042355970e+000
 8.130748707188092e-002	 3.048916052065525e+000	 7.714966426867551e+000
 5.411075756048370e-002	 3.049519966472564e+000	 7.792720626265668e+000
 2.700735677966420e-002	 3.049880424324769e+000	 7.925735207603779e+000
 0.000000000000000e+000	 3.050000000000000e+000	 8.125273755685763e+000
 2.763023965621398e-001	 3.062561343972977e+000	 7.797596894722603e+000
 2.483062494789065e-001	 3.064958238936522e+000	 7.801847659129820e+000
 2.203831992134811e-001	 3.067092474228589e+000	 7.785198381651929e+000
 1.925364401544756e-001	 3.068966392645331e+000	 7.757963967333044e+000
 1.647691022773316e-001	 3.070582378461105e+000	 7.730713627352178e+000
 1.370842507739243e-001	 3.071942855617088e+000	 7.714240813480269e+000
 1.094848857348147e-001	 3.073050285919111e+000	 7.719533595191549e+000
 8.197394188320564e-002	 3.073907167246213e+000	 7.757745531540727e+000
 5.455428835961600e-002	 3.074516031771442e+000	 7.840167086747030e+000
 2.722872855624972e-002	 3.074879444196264e+000	 7.978197635253842e+000
 0.000000000000000e+000	 3.075000000000000e+000	 8.183318098833414e+000
 2.785487575086692e-001	 3.087460216686710e+000	 7.810562659251334e+000
 2.503249994734609e-001	 3.089876598601465e+000	 7.808279871024245e+000
 2.221749325391760e-001	 3.092028185400229e+000	 7.783710954791443e+000
 1.941017770650650e-001	 3.093917338926276e+000	 7.747370571068217e+000
 1.661086884735241e-001	 3.095546462838306e+000	 7.710034115540928e+000
 1.381987568766870e-001	 3.096918000784339e+000	 7.682706979766846e+000
 1.103750067560945e-001	 3.098034434584886e+000	 7.676594263562501e+000
 8.264039669448718e-002	 3.098898282426946e+000	 7.703070992417127e+000
 5.499781915872918e-002	 3.099512097070338e+000	 7.773652890036965e+000
 2.745010033283046e-002	 3.099878464067764e+000	 7.899967752867035e+000
 0.000000000000000e+000	 3.100000000000000e+000	 8.093727470176573e+000
 2.807951184547069e-001	 3.112359089400934e+000	 7.835853389704260e+000
 2.523437494676183e-001	 3.114794958266807e+000	 7.812426662230934e+000
 2.239666658645582e-001	 3.116963896572182e+000	 7.765008560324211e+000
 1.956671139754160e-001	 3.118868285207458e+000	 7.704326696714207e+000
 1.674482746695419e-001	 3.120510547215681e+000	 7.641375976257208e+000
 1.393132629793288e-001	 3.121893145951712e+000	 7.587387163294088e+000
 1.112651277772972e-001	 3.123018583250737e+000	 7.553795910063230e+000
 8.330685150572555e-002	 3.123889397607721e+000	 7.552212300762082e+000
 5.544134995782322e-002	 3.124508162369254e+000	 7.594390962545242e+000
 2.767147210940645e-002	 3.124877483939268e+000	 7.692201791415064e+000
 0.000000000000000e+000	 3.125000000000000e+000	 7.857601337621722e+000
 2.830414794002528e-001	 3.137257962115649e+000	 7.812698785864189e+000
 2.543624994613788e-001	 3.139713317932543e+000	 7.761366153680305e+000
 2.257583991896280e-001	 3.141899607744446e+000	 7.692402607052531e+000
 1.972324508855284e-001	 3.143819231488879e+000	 7.615700520212681e+000
 1.687878608653852e-001	 3.145474631593232e+000	 7.541262664493384e+000
 1.404277690818498e-001	 3.146868291119204e+000	 7.479210113269909e+000
 1.121552487984228e-001	 3.148002731916665e+000	 7.439789073990943e+000
 8.397330631692068e-002	 3.148880512788540e+000	 7.433376659500903e+000
 5.588488075689813e-002	 3.149504227668188e+000	 7.470485613988692e+000
 2.789284388597766e-002	 3.149876503810777e+000	 7.561768011829646e+000
 0.000000000000000e+000	 3.150000000000000e+000	 7.718017950353218e+000
 2.852878403453070e-001	 3.162156834830856e+000	 7.790574992296608e+000
 2.563812494547424e-001	 3.164631677598678e+000	 7.743845863400615e+000
 2.275501325143851e-001	 3.166835318917024e+000	 7.680179857472241e+000
 1.987977877954024e-001	 3.168770177770539e+000	 7.608993420161476e+000
 1.701274470610538e-001	 3.170438715970958e+000	 7.539826916122823e+000
 1.415422751842500e-001	 3.171843436286817e+000	 7.482353167846248e+000
 1.130453698194714e-001	 3.172986880582671e+000	 7.446384871660529e+000
 8.463976112807262e-002	 3.173871627969401e+000	 7.441880903463546e+000
 5.632841155595392e-002	 3.174500292967143e+000	 7.478951529975948e+000
 2.811421566254412e-002	 3.174875523682292e+000	 7.567862544369623e+000
 0.000000000000000e+000	 3.175000000000000e+000	 7.719038347975902e+000
 2.875342012898696e-001	 3.187055707546556e+000	 7.848301559837087e+000
 2.583999994477090e-001	 3.189550037265209e+000	 7.813535341162010e+000
 2.293418658388295e-001	 3.191771030089913e+000	 7.762292064674028e+000
 2.003631247050377e-001	 3.193721124052437e+000	 7.703500603412402e+000
 1.714670332565477e-001	 3.195402800348858e+000	 7.646227715501576e+000
 1.426567812865293e-001	 3.196818581454552e+000	 7.599687225621221e+000
 1.139354908404429e-001	 3.197971029248754e+000	 7.573248032721075e+000
 8.530621593918136e-002	 3.198862743150305e+000	 7.576440956896324e+000
 5.677194235499056e-002	 3.199496358266115e+000	 7.618964441703215e+000
 2.833558743910580e-002	 3.199874543553811e+000	 7.710689131360069e+000
 0.000000000000000e+000	 3.199999999999999e+000	 7.861661345242462e+000
 2.897805622339404e-001	 3.211954580262747e+000	 7.982544397262338e+000
 2.604187494402786e-001	 3.214468396932137e+000	 7.967533168240804e+000
 2.311335991629615e-001	 3.216706741263115e+000	 7.936270593868142e+000
 2.019284616144346e-001	 3.218672070334573e+000	 7.897186072917844e+000
 1.728066194518671e-001	 3.220366884726932e+000	 7.858861304609472e+000
 1.437712873886877e-001	 3.221793726622407e+000	 7.830040121633711e+000
 1.148256118613374e-001	 3.222955177914914e+000	 7.819637097466099e+000
 8.597267075024691e-002	 3.223853858331254e+000	 7.836744941267445e+000
 5.721547315400807e-002	 3.224492423565108e+000	 7.890640697144581e+000
 2.855695921566272e-002	 3.224873563425334e+000	 7.990790767828808e+000
 0.000000000000000e+000	 3.224999999999999e+000	 8.146854785905173e+000
 2.920269231775196e-001	 3.236853452979430e+000	 8.189969850727291e+000
 2.624374994324514e-001	 3.239386756599464e+000	 8.202935592362397e+000
 2.329253324867810e-001	 3.241642452436632e+000	 8.199641645486443e+000
 2.034937985235931e-001	 3.243623016616949e+000	 8.188005777031552e+000
 1.741462056470118e-001	 3.245330969105183e+000	 8.176112924127654e+000
 1.448857934907254e-001	 3.246768871790384e+000	 8.172225687757544e+000
 1.157157328821547e-001	 3.247939326581152e+000	 8.184793547711601e+000
 8.663912556126928e-002	 3.248844973512246e+000	 8.222460812528492e+000
 5.765900395300648e-002	 3.249488488864120e+000	 8.294073321711025e+000
 2.877833099221489e-002	 3.249872583296864e+000	 8.408683920904492e+000
 0.000000000000000e+000	 3.250000000000000e+000	 8.575556733908847e+000
 3.250000000000000e+000	 0.000000000000000e+000	 1.107680250962294e+001
 3.249872583296864e+000	 2.877833099221397e-002	 1.113563091005372e+001
 3.249488488864120e+000	 5.765900395300565e-002	 1.115732349934937e+001
 3.248844973512246e+000	 8.663912556126854e-002	 1.114885689955490e+001
 3.247939326581152e+000	 1.157157328821541e-001	 1.111723884266961e+001
 3.246768871790384e+000	 1.448857934907248e-001	 1.106952257503635e+001
 3.245330969105183e+000	 1.741462056470114e-001	 1.101282221597808e+001
 3.243623016616949e+000	 2.034937985235927e-001	 1.095432906331289e+001
 3.241642452436632e+000	 2.329253324867807e-001	 1.090132883479986e+001
 3.239386756599464e+000	 2.624374994324513e-001	 1.086121983086427e+001
 3.236853452979430e+000	 2.920269231775197e-001	 1.084153200012158e+001
 3.275000000000000e+000	 0.000000000000000e+000	 1.091463479560657e+001
 3.274871603168394e+000	 2.899970276876611e-002	 1.097310239732934e+001
 3.274484554163141e+000	 5.810253475200403e-002	 1.099950289300437e+001
 3.273836088693259e+000	 8.730558037229089e-002	 1.100003711655353e+001
 3.272923475247428e+000	 1.166058539029714e-001	 1.098091597452827e+001
 3.271744016958421e+000	 1.460002995927624e-001	 1.094837559025997e+001
 3.270295053483519e+000	 1.754857918421561e-001	 1.090869346030899e+001
 3.268573962899444e+000	 2.050591354327511e-001	 1.086820561608438e+001
 3.266578163610303e+000	 2.347170658106001e-001	 1.083332477979191e+001
 3.264305116266987e+000	 2.644562494246239e-001	 1.081055950002183e+001
 3.261752325696358e+000	 2.942732841210988e-001	 1.080653424830887e+001
 3.300000000000000e+000	 0.000000000000000e+000	 1.079187259437949e+001
 3.299870623039924e+000	 2.922107454532303e-002	 1.084591693225355e+001
 3.299480619462162e+000	 5.854606555102154e-002	 1.087302113876781e+001
 3.298827203874272e+000	 8.797203518335642e-002	 1.087860275909887e+001
 3.297907623913703e+000	 1.174959749238659e-001	 1.086806814791559e+001
 3.296719162126458e+000	 1.471148056949209e-001	 1.084682836292843e+001
 3.295259137861856e+000	 1.768253780374754e-001	 1.082031612952637e+001
 3.293524909181938e+000	 2.066244723421480e-001	 1.079400386961654e+001
 3.291513874783975e+000	 2.365087991347320e-001	 1.077342278392975e+001
 3.289223475934511e+000	 2.664749994171936e-001	 1.076418297306314e+001
 3.286651198413287e+000	 2.965196450651695e-001	 1.077199457840406e+001
 3.324999999999999e+000	 0.000000000000000e+000	 1.070356344664534e+001
 3.324869642911456e+000	 2.944244632188471e-002	 1.074978209918712e+001
 3.324476684761182e+000	 5.898959635005818e-002	 1.077424872174428e+001
 3.323818319055285e+000	 8.863848999446515e-002	 1.078158977770869e+001
 3.322891772579978e+000	 1.183860959448374e-001	 1.077639904415871e+001
 3.321694307294494e+000	 1.482293117972001e-001	 1.076325426459622e+001
 3.320223222240192e+000	 1.781649642329694e-001	 1.074673493230956e+001
 3.318475855464432e+000	 2.081898092517834e-001	 1.073144119772529e+001
 3.316449585957646e+000	 2.383005324591765e-001	 1.072201388911545e+001
 3.314141835602035e+000	 2.684937494101601e-001	 1.072315563189111e+001
 3.311550071130215e+000	 2.987660060097320e-001	 1.073965304743187e+001
 3.350000000000000e+000	 0.000000000000000e+000	 1.064490272771352e+001
 3.349868662782986e+000	 2.966381809845116e-002	 1.068054276728428e+001
 3.349472750060204e+000	 5.943312714911397e-002	 1.069968282444937e+001
 3.348809434236297e+000	 8.930494480561710e-002	 1.070615019894078e+001
 3.347875921246254e+000	 1.192762169658859e-001	 1.070371776892683e+001
 3.346669452462531e+000	 1.493438178996003e-001	 1.069612141287233e+001
 3.345187306618529e+000	 1.795045504286380e-001	 1.068707862233024e+001
 3.343426801746927e+000	 2.097551461616573e-001	 1.068030829927115e+001
 3.341385297131318e+000	 2.400922657839337e-001	 1.067955172742551e+001
 3.339060195269559e+000	 2.705124994035237e-001	 1.068859470282398e+001
 3.336448943847143e+000	 3.010123669547863e-001	 1.071129080428938e+001
 3.375000000000000e+000	 0.000000000000000e+000	 1.061122817214322e+001
 3.374867682654517e+000	 2.988518987502237e-002	 1.063417600587110e+001
 3.374468815359225e+000	 5.987665794818887e-002	 1.064594263431267e+001
 3.373800549417310e+000	 8.997139961681223e-002	 1.064954782628062e+001
 3.372860069912531e+000	 1.201663379870116e-001	 1.064793494762556e+001
 3.371644597630567e+000	 1.504583240021213e-001	 1.064398916230709e+001
 3.370151390996865e+000	 1.808441366244812e-001	 1.064055688547491e+001
 3.368377748029421e+000	 2.113204830717697e-001	 1.064046648241724e+001
 3.366321008304989e+000	 2.418839991090034e-001	 1.064655020295637e+001
 3.363978554937082e+000	 2.725312493972842e-001	 1.066166733643212e+001
 3.361347816564072e+000	 3.032587279003323e-001	 1.068872856782465e+001
 3.400000000000000e+000	 0.000000000000000e+000	 1.059801463994768e+001
 3.399866702526047e+000	 3.010656165159834e-002	 1.060678622414445e+001
 3.399464880658245e+000	 6.032018874728289e-002	 1.060976485820355e+001
 3.398791664598323e+000	 9.063785442805056e-002	 1.060915413069528e+001
 3.397844218578805e+000	 1.210564590082143e-001	 1.060705899305402e+001
 3.396619742798603e+000	 1.515728301047631e-001	 1.060550475009292e+001
 3.395115475375202e+000	 1.821837228204991e-001	 1.060645736439606e+001
 3.393328694311914e+000	 2.128858199821206e-001	 1.061184506869890e+001
 3.391256719478661e+000	 2.436757324343856e-001	 1.062358127594137e+001
 3.388896914604605e+000	 2.745499993914417e-001	 1.064358877208759e+001
 3.386246689281000e+000	 3.055050888463699e-001	 1.067382517205937e+001
 3.425000000000000e+000	 0.000000000000000e+000	 1.060086911201542e+001
 3.424865722397579e+000	 3.032793342817908e-002	 1.059460052373219e+001
 3.424460945957267e+000	 6.076371954639608e-002	 1.058799943340014e+001
 3.423782779779336e+000	 9.130430923933212e-002	 1.058244432116342e+001
 3.422828367245081e+000	 1.219465800294941e-001	 1.057919253652184e+001
 3.421594887966640e+000	 1.526873362075258e-001	 1.057940008866862e+001
 3.420079559753539e+000	 1.835233090166916e-001	 1.058414281337459e+001
 3.418279640594410e+000	 2.144511568927102e-001	 1.059443891078408e+001
 3.416192430652332e+000	 2.454674657600805e-001	 1.061127284391363e+001
 3.413815274272130e+000	 2.765687493859961e-001	 1.063562058289842e+001
 3.411145561997928e+000	 3.077514497928993e-001	 1.066847617512409e+001
 3.449999999999999e+000	 0.000000000000000e+000	 1.061552590312219e+001
 3.449864742269110e+000	 3.054930520476459e-002	 1.059396425331450e+001
 3.449457011256287e+000	 6.120725034552838e-002	 1.057760542503856e+001
 3.448773894960349e+000	 9.197076405065684e-002	 1.056699358605192e+001
 3.447812515911356e+000	 1.228367010508509e-001	 1.056252901413505e+001
 3.446570033134677e+000	 1.538018423104094e-001	 1.056448869777591e+001
 3.445043644131875e+000	 1.848628952130587e-001	 1.057304837688417e+001
 3.443230586876903e+000	 2.160164938035381e-001	 1.058830601815683e+001
 3.441128141826003e+000	 2.472591990860880e-001	 1.061030671499262e+001
 3.438733633939653e+000	 2.785874993809474e-001	 1.063906899695027e+001
 3.436044434714856e+000	 3.099978107399203e-001	 1.067461252867483e+001
 3.474999999999999e+000	 0.000000000000000e+000	 1.063784208157512e+001
 3.474863762140640e+000	 3.077067698135486e-002	 1.060133675513359e+001
 3.474453076555308e+000	 6.165078114467980e-002	 1.057564710065022e+001
 3.473765010141362e+000	 9.263721886202479e-002	 1.056047349673479e+001
 3.472796664577632e+000	 1.237268220722849e-001	 1.055534940043657e+001
 3.471545178302713e+000	 1.549163484134138e-001	 1.055966276894482e+001
 3.470007728510212e+000	 1.862024814096004e-001	 1.057267898562756e+001
 3.468181533159398e+000	 2.175818307146046e-001	 1.059356528528957e+001
 3.466063852999675e+000	 2.490509324124080e-001	 1.062141666865422e+001
 3.463651993607177e+000	 2.806062493762957e-001	 1.065528329101218e+001
 3.460943307431786e+000	 3.122441716874331e-001	 1.069419930474456e+001
 3.500000000000000e+000	 0.000000000000000e+000	 1.066379308515819e+001
 3.499862782012172e+000	 3.099204875794991e-002	 1.061328729379441e+001
 3.499449141854330e+000	 6.209431194385037e-002	 1.057929017293356e+001
 3.498756125322376e+000	 9.330367367343595e-002	 1.056064856534308e+001
 3.497780813243908e+000	 1.246169430937959e-001	 1.055601908203344e+001
 3.496520323470751e+000	 1.560308545165391e-001	 1.056389035578706e+001
 3.494971812888549e+000	 1.875420676063169e-001	 1.058260686417124e+001
 3.493132479441893e+000	 2.191471676259096e-001	 1.061039431717930e+001
 3.490999564173347e+000	 2.508426657390407e-001	 1.064538659961112e+001
 3.488570353274701e+000	 2.826249993720411e-001	 1.068565425308381e+001
 3.485842180148715e+000	 3.144905326354376e-001	 1.072923447715863e+001
 3.236853452979430e+000	 2.920269231775197e-001	 1.084153200012158e+001
 3.234040111211981e+000	 3.216901599082671e-001	 1.070246192595790e+001
 3.230944348622705e+000	 3.514236986856595e-001	 1.060211088387741e+001
 3.227563832160544e+000	 3.812239620090089e-001	 1.054935416209143e+001
 3.223896280334044e+000	 4.110873064392889e-001	 1.055329660800753e+001
 3.219939465148238e+000	 4.410100232820741e-001	 1.062329527342992e+001
 3.215691214040371e+000	 4.709883393310330e-001	 1.076898273811877e+001
 3.211149411812481e+000	 5.010184176725819e-001	 1.100029106403170e+001
 3.206312002558782e+000	 5.310963585522426e-001	 1.132747632825024e+001
 3.201176991585784e+000	 5.612182003031750e-001	 1.176114367827239e+001
 3.195742447322996e+000	 5.913799203372813e-001	 1.231227284905080e+001
 3.261752325696358e+000	 2.942732841210988e-001	 1.080653424830887e+001
 3.258917342838710e+000	 3.241646995955180e-001	 1.070223905182329e+001
 3.255797766691325e+000	 3.541269579017121e-001	 1.063227734211075e+001
 3.252391246256593e+000	 3.841564540197591e-001	 1.060448383287448e+001
 3.248695482493130e+000	 4.142495164841795e-001	 1.062691074258319e+001
 3.244708230267543e+000	 4.444024080721311e-001	 1.070785182208755e+001
 3.240427300305058e+000	 4.746113265526197e-001	 1.085586711708864e+001
 3.235850561136954e+000	 5.048724054973431e-001	 1.107980841639879e+001
 3.230975941042790e+000	 5.351817151537136e-001	 1.138884533242757e+001
 3.225801429985276e+000	 5.655352633805316e-001	 1.179249195581897e+001
 3.220325081535687e+000	 5.959289966467158e-001	 1.230063402167049e+001
 3.286651198413287e+000	 2.965196450651695e-001	 1.077199457840406e+001
 3.283794574465441e+000	 3.266392392833462e-001	 1.069598435543493e+001
 3.280651184759944e+000	 3.568302171183990e-001	 1.064990136649340e+001
 3.277218660352643e+000	 3.870889460311707e-001	 1.064053161565295e+001
 3.273494684652216e+000	 4.174117265297299e-001	 1.067486647422669e+001
 3.269476995386850e+000	 4.477947928628164e-001	 1.076012810702411e+001
 3.265163386569744e+000	 4.782343137747729e-001	 1.090379569058845e+001
 3.260551710461429e+000	 5.087263933225794e-001	 1.111363237295246e+001
 3.255639879526797e+000	 5.392670717555369e-001	 1.139771291975512e+001
 3.250425868384768e+000	 5.698523264580874e-001	 1.176445198686155e+001
 3.244907715748377e+000	 6.004780729561651e-001	 1.222263295494697e+001
 3.311550071130215e+000	 2.987660060097320e-001	 1.073965304743187e+001
 3.308671806092171e+000	 3.291137789717518e-001	 1.068617228473594e+001
 3.305504602828564e+000	 3.595334763357199e-001	 1.065819133102106e+001
 3.302046074448694e+000	 3.900214380432443e-001	 1.066143896812184e+001
 3.298293886811302e+000	 4.205739365759400e-001	 1.070183711942647e+001
 3.294245760506156e+000	 4.511871776541297e-001	 1.078552769129239e+001
 3.289899472834430e+000	 4.818573009974930e-001	 1.091890026422121e+001
 3.285252859785901e+000	 5.125803811482902e-001	 1.110862058190655e+001
 3.280303818010806e+000	 5.433524283577126e-001	 1.136165978138515e+001
 3.275050306784260e+000	 5.741693895358422e-001	 1.168532430262738e+001
 3.269490349961068e+000	 6.050271492656288e-001	 1.208728641102642e+001
 3.336448943847143e+000	 3.010123669547863e-001	 1.071129080428938e+001
 3.333549037718900e+000	 3.315883186607346e-001	 1.067530584161065e+001
 3.330358020897182e+000	 3.622367355536747e-001	 1.066037163061100e+001
 3.326873488544744e+000	 3.929539300559795e-001	 1.067115084583368e+001
 3.323093088970389e+000	 4.237361466228102e-001	 1.071248698453482e+001
 3.319014525625461e+000	 4.545795624460712e-001	 1.078943264006957e+001
 3.314635559099118e+000	 4.854802882207796e-001	 1.090727868347726e+001
 3.309954009110376e+000	 5.164343689744758e-001	 1.107158429993785e+001
 3.304967756494813e+000	 5.474377849602403e-001	 1.128820782169235e+001
 3.299674745183751e+000	 5.784864526137961e-001	 1.156333829393366e+001
 3.294072984173759e+000	 6.095762255751076e-001	 1.190352770509946e+001
 3.361347816564072e+000	 3.032587279003323e-001	 1.068872856782465e+001
 3.358426269345630e+000	 3.340628583502949e-001	 1.066591552433118e+001
 3.355211438965803e+000	 3.649399947722640e-001	 1.065968208773441e+001
 3.351700902640793e+000	 3.958864220693763e-001	 1.067361557264798e+001
 3.347892291129476e+000	 4.268983566703400e-001	 1.071147169947685e+001
 3.343783290744768e+000	 4.579719472386414e-001	 1.077720431687480e+001
 3.339371645363804e+000	 4.891032754446327e-001	 1.087499609151631e+001
 3.334655158434851e+000	 5.202883568011359e-001	 1.100929011039181e+001
 3.329631694978821e+000	 5.515231415631205e-001	 1.118482233556159e+001
 3.324299183583243e+000	 5.828035156919488e-001	 1.140665484601760e+001
 3.318655618386451e+000	 6.141253018846009e-001	 1.168020979602918e+001
 3.386246689281000e+000	 3.055050888463699e-001	 1.067382517205937e+001
 3.383303500972360e+000	 3.365373980404324e-001	 1.066055831666113e+001
 3.380064857034422e+000	 3.676432539914872e-001	 1.065937738522736e+001
 3.376528316736843e+000	 3.988189140834349e-001	 1.067278471689681e+001
 3.372691493288563e+000	 4.300605667185297e-001	 1.070343853673678e+001
 3.368552055864074e+000	 4.613643320318394e-001	 1.075418414466001e+001
 3.364107731628490e+000	 4.927262626690526e-001	 1.082808613145894e+001
 3.359356307759325e+000	 5.241423446282710e-001	 1.092846156568416e+001
 3.354295633462829e+000	 5.556084981663528e-001	 1.105891408961977e+001
 3.348923621982736e+000	 5.871205787703008e-001	 1.122336885712402e+001
 3.343238252599141e+000	 6.186743781941089e-001	 1.142610824062808e+001
 3.411145561997928e+000	 3.077514497928993e-001	 1.066847617512409e+001
 3.408180732599090e+000	 3.390119377311472e-001	 1.066181672123165e+001
 3.404918275103042e+000	 3.703465132113444e-001	 1.066272652394154e+001
 3.401355730832893e+000	 4.017514060981552e-001	 1.067261297297328e+001
 3.397490695447649e+000	 4.332227767673794e-001	 1.069302671637409e+001
 3.393320820983380e+000	 4.647567168256658e-001	 1.072569433356746e+001
 3.388843817893177e+000	 4.963492498940390e-001	 1.077255209602333e+001
 3.384057457083798e+000	 5.279963324558807e-001	 1.083578075777313e+001
 3.378959571946838e+000	 5.596938547699375e-001	 1.091784131231792e+001
 3.373548060382228e+000	 5.914376418488514e-001	 1.102151164679013e+001
 3.367820886811832e+000	 6.232234545036315e-001	 1.114992401855052e+001
 3.436044434714856e+000	 3.099978107399203e-001	 1.067461252867483e+001
 3.433057964225819e+000	 3.414864774224395e-001	 1.067229783494497e+001
 3.429771693171661e+000	 3.730497724318359e-001	 1.067301230397566e+001
 3.426183144928944e+000	 4.046838981135371e-001	 1.067705804806861e+001
 3.422289897606737e+000	 4.363849868168886e-001	 1.068486769777821e+001
 3.418089586102686e+000	 4.681491016201205e-001	 1.069703857704643e+001
 3.413579904157863e+000	 4.999722371195921e-001	 1.071436802717741e+001
 3.408758606408273e+000	 5.318503202839653e-001	 1.073788982034990e+001
 3.403623510430845e+000	 5.637792113738744e-001	 1.076891159748868e+001
 3.398172498781719e+000	 5.957547049276012e-001	 1.080905325942167e+001
 3.392403521024523e+000	 6.277725308131688e-001	 1.119636115984589e+001
 3.460943307431786e+000	 3.122441716874331e-001	 1.069419930474456e+001
 3.457935195852550e+000	 3.439610171143091e-001	 1.069463246428854e+001
 3.454625111240281e+000	 3.757530316529613e-001	 1.069353082829985e+001
 3.451010559024994e+000	 4.076163901295807e-001	 1.069008055379805e+001
 3.447089099765823e+000	 4.395471968670579e-001	 1.068358545882918e+001
 3.442858351221992e+000	 4.715414864152033e-001	 1.067350271792132e+001
 3.438315990422550e+000	 5.035952243457118e-001	 1.065947976832445e+001
 3.433459755732746e+000	 5.357043081125245e-001	 1.064139236618648e+001
 3.428287448914853e+000	 5.678645679781638e-001	 1.061938372573539e+001
 3.422796937181212e+000	 6.000717680065502e-001	 1.059390466843467e+001
 3.416986155237214e+000	 6.323216071227208e-001	 1.145856688026424e+001
 3.485842180148715e+000	 3.144905326354376e-001	 1.072923447715863e+001
 3.482812427479281e+000	 3.464355568067562e-001	 1.073147427856407e+001
 3.479478529308901e+000	 3.784562908747209e-001	 1.072759102765302e+001
 3.475837973121045e+000	 4.105488821462861e-001	 1.071564390247172e+001
 3.471888301924911e+000	 4.427094069178871e-001	 1.069379676309467e+001
 3.467627116341299e+000	 4.749338712109144e-001	 1.066035538591390e+001
 3.463052076687237e+000	 5.072182115723982e-001	 1.061380597139445e+001
 3.458160905057221e+000	 5.395582959415585e-001	 1.055285486288291e+001
 3.452951387398862e+000	 5.719499245828053e-001	 1.047646940776196e+001
 3.447421375580705e+000	 6.043888310856981e-001	 1.038391988593372e+001
 3.441568789449906e+000	 6.368706834322875e-001	 1.172360714367075e+001
 3.195742447322996e+000	 5.913799203372813e-001	 1.231227284905080e+001
 3.190006503222291e+000	 6.215774361993541e-001	 9.797389406937292e+000
 3.183967359642995e+000	 6.518066066841965e-001	 9.773491032276024e+000
 3.177623285720975e+000	 6.820632330168474e-001	 1.005103822940780e+001
 3.170972621219919e+000	 7.123430600964776e-001	 1.031131743084465e+001
 3.164013778361765e+000	 7.426417778035709e-001	 1.054979337451227e+001
 3.156745243634214e+000	 7.729550223703777e-001	 1.076174951342375e+001
 3.149165579572983e+000	 8.032783778144553e-001	 1.094227913531859e+001
 3.141273426516435e+000	 8.336073774350107e-001	 1.108627657210369e+001
 3.133067504330197e+000	 8.639375053716757e-001	 1.118842853296269e+001
 3.124546614099405e+000	 8.942641982252434e-001	 1.124738272756519e+001
 3.220325081535687e+000	 5.959289966467158e-001	 1.230063402167049e+001
 3.214545014787886e+000	 6.263588010934251e-001	 9.676567652469410e+000
 3.208459416257858e+000	 6.568205036599045e-001	 9.915782323447235e+000
 3.202066541767133e+000	 6.873098732729227e-001	 1.014384231096750e+001
 3.195364718308351e+000	 7.178226221001053e-001	 1.035677401437952e+001
 3.188352345889771e+000	 7.483544068671687e-001	 1.055043114659367e+001
 3.181027899356695e+000	 7.789008302389193e-001	 1.072048514680012e+001
 3.173389930187422e+000	 8.094574422638171e-001	 1.086241563853819e+001
 3.165437068261379e+000	 8.400197418818314e-001	 1.097150096713480e+001
 3.157168023597005e+000	 8.705831784952054e-001	 1.104280885163167e+001
 3.148581588057016e+000	 9.011431536016611e-001	 1.107118718733641e+001
 3.244907715748377e+000	 6.004780729561651e-001	 1.222263295494697e+001
 3.239083526353474e+000	 6.311401659873205e-001	 9.873610224895062e+000
 3.232951472872700e+000	 6.618344006352653e-001	 1.006447680147516e+001
 3.226509797813246e+000	 6.925565135284996e-001	 1.024598805159710e+001
 3.219756815396703e+000	 7.233021841031021e-001	 1.041456231627685e+001
 3.212690913417656e+000	 7.540670359300240e-001	 1.056644484280111e+001
 3.205310555079000e+000	 7.848466381066259e-001	 1.069769753955186e+001
 3.197614280801620e+000	 8.156365067122717e-001	 1.080418876449166e+001
 3.189600710006008e+000	 8.464321063276932e-001	 1.088158318253781e+001
 3.181268542863414e+000	 8.772288516177454e-001	 1.092533172821802e+001
 3.172616562014134e+000	 9.080221089770787e-001	 1.093066171107135e+001
 3.269490349961068e+000	 6.050271492656288e-001	 1.208728641102642e+001
 3.263622037919057e+000	 6.359215308810399e-001	 1.007443997523681e+001
 3.257443529487524e+000	 6.668482976102796e-001	 1.021958074811471e+001
 3.250953053859317e+000	 6.978031537835778e-001	 1.035721602453783e+001
 3.244148912484980e+000	 7.287817461054686e-001	 1.048415886608572e+001
 3.237029480945418e+000	 7.597796649921365e-001	 1.059704876534628e+001
 3.229593210801129e+000	 7.907924459734977e-001	 1.069234073474223e+001
 3.221838631415580e+000	 8.218155711598196e-001	 1.076629441726013e+001
 3.213764351750323e+000	 8.528444707725967e-001	 1.081496325553989e+001
 3.205369062129425e+000	 8.838745247392963e-001	 1.083418375700536e+001
 3.196651535970757e+000	 9.149010643514963e-001	 1.081956489385201e+001
 3.294072984173759e+000	 6.095762255751076e-001	 1.190352770509946e+001
 3.288160549484637e+000	 6.407028957745838e-001	 1.027925177524283e+001
 3.281935586102328e+000	 6.718621945849470e-001	 1.038102661937940e+001
 3.275396309905343e+000	 7.030497940381577e-001	 1.047719777355443e+001
 3.268541009573177e+000	 7.342613081072044e-001	 1.056497594778061e+001
 3.261368048473059e+000	 7.654922940535066e-001	 1.064139774027828e+001
 3.253875866523083e+000	 7.967382538395348e-001	 1.070331405204767e+001
 3.246062982029297e+000	 8.279946356064606e-001	 1.074737851151486e+001
 3.237927993494322e+000	 8.592568352165415e-001	 1.077003594695588e+001
 3.229469581395037e+000	 8.905201978598571e-001	 1.076751094568987e+001
 3.220686509926887e+000	 9.217800197249140e-001	 1.073579654022457e+001
 3.318655618386451e+000	 6.141253018846009e-001	 1.168020979602918e+001
 3.312699061050211e+000	 6.454842606679520e-001	 1.048816477670491e+001
 3.306427642717112e+000	 6.768760915592673e-001	 1.054867577982820e+001
 3.299839565951326e+000	 7.082964342922389e-001	 1.060553836958247e+001
 3.292933106661297e+000	 7.397408701083099e-001	 1.065636397922706e+001
 3.285706616000577e+000	 7.712049231141335e-001	 1.069858932030436e+001
 3.278158522244861e+000	 8.026840617047367e-001	 1.072946411455038e+001
 3.270287332642777e+000	 8.341737000521949e-001	 1.074603882397666e+001
 3.262091635238010e+000	 8.656691996595282e-001	 1.074515241809244e+001
 3.253570100660248e+000	 8.971658709794281e-001	 1.072342021858694e+001
 3.244721483882524e+000	 9.286589750973319e-001	 1.067722186304221e+001
 3.343238252599141e+000	 6.186743781941089e-001	 1.142610824062808e+001
 3.337237572615780e+000	 6.502656255611442e-001	 1.070122519528027e+001
 3.330919699331878e+000	 6.818899885332411e-001	 1.072232111622212e+001
 3.324282821997265e+000	 7.135430745458218e-001	 1.074177885458254e+001
 3.317325203749339e+000	 7.452204321087848e-001	 1.075761378667121e+001
 3.310045183527975e+000	 7.769175521740180e-001	 1.076766589042756e+001
 3.302441177966462e+000	 8.086298695691038e-001	 1.076958678611278e+001
 3.294511683256015e+000	 8.403527644970221e-001	 1.076082676319375e+001
 3.286255276981380e+000	 8.720815641015560e-001	 1.073862183367142e+001
 3.277670619925061e+000	 9.038115440980099e-001	 1.069998085352031e+001
 3.268756457837667e+000	 9.355379304687496e-001	 1.064167275521827e+001
 3.367820886811832e+000	 6.232234545036315e-001	 1.114992401855052e+001
 3.361776084181346e+000	 6.550469904541610e-001	 1.091840897239455e+001
 3.355411755946624e+000	 6.869038855068678e-001	 1.090168953671401e+001
 3.348726078043161e+000	 7.187897147989060e-001	 1.088539857836404e+001
 3.341717300837303e+000	 7.506999941086291e-001	 1.086795877961643e+001
 3.334383751055249e+000	 7.826301812331594e-001	 1.084761668136684e+001
 3.326723833687888e+000	 8.145756774326360e-001	 1.082242902390403e+001
 3.318736033869013e+000	 8.465318289409425e-001	 1.079024906181076e+001
 3.310418918724437e+000	 8.784939285426254e-001	 1.074871289455168e+001
 3.301771139189476e+000	 9.104572172156019e-001	 1.069522585578172e+001
 3.292791431792316e+000	 9.424168858391672e-001	 1.062694900578284e+001
 3.392403521024523e+000	 6.277725308131688e-001	 1.119636115984589e+001
 3.386314595746905e+000	 6.598283553470019e-001	 1.113962432140990e+001
 3.379903812561350e+000	 6.919177824801479e-001	 1.108644436137786e+001
 3.373169334089012e+000	 7.240363550514918e-001	 1.103581743380853e+001
 3.366109397925190e+000	 7.561795561078428e-001	 1.098657703114019e+001
 3.358722318582404e+000	 7.883428102915586e-001	 1.093737969543678e+001
 3.351006489409138e+000	 8.205214852953333e-001	 1.088669065038177e+001
 3.342960384481772e+000	 8.527108933839560e-001	 1.083276939526108e+001
 3.334582560467181e+000	 8.849062929827365e-001	 1.077365530381129e+001
 3.325871658453493e+000	 9.171028903322046e-001	 1.070715327235308e+001
 3.316826405746471e+000	 9.492958412085848e-001	 1.063081946306660e+001
 3.416986155237214e+000	 6.323216071227208e-001	 1.145856688026424e+001
 3.410853107312460e+000	 6.646097202396671e-001	 1.136471416388615e+001
 3.404395869176057e+000	 6.969316794530809e-001	 1.127618760955009e+001
 3.397612590134821e+000	 7.292829953035791e-001	 1.119239799560785e+001
 3.390501495012999e+000	 7.616591181064263e-001	 1.111259326841311e+001
 3.383060886109435e+000	 7.940554393492149e-001	 1.103584354929617e+001
 3.375289145130212e+000	 8.264672931571959e-001	 1.096102604878524e+001
 3.367184735094289e+000	 8.588899578260627e-001	 1.088680993058726e+001
 3.358746202209609e+000	 8.913186574218888e-001	 1.081164116954547e+001
 3.349972177717110e+000	 9.237485634478176e-001	 1.073372744939971e+001
 3.340861379700133e+000	 9.561747965770026e-001	 1.065102314767592e+001
 3.441568789449906e+000	 6.368706834322875e-001	 1.172360714367075e+001
 3.435391618878011e+000	 6.693910851321568e-001	 1.159345846143112e+001
 3.428887925790747e+000	 7.019455764256674e-001	 1.147046218914149e+001
 3.422055846180586e+000	 7.345296355551680e-001	 1.135444756734273e+001
 3.414893592100732e+000	 7.671386801043791e-001	 1.124508077790992e+001
 3.407399453636346e+000	 7.997680684061287e-001	 1.114184923772143e+001
 3.399571800851111e+000	 8.324131010182234e-001	 1.104404578596479e+001
 3.391409085706569e+000	 8.650690222672626e-001	 1.095075280888382e+001
 3.382909843951724e+000	 8.977310218600830e-001	 1.086082634754453e+001
 3.374072696980329e+000	 9.303942365624413e-001	 1.077288023587087e+001
 3.364896353653301e+000	 9.630537519444204e-001	 1.068527031776860e+001
 3.124546614099405e+000	 8.942641982252434e-001	 1.124738272756519e+001
 3.115709639785576e+000	 9.245828467396423e-001	 1.148560815171800e+001
 3.106555549847563e+000	 9.548887975447460e-001	 1.167713971446830e+001
 3.097083398822884e+000	 9.851773549594466e-001	 1.181827968609793e+001
 3.087292328865915e+000	 1.015443782853513e+000	 1.190549493175628e+001
 3.077181571242415e+000	 1.045683306567630e+000	 1.193543049595821e+001
 3.066750447777396e+000	 1.075891114890497e+000	 1.190492307440910e+001
 3.055998372254013e+000	 1.106062362091802e+000	 1.181101433460184e+001
 3.044924851761178e+000	 1.136192170009821e+000	 1.165096404606102e+001
 3.033529487987622e+000	 1.166275630192232e+000	 1.142226298065694e+001
 3.021811978460158e+000	 1.196307806088698e+000	 1.112264554308177e+001
 3.148581588057016e+000	 9.011431536016611e-001	 1.107118718733641e+001
 3.139676637017926e+000	 9.316950224893300e-001	 1.121169813861572e+001
 3.130452131003560e+000	 9.622340959929508e-001	 1.131128723302009e+001
 3.120907117278648e+000	 9.927556423107904e-001	 1.140500331275656e+001
 3.111040731398753e+000	 1.023254888880847e+000	 1.150103432120382e+001
 3.100852198716294e+000	 1.053727024315657e+000	 1.154036233499156e+001
 3.090340835839549e+000	 1.084167200394599e+000	 1.152000496220614e+001
 3.079506052042313e+000	 1.114570534112516e+000	 1.143719147402294e+001
 3.068347350621874e+000	 1.144932109783359e+000	 1.128937600894586e+001
 3.056864330203026e+000	 1.175246981197481e+000	 1.107425053557951e+001
 3.045056685985869e+000	 1.205510173831083e+000	 1.078975753336440e+001
 3.172616562014134e+000	 9.080221089770787e-001	 1.093066171107135e+001
 3.163643634249695e+000	 9.388071982380229e-001	 1.105634984793565e+001
 3.154348712158920e+000	 9.695793944401748e-001	 1.114580688770709e+001
 3.144730835733750e+000	 1.000333929661178e+000	 1.119374174130793e+001
 3.134789133930934e+000	 1.031065994907259e+000	 1.119459434863977e+001
 3.124522826189546e+000	 1.061770742062806e+000	 1.114763008945904e+001
 3.113931223901138e+000	 1.092443285897878e+000	 1.114854311905779e+001
 3.103013731830142e+000	 1.123078706132471e+000	 1.108777606398669e+001
 3.091769849482220e+000	 1.153672049556212e+000	 1.096296977722536e+001
 3.080199172418235e+000	 1.184218332202131e+000	 1.077200989871171e+001
 3.068301393511570e+000	 1.214712541572961e+000	 1.051303959744745e+001
 3.196651535970757e+000	 9.149010643514963e-001	 1.081956489385201e+001
 3.187610631480886e+000	 9.459193739857201e-001	 1.093452758564539e+001
 3.178245293313646e+000	 9.769246928864183e-001	 1.101803338579538e+001
 3.168554554188190e+000	 1.007912217010610e+000	 1.106518856423576e+001
 3.158537536462453e+000	 1.038877100932750e+000	 1.107082455133991e+001
 3.148193453662171e+000	 1.069814459809077e+000	 1.102948826297306e+001
 3.137521611962163e+000	 1.100719371400335e+000	 1.093543281355065e+001
 3.126521411617498e+000	 1.131586878151666e+000	 1.078260866122025e+001
 3.115192348342217e+000	 1.162411989328380e+000	 1.067443634203021e+001
 3.103534014633251e+000	 1.193189683206180e+000	 1.051811944234260e+001
 3.091546101037261e+000	 1.223914909314336e+000	 1.029495716333637e+001
 3.220686509926887e+000	 9.217800197249140e-001	 1.073579654022457e+001
 3.211577628711498e+000	 9.530315497324225e-001	 1.084386688646656e+001
 3.202141874467737e+000	 9.842699913316814e-001	 1.092534059044604e+001
 3.192378272641967e+000	 1.015490504359085e+000	 1.097572297873248e+001
 3.182285938993313e+000	 1.046688206957319e+000	 1.099023851700886e+001
 3.171864081134169e+000	 1.077858177554471e+000	 1.096382038535710e+001
 3.161112000022623e+000	 1.108995456901967e+000	 1.089110044148186e+001
 3.150029091404384e+000	 1.140095050170102e+000	 1.076639961769574e+001
 3.138614847201867e+000	 1.171151929099864e+000	 1.058371879764290e+001
 3.126868856848071e+000	 1.202161034209630e+000	 1.033673021872769e+001
 3.114790808562941e+000	 1.233117277055205e+000	 1.013799119882792e+001
 3.244721483882524e+000	 9.286589750973319e-001	 1.067722186304221e+001
 3.235544625941530e+000	 9.601437254781297e-001	 1.078197377380864e+001
 3.226038455621191e+000	 9.916152897759637e-001	 1.086507791252945e+001
 3.216201991095082e+000	 1.023068791706605e+000	 1.092244051218279e+001
 3.206034341523514e+000	 1.054499312980966e+000	 1.094968076993324e+001
 3.195534708605540e+000	 1.085901895298987e+000	 1.094211966442669e+001
 3.184702388082518e+000	 1.117271542402776e+000	 1.089476916108433e+001
 3.173536771190797e+000	 1.148603222187780e+000	 1.080232185294431e+001
 3.162037346061168e+000	 1.179891868870664e+000	 1.065914108478980e+001
 3.150203699062696e+000	 1.211132385212479e+000	 1.045925160832197e+001
 3.138035516088611e+000	 1.242319644795568e+000	 1.019633081598226e+001
 3.268756457837667e+000	 9.355379304687496e-001	 1.064167275521827e+001
 3.259511623170984e+000	 9.672559012228417e-001	 1.074642584474385e+001
 3.249935036774011e+000	 9.989605882192657e-001	 1.083457120960614e+001
 3.240025709547534e+000	 1.030647079053168e+000	 1.090241798883118e+001
 3.229782744053054e+000	 1.062310419003691e+000	 1.094598195627415e+001
 3.219205336076284e+000	 1.093945613042626e+000	 1.096097357152974e+001
 3.208292776141847e+000	 1.125547627902762e+000	 1.094278641902669e+001
 3.197044450976737e+000	 1.157111394204698e+000	 1.088648608460492e+001
 3.185459844920121e+000	 1.188631808640779e+000	 1.078679951909970e+001
 3.173538541277127e+000	 1.220103736214729e+000	 1.063810493850616e+001
 3.161280223614271e+000	 1.251522012535427e+000	 1.041190565951293e+001
 3.292791431792316e+000	 9.424168858391672e-001	 1.062694900578284e+001
 3.283478620399857e+000	 9.743680769665586e-001	 1.073477330746488e+001
 3.273831617926194e+000	 1.006305886661587e+000	 1.083112364553703e+001
 3.263849427999325e+000	 1.038225366398776e+000	 1.091271421237796e+001
 3.253531146581935e+000	 1.070121525025494e+000	 1.097595935056809e+001
 3.242875963546401e+000	 1.101989330785387e+000	 1.101696082885095e+001
 3.231883164200613e+000	 1.133823713401924e+000	 1.103149550658708e+001
 3.220552130762207e+000	 1.165619566220857e+000	 1.101500343777389e+001
 3.208882343778725e+000	 1.197371748410209e+000	 1.096257646596411e+001
 3.196873383491364e+000	 1.229075087216379e+000	 1.086894736149656e+001
 3.184524931139920e+000	 1.260724380274781e+000	 1.055627127417436e+001
 3.316826405746471e+000	 9.492958412085848e-001	 1.063081946306660e+001
 3.307445617628153e+000	 9.814802527092802e-001	 1.074453997363534e+001
 3.297728199077743e+000	 1.013651185102928e+000	 1.085201651271885e+001
 3.287673146450452e+000	 1.045803653743427e+000	 1.095037061889777e+001
 3.277279549110157e+000	 1.077932631046376e+000	 1.103641734020623e+001
 3.266546591015890e+000	 1.110033048527270e+000	 1.110665172641043e+001
 3.255473552258815e+000	 1.142099798900263e+000	 1.115723571021096e+001
 3.244059810547204e+000	 1.174127738236257e+000	 1.118398543024205e+001
 3.232304842636979e+000	 1.206111688178954e+000	 1.118235904903178e+001
 3.220208225705404e+000	 1.238046438217429e+000	 1.114744511920201e+001
 3.207769638665559e+000	 1.269926748013629e+000	 1.073160136232256e+001
 3.340861379700133e+000	 9.561747965770026e-001	 1.065102314767592e+001
 3.331412614855868e+000	 9.885924284510067e-001	 1.077322420790560e+001
 3.321624780228655e+000	 1.020996483543288e+000	 1.089451001882750e+001
 3.311496864900918e+000	 1.053381941087122e+000	 1.101241190157422e+001
 3.301027951637718e+000	 1.085743737066335e+000	 1.112414788900082e+001
 3.290217218484752e+000	 1.118076766268276e+000	 1.122660842537890e+001
 3.279063940316452e+000	 1.150375884397779e+000	 1.131634245556979e+001
 3.267567490331731e+000	 1.182635910250898e+000	 1.138954395836925e+001
 3.255727341494885e+000	 1.214851627947015e+000	 1.144203897904849e+001
 3.243543067919251e+000	 1.247017789217878e+000	 1.146927321625679e+001
 3.231014346191188e+000	 1.279129115751972e+000	 1.093724643169385e+001
 3.364896353653301e+000	 9.630537519444204e-001	 1.068527031776860e+001
 3.355379612083005e+000	 9.957046041917383e-001	 1.081829983673442e+001
 3.345521361378934e+000	 1.028341781982668e+000	 1.095584403984381e+001
 3.335320583350722e+000	 1.060960228429861e+000	 1.109584660866057e+001
 3.324776354164621e+000	 1.093554843085373e+000	 1.123593098088433e+001
 3.313887845952988e+000	 1.126120484008404e+000	 1.137338524839405e+001
 3.302654328373524e+000	 1.158651969894472e+000	 1.150514744544586e+001
 3.291075170115785e+000	 1.191144082264780e+000	 1.162779128356382e+001
 3.279149840352444e+000	 1.223591567714392e+000	 1.173751239003192e+001
 3.266877910132902e+000	 1.255989140217728e+000	 1.171331812228023e+001
 3.254259053716807e+000	 1.288331483489811e+000	 1.117256943255784e+001
 3.021811978460158e+000	 1.196307806088698e+000	 1.112264554308177e+001
 3.009772117724388e+000	 1.226283735293376e+000	 1.139226825577947e+001
 2.997409798464362e+000	 1.256198431836615e+000	 1.157667653667921e+001
 2.984725012560141e+000	 1.286046888523079e+000	 1.160328466232645e+001
 2.971717852081893e+000	 1.315824079314216e+000	 1.161475704350301e+001
 2.958388510217296e+000	 1.345524961753960e+000	 1.161050655791756e+001
 2.944737282130763e+000	 1.375144479435224e+000	 1.158997517370100e+001
 2.930764565752652e+000	 1.404677564505075e+000	 1.155263523974119e+001
 2.916470862496686e+000	 1.434119140206302e+000	 1.149799073644886e+001
 2.901856777903874e+000	 1.463464123453075e+000	 1.142557848351648e+001
 2.886923022211355e+000	 1.492707427438275e+000	 1.133496930128683e+001
 3.045056685985869e+000	 1.205510173831083e+000	 1.078975753336440e+001
 3.032924210935764e+000	 1.235716687106057e+000	 1.111555494797749e+001
 3.020466796911432e+000	 1.265861496699235e+000	 1.128281261726680e+001
 3.007684435730476e+000	 1.295939556898392e+000	 1.133270941474802e+001
 2.994577220171298e+000	 1.325945803003144e+000	 1.136648412838087e+001
 2.981145344907635e+000	 1.355875153769300e+000	 1.138349102631401e+001
 2.967389107374399e+000	 1.385722513894336e+000	 1.138311435390520e+001
 2.953308908562949e+000	 1.415482776541835e+000	 1.136476970207052e+001
 2.938905253744040e+000	 1.445150825902608e+000	 1.132790533543581e+001
 2.924178753116690e+000	 1.474721539790166e+000	 1.127200347670035e+001
 2.909130122381398e+000	 1.504189792268103e+000	 1.119658154367231e+001
 3.068301393511570e+000	 1.214712541572961e+000	 1.051303959744745e+001
 3.056076304147308e+000	 1.245149638918323e+000	 1.089680319720857e+001
 3.043523795358814e+000	 1.275524561561510e+000	 1.102593920667239e+001
 3.030643858901224e+000	 1.305832225273412e+000	 1.109829598823589e+001
 3.017436588261178e+000	 1.336067526691810e+000	 1.115354440910625e+001
 3.003902179598473e+000	 1.366225345784390e+000	 1.119098044692613e+001
 2.990040932618516e+000	 1.396300548353189e+000	 1.120993095246930e+001
 2.975853251373670e+000	 1.426287988578307e+000	 1.120975509595576e+001
 2.961339644991720e+000	 1.456182511598578e+000	 1.118984577252510e+001
 2.946500728329691e+000	 1.485978956126850e+000	 1.114963096312080e+001
 2.931337222551448e+000	 1.515672157097435e+000	 1.108857504709032e+001
 3.091546101037261e+000	 1.223914909314336e+000	 1.029495716333637e+001
 3.079228397359024e+000	 1.254582590730175e+000	 1.069444043251601e+001
 3.066580793806506e+000	 1.285187626423441e+000	 1.080575765879023e+001
 3.053603282072388e+000	 1.315724893648139e+000	 1.089977218614060e+001
 3.040295956351536e+000	 1.346189250380214e+000	 1.097569178988278e+001
 3.026659014289811e+000	 1.376575537799229e+000	 1.103275446185839e+001
 3.012692757863114e+000	 1.406878582811783e+000	 1.107022997224628e+001
 2.998397594184817e+000	 1.437093200614492e+000	 1.108742139381256e+001
 2.983774036239726e+000	 1.467214197294209e+000	 1.108366658465551e+001
 2.968822703542881e+000	 1.497236372463128e+000	 1.105833962554158e+001
 2.953544322721507e+000	 1.527154521926272e+000	 1.101085220798313e+001
 3.114790808562941e+000	 1.233117277055205e+000	 1.013799119882792e+001
 3.102380490570910e+000	 1.264015542541612e+000	 1.048885629896703e+001
 3.089637792254510e+000	 1.294850691285028e+000	 1.062198343551267e+001
 3.076562705243964e+000	 1.325617562022572e+000	 1.073687921410504e+001
 3.063155324442370e+000	 1.356310974068356e+000	 1.083269287877732e+001
 3.049415848981647e+000	 1.386925729813817e+000	 1.090860472628508e+001
 3.035344583108194e+000	 1.417456617270117e+000	 1.096382774636101e+001
 3.020941936996386e+000	 1.447898412650387e+000	 1.099760922388221e+001
 3.006208427488058e+000	 1.478245882989505e+000	 1.100923229885095e+001
 2.991144678756258e+000	 1.508493788799000e+000	 1.099801748012905e+001
 2.975751422891574e+000	 1.538636886754612e+000	 1.096332410891948e+001
 3.138035516088611e+000	 1.242319644795568e+000	 1.019633081598226e+001
 3.125532583782966e+000	 1.273448494352633e+000	 1.032644405297097e+001
 3.112694790702826e+000	 1.304513756146271e+000	 1.047434558421177e+001
 3.099522128415953e+000	 1.335510230396714e+000	 1.060937118368338e+001
 3.086014692533680e+000	 1.366432697756237e+000	 1.072432651720619e+001
 3.072172683673984e+000	 1.397275921828156e+000	 1.081833446352213e+001
 3.057996408353757e+000	 1.428034651728193e+000	 1.089055151857083e+001
 3.043486279808379e+000	 1.458703624685996e+000	 1.094016947557121e+001
 3.028642818736715e+000	 1.489277568684463e+000	 1.096641706221727e+001
 3.013466653969821e+000	 1.519751205134465e+000	 1.096856153077034e+001
 2.997958523061648e+000	 1.550119251582456e+000	 1.094591019688612e+001
 3.161280223614271e+000	 1.251522012535427e+000	 1.041190565951293e+001
 3.148684676995192e+000	 1.282881446163240e+000	 1.046487179913935e+001
 3.135751789151455e+000	 1.314176821007170e+000	 1.049041421362313e+001
 3.122481551588357e+000	 1.345402898770561e+000	 1.051701463785902e+001
 3.108874060625467e+000	 1.376554421443855e+000	 1.065038333017985e+001
 3.094929518366818e+000	 1.407626113842243e+000	 1.076175803972761e+001
 3.080648233599802e+000	 1.438612686186009e+000	 1.085023904213895e+001
 3.066030622620797e+000	 1.469508836721316e+000	 1.091496292220276e+001
 3.051077209985700e+000	 1.500309254379084e+000	 1.095510428826270e+001
 3.035788629183573e+000	 1.531008621469524e+000	 1.096987743864248e+001
 3.020165623231730e+000	 1.561601616409804e+000	 1.095853797577239e+001
 3.184524931139920e+000	 1.260724380274781e+000	 1.055627127417436e+001
 3.171836770207588e+000	 1.292314397973432e+000	 1.063407641369977e+001
 3.158808787600394e+000	 1.323839885867724e+000	 1.068419349683055e+001
 3.145440974761176e+000	 1.355295567144115e+000	 1.070453300493067e+001
 3.131733428717729e+000	 1.386676145131211e+000	 1.069297502524695e+001
 3.117686353060151e+000	 1.417976305856080e+000	 1.073870055722857e+001
 3.103300058846327e+000	 1.449190720643567e+000	 1.084273819627625e+001
 3.088574965433638e+000	 1.480314048756349e+000	 1.092185986028973e+001
 3.073511601235010e+000	 1.511340940073368e+000	 1.097518631870810e+001
 3.058110604397512e+000	 1.542266037804177e+000	 1.100187920625298e+001
 3.042372723401820e+000	 1.573083981236655e+000	 1.100114271232267e+001
 3.207769638665559e+000	 1.269926748013629e+000	 1.073160136232256e+001
 3.194988863420155e+000	 1.301747349783208e+000	 1.083341417375124e+001
 3.181865786049646e+000	 1.333502950727935e+000	 1.090729590719253e+001
 3.168400397934406e+000	 1.365188235517377e+000	 1.095109035140126e+001
 3.154592796810469e+000	 1.396797868818307e+000	 1.096260983328009e+001
 3.140443187753984e+000	 1.428326497869667e+000	 1.093963697135834e+001
 3.125951884093334e+000	 1.459768755100864e+000	 1.087992653873527e+001
 3.111119308246904e+000	 1.491119260791093e+000	 1.096073976449165e+001
 3.095945992484646e+000	 1.522372625767316e+000	 1.102656410000107e+001
 3.080432579611638e+000	 1.553523454138423e+000	 1.106448887521768e+001
 3.064579823571918e+000	 1.584566346063012e+000	 1.107366715487375e+001
 3.231014346191188e+000	 1.279129115751972e+000	 1.093724643169385e+001
 3.218140956632892e+000	 1.311180301592571e+000	 1.106225366260024e+001
 3.204922784499208e+000	 1.343166015587801e+000	 1.115910812161130e+001
 3.191359821108052e+000	 1.375080903890345e+000	 1.122558726608841e+001
 3.177452164903685e+000	 1.406919592505140e+000	 1.125943599899765e+001
 3.163200022448315e+000	 1.438676689883003e+000	 1.125836847516584e+001
 3.148603709340824e+000	 1.470346789557903e+000	 1.122007002006326e+001
 3.133663651060594e+000	 1.501924472825549e+000	 1.114219916063448e+001
 3.118380383734608e+000	 1.533404311460926e+000	 1.110914687379309e+001
 3.102754554825951e+000	 1.564780870472263e+000	 1.115763623708422e+001
 3.086786923742023e+000	 1.596048710888871e+000	 1.117606126423243e+001
 3.254259053716807e+000	 1.288331483489811e+000	 1.117256943255784e+001
 3.241293049845800e+000	 1.320613253401518e+000	 1.131997533025271e+001
 3.227979782949083e+000	 1.352829080447324e+000	 1.143902811310167e+001
 3.214319244282112e+000	 1.384973572263021e+000	 1.152743925957011e+001
 3.200311532997376e+000	 1.417041316191710e+000	 1.158288657618169e+001
 3.185956857143147e+000	 1.449026881896089e+000	 1.160301605592555e+001
 3.171255534588795e+000	 1.480924824014684e+000	 1.158544385229056e+001
 3.156207993874709e+000	 1.512729684859718e+000	 1.152775836842850e+001
 3.140814774984898e+000	 1.544435997154200e+000	 1.142752246061559e+001
 3.125076530040452e+000	 1.576038286805697e+000	 1.128227575484907e+001
 3.108994023912139e+000	 1.607531075714235e+000	 1.130828195608765e+001
 2.886923022211355e+000	 1.492707427438275e+000	 1.133496930128683e+001
 2.871670410844536e+000	 1.521843964270075e+000	 1.131580761462593e+001
 2.856099864831404e+000	 1.550868647634841e+000	 1.130413506990020e+001
 2.840212411137347e+000	 1.579776395484173e+000	 1.130068546779346e+001
 2.824009182919216e+000	 1.608562132743385e+000	 1.130621375954488e+001
 2.807491419697759e+000	 1.637220794038314e+000	 1.132149565612131e+001
 2.790660467447268e+000	 1.665747326437759e+000	 1.134732718290616e+001
 2.773517778601558e+000	 1.694136692208679e+000	 1.138452417946371e+001
 2.756064911975477e+000	 1.722383871581193e+000	 1.143392174408674e+001
 2.738303532601247e+000	 1.750483865520403e+000	 1.149637362298891e+001
 2.720235411479095e+000	 1.778431698502015e+000	 1.157275154416177e+001
 2.909130122381398e+000	 1.504189792268103e+000	 1.119658154367231e+001
 2.893760183235911e+000	 1.533550456306829e+000	 1.121240342608744e+001
 2.878069863792880e+000	 1.562798406467084e+000	 1.123003892895068e+001
 2.862060198917423e+000	 1.591928521607785e+000	 1.125007541747306e+001
 2.845732330482985e+000	 1.620935687615212e+000	 1.127312602746052e+001
 2.829087507545085e+000	 1.649814800150784e+000	 1.129982947094529e+001
 2.812127086431664e+000	 1.678560767414597e+000	 1.133084978256810e+001
 2.794852530749107e+000	 1.707168512921816e+000	 1.136687600588465e+001
 2.777265411303141e+000	 1.735632978288946e+000	 1.140862181892393e+001
 2.759367405933932e+000	 1.763949126026976e+000	 1.145682509848804e+001
 2.741160299264779e+000	 1.792111942338345e+000	 1.151224742284860e+001
 2.931337222551448e+000	 1.515672157097435e+000	 1.108857504709032e+001
 2.915849955627105e+000	 1.545256948342998e+000	 1.113648115737379e+001
 2.900039862754002e+000	 1.574728165298670e+000	 1.118058959017118e+001
 2.883907986696995e+000	 1.604080647730690e+000	 1.122134288295950e+001
 2.867455478046119e+000	 1.633309242486301e+000	 1.125921394103545e+001
 2.850683595391665e+000	 1.662408806262504e+000	 1.129470603809837e+001
 2.833593705415225e+000	 1.691374208390693e+000	 1.132835275282464e+001
 2.816187282895747e+000	 1.720200333634241e+000	 1.136071784022233e+001
 2.798465910629847e+000	 1.748882084996038e+000	 1.139239503671570e+001
 2.780431279265625e+000	 1.777414386532956e+000	 1.142400779807905e+001
 2.762085187049463e+000	 1.805792186174171e+000	 1.145620896951396e+001
 2.953544322721507e+000	 1.527154521926272e+000	 1.101085220798313e+001
 2.937939728018115e+000	 1.556963440378580e+000	 1.108801340393526e+001
 2.922009861714772e+000	 1.586657924129600e+000	 1.115582800567728e+001
 2.905755774476064e+000	 1.616232773852888e+000	 1.121459529048680e+001
 2.889178625608617e+000	 1.645682797356652e+000	 1.126464947883782e+001
 2.872279683237499e+000	 1.675002812373474e+000	 1.130635992847232e+001
 2.855060324397947e+000	 1.704187649366049e+000	 1.134013125970786e+001
 2.837522035041479e+000	 1.733232154345956e+000	 1.136640341038758e+001
 2.819666409955593e+000	 1.762131191702468e+000	 1.138565161904695e+001
 2.801495152596329e+000	 1.790879647038343e+000	 1.139838633504766e+001
 2.783010074833148e+000	 1.819472430009495e+000	 1.140515305461553e+001
 2.975751422891574e+000	 1.538636886754612e+000	 1.096332410891948e+001
 2.960029500408944e+000	 1.568669932413575e+000	 1.106697940890836e+001
 2.943979860675189e+000	 1.598587682959872e+000	 1.115579978823805e+001
 2.927603562254629e+000	 1.628384899974378e+000	 1.122994279247501e+001
 2.910901773170480e+000	 1.658056352226263e+000	 1.128960546485318e+001
 2.893875771082586e+000	 1.687596818483695e+000	 1.133502473241311e+001
 2.876526943379832e+000	 1.717001090340665e+000	 1.136647771862520e+001
 2.858856787186304e+000	 1.746263975056959e+000	 1.138428198052267e+001
 2.840866909280380e+000	 1.775380298408235e+000	 1.138879566854520e+001
 2.822559025926043e+000	 1.804344907543138e+000	 1.138041760747865e+001
 2.803934962615832e+000	 1.833152673844316e+000	 1.135958729706907e+001
 2.997958523061648e+000	 1.550119251582456e+000	 1.094591019688612e+001
 2.982119272799590e+000	 1.580376424447985e+000	 1.107336481690510e+001
 2.965949859635252e+000	 1.610517441789488e+000	 1.118055503865925e+001
 2.949451350032689e+000	 1.640537026095160e+000	 1.126749816656058e+001
 2.932624920731708e+000	 1.670429907095137e+000	 1.133425553717286e+001
 2.915471858926928e+000	 1.700190824593167e+000	 1.138093309603749e+001
 2.897993562360879e+000	 1.729814531314540e+000	 1.140768189623454e+001
 2.880191539330218e+000	 1.759295795767250e+000	 1.141469851632579e+001
 2.862067408604208e+000	 1.788629405113340e+000	 1.140222539550892e+001
 2.843622899254767e+000	 1.817810168047340e+000	 1.137055108400430e+001
 2.824859850397516e+000	 1.846832917678635e+000	 1.132001040689829e+001
 3.020165623231730e+000	 1.561601616409804e+000	 1.095853797577239e+001
 3.004209045190053e+000	 1.592082916481808e+000	 1.110716143866483e+001
 2.987919858594963e+000	 1.622447200618446e+000	 1.123014818078170e+001
 2.971299137810247e+000	 1.652689152215235e+000	 1.132737671908089e+001
 2.954348068292302e+000	 1.682803461963272e+000	 1.139877411806367e+001
 2.937067946770523e+000	 1.712784830701889e+000	 1.144431675594709e+001
 2.919460181341090e+000	 1.742627972287675e+000	 1.146403100782433e+001
 2.901526291473226e+000	 1.772327616476830e+000	 1.145799384308226e+001
 2.883267907927075e+000	 1.801878511817783e+000	 1.142633333453694e+001
 2.864686772582502e+000	 1.831275428550950e+000	 1.136922907694577e+001
 2.845784738178201e+000	 1.860513161512450e+000	 1.128691251276756e+001
 3.042372723401820e+000	 1.573083981236655e+000	 1.100114271232267e+001
 3.026298817580335e+000	 1.603789408515045e+000	 1.116836702601297e+001
 3.009889857554321e+000	 1.634376959446748e+000	 1.130463780370666e+001
 2.993146925587299e+000	 1.664841278334602e+000	 1.140969619278595e+001
 2.976071215852260e+000	 1.695177016830668e+000	 1.148333638534805e+001
 2.958664034613371e+000	 1.725378836809862e+000	 1.152540657242258e+001
 2.940926800320463e+000	 1.755441413260070e+000	 1.153580981042956e+001
 2.922861043615324e+000	 1.785359437185699e+000	 1.151450479677440e+001
 2.904468407248985e+000	 1.815127618521565e+000	 1.146150655167095e+001
 2.885750645909247e+000	 1.844740689053968e+000	 1.137688700349245e+001
 2.866709625957885e+000	 1.874193405345763e+000	 1.126077547517023e+001
 3.064579823571918e+000	 1.584566346063012e+000	 1.107366715487375e+001
 3.048388589970434e+000	 1.615495900547695e+000	 1.125698505660420e+001
 3.031859856513325e+000	 1.646306718274393e+000	 1.140408651088024e+001
 3.014994713363848e+000	 1.676993404453262e+000	 1.151457667856252e+001
 2.997794363411583e+000	 1.707550571697326e+000	 1.158811824502929e+001
 2.980260122455475e+000	 1.737972842917085e+000	 1.162443256117438e+001
 2.962393419298999e+000	 1.768254854231723e+000	 1.162330069189889e+001
 2.944195795756514e+000	 1.798391257893856e+000	 1.158456436862161e+001
 2.925668906569935e+000	 1.828376725224684e+000	 1.150812684253161e+001
 2.906814519235001e+000	 1.858205949556393e+000	 1.139395363552563e+001
 2.887634513736569e+000	 1.887873649178574e+000	 1.133229093964980e+001
 3.086786923742023e+000	 1.596048710888871e+000	 1.117606126423243e+001
 3.070478362360350e+000	 1.627202392579759e+000	 1.137302452795764e+001
 3.053829855471977e+000	 1.658236477101382e+000	 1.152856077569280e+001
 3.036842501139893e+000	 1.689145530571214e+000	 1.164214053096885e+001
 3.019517510970272e+000	 1.719924126563245e+000	 1.171329630509777e+001
 3.001856210296831e+000	 1.750566849023558e+000	 1.174162392372286e+001
 2.983860038276696e+000	 1.781068295202636e+000	 1.172678375611698e+001
 2.965530547896797e+000	 1.811423078601302e+000	 1.166850184338102e+001
 2.946869405889925e+000	 1.841625831927142e+000	 1.156657092190208e+001
 2.927878392559767e+000	 1.871671210058225e+000	 1.142085133865818e+001
 2.908559401514253e+000	 1.901553893010882e+000	 1.141490158961908e+001
 3.108994023912139e+000	 1.607531075714235e+000	 1.130828195608765e+001
 3.092568134750085e+000	 1.638908884611238e+000	 1.151649976031855e+001
 3.075799854430276e+000	 1.670166235927714e+000	 1.167813080326647e+001
 3.058690288915436e+000	 1.701297656688459e+000	 1.179251228738925e+001
 3.041240658528325e+000	 1.732297681428426e+000	 1.185904785045979e+001
 3.023452298137442e+000	 1.763160855129283e+000	 1.187720907647654e+001
 3.005326657253558e+000	 1.793881736172810e+000	 1.184653690457491e+001
 2.986865300036171e+000	 1.824454899308037e+000	 1.176664293172121e+001
 2.968069905208957e+000	 1.854874938628937e+000	 1.163721060518623e+001
 2.948942265883543e+000	 1.885136470559466e+000	 1.152527733133723e+001
 2.929484289290938e+000	 1.915234136842687e+000	 1.150290044763125e+001
 2.720235411479095e+000	 1.778431698502015e+000	 1.157275154416177e+001
 2.701862425241567e+000	 1.806222421288800e+000	 1.155507698185509e+001
 2.683186555731693e+000	 1.833851113704457e+000	 1.151269506167882e+001
 2.664209889494488e+000	 1.861312887401978e+000	 1.144555827475611e+001
 2.644934617181425e+000	 1.888602888623658e+000	 1.145073622254395e+001
 2.625363032868398e+000	 1.915716300949206e+000	 1.152308188186646e+001
 2.605497533287248e+000	 1.942648348028940e+000	 1.156190346894059e+001
 2.585340616971148e+000	 1.969394296298900e+000	 1.156538680790858e+001
 2.564894883314336e+000	 1.995949457674739e+000	 1.153172251974056e+001
 2.544163031546756e+000	 2.022309192221250e+000	 1.145910945366420e+001
 2.523147859624355e+000	 2.048468910794402e+000	 1.134575816940646e+001
 2.741160299264779e+000	 1.792111942338345e+000	 1.151224742284860e+001
 2.722645982363904e+000	 1.820116439914905e+000	 1.145274318996582e+001
 2.703826452319316e+000	 1.847957660732984e+000	 1.137353681482427e+001
 2.684703811726376e+000	 1.875630678842904e+000	 1.127927083803605e+001
 2.665280268087723e+000	 1.903130603150364e+000	 1.135869893229306e+001
 2.645558133125989e+000	 1.930452580185686e+000	 1.141219041692550e+001
 2.625539822009412e+000	 1.957591796858036e+000	 1.143797281380394e+001
 2.605227852490652e+000	 1.984543483191424e+000	 1.143426896916457e+001
 2.584624843959287e+000	 2.011302915039319e+000	 1.139930038941110e+001
 2.563733516408568e+000	 2.037865416774700e+000	 1.133129064444507e+001
 2.542556689317182e+000	 2.064226363952433e+000	 1.122846883097172e+001
 2.762085187049463e+000	 1.805792186174171e+000	 1.145620896951396e+001
 2.743429539485246e+000	 1.834010458540603e+000	 1.135691761301959e+001
 2.724466348905958e+000	 1.862064207761188e+000	 1.124283276860182e+001
 2.705197733957311e+000	 1.889948470283584e+000	 1.122324989169051e+001
 2.685625918993101e+000	 1.917658317676889e+000	 1.128001035322482e+001
 2.665753233382704e+000	 1.945188859422040e+000	 1.131652919415405e+001
 2.645582110730756e+000	 1.972535245687052e+000	 1.133107520427696e+001
 2.625115088009401e+000	 1.999692670083904e+000	 1.132190642691898e+001
 2.604354804603558e+000	 2.026656372403878e+000	 1.128727345990039e+001
 2.583304001269785e+000	 2.053421641328146e+000	 1.122542283313986e+001
 2.561965519009508e+000	 2.079983817110463e+000	 1.113460045538938e+001
 2.783010074833148e+000	 1.819472430009495e+000	 1.140515305461553e+001
 2.764213096605592e+000	 1.847904477165892e+000	 1.126807179122874e+001
 2.745106245491621e+000	 1.876170754789071e+000	 1.112960445076651e+001
 2.725691656187288e+000	 1.904266261724017e+000	 1.117856985795541e+001
 2.705971569897559e+000	 1.932186032203232e+000	 1.121458575987352e+001
 2.685948333638543e+000	 1.959925138658267e+000	 1.123598034187809e+001
 2.665624399451278e+000	 1.987478694515986e+000	 1.124106182351451e+001
 2.645002323527392e+000	 2.014841856976338e+000	 1.122812163416208e+001
 2.624084765247146e+000	 2.042009829768417e+000	 1.119543768153088e+001
 2.602874486130406e+000	 2.068977865881587e+000	 1.114127770589976e+001
 2.581374348701332e+000	 2.095741270268494e+000	 1.106390271263336e+001
 2.803934962615832e+000	 1.833152673844316e+000	 1.135958729706907e+001
 2.784996653724944e+000	 1.861798495790774e+000	 1.118666938615523e+001
 2.765746142076302e+000	 1.890277301816630e+000	 1.112057040411836e+001
 2.746185578416309e+000	 1.918584053164202e+000	 1.114517603984583e+001
 2.726317220801096e+000	 1.946713746729393e+000	 1.116233632431635e+001
 2.706143433893507e+000	 1.974661417894369e+000	 1.117042302800344e+001
 2.685666688170979e+000	 2.002422143344840e+000	 1.116778197675961e+001
 2.664889559044630e+000	 2.029991043868727e+000	 1.115273618829536e+001
 2.643814725890055e+000	 2.057363287132936e+000	 1.112358911055457e+001
 2.622444970990430e+000	 2.084534090435022e+000	 1.107862795493542e+001
 2.600783178392654e+000	 2.111498723426525e+000	 1.101612711693374e+001
 2.824859850397516e+000	 1.846832917678635e+000	 1.132001040689829e+001
 2.805780210843301e+000	 1.875692514415249e+000	 1.111820938435664e+001
 2.786386038660004e+000	 1.904383848843868e+000	 1.112083814147464e+001
 2.766679500644376e+000	 1.932901844604140e+000	 1.112300863346532e+001
 2.746662871703712e+000	 1.961241461255373e+000	 1.112316926811602e+001
 2.726338534147595e+000	 1.989397697130343e+000	 1.111973356966092e+001
 2.705708976889859e+000	 2.017365592173613e+000	 1.111108316089555e+001
 2.684776794561110e+000	 2.045140230761071e+000	 1.109557086282000e+001
 2.663544686532283e+000	 2.072716744497435e+000	 1.107152390522934e+001
 2.642015455849858e+000	 2.100090314988453e+000	 1.103724724125544e+001
 2.620192008083476e+000	 2.127256176584556e+000	 1.099102695847092e+001
 2.845784738178201e+000	 1.860513161512450e+000	 1.128691251276756e+001
 2.826563767960662e+000	 1.889586533039316e+000	 1.115361542621292e+001
 2.807025935242726e+000	 1.918490395870783e+000	 1.113037680119185e+001
 2.787173422871487e+000	 1.947219636043831e+000	 1.111200291576005e+001
 2.767008522605408e+000	 1.975769175781172e+000	 1.109698800756056e+001
 2.746533634400807e+000	 2.004133976366192e+000	 1.108378553801436e+001
 2.725751265607919e+000	 2.032309041002304e+000	 1.107081113092994e+001
 2.704664030076833e+000	 2.060289417653368e+000	 1.105644563762751e+001
 2.683274647173827e+000	 2.088070201861913e+000	 1.103903832206919e+001
 2.661585940708689e+000	 2.115646539541879e+000	 1.101691015904892e+001
 2.639600837773796e+000	 2.143013629742586e+000	 1.098835723808315e+001
 2.866709625957885e+000	 1.874193405345763e+000	 1.126077547517023e+001
 2.847347325077028e+000	 1.903480551662975e+000	 1.119633474288070e+001
 2.827665831824468e+000	 1.932596942897376e+000	 1.114914965683659e+001
 2.807667345097644e+000	 1.961537427483275e+000	 1.111208942405001e+001
 2.787354173506183e+000	 1.990296890306788e+000	 1.108369229254180e+001
 2.766728734653144e+000	 2.018870255601915e+000	 1.106244985847831e+001
 2.745793554325158e+000	 2.047252489830916e+000	 1.104680996356651e+001
 2.724551265591801e+000	 2.075438604545620e+000	 1.103517972796332e+001
 2.703004607814691e+000	 2.103423659226372e+000	 1.102592871225780e+001
 2.681156425566925e+000	 2.131202764095299e+000	 1.101739220162769e+001
 2.659009667463616e+000	 2.158771082900617e+000	 1.100787460483401e+001
 2.887634513736569e+000	 1.887873649178574e+000	 1.133229093964980e+001
 2.868130882192400e+000	 1.917374570286227e+000	 1.124635849146534e+001
 2.848305728405229e+000	 1.946703489923646e+000	 1.117711432967786e+001
 2.828161267322845e+000	 1.975855218922473e+000	 1.112319412775473e+001
 2.807699824406037e+000	 2.004824604832223e+000	 1.108317833939586e+001
 2.786923834904605e+000	 2.033606534837511e+000	 1.105559490657854e+001
 2.765835843041575e+000	 2.062195938659446e+000	 1.103892211801359e+001
 2.744438501106013e+000	 2.090587791437827e+000	 1.103159161213155e+001
 2.722734568454874e+000	 2.118777116590810e+000	 1.103199151821887e+001
 2.700726910424563e+000	 2.146758988648714e+000	 1.103846972884940e+001
 2.678418497152933e+000	 2.174528536058647e+000	 1.104933729629398e+001
 2.908559401514253e+000	 1.901553893010882e+000	 1.141490158961908e+001
 2.888914439306776e+000	 1.931268588909071e+000	 1.130367128708457e+001
 2.868945624985011e+000	 1.960810036949594e+000	 1.121422299200732e+001
 2.848655189547090e+000	 1.990173010361423e+000	 1.114523859270604e+001
 2.828045475304971e+000	 2.019352319357475e+000	 1.109533895800947e+001
 2.807118935155189e+000	 2.048342814072981e+000	 1.106308659967446e+001
 2.785878131757173e+000	 2.077139387487895e+000	 1.104698849416707e+001
 2.764325736619468e+000	 2.105736978329987e+000	 1.104549905800354e+001
 2.742464529094376e+000	 2.134130573955227e+000	 1.105702327033369e+001
 2.720297395281607e+000	 2.162315213202125e+000	 1.107991993594693e+001
 2.697827326841749e+000	 2.190285989216679e+000	 1.111250508139985e+001
 2.929484289290938e+000	 1.915234136842687e+000	 1.150290044763125e+001
 2.909697996420158e+000	 1.945162607531509e+000	 1.136825143651094e+001
 2.889585521563813e+000	 1.974916583975221e+000	 1.126042256174551e+001
 2.869149111770381e+000	 2.004490801800127e+000	 1.117814013841934e+001
 2.848391126202986e+000	 2.033880033882548e+000	 1.112006367347879e+001
 2.827314035404899e+000	 2.063079093308325e+000	 1.108478848475135e+001
 2.805920420471948e+000	 2.092082836316264e+000	 1.107084848830034e+001
 2.784212972132169e+000	 2.120886165222104e+000	 1.107671914839061e+001
 2.762194489733197e+000	 2.149484031319626e+000	 1.110082058380028e+001
 2.739867880138053e+000	 2.177871437755531e+000	 1.114152082369341e+001
 2.717236156530065e+000	 2.206043442374710e+000	 1.119713920576325e+001
 2.523147859624355e+000	 2.048468910794402e+000	 1.134575816940646e+001
 2.501852263035922e+000	 2.074424077653029e+000	 1.136149445417229e+001
 2.480279233527257e+000	 2.100170213036469e+000	 1.143021006684922e+001
 2.458431857744017e+000	 2.125702895705409e+000	 1.148054514062756e+001
 2.436313315794467e+000	 2.151017765443551e+000	 1.150586740886410e+001
 2.413926879733346e+000	 2.176110525516454e+000	 1.150715446574868e+001
 2.391275911968415e+000	 2.200976945084876e+000	 1.148546750029018e+001
 2.368363863591268e+000	 2.225612861569795e+000	 1.144194941295707e+001
 2.345194272634155e+000	 2.250014182966333e+000	 1.137782271478015e+001
 2.321770762254631e+000	 2.274176890103911e+000	 1.129438721349139e+001
 2.298097038850000e+000	 2.298097038850000e+000	 1.119301749195601e+001
 2.542556689317182e+000	 2.064226363952433e+000	 1.122846883097172e+001
 2.521097280446934e+000	 2.090381185940973e+000	 1.125783905245756e+001
 2.499358304557080e+000	 2.116325368519901e+000	 1.126073679256629e+001
 2.477342872036708e+000	 2.142054456440371e+000	 1.132615142334871e+001
 2.455054187456452e+000	 2.167564055945961e+000	 1.136382470633114e+001
 2.432495548040706e+000	 2.192849837250425e+000	 1.137478214141236e+001
 2.409670342061903e+000	 2.217907536969606e+000	 1.136013722098816e+001
 2.386582047158497e+000	 2.242732960504638e+000	 1.132108947751888e+001
 2.363234228578370e+000	 2.267321984373689e+000	 1.125892230509725e+001
 2.339630537349519e+000	 2.291670558489479e+000	 1.117500055973744e+001
 2.315774708380000e+000	 2.315774708380000e+000	 1.107076794381379e+001
 2.561965519009508e+000	 2.079983817110463e+000	 1.113460045538938e+001
 2.540342297857539e+000	 2.106338294228916e+000	 1.117830736664827e+001
 2.518437375586582e+000	 2.132480524003332e+000	 1.119084192036256e+001
 2.496253886329154e+000	 2.158406017175334e+000	 1.118769043609164e+001
 2.473795059118257e+000	 2.184110346448371e+000	 1.123818037840997e+001
 2.451064216347940e+000	 2.209589148984396e+000	 1.125925879059603e+001
 2.428064772155310e+000	 2.234838128854334e+000	 1.125209177333433e+001
 2.404800230725680e+000	 2.259853059439482e+000	 1.121793584009003e+001
 2.381274184522564e+000	 2.284629785781045e+000	 1.115813566044676e+001
 2.357490312444404e+000	 2.309164226875048e+000	 1.107412157375279e+001
 2.333452377910000e+000	 2.333452377910000e+000	 1.096740687867655e+001
 2.581374348701332e+000	 2.095741270268494e+000	 1.106390271263336e+001
 2.559587315267738e+000	 2.122295402516860e+000	 1.112264463794163e+001
 2.537516446615763e+000	 2.148635679486764e+000	 1.114832067938469e+001
 2.515164900621352e+000	 2.174757577910296e+000	 1.113913295553029e+001
 2.492535930779882e+000	 2.200656636950781e+000	 1.112984959033331e+001
 2.469632884655049e+000	 2.226328460718368e+000	 1.116148399950159e+001
 2.446459202248638e+000	 2.251768720739062e+000	 1.116221403527213e+001
 2.423018414292819e+000	 2.276973158374326e+000	 1.113335355271827e+001
 2.399314140466739e+000	 2.301937587188401e+000	 1.107630890192266e+001
 2.375350087539283e+000	 2.326657895260616e+000	 1.099257635417336e+001
 2.351130047440000e+000	 2.351130047440000e+000	 1.088373929573123e+001
 2.600783178392654e+000	 2.111498723426525e+000	 1.101612711693374e+001
 2.578832332677530e+000	 2.138252510804803e+000	 1.109059826989254e+001
 2.556595517644623e+000	 2.164790834970196e+000	 1.113013919534753e+001
 2.534075914913305e+000	 2.191109138645258e+000	 1.113291590910689e+001
 2.511276802441326e+000	 2.217202927453191e+000	 1.109710796994669e+001
 2.488201552962032e+000	 2.243067772452339e+000	 1.108236096105723e+001
 2.464853632341884e+000	 2.268699312623791e+000	 1.109139089478076e+001
 2.441236597859911e+000	 2.294093257309170e+000	 1.106821209733512e+001
 2.417354096410893e+000	 2.319245388595757e+000	 1.101429301669604e+001
 2.393209862634156e+000	 2.344151563646185e+000	 1.093119631804730e+001
 2.368807716970000e+000	 2.368807716970000e+000	 1.082057598083898e+001
 2.620192008083476e+000	 2.127256176584556e+000	 1.099102695847092e+001
 2.598077350086916e+000	 2.154209619092746e+000	 1.108191774832635e+001
 2.575674588673162e+000	 2.180945990453628e+000	 1.113604275788223e+001
 2.552986929205012e+000	 2.207460699380220e+000	 1.115153071411667e+001
 2.530017674102588e+000	 2.233749217955600e+000	 1.112652507223416e+001
 2.506770221268889e+000	 2.259807084186310e+000	 1.105918793716491e+001
 2.483248062435051e+000	 2.285629904508520e+000	 1.104051310135514e+001
 2.459454781426959e+000	 2.311213356244014e+000	 1.102338522168594e+001
 2.435394052355028e+000	 2.336553190003113e+000	 1.097294367779005e+001
 2.411069637729026e+000	 2.361645232031754e+000	 1.089081800385644e+001
 2.386485386499999e+000	 2.386485386500000e+000	 1.077873329221395e+001
 2.639600837773796e+000	 2.143013629742586e+000	 1.098835723808315e+001
 2.617322367495897e+000	 2.170166727380690e+000	 1.109635456478459e+001
 2.594753659701379e+000	 2.197101145937059e+000	 1.116577897347829e+001
 2.571897943496474e+000	 2.223812260115182e+000	 1.119472071103660e+001
 2.548758545763670e+000	 2.250295508458010e+000	 1.118128590750164e+001
 2.525338889575621e+000	 2.276546395920281e+000	 1.112360058174289e+001
 2.501642492528136e+000	 2.302560496393248e+000	 1.101981466663806e+001
 2.477672964993961e+000	 2.328333455178858e+000	 1.099975078249874e+001
 2.453434008299142e+000	 2.353860991410469e+000	 1.095312107180600e+001
 2.428929412823889e+000	 2.379138900417321e+000	 1.087228288322860e+001
 2.404163056029999e+000	 2.404163056029999e+000	 1.075903295555718e+001
 2.659009667463616e+000	 2.158771082900617e+000	 1.100787460483401e+001
 2.636567384904470e+000	 2.186123835668633e+000	 1.113366214332394e+001
 2.613832730729276e+000	 2.213256301420490e+000	 1.121909768092636e+001
 2.590808957787688e+000	 2.240163820850145e+000	 1.126223178780479e+001
 2.567499417424571e+000	 2.266841798960420e+000	 1.126113204206678e+001
 2.543907557882227e+000	 2.293285707654252e+000	 1.121388712138542e+001
 2.520036922621142e+000	 2.319491088277977e+000	 1.111861091356896e+001
 2.495891148560919e+000	 2.345453554113702e+000	 1.099819059552110e+001
 2.471473964243236e+000	 2.371168792817825e+000	 1.095568973419394e+001
 2.446789187918748e+000	 2.396632568802890e+000	 1.087643718089547e+001
 2.421840725560000e+000	 2.421840725560000e+000	 1.076230186816312e+001
 2.678418497152933e+000	 2.174528536058647e+000	 1.104933729629398e+001
 2.655812402312637e+000	 2.202080943956577e+000	 1.119359577049729e+001
 2.632911801756850e+000	 2.229411456903922e+000	 1.129575087043809e+001
 2.609719972078657e+000	 2.256515381585107e+000	 1.135381228752100e+001
 2.586240289085291e+000	 2.283388089462830e+000	 1.136580781583796e+001
 2.562476226188708e+000	 2.310025019388223e+000	 1.132978753156837e+001
 2.538431352714067e+000	 2.336421680162705e+000	 1.124382799080644e+001
 2.514109332127831e+000	 2.362573653048545e+000	 1.110603643542437e+001
 2.489513920187310e+000	 2.388476594225181e+000	 1.098151839168605e+001
 2.464648963013601e+000	 2.414126237188458e+000	 1.090413170247892e+001
 2.439518395090000e+000	 2.439518395090000e+000	 1.078937191154299e+001
 2.697827326841749e+000	 2.190285989216679e+000	 1.111250508139985e+001
 2.675057419720397e+000	 2.218038052244520e+000	 1.127591252835765e+001
 2.651990872784105e+000	 2.245566612387353e+000	 1.139549260625658e+001
 2.628630986369381e+000	 2.272866942320069e+000	 1.146921292013171e+001
 2.604981160745831e+000	 2.299934379965240e+000	 1.149506024254484e+001
 2.581044894495063e+000	 2.326764331122194e+000	 1.147104478259007e+001
 2.556825782806911e+000	 2.353352272047435e+000	 1.139520447285819e+001
 2.532327515694697e+000	 2.379693751983389e+000	 1.126560926374372e+001
 2.507553876131364e+000	 2.405784395632537e+000	 1.108036541434819e+001
 2.482508738108451e+000	 2.431619905574027e+000	 1.095622166971082e+001
 2.457196064620000e+000	 2.457196064620000e+000	 1.084107977213633e+001
 2.717236156530065e+000	 2.206043442374710e+000	 1.119713920576325e+001
 2.694302437127753e+000	 2.233995160532463e+000	 1.138037123033299e+001
 2.671069943811037e+000	 2.261721767870785e+000	 1.151807895258409e+001
 2.647542000659859e+000	 2.289218503055032e+000	 1.160818667789972e+001
 2.623722032406191e+000	 2.316480670467651e+000	 1.164863891424467e+001
 2.599613562801293e+000	 2.343503642856166e+000	 1.163740473261340e+001
 2.575220212899677e+000	 2.370282863932164e+000	 1.157248214502154e+001
 2.550545699261520e+000	 2.396813850918234e+000	 1.145190248919646e+001
 2.525593832075398e+000	 2.423092197039894e+000	 1.127373480898982e+001
 2.500368513203295e+000	 2.449113573959596e+000	 1.103609021944011e+001
 2.474873734150000e+000	 2.474873734150000e+000	 1.091826676970657e+001
 2.298097038850000e+000	 2.298097038850000e+000	 1.119301749195601e+001
 2.274176890103912e+000	 2.321770762254630e+000	 1.117810590560906e+001
 2.250014182966333e+000	 2.345194272634154e+000	 1.114685870207904e+001
 2.225612861569796e+000	 2.368363863591268e+000	 1.110118549653356e+001
 2.200976945084877e+000	 2.391275911968414e+000	 1.104305873688659e+001
 2.176110525516455e+000	 2.413926879733346e+000	 1.097450988539928e+001
 2.151017765443552e+000	 2.436313315794465e+000	 1.089762543834001e+001
 2.125702895705410e+000	 2.458431857744016e+000	 1.081454279375031e+001
 2.100170213036470e+000	 2.480279233527256e+000	 1.072744597784113e+001
 2.074424077653031e+000	 2.501852263035922e+000	 1.065789344394147e+001
 2.048468910794402e+000	 2.523147859624355e+000	 1.078876055240949e+001
 2.315774708380000e+000	 2.315774708380000e+000	 1.107076794381379e+001
 2.291670558489480e+000	 2.339630537349518e+000	 1.105772931208133e+001
 2.267321984373690e+000	 2.363234228578369e+000	 1.102599057135855e+001
 2.242732960504639e+000	 2.386582047158496e+000	 1.097744780839227e+001
 2.217907536969606e+000	 2.409670342061902e+000	 1.091406380572026e+001
 2.192849837250426e+000	 2.432495548040705e+000	 1.083786419181497e+001
 2.167564055945962e+000	 2.455054187456451e+000	 1.075093342205601e+001
 2.142054456440372e+000	 2.477342872036707e+000	 1.065541060072682e+001
 2.116325368519902e+000	 2.499358304557080e+000	 1.055348515472684e+001
 2.090381185940974e+000	 2.521097280446933e+000	 1.066838705452855e+001
 2.064226363952433e+000	 2.542556689317182e+000	 1.078048396207724e+001
 2.333452377910000e+000	 2.333452377910000e+000	 1.096740687867655e+001
 2.309164226875049e+000	 2.357490312444403e+000	 1.095435984268854e+001
 2.284629785781046e+000	 2.381274184522563e+000	 1.092023793781041e+001
 2.259853059439484e+000	 2.404800230725680e+000	 1.086692540202096e+001
 2.234838128854335e+000	 2.428064772155310e+000	 1.079637706702654e+001
 2.209589148984398e+000	 2.451064216347938e+000	 1.071061447464705e+001
 2.184110346448372e+000	 2.473795059118257e+000	 1.061172181672558e+001
 2.158406017175334e+000	 2.496253886329152e+000	 1.050184170891103e+001
 2.132480524003333e+000	 2.518437375586581e+000	 1.057777869990306e+001
 2.106338294228917e+000	 2.540342297857538e+000	 1.068171087605608e+001
 2.079983817110463e+000	 2.561965519009508e+000	 1.077367993559870e+001
 2.351130047440000e+000	 2.351130047440000e+000	 1.088373929573123e+001
 2.326657895260617e+000	 2.375350087539281e+000	 1.086883107858369e+001
 2.301937587188402e+000	 2.399314140466737e+000	 1.083046188004434e+001
 2.276973158374327e+000	 2.423018414292818e+000	 1.077050576181099e+001
 2.251768720739064e+000	 2.446459202248638e+000	 1.069091131307321e+001
 2.226328460718368e+000	 2.469632884655047e+000	 1.059369773084008e+001
 2.200656636950782e+000	 2.492535930779881e+000	 1.048095071640934e+001
 2.174757577910297e+000	 2.515164900621351e+000	 1.051475518828837e+001
 2.148635679486765e+000	 2.537516446615762e+000	 1.061351085194106e+001
 2.122295402516861e+000	 2.559587315267736e+000	 1.069836861742058e+001
 2.095741270268495e+000	 2.581374348701332e+000	 1.076888369845027e+001
 2.368807716970000e+000	 2.368807716970000e+000	 1.082057598083898e+001
 2.344151563646185e+000	 2.393209862634155e+000	 1.080198135684368e+001
 2.319245388595758e+000	 2.417354096410892e+000	 1.075752721848621e+001
 2.294093257309171e+000	 2.441236597859911e+000	 1.068907911698946e+001
 2.268699312623792e+000	 2.464853632341884e+000	 1.059858110158532e+001
 2.243067772452340e+000	 2.488201552962031e+000	 1.048805176148134e+001
 2.217202927453192e+000	 2.511276802441325e+000	 1.047739833796443e+001
 2.191109138645259e+000	 2.534075914913304e+000	 1.057370843497505e+001
 2.164790834970197e+000	 2.556595517644622e+000	 1.065438399873102e+001
 2.138252510804804e+000	 2.578832332677529e+000	 1.071886113585561e+001
 2.111498723426525e+000	 2.600783178392654e+000	 1.076662675994826e+001
 2.386485386499999e+000	 2.386485386500000e+000	 1.077873329221395e+001
 2.361645232031754e+000	 2.411069637729024e+000	 1.075465359432391e+001
 2.336553190003114e+000	 2.435394052355026e+000	 1.070230237679216e+001
 2.311213356244015e+000	 2.459454781426958e+000	 1.062353833995898e+001
 2.285629904508521e+000	 2.483248062435050e+000	 1.052030269035794e+001
 2.259807084186311e+000	 2.506770221268889e+000	 1.046406113660798e+001
 2.233749217955602e+000	 2.530017674102587e+000	 1.056039123616776e+001
 2.207460699380221e+000	 2.552986929205011e+000	 1.063955532810927e+001
 2.180945990453628e+000	 2.575674588673162e+000	 1.070086554278142e+001
 2.154209619092748e+000	 2.598077350086915e+000	 1.074368654254899e+001
 2.127256176584556e+000	 2.620192008083476e+000	 1.076743705088438e+001
 2.404163056029999e+000	 2.404163056029999e+000	 1.075903295555718e+001
 2.379138900417322e+000	 2.428929412823889e+000	 1.072769511928422e+001
 2.353860991410470e+000	 2.453434008299141e+000	 1.066565924937694e+001
 2.328333455178859e+000	 2.477672964993961e+000	 1.057477884912182e+001
 2.302560496393249e+000	 2.501642492528135e+000	 1.047337668752430e+001
 2.276546395920282e+000	 2.525338889575620e+000	 1.057191913873965e+001
 2.250295508458011e+000	 2.548758545763669e+000	 1.065197592853476e+001
 2.223812260115184e+000	 2.571897943496472e+000	 1.071273070413148e+001
 2.197101145937060e+000	 2.594753659701378e+000	 1.075342106210973e+001
 2.170166727380690e+000	 2.617322367495895e+000	 1.077334030360024e+001
 2.143013629742586e+000	 2.639600837773797e+000	 1.077183905508923e+001
 2.421840725560000e+000	 2.421840725560000e+000	 1.076230186816312e+001
 2.396632568802890e+000	 2.446789187918747e+000	 1.072195751038865e+001
 2.371168792817826e+000	 2.471473964243235e+000	 1.064847307474384e+001
 2.345453554113703e+000	 2.495891148560918e+000	 1.054369851596039e+001
 2.319491088277979e+000	 2.520036922621141e+000	 1.060693339348974e+001
 2.293285707654253e+000	 2.543907557882227e+000	 1.069001255913882e+001
 2.266841798960421e+000	 2.567499417424570e+000	 1.075255555007115e+001
 2.240163820850145e+000	 2.590808957787687e+000	 1.079366844991185e+001
 2.213256301420491e+000	 2.613832730729275e+000	 1.081251437682959e+001
 2.186123835668634e+000	 2.636567384904469e+000	 1.080831533655674e+001
 2.158771082900617e+000	 2.659009667463616e+000	 1.078035393523380e+001
 2.439518395090000e+000	 2.439518395090000e+000	 1.078937191154299e+001
 2.414126237188460e+000	 2.464648963013600e+000	 1.073829644270527e+001
 2.388476594225182e+000	 2.489513920187309e+000	 1.065162231432215e+001
 2.362573653048546e+000	 2.514109332127829e+000	 1.066436556685349e+001
 2.336421680162707e+000	 2.538431352714066e+000	 1.075231465941316e+001
 2.310025019388224e+000	 2.562476226188708e+000	 1.081871367281644e+001
 2.283388089462831e+000	 2.586240289085291e+000	 1.086253311635283e+001
 2.256515381585108e+000	 2.609719972078657e+000	 1.088280153715494e+001
 2.229411456903923e+000	 2.632911801756850e+000	 1.087860761284316e+001
 2.202080943956577e+000	 2.655812402312636e+000	 1.084910210275254e+001
 2.174528536058648e+000	 2.678418497152933e+000	 1.079349965316126e+001
 2.457196064620000e+000	 2.457196064620000e+000	 1.084107977213633e+001
 2.431619905574028e+000	 2.482508738108450e+000	 1.077757154035348e+001
 2.405784395632538e+000	 2.507553876131362e+000	 1.074344630559629e+001
 2.379693751983390e+000	 2.532327515694696e+000	 1.083782343939640e+001
 2.353352272047436e+000	 2.556825782806911e+000	 1.090986271937883e+001
 2.326764331122195e+000	 2.581044894495062e+000	 1.095839542249825e+001
 2.299934379965241e+000	 2.604981160745830e+000	 1.098231152782189e+001
 2.272866942320070e+000	 2.628630986369379e+000	 1.098056205531949e+001
 2.245566612387354e+000	 2.651990872784104e+000	 1.095216126278382e+001
 2.218038052244521e+000	 2.675057419720397e+000	 1.089618869566136e+001
 2.190285989216679e+000	 2.697827326841749e+000	 1.081179108502473e+001
 2.474873734150000e+000	 2.474873734150000e+000	 1.091826676970657e+001
 2.449113573959596e+000	 2.500368513203294e+000	 1.084371388237419e+001
 2.423092197039895e+000	 2.525593832075397e+000	 1.094578077954319e+001
 2.396813850918235e+000	 2.550545699261519e+000	 1.102495362353571e+001
 2.370282863932165e+000	 2.575220212899675e+000	 1.107992122105265e+001
 2.343503642856167e+000	 2.599613562801293e+000	 1.110943139477769e+001
 2.316480670467652e+000	 2.623722032406190e+000	 1.111229357389840e+001
 2.289218503055033e+000	 2.647542000659857e+000	 1.108738124312696e+001
 2.261721767870786e+000	 2.671069943811037e+000	 1.103363424434725e+001
 2.233995160532465e+000	 2.694302437127753e+000	 1.095006092546310e+001
 2.206043442374710e+000	 2.717236156530064e+000	 1.083574013149050e+001
 2.048468910794402e+000	 2.523147859624355e+000	 1.078876055240949e+001
 2.022309192221251e+000	 2.544163031546754e+000	 1.082186574321821e+001
 1.995949457674740e+000	 2.564894883314335e+000	 1.083760455779346e+001
 1.969394296298900e+000	 2.585340616971147e+000	 1.083566886945514e+001
 1.942648348028941e+000	 2.605497533287247e+000	 1.081580434685968e+001
 1.915716300949207e+000	 2.625363032868397e+000	 1.077781112690690e+001
 1.888602888623659e+000	 2.644934617181425e+000	 1.072154435735176e+001
 1.861312887401979e+000	 2.664209889494488e+000	 1.062844071835841e+001
 1.833851113704458e+000	 2.683186555731692e+000	 1.050309931787426e+001
 1.806222421288801e+000	 2.701862425241567e+000	 1.036768077147127e+001
 1.778431698502015e+000	 2.720235411479095e+000	 1.022484293787357e+001
 2.064226363952433e+000	 2.542556689317182e+000	 1.078048396207724e+001
 2.037865416774701e+000	 2.563733516408568e+000	 1.079125920884903e+001
 2.011302915039320e+000	 2.584624843959287e+000	 1.078781647555124e+001
 1.984543483191425e+000	 2.605227852490651e+000	 1.076991961393232e+001
 1.957591796858037e+000	 2.625539822009411e+000	 1.073738382684488e+001
 1.930452580185687e+000	 2.645558133125988e+000	 1.069007629396540e+001
 1.903130603150365e+000	 2.665280268087723e+000	 1.062791666948208e+001
 1.875630678842905e+000	 2.684703811726376e+000	 1.055087745102361e+001
 1.847957660732985e+000	 2.703826452319315e+000	 1.043142991463600e+001
 1.820116439914906e+000	 2.722645982363904e+000	 1.030546868072880e+001
 1.792111942338345e+000	 2.741160299264779e+000	 1.017651567899318e+001
 2.079983817110463e+000	 2.561965519009508e+000	 1.077367993559870e+001
 2.053421641328147e+000	 2.583304001269784e+000	 1.076426074809477e+001
 2.026656372403879e+000	 2.604354804603557e+000	 1.074369753252538e+001
 1.999692670083905e+000	 2.625115088009400e+000	 1.071182483958796e+001
 1.972535245687052e+000	 2.645582110730754e+000	 1.066852619591756e+001
 1.945188859422041e+000	 2.665753233382703e+000	 1.061373468370918e+001
 1.917658317676890e+000	 2.685625918993101e+000	 1.054743339446017e+001
 1.889948470283585e+000	 2.705197733957309e+000	 1.046965575615061e+001
 1.862064207761189e+000	 2.724466348905958e+000	 1.037004986459069e+001
 1.834010458540604e+000	 2.743429539485245e+000	 1.025454729362913e+001
 1.805792186174171e+000	 2.762085187049463e+000	 1.014041518228888e+001
 2.095741270268495e+000	 2.581374348701332e+000	 1.076888369845027e+001
 2.068977865881588e+000	 2.602874486130406e+000	 1.074135765156961e+001
 2.042009829768418e+000	 2.624084765247146e+000	 1.070568809276439e+001
 2.014841856976339e+000	 2.645002323527392e+000	 1.066177900955965e+001
 1.987478694515987e+000	 2.665624399451277e+000	 1.060958105873792e+001
 1.959925138658268e+000	 2.685948333638542e+000	 1.054909210094389e+001
 1.932186032203233e+000	 2.705971569897558e+000	 1.048035761144960e+001
 1.904266261724018e+000	 2.725691656187287e+000	 1.040347096644124e+001
 1.876170754789071e+000	 2.745106245491619e+000	 1.031857360457989e+001
 1.847904477165894e+000	 2.764213096605592e+000	 1.021517817768103e+001
 1.819472430009494e+000	 2.783010074833148e+000	 1.011675166611402e+001
 2.111498723426525e+000	 2.600783178392654e+000	 1.076662675994826e+001
 2.084534090435024e+000	 2.622444970990429e+000	 1.072303499324913e+001
 2.057363287132937e+000	 2.643814725890054e+000	 1.067422776531318e+001
 2.029991043868728e+000	 2.664889559044629e+000	 1.062017725509925e+001
 2.002422143344841e+000	 2.685666688170979e+000	 1.056090007207721e+001
 1.974661417894370e+000	 2.706143433893506e+000	 1.049645774688459e+001
 1.946713746729394e+000	 2.726317220801094e+000	 1.042695710007327e+001
 1.918584053164202e+000	 2.746185578416308e+000	 1.035255048834884e+001
 1.890277301816631e+000	 2.765746142076301e+000	 1.027343592809737e+001
 1.861798495790775e+000	 2.784996653724944e+000	 1.018763126643121e+001
 1.833152673844316e+000	 2.803934962615831e+000	 1.010574485297640e+001
 2.127256176584556e+000	 2.620192008083476e+000	 1.076743705088438e+001
 2.100090314988453e+000	 2.642015455849857e+000	 1.070977571256788e+001
 2.072716744497436e+000	 2.663544686532280e+000	 1.064975543217606e+001
 2.045140230761071e+000	 2.684776794561109e+000	 1.058741535082804e+001
 2.017365592173614e+000	 2.705708976889859e+000	 1.052283686881370e+001
 1.989397697130344e+000	 2.726338534147595e+000	 1.045614409336287e+001
 1.961241461255374e+000	 2.746662871703711e+000	 1.038750416632241e+001
 1.932901844604141e+000	 2.766679500644375e+000	 1.031712747118631e+001
 1.904383848843869e+000	 2.786386038660004e+000	 1.024526771931311e+001
 1.875692514415250e+000	 2.805780210843299e+000	 1.017222191555164e+001
 1.846832917678635e+000	 2.824859850397516e+000	 1.010762361753267e+001
 2.143013629742586e+000	 2.639600837773797e+000	 1.077183905508923e+001
 2.115646539541880e+000	 2.661585940708688e+000	 1.070206069289527e+001
 2.088070201861914e+000	 2.683274647173827e+000	 1.063270927504632e+001
 2.060289417653368e+000	 2.704664030076832e+000	 1.056388969108338e+001
 2.032309041002306e+000	 2.725751265607919e+000	 1.049574698528174e+001
 2.004133976366193e+000	 2.746533634400806e+000	 1.042846676258351e+001
 1.975769175781172e+000	 2.767008522605407e+000	 1.036227547614599e+001
 1.947219636043832e+000	 2.787173422871487e+000	 1.029744059599168e+001
 1.918490395870784e+000	 2.807025935242725e+000	 1.023427065863375e+001
 1.889586533039317e+000	 2.826563767960661e+000	 1.017311519793643e+001
 1.860513161512450e+000	 2.845784738178200e+000	 1.012262565011232e+001
 2.158771082900617e+000	 2.659009667463616e+000	 1.078035393523380e+001
 2.131202764095300e+000	 2.681156425566923e+000	 1.070036883657435e+001
 2.103423659226372e+000	 2.703004607814691e+000	 1.062352680086485e+001
 2.075438604545621e+000	 2.724551265591801e+000	 1.054999726730133e+001
 2.047252489830917e+000	 2.745793554325157e+000	 1.047998779180245e+001
 2.018870255601916e+000	 2.766728734653142e+000	 1.041374441214748e+001
 1.990296890306789e+000	 2.787354173506182e+000	 1.035155189632815e+001
 1.961537427483277e+000	 2.807667345097643e+000	 1.029373387364028e+001
 1.932596942897377e+000	 2.827665831824467e+000	 1.024065284842681e+001
 1.903480551662976e+000	 2.847347325077028e+000	 1.019271009677056e+001
 1.874193405345763e+000	 2.866709625957885e+000	 1.015099713497765e+001
 2.174528536058648e+000	 2.678418497152933e+000	 1.079349965316126e+001
 2.146758988648715e+000	 2.700726910424563e+000	 1.070517713669821e+001
 2.118777116590811e+000	 2.722734568454874e+000	 1.062264486626783e+001
 2.090587791437828e+000	 2.744438501106012e+000	 1.054613564638266e+001
 2.062195938659447e+000	 2.765835843041575e+000	 1.047591842623498e+001
 2.033606534837512e+000	 2.786923834904603e+000	 1.041229862507362e+001
 2.004824604832224e+000	 2.807699824406037e+000	 1.035561834228397e+001
 1.975855218922475e+000	 2.828161267322845e+000	 1.030625645173465e+001
 1.946703489923648e+000	 2.848305728405229e+000	 1.026462858034101e+001
 1.917374570286228e+000	 2.868130882192399e+000	 1.023118697118083e+001
 1.887873649178574e+000	 2.887634513736569e+000	 1.020642023187779e+001
 2.190285989216679e+000	 2.697827326841749e+000	 1.081179108502473e+001
 2.162315213202126e+000	 2.720297395281605e+000	 1.071696074578791e+001
 2.134130573955228e+000	 2.742464529094375e+000	 1.063049970097889e+001
 2.105736978329988e+000	 2.764325736619468e+000	 1.055270294999272e+001
 2.077139387487896e+000	 2.785878131757171e+000	 1.048389973039599e+001
 2.048342814072981e+000	 2.807118935155188e+000	 1.042445380456804e+001
 2.019352319357477e+000	 2.828045475304971e+000	 1.037476363242540e+001
 1.990173010361424e+000	 2.848655189547089e+000	 1.033526242983029e+001
 1.960810036949596e+000	 2.868945624985010e+000	 1.030641811267021e+001
 1.931268588909073e+000	 2.888914439306776e+000	 1.028873312698083e+001
 1.901553893010882e+000	 2.908559401514253e+000	 1.028274416586467e+001
 2.206043442374710e+000	 2.717236156530064e+000	 1.083574013149050e+001
 2.177871437755532e+000	 2.739867880138052e+000	 1.073619304152743e+001
 2.149484031319626e+000	 2.762194489733196e+000	 1.064752693019886e+001
 2.120886165222105e+000	 2.784212972132167e+000	 1.057009783474825e+001
 2.092082836316265e+000	 2.805920420471948e+000	 1.050429418920400e+001
 2.063079093308326e+000	 2.827314035404899e+000	 1.045053707330290e+001
 2.033880033882549e+000	 2.848391126202985e+000	 1.040928034876835e+001
 2.004490801800128e+000	 2.869149111770380e+000	 1.038101068258009e+001
 1.974916583975222e+000	 2.889585521563812e+000	 1.036624745725893e+001
 1.945162607531510e+000	 2.909697996420158e+000	 1.036554256857496e+001
 1.915234136842688e+000	 2.929484289290938e+000	 1.037948011146807e+001
 1.778431698502015e+000	 2.720235411479095e+000	 1.022484293787357e+001
 1.750483865520404e+000	 2.738303532601247e+000	 1.014592314282061e+001
 1.722383871581194e+000	 2.756064911975476e+000	 1.006381207174557e+001
 1.694136692208681e+000	 2.773517778601558e+000	 9.981113695475615e+000
 1.665747326437761e+000	 2.790660467447267e+000	 9.900404875111306e+000
 1.637220794038315e+000	 2.807491419697759e+000	 9.824230295106268e+000
 1.608562132743385e+000	 2.824009182919216e+000	 9.755097506342830e+000
 1.579776395484174e+000	 2.840212411137346e+000	 9.695472090341728e+000
 1.550868647634842e+000	 2.856099864831403e+000	 9.647772955271435e+000
 1.521843964270076e+000	 2.871670410844536e+000	 9.614367773913429e+000
 1.492707427438275e+000	 2.886923022211355e+000	 9.597568573210634e+000
 1.792111942338345e+000	 2.741160299264779e+000	 1.017651567899318e+001
 1.763949126026976e+000	 2.759367405933930e+000	 1.011204166631214e+001
 1.735632978288948e+000	 2.777265411303141e+000	 1.004436414364284e+001
 1.707168512921817e+000	 2.794852530749106e+000	 9.976083243940742e+000
 1.678560767414598e+000	 2.812127086431664e+000	 9.909772274770452e+000
 1.649814800150785e+000	 2.829087507545086e+000	 9.847972590031613e+000
 1.620935687615213e+000	 2.845732330482984e+000	 9.793188572347086e+000
 1.591928521607786e+000	 2.862060198917422e+000	 9.747882737443996e+000
 1.562798406467085e+000	 2.878069863792879e+000	 9.714470971376056e+000
 1.533550456306831e+000	 2.893760183235912e+000	 9.695317910922839e+000
 1.504189792268103e+000	 2.909130122381397e+000	 9.692732476962343e+000
 1.805792186174171e+000	 2.762085187049463e+000	 1.014041518228888e+001
 1.777414386532957e+000	 2.780431279265624e+000	 1.008771647482148e+001
 1.748882084996038e+000	 2.798465910629846e+000	 1.003181326375884e+001
 1.720200333634242e+000	 2.816187282895746e+000	 9.975304308220371e+000
 1.691374208390694e+000	 2.833593705415225e+000	 9.920761803541350e+000
 1.662408806262505e+000	 2.850683595391665e+000	 9.870726188508511e+000
 1.633309242486302e+000	 2.867455478046118e+000	 9.827701063991757e+000
 1.604080647730692e+000	 2.883907986696995e+000	 9.794148234498605e+000
 1.574728165298671e+000	 2.900039862754002e+000	 9.772482883690145e+000
 1.545256948342999e+000	 2.915849955627104e+000	 9.765068894376944e+000
 1.515672157097435e+000	 2.931337222551448e+000	 9.774214322967465e+000
 1.819472430009494e+000	 2.783010074833148e+000	 1.011675166611402e+001
 1.790879647038344e+000	 2.801495152596328e+000	 1.007318765413731e+001
 1.762131191702469e+000	 2.819666409955593e+000	 1.002642905045249e+001
 1.733232154345957e+000	 2.837522035041479e+000	 9.979075701106892e+000
 1.704187649366050e+000	 2.855060324397946e+000	 9.933701127466556e+000
 1.675002812373476e+000	 2.872279683237500e+000	 9.892847265818382e+000
 1.645682797356653e+000	 2.889178625608616e+000	 9.859019319168148e+000
 1.616232773852889e+000	 2.905755774476063e+000	 9.834680732962724e+000
 1.586657924129601e+000	 2.922009861714771e+000	 9.822248305972014e+000
 1.556963440378580e+000	 2.937939728018115e+000	 9.824087447036868e+000
 1.527154521926272e+000	 2.953544322721507e+000	 9.842507587835685e+000
 1.833152673844316e+000	 2.803934962615831e+000	 1.010574485297640e+001
 1.804344907543139e+000	 2.822559025926043e+000	 1.006870350465556e+001
 1.775380298408235e+000	 2.840866909280380e+000	 1.002848805433468e+001
 1.746263975056959e+000	 2.858856787186302e+000	 9.987701893061171e+000
 1.717001090340666e+000	 2.876526943379830e+000	 9.948922304018362e+000
 1.687596818483697e+000	 2.893875771082586e+000	 9.914695131342604e+000
 1.658056352226265e+000	 2.910901773170480e+000	 9.887529562001538e+000
 1.628384899974379e+000	 2.927603562254628e+000	 9.869893032671198e+000
 1.598587682959873e+000	 2.943979860675189e+000	 9.864206273047337e+000
 1.568669932413576e+000	 2.960029500408943e+000	 9.872838496491964e+000
 1.538636886754612e+000	 2.975751422891574e+000	 9.898102748353161e+000
 1.846832917678635e+000	 2.824859850397516e+000	 1.010762361753267e+001
 1.817810168047342e+000	 2.843622899254767e+000	 1.007452023713494e+001
 1.788629405113341e+000	 2.862067408604207e+000	 1.003827350151802e+001
 1.759295795767251e+000	 2.880191539330218e+000	 1.000149280266922e+001
 1.729814531314541e+000	 2.897993562360879e+000	 9.966761619453370e+000
 1.700190824593168e+000	 2.915471858926928e+000	 9.936632112484540e+000
 1.670429907095138e+000	 2.932624920731707e+000	 9.913619832990642e+000
 1.640537026095161e+000	 2.949451350032688e+000	 9.900198557822721e+000
 1.610517441789488e+000	 2.965949859635252e+000	 9.898795262250950e+000
 1.580376424447985e+000	 2.982119272799589e+000	 9.911785241647834e+000
 1.550119251582456e+000	 2.997958523061648e+000	 9.941487392587000e+000
 1.860513161512450e+000	 2.845784738178200e+000	 1.012262565011232e+001
 1.831275428550952e+000	 2.864686772582501e+000	 1.009090168187473e+001
 1.801878511817784e+000	 2.883267907927075e+000	 1.005607504819407e+001
 1.772327616476830e+000	 2.901526291473225e+000	 1.002076359634353e+001
 1.742627972287677e+000	 2.919460181341089e+000	 9.987559433342330e+000
 1.712784830701890e+000	 2.937067946770522e+000	 9.959023443713091e+000
 1.682803461963273e+000	 2.954348068292302e+000	 9.937679922229174e+000
 1.652689152215236e+000	 2.971299137810246e+000	 9.926011334025047e+000
 1.622447200618447e+000	 2.987919858594962e+000	 9.926453213922788e+000
 1.592082916481809e+000	 3.004209045190053e+000	 9.941389216280767e+000
 1.561601616409804e+000	 3.020165623231730e+000	 9.973146326088147e+000
 1.874193405345763e+000	 2.866709625957885e+000	 1.015099713497765e+001
 1.844740689053969e+000	 2.885750645909246e+000	 1.011811901062936e+001
 1.815127618521566e+000	 2.904468407248984e+000	 1.008218854595890e+001
 1.785359437185700e+000	 2.922861043615323e+000	 1.004583449679646e+001
 1.755441413260070e+000	 2.940926800320462e+000	 1.001166002990919e+001
 1.725378836809863e+000	 2.958664034613372e+000	 9.982237160465211e+000
 1.695177016830669e+000	 2.976071215852260e+000	 9.960101305552039e+000
 1.664841278334603e+000	 2.993146925587298e+000	 9.947745966345957e+000
 1.634376959446749e+000	 3.009889857554320e+000	 9.947617551006367e+000
 1.603789408515046e+000	 3.026298817580334e+000	 9.962110349808924e+000
 1.573083981236656e+000	 3.042372723401821e+000	 9.993561673443175e+000
 1.887873649178574e+000	 2.887634513736569e+000	 1.020642023187779e+001
 1.858205949556393e+000	 2.906814519235001e+000	 1.015645047061363e+001
 1.828376725224685e+000	 2.925668906569934e+000	 1.011691581734191e+001
 1.798391257893857e+000	 2.944195795756514e+000	 1.007703059984111e+001
 1.768254854231724e+000	 2.962393419298998e+000	 1.003941147583322e+001
 1.737972842917086e+000	 2.980260122455474e+000	 1.000664399766174e+001
 1.707550571697327e+000	 2.997794363411583e+000	 9.981277083457631e+000
 1.676993404453263e+000	 3.014994713363847e+000	 9.965817618318186e+000
 1.646306718274395e+000	 3.031859856513325e+000	 9.962725197794921e+000
 1.615495900547696e+000	 3.048388589970433e+000	 9.974407025421266e+000
 1.584566346063012e+000	 3.064579823571918e+000	 1.000321297541055e+001
 1.901553893010882e+000	 2.908559401514253e+000	 1.028274416586467e+001
 1.871671210058226e+000	 2.927878392559766e+000	 1.020618112998970e+001
 1.841625831927143e+000	 2.946869405889925e+000	 1.016056444102408e+001
 1.811423078601303e+000	 2.965530547896796e+000	 1.011468169909977e+001
 1.781068295202638e+000	 2.983860038276696e+000	 1.007116548418989e+001
 1.750566849023559e+000	 3.001856210296830e+000	 1.003261729260345e+001
 1.719924126563246e+000	 3.019517510970271e+000	 1.000160192266688e+001
 1.689145530571215e+000	 3.036842501139892e+000	 9.980641991850828e+000
 1.658236477101383e+000	 3.053829855471976e+000	 9.972212597868573e+000
 1.627202392579761e+000	 3.070478362360350e+000	 9.978736135697227e+000
 1.596048710888871e+000	 3.086786923742023e+000	 1.000257728186414e+001
 1.915234136842688e+000	 2.929484289290938e+000	 1.037948011146807e+001
 1.885136470559467e+000	 2.948942265883543e+000	 1.028708429239251e+001
 1.854874938628939e+000	 2.968069905208957e+000	 1.021344754626108e+001
 1.824454899308039e+000	 2.986865300036170e+000	 1.015912211822515e+001
 1.793881736172811e+000	 3.005326657253558e+000	 1.010727728422205e+001
 1.763160855129284e+000	 3.023452298137441e+000	 1.006053289202907e+001
 1.732297681428427e+000	 3.041240658528325e+000	 1.002147200018664e+001
 1.701297656688460e+000	 3.058690288915435e+000	 9.992635308001626e+000
 1.670166235927715e+000	 3.075799854430275e+000	 9.976515731262490e+000
 1.638908884611239e+000	 3.092568134750085e+000	 9.975553135842901e+000
 1.607531075714235e+000	 3.108994023912138e+000	 9.992129240753402e+000
 1.492707427438275e+000	 2.886923022211355e+000	 9.597568573210634e+000
 1.463464123453077e+000	 2.901856777903874e+000	 9.359795209202224e+000
 1.434119140206303e+000	 2.916470862496686e+000	 9.176596766017985e+000
 1.404677564505076e+000	 2.930764565752652e+000	 9.049866605687182e+000
 1.375144479435225e+000	 2.944737282130762e+000	 8.981400702827683e+000
 1.345524961753961e+000	 2.958388510217295e+000	 8.972894664818504e+000
 1.315824079314218e+000	 2.971717852081893e+000	 9.025940973823348e+000
 1.286046888523080e+000	 2.984725012560140e+000	 9.142026454739776e+000
 1.256198431836616e+000	 2.997409798464362e+000	 9.322529972468820e+000
 1.226283735293377e+000	 3.009772117724387e+000	 9.496180986020566e+000
 1.196307806088698e+000	 3.021811978460158e+000	 9.714497958293466e+000
 1.504189792268103e+000	 2.909130122381397e+000	 9.692732476962343e+000
 1.474721539790167e+000	 2.924178753116689e+000	 9.466797200143448e+000
 1.445150825902609e+000	 2.938905253744039e+000	 9.294424750174009e+000
 1.415482776541836e+000	 2.953308908562949e+000	 9.177500022922837e+000
 1.385722513894337e+000	 2.967389107374398e+000	 9.117811076715082e+000
 1.355875153769301e+000	 2.981145344907635e+000	 9.117046101476399e+000
 1.325945803003146e+000	 2.994577220171297e+000	 9.176790610972695e+000
 1.295939556898393e+000	 3.007684435730475e+000	 9.298524862351968e+000
 1.265861496699236e+000	 3.020466796911431e+000	 9.483621506501686e+000
 1.235716687106058e+000	 3.032924210935764e+000	 9.720534188866107e+000
 1.205510173831083e+000	 3.045056685985870e+000	 1.000719573719837e+001
 1.515672157097435e+000	 2.931337222551448e+000	 9.774214322967465e+000
 1.485978956126852e+000	 2.946500728329692e+000	 9.557418968413739e+000
 1.456182511598578e+000	 2.961339644991719e+000	 9.393223898679899e+000
 1.426287988578309e+000	 2.975853251373672e+000	 9.283507681244364e+000
 1.396300548353190e+000	 2.990040932618514e+000	 9.230052535821766e+000
 1.366225345784390e+000	 3.003902179598473e+000	 9.234541250306981e+000
 1.336067526691811e+000	 3.017436588261179e+000	 9.298554321184319e+000
 1.305832225273413e+000	 3.030643858901224e+000	 9.423567322737178e+000
 1.275524561561511e+000	 3.043523795358812e+000	 9.610948508696216e+000
 1.245149638918324e+000	 3.056076304147308e+000	 9.868699679935212e+000
 1.214712541572961e+000	 3.068301393511570e+000	 1.022602560054247e+001
 1.527154521926272e+000	 2.953544322721507e+000	 9.842507587835685e+000
 1.497236372463129e+000	 2.968822703542879e+000	 9.632185972704262e+000
 1.467214197294211e+000	 2.983774036239725e+000	 9.473550954359851e+000
 1.437093200614493e+000	 2.998397594184815e+000	 9.368476907548056e+000
 1.406878582811784e+000	 3.012692757863114e+000	 9.318742289305353e+000
 1.376575537799229e+000	 3.026659014289810e+000	 9.326026499524421e+000
 1.346189250380215e+000	 3.040295956351537e+000	 9.391906967473704e+000
 1.315724893648140e+000	 3.053603282072387e+000	 9.517856468741993e+000
 1.285187626423442e+000	 3.066580793806505e+000	 9.705240676370844e+000
 1.254582590730176e+000	 3.079228397359024e+000	 9.955315949229806e+000
 1.223914909314336e+000	 3.091546101037260e+000	 1.036830599949893e+001
 1.538636886754612e+000	 2.975751422891574e+000	 9.898102748353161e+000
 1.508493788799001e+000	 2.991144678756257e+000	 9.691619312603402e+000
 1.478245882989506e+000	 3.006208427488057e+000	 9.535956964378043e+000
 1.447898412650389e+000	 3.020941936996385e+000	 9.432988019738060e+000
 1.417456617270119e+000	 3.035344583108194e+000	 9.384489247711022e+000
 1.386925729813818e+000	 3.049415848981647e+000	 9.392138673287894e+000
 1.356310974068357e+000	 3.063155324442370e+000	 9.457512607985516e+000
 1.325617562022574e+000	 3.076562705243963e+000	 9.582082912582640e+000
 1.294850691285029e+000	 3.089637792254509e+000	 9.767214495919511e+000
 1.264015542541612e+000	 3.102380490570909e+000	 1.001416305293369e+001
 1.233117277055205e+000	 3.114790808562941e+000	 1.043133987167226e+001
 1.550119251582456e+000	 2.997958523061648e+000	 9.941487392587000e+000
 1.519751205134466e+000	 3.013466653969821e+000	 9.736235890045307e+000
 1.489277568684464e+000	 3.028642818736715e+000	 9.580987491188836e+000
 1.458703624685997e+000	 3.043486279808378e+000	 9.477614586318829e+000
 1.428034651728194e+000	 3.057996408353757e+000	 9.427894330327266e+000
 1.397275921828156e+000	 3.072172683673982e+000	 9.433505385925892e+000
 1.366432697756238e+000	 3.086014692533680e+000	 9.496024896174125e+000
 1.335510230396715e+000	 3.099522128415953e+000	 9.616925691053176e+000
 1.304513756146272e+000	 3.112694790702826e+000	 9.797573732105597e+000
 1.273448494352634e+000	 3.125532583782965e+000	 1.003693536270064e+001
 1.242319644795568e+000	 3.138035516088611e+000	 1.032988812202355e+001
 1.561601616409804e+000	 3.020165623231730e+000	 9.973146326088147e+000
 1.531008621469525e+000	 3.035788629183572e+000	 9.766548563635055e+000
 1.500309254379085e+000	 3.051077209985700e+000	 9.609182814180670e+000
 1.469508836721317e+000	 3.066030622620796e+000	 9.502923674534955e+000
 1.438612686186011e+000	 3.080648233599800e+000	 9.449550758982184e+000
 1.407626113842244e+000	 3.094929518366817e+000	 9.450745380532831e+000
 1.376554421443856e+000	 3.108874060625466e+000	 9.508087463329018e+000
 1.345402898770562e+000	 3.122481551588357e+000	 9.623052691092596e+000
 1.314176821007171e+000	 3.135751789151453e+000	 9.781428889261441e+000
 1.282881446163241e+000	 3.148684676995192e+000	 9.952795112694663e+000
 1.251522012535427e+000	 3.161280223614271e+000	 1.013424664829726e+001
 1.573083981236656e+000	 3.042372723401821e+000	 9.993561673443175e+000
 1.542266037804178e+000	 3.058110604397511e+000	 9.783066296215676e+000
 1.511340940073370e+000	 3.073511601235009e+000	 9.621078122488573e+000
 1.480314048756350e+000	 3.088574965433638e+000	 9.509476087643249e+000
 1.449190720643568e+000	 3.103300058846326e+000	 9.450044338972791e+000
 1.417976305856081e+000	 3.117686353060151e+000	 9.444468852737030e+000
 1.386676145131213e+000	 3.131733428717729e+000	 9.513112395582118e+000
 1.355295567144116e+000	 3.145440974761174e+000	 9.626038922380458e+000
 1.323839885867726e+000	 3.158808787600393e+000	 9.749735837525167e+000
 1.292314397973433e+000	 3.171836770207588e+000	 9.881724899134865e+000
 1.260724380274781e+000	 3.184524931139920e+000	 1.001968279833879e+001
 1.584566346063012e+000	 3.064579823571918e+000	 1.000321297541055e+001
 1.553523454138424e+000	 3.080432579611637e+000	 9.786294296018861e+000
 1.522372625767317e+000	 3.095945992484646e+000	 9.617203699423722e+000
 1.491119260791094e+000	 3.111119308246904e+000	 9.497826591868870e+000
 1.459768755100866e+000	 3.125951884093334e+000	 9.436023831283983e+000
 1.428326497869668e+000	 3.140443187753983e+000	 9.494125448253751e+000
 1.396797868818307e+000	 3.154592796810467e+000	 9.564799187053108e+000
 1.365188235517378e+000	 3.168400397934406e+000	 9.645127764174802e+000
 1.333502950727936e+000	 3.181865786049645e+000	 9.732347719525617e+000
 1.301747349783210e+000	 3.194988863420154e+000	 9.823853677592251e+000
 1.269926748013629e+000	 3.207769638665559e+000	 9.917202189784057e+000
 1.596048710888871e+000	 3.086786923742023e+000	 1.000257728186414e+001
 1.564780870472264e+000	 3.102754554825951e+000	 9.776734151722836e+000
 1.533404311460927e+000	 3.118380383734608e+000	 9.598085098941812e+000
 1.501924472825551e+000	 3.133663651060594e+000	 9.540667749925961e+000
 1.470346789557904e+000	 3.148603709340823e+000	 9.560319180726545e+000
 1.438676689883004e+000	 3.163200022448315e+000	 9.592148008394720e+000
 1.406919592505140e+000	 3.177452164903683e+000	 9.632939027706740e+000
 1.375080903890346e+000	 3.191359821108051e+000	 9.679632816626759e+000
 1.343166015587802e+000	 3.204922784499208e+000	 9.729330563800513e+000
 1.311180301592572e+000	 3.218140956632892e+000	 9.779298467147543e+000
 1.279129115751972e+000	 3.231014346191188e+000	 9.826971699590450e+000
 1.607531075714235e+000	 3.108994023912138e+000	 9.992129240753402e+000
 1.576038286805698e+000	 3.125076530040452e+000	 9.755715342910943e+000
 1.544435997154201e+000	 3.140814774984898e+000	 9.723449574502562e+000
 1.512729684859720e+000	 3.156207993874709e+000	 9.707091081747743e+000
 1.480924824014684e+000	 3.171255534588795e+000	 9.702966157135595e+000
 1.449026881896091e+000	 3.185956857143146e+000	 9.707552293615539e+000
 1.417041316191712e+000	 3.200311532997376e+000	 9.717484034000613e+000
 1.384973572263022e+000	 3.214319244282112e+000	 9.729558389564287e+000
 1.352829080447325e+000	 3.227979782949083e+000	 9.740739821051781e+000
 1.320613253401520e+000	 3.241293049845799e+000	 9.748164776694694e+000
 1.288331483489811e+000	 3.254259053716808e+000	 9.749145783178129e+000
 1.196307806088698e+000	 3.021811978460158e+000	 9.714497958293466e+000
 1.166275630192232e+000	 3.033529487987621e+000	 9.275889522817558e+000
 1.136192170009821e+000	 3.044924851761178e+000	 8.917861829041875e+000
 1.106062362091802e+000	 3.055998372254013e+000	 8.634794169714020e+000
 1.075891114890497e+000	 3.066750447777396e+000	 8.420940951966051e+000
 1.045683306567630e+000	 3.077181571242415e+000	 8.270447651635767e+000
 1.015443782853513e+000	 3.087292328865914e+000	 8.177366720074154e+000
 9.851773549594470e-001	 3.097083398822883e+000	 8.135673403778322e+000
 9.548887975447467e-001	 3.106555549847562e+000	 8.139281438366222e+000
 9.245828467396433e-001	 3.115709639785576e+000	 8.182058579687118e+000
 8.942641982252435e-001	 3.124546614099404e+000	 8.257841936227274e+000
 1.205510173831083e+000	 3.045056685985870e+000	 1.000719573719837e+001
 1.175246981197481e+000	 3.056864330203026e+000	 9.580550929035116e+000
 1.144932109783359e+000	 3.068347350621874e+000	 9.239245594160549e+000
 1.114570534112516e+000	 3.079506052042313e+000	 8.977812727392715e+000
 1.084167200394600e+000	 3.090340835839549e+000	 8.790650009631721e+000
 1.053727024315657e+000	 3.100852198716294e+000	 8.672035964978216e+000
 1.023254888880848e+000	 3.111040731398753e+000	 8.616146081914026e+000
 9.927556423107914e-001	 3.120907117278648e+000	 8.617068857968858e+000
 9.622340959929515e-001	 3.130452131003560e+000	 8.560572324646758e+000
 9.316950224893310e-001	 3.139676637017924e+000	 8.455234465376577e+000
 9.011431536016610e-001	 3.148581588057016e+000	 8.373099873700420e+000
 1.214712541572961e+000	 3.068301393511570e+000	 1.022602560054247e+001
 1.184218332202131e+000	 3.080199172418236e+000	 9.824914197977627e+000
 1.153672049556212e+000	 3.091769849482220e+000	 9.513949372016519e+000
 1.123078706132471e+000	 3.103013731830141e+000	 9.287808752614076e+000
 1.092443285897879e+000	 3.113931223901138e+000	 9.141024222835059e+000
 1.061770742062806e+000	 3.124522826189546e+000	 9.067998290243994e+000
 1.031065994907260e+000	 3.134789133930934e+000	 8.887146632235275e+000
 1.000333929661179e+000	 3.144730835733749e+000	 8.735294345995397e+000
 9.695793944401758e-001	 3.154348712158921e+000	 8.616500476574034e+000
 9.388071982380237e-001	 3.163643634249695e+000	 8.527192424594389e+000
 9.080221089770787e-001	 3.172616562014134e+000	 8.463980985214874e+000
 1.223914909314336e+000	 3.091546101037260e+000	 1.036830599949893e+001
 1.193189683206180e+000	 3.103534014633252e+000	 1.000615264758305e+001
 1.162411989328381e+000	 3.115192348342218e+000	 9.739003884969113e+000
 1.131586878151666e+000	 3.126521411617498e+000	 9.541493143315027e+000
 1.100719371400335e+000	 3.137521611962162e+000	 9.280448551534093e+000
 1.069814459809078e+000	 3.148193453662171e+000	 9.064674901812253e+000
 1.038877100932751e+000	 3.158537536462453e+000	 8.890460934683684e+000
 1.007912217010611e+000	 3.168554554188189e+000	 8.754319848068771e+000
 9.769246928864194e-001	 3.178245293313647e+000	 8.652974629823165e+000
 9.459193739857209e-001	 3.187610631480885e+000	 8.583343275095421e+000
 9.149010643514963e-001	 3.196651535970757e+000	 8.542523940684426e+000
 1.233117277055205e+000	 3.114790808562941e+000	 1.043133987167226e+001
 1.202161034209630e+000	 3.126868856848071e+000	 1.010427725739041e+001
 1.171151929099864e+000	 3.138614847201867e+000	 9.759716854753215e+000
 1.140095050170102e+000	 3.150029091404384e+000	 9.467638119909990e+000
 1.108995456901967e+000	 3.161112000022622e+000	 9.224335659807283e+000
 1.077858177554471e+000	 3.171864081134169e+000	 9.026358457449458e+000
 1.046688206957320e+000	 3.182285938993312e+000	 8.870494728109625e+000
 1.015490504359086e+000	 3.192378272641967e+000	 8.753756562484062e+000
 9.842699913316823e-001	 3.202141874467737e+000	 8.673364413185228e+000
 9.530315497324234e-001	 3.211577628711497e+000	 8.626731479780286e+000
 9.217800197249140e-001	 3.220686509926887e+000	 8.611448046232532e+000
 1.242319644795568e+000	 3.138035516088611e+000	 1.032988812202355e+001
 1.211132385212480e+000	 3.150203699062697e+000	 9.954029798079345e+000
 1.179891868870664e+000	 3.162037346061168e+000	 9.632976343268011e+000
 1.148603222187779e+000	 3.173536771190796e+000	 9.363252742231582e+000
 1.117271542402776e+000	 3.184702388082517e+000	 9.141655480438319e+000
 1.085901895298987e+000	 3.195534708605540e+000	 8.965236781830539e+000
 1.054499312980967e+000	 3.206034341523514e+000	 8.831288584207147e+000
 1.023068791706606e+000	 3.216201991095081e+000	 8.737326311646836e+000
 9.916152897759646e-001	 3.226038455621191e+000	 8.681072502200657e+000
 9.601437254781305e-001	 3.235544625941529e+000	 8.660440347830521e+000
 9.286589750973320e-001	 3.244721483882524e+000	 8.673517202143103e+000
 1.251522012535427e+000	 3.161280223614271e+000	 1.013424664829726e+001
 1.220103736214729e+000	 3.173538541277126e+000	 9.770320451115106e+000
 1.188631808640779e+000	 3.185459844920121e+000	 9.476842749810706e+000
 1.157111394204698e+000	 3.197044450976737e+000	 9.233332879016627e+000
 1.125547627902762e+000	 3.208292776141848e+000	 9.037093205464542e+000
 1.093945613042626e+000	 3.219205336076284e+000	 8.885683414715325e+000
 1.062310419003692e+000	 3.229782744053054e+000	 8.776903592945182e+000
 1.030647079053169e+000	 3.240025709547535e+000	 8.708777115770046e+000
 9.989605882192663e-001	 3.249935036774010e+000	 8.679533404205493e+000
 9.672559012228426e-001	 3.259511623170983e+000	 8.687590606536164e+000
 9.355379304687495e-001	 3.268756457837667e+000	 8.731538263369096e+000
 1.260724380274781e+000	 3.184524931139920e+000	 1.001968279833879e+001
 1.229075087216379e+000	 3.196873383491363e+000	 9.558754623397750e+000
 1.197371748410209e+000	 3.208882343778725e+000	 9.296618950211132e+000
 1.165619566220857e+000	 3.220552130762207e+000	 9.082877509645615e+000
 1.133823713401924e+000	 3.231883164200613e+000	 8.915342728662402e+000
 1.101989330785387e+000	 3.242875963546400e+000	 8.792086151264922e+000
 1.070121525025495e+000	 3.253531146581935e+000	 8.711420613725046e+000
 1.038225366398776e+000	 3.263849427999325e+000	 8.671882236749834e+000
 1.006305886661588e+000	 3.273831617926194e+000	 8.672212296587061e+000
 9.743680769665595e-001	 3.283478620399857e+000	 8.711339035671582e+000
 9.424168858391672e-001	 3.292791431792316e+000	 8.788359471843611e+000
 1.269926748013629e+000	 3.207769638665559e+000	 9.917202189784057e+000
 1.238046438217428e+000	 3.220208225705404e+000	 9.324929843185812e+000
 1.206111688178954e+000	 3.232304842636979e+000	 9.097605395803234e+000
 1.174127738236257e+000	 3.244059810547205e+000	 8.916888611437868e+000
 1.142099798900264e+000	 3.255473552258815e+000	 8.781106330266882e+000
 1.110033048527270e+000	 3.266546591015890e+000	 8.688846525541372e+000
 1.077932631046376e+000	 3.277279549110157e+000	 8.638939559096658e+000
 1.045803653743427e+000	 3.287673146450452e+000	 8.630439263611596e+000
 1.013651185102928e+000	 3.297728199077742e+000	 8.662603915549919e+000
 9.814802527092813e-001	 3.307445617628152e+000	 8.734877161245789e+000
 9.492958412085848e-001	 3.316826405746471e+000	 8.846868956951829e+000
 1.279129115751972e+000	 3.231014346191188e+000	 9.826971699590450e+000
 1.247017789217878e+000	 3.243543067919251e+000	 9.074436043500505e+000
 1.214851627947015e+000	 3.255727341494886e+000	 8.885100200637007e+000
 1.182635910250898e+000	 3.267567490331730e+000	 8.740371051812447e+000
 1.150375884397780e+000	 3.279063940316452e+000	 8.639094375300372e+000
 1.118076766268276e+000	 3.290217218484751e+000	 8.580379316302656e+000
 1.085743737066336e+000	 3.301027951637718e+000	 8.563578709393651e+000
 1.053381941087122e+000	 3.311496864900918e+000	 8.588269237433508e+000
 1.020996483543289e+000	 3.321624780228656e+000	 8.654231492849180e+000
 9.885924284510078e-001	 3.331412614855867e+000	 8.761430005637964e+000
 9.561747965770026e-001	 3.340861379700133e+000	 8.909993300730438e+000
 1.288331483489811e+000	 3.254259053716808e+000	 9.749145783178129e+000
 1.255989140217728e+000	 3.266877910132902e+000	 8.928031727223036e+000
 1.223591567714392e+000	 3.279149840352444e+000	 8.664399224953026e+000
 1.191144082264780e+000	 3.291075170115785e+000	 8.558332485069837e+000
 1.158651969894472e+000	 3.302654328373524e+000	 8.494025024830343e+000
 1.126120484008404e+000	 3.313887845952988e+000	 8.471112073977803e+000
 1.093554843085374e+000	 3.324776354164621e+000	 8.489474056740757e+000
 1.060960228429861e+000	 3.335320583350721e+000	 8.549215813773017e+000
 1.028341781982669e+000	 3.345521361378934e+000	 8.650645738092088e+000
 9.957046041917395e-001	 3.355379612083005e+000	 8.794254891298442e+000
 9.630537519444204e-001	 3.364896353653301e+000	 8.980696164558585e+000
 8.942641982252435e-001	 3.124546614099404e+000	 8.257841936227274e+000
 8.639375053716756e-001	 3.133067504330197e+000	 7.983252321327824e+000
 8.336073774350107e-001	 3.141273426516435e+000	 7.818501630539835e+000
 8.032783778144554e-001	 3.149165579572984e+000	 7.768884605028251e+000
 7.729550223703781e-001	 3.156745243634213e+000	 7.830376999642999e+000
 7.426417778035712e-001	 3.164013778361765e+000	 7.998990842884498e+000
 7.123430600964783e-001	 3.170972621219919e+000	 8.270764244464655e+000
 6.820632330168482e-001	 3.177623285720976e+000	 8.641751455310557e+000
 6.518066066841973e-001	 3.183967359642995e+000	 9.108013209820427e+000
 6.215774361993552e-001	 3.190006503222291e+000	 9.307231224048188e+000
 5.913799203372813e-001	 3.195742447322996e+000	 6.745853897892868e+000
 9.011431536016610e-001	 3.148581588057016e+000	 8.373099873700420e+000
 8.705831784952053e-001	 3.157168023597005e+000	 8.116324920400682e+000
 8.400197418818312e-001	 3.165437068261379e+000	 7.965510537534491e+000
 8.094574422638172e-001	 3.173389930187423e+000	 7.917067341912185e+000
 7.789008302389195e-001	 3.181027899356694e+000	 7.967460828211458e+000
 7.483544068671691e-001	 3.188352345889771e+000	 8.113199993180800e+000
 7.178226221001058e-001	 3.195364718308350e+000	 8.350826191597294e+000
 6.873098732729234e-001	 3.202066541767132e+000	 8.676902257446860e+000
 6.568205036599052e-001	 3.208459416257858e+000	 9.088001921786484e+000
 6.263588010934262e-001	 3.214545014787885e+000	 9.580699556684314e+000
 5.959289966467158e-001	 3.220325081535687e+000	 6.891381445720154e+000
 9.080221089770787e-001	 3.172616562014134e+000	 8.463980985214874e+000
 8.772288516177454e-001	 3.181268542863414e+000	 8.234487311426117e+000
 8.464321063276931e-001	 3.189600710006008e+000	 8.097810983134357e+000
 8.156365067122720e-001	 3.197614280801620e+000	 8.050848291860426e+000
 7.848466381066261e-001	 3.205310555079000e+000	 8.090558557266204e+000
 7.540670359300243e-001	 3.212690913417655e+000	 8.213951779735575e+000
 7.233021841031027e-001	 3.219756815396704e+000	 8.418076536005557e+000
 6.925565135285002e-001	 3.226509797813246e+000	 8.700008153064538e+000
 6.618344006352661e-001	 3.232951472872700e+000	 9.056837193437518e+000
 6.311401659873216e-001	 3.239083526353474e+000	 9.485658282834461e+000
 6.004780729561651e-001	 3.244907715748377e+000	 7.100892080305928e+000
 9.149010643514963e-001	 3.196651535970757e+000	 8.542523940684426e+000
 8.838745247392960e-001	 3.205369062129424e+000	 8.340161134881639e+000
 8.528444707725966e-001	 3.213764351750323e+000	 8.217567592068601e+000
 8.218155711598199e-001	 3.221838631415581e+000	 8.172129596341113e+000
 7.907924459734982e-001	 3.229593210801129e+000	 8.201304570865704e+000
 7.597796649921370e-001	 3.237029480945417e+000	 8.302607749639106e+000
 7.287817461054693e-001	 3.244148912484980e+000	 8.473599103844151e+000
 6.978031537835786e-001	 3.250953053859316e+000	 8.711870559783224e+000
 6.668482976102803e-001	 3.257443529487524e+000	 9.015033543187403e+000
 6.359215308810411e-001	 3.263622037919058e+000	 9.380706882468243e+000
 6.050271492656288e-001	 3.269490349961068e+000	 7.364673208039743e+000
 9.217800197249140e-001	 3.220686509926887e+000	 8.611448046232532e+000
 8.905201978598567e-001	 3.229469581395036e+000	 8.435817879764572e+000
 8.592568352165415e-001	 3.237927993494322e+000	 8.326998500345942e+000
 8.279946356064608e-001	 3.246062982029299e+000	 8.282870691899596e+000
 7.967382538395349e-001	 3.253875866523083e+000	 8.301394450418101e+000
 7.654922940535067e-001	 3.261368048473058e+000	 8.380594665476336e+000
 7.342613081072050e-001	 3.268541009573177e+000	 8.518547068141491e+000
 7.030497940381583e-001	 3.275396309905343e+000	 8.713364484040136e+000
 6.718621945849477e-001	 3.281935586102328e+000	 8.963183428075132e+000
 6.407028957745850e-001	 3.288160549484636e+000	 9.266151074965144e+000
 6.095762255751076e-001	 3.294072984173759e+000	 7.673099186206478e+000
 9.286589750973320e-001	 3.244721483882524e+000	 8.673517202143103e+000
 8.971658709794282e-001	 3.253570100660248e+000	 8.523977037349960e+000
 8.656691996595282e-001	 3.262091635238010e+000	 8.428373373355180e+000
 8.341737000521949e-001	 3.270287332642776e+000	 8.385086188118995e+000
 8.026840617047367e-001	 3.278158522244860e+000	 8.392582708112805e+000
 7.712049231141337e-001	 3.285706616000578e+000	 8.449402089937745e+000
 7.397408701083105e-001	 3.292933106661296e+000	 8.554140380397003e+000
 7.082964342922399e-001	 3.299839565951326e+000	 8.705435795578232e+000
 6.768760915592682e-001	 3.306427642717112e+000	 8.901954357149219e+000
 6.454842606679531e-001	 3.312699061050211e+000	 9.142375921659708e+000
 6.141253018846009e-001	 3.318655618386451e+000	 8.016628102582725e+000
 9.355379304687495e-001	 3.268756457837667e+000	 8.731538263369096e+000
 9.038115440980098e-001	 3.277670619925062e+000	 8.607204336401217e+000
 8.720815641015560e-001	 3.286255276981380e+000	 8.524011511402675e+000
 8.403527644970221e-001	 3.294511683256015e+000	 8.480843839199050e+000
 8.086298695691041e-001	 3.302441177966462e+000	 8.476680620347253e+000
 7.769175521740184e-001	 3.310045183527975e+000	 8.510580076991815e+000
 7.452204321087853e-001	 3.317325203749339e+000	 8.581663315490093e+000
 7.135430745458224e-001	 3.324282821997265e+000	 8.689098622177559e+000
 6.818899885332419e-001	 3.330919699331877e+000	 8.832086132202354e+000
 6.502656255611453e-001	 3.337237572615781e+000	 9.009842908857406e+000
 6.186743781941089e-001	 3.343238252599141e+000	 8.385798697109456e+000
 9.424168858391672e-001	 3.292791431792316e+000	 8.788359471843611e+000
 9.104572172156019e-001	 3.301771139189477e+000	 8.688110055670327e+000
 8.784939285426255e-001	 3.310418918724437e+000	 8.616280038218955e+000
 8.465318289409427e-001	 3.318736033869013e+000	 8.572262604371820e+000
 8.145756774326362e-001	 3.326723833687888e+000	 8.555554156040788e+000
 7.826301812331601e-001	 3.334383751055250e+000	 8.565736964174226e+000
 7.506999941086296e-001	 3.341717300837304e+000	 8.602462124111376e+000
 7.187897147989066e-001	 3.348726078043160e+000	 8.665432858485534e+000
 6.869038855068688e-001	 3.355411755946624e+000	 8.754388209349923e+000
 6.550469904541620e-001	 3.361776084181345e+000	 8.869087158602666e+000
 6.232234545036314e-001	 3.367820886811832e+000	 8.771227418382374e+000
 9.492958412085848e-001	 3.316826405746471e+000	 8.846868956951829e+000
 9.171028903322046e-001	 3.325871658453493e+000	 8.769347409768006e+000
 8.849062929827364e-001	 3.334582560467181e+000	 8.707592168225903e+000
 8.527108933839563e-001	 3.342960384481772e+000	 8.661510792646865e+000
 8.205214852953338e-001	 3.351006489409138e+000	 8.631121995021131e+000
 7.883428102915590e-001	 3.358722318582403e+000	 8.616537260864229e+000
 7.561795561078435e-001	 3.366109397925190e+000	 8.617942787262274e+000
 7.240363550514924e-001	 3.373169334089013e+000	 8.635581783160028e+000
 6.919177824801487e-001	 3.379903812561350e+000	 8.669737175322700e+000
 6.598283553470030e-001	 3.386314595746905e+000	 8.720714760716174e+000
 6.277725308131688e-001	 3.392403521024523e+000	 8.788826843308115e+000
 9.561747965770026e-001	 3.340861379700133e+000	 8.909993300730438e+000
 9.237485634478174e-001	 3.349972177717110e+000	 8.853611004707954e+000
 8.913186574218889e-001	 3.358746202209609e+000	 8.800405548598118e+000
 8.588899578260627e-001	 3.367184735094290e+000	 8.750804287638994e+000
 8.264672931571961e-001	 3.375289145130212e+000	 8.705353631948690e+000
 7.940554393492153e-001	 3.383060886109435e+000	 8.664699627714599e+000
 7.616591181064267e-001	 3.390501495012999e+000	 8.629568867682682e+000
 7.292829953035798e-001	 3.397612590134821e+000	 8.600749778868053e+000
 6.969316794530819e-001	 3.404395869176058e+000	 8.579074332696093e+000
 6.646097202396681e-001	 3.410853107312460e+000	 8.565400219998089e+000
 6.323216071227208e-001	 3.416986155237214e+000	 8.560593530451286e+000
 9.630537519444204e-001	 3.364896353653301e+000	 8.980696164558585e+000
 9.303942365624410e-001	 3.374072696980329e+000	 8.943635359642768e+000
 8.977310218600831e-001	 3.382909843951724e+000	 8.897220672378911e+000
 8.650690222672628e-001	 3.391409085706569e+000	 8.842404848475647e+000
 8.324131010182240e-001	 3.399571800851111e+000	 8.780267561501004e+000
 7.997680684061290e-001	 3.407399453636346e+000	 8.711994942677636e+000
 7.671386801043798e-001	 3.414893592100731e+000	 8.638859453359833e+000
 7.345296355551686e-001	 3.422055846180586e+000	 8.562200150000260e+000
 7.019455764256682e-001	 3.428887925790746e+000	 8.483403388610222e+000
 6.693910851321578e-001	 3.435391618878011e+000	 8.403884012835084e+000
 6.368706834322875e-001	 3.441568789449906e+000	 8.325067066834475e+000
 5.913799203372813e-001	 3.195742447322996e+000	 6.745853897892868e+000
 5.612182003031748e-001	 3.201176991585784e+000	 7.203123020109680e+000
 5.310963585522425e-001	 3.206312002558782e+000	 7.569172334293438e+000
 5.010184176725820e-001	 3.211149411812480e+000	 7.852137797148833e+000
 4.709883393310333e-001	 3.215691214040371e+000	 8.060129538322608e+000
 4.410100232820745e-001	 3.219939465148238e+000	 8.201254353197948e+000
 4.110873064392894e-001	 3.223896280334043e+000	 8.283637054823242e+000
 3.812239620090096e-001	 3.227563832160543e+000	 8.315440652777671e+000
 3.514236986856603e-001	 3.230944348622705e+000	 8.304885331935486e+000
 3.216901599082681e-001	 3.234040111211980e+000	 8.260266209138532e+000
 2.920269231775196e-001	 3.236853452979430e+000	 8.189969850727291e+000
 5.959289966467158e-001	 3.220325081535687e+000	 6.891381445720154e+000
 5.655352633805315e-001	 3.225801429985276e+000	 7.268674539037001e+000
 5.351817151537136e-001	 3.230975941042790e+000	 7.572130080868191e+000
 5.048724054973434e-001	 3.235850561136954e+000	 7.808631044184221e+000
 4.746113265526199e-001	 3.240427300305057e+000	 7.985042347446213e+000
 4.444024080721314e-001	 3.244708230267543e+000	 8.108235103605736e+000
 4.142495164841800e-001	 3.248695482493130e+000	 8.185109662462965e+000
 3.841564540197597e-001	 3.252391246256593e+000	 8.222617412626274e+000
 3.541269579017129e-001	 3.255797766691324e+000	 8.227781314688794e+000
 3.241646995955189e-001	 3.258917342838710e+000	 8.207715142507652e+000
 2.942732841210988e-001	 3.261752325696358e+000	 8.169641414612851e+000
 6.004780729561651e-001	 3.244907715748377e+000	 7.100892080305928e+000
 5.698523264580873e-001	 3.250425868384768e+000	 7.393563016024346e+000
 5.392670717555369e-001	 3.255639879526798e+000	 7.629579214838902e+000
 5.087263933225795e-001	 3.260551710461429e+000	 7.814561434456857e+000
 4.782343137747732e-001	 3.265163386569743e+000	 7.954120420913355e+000
 4.477947928628168e-001	 3.269476995386850e+000	 8.053882928930577e+000
 4.174117265297304e-001	 3.273494684652216e+000	 8.119516468950438e+000
 3.870889460311714e-001	 3.277218660352643e+000	 8.156752745514924e+000
 3.568302171183997e-001	 3.280651184759944e+000	 8.171409757260815e+000
 3.266392392833471e-001	 3.283794574465440e+000	 8.169412534280067e+000
 2.965196450651695e-001	 3.286651198413287e+000	 8.156812493954726e+000
 6.050271492656288e-001	 3.269490349961068e+000	 7.364673208039743e+000
 5.741693895358421e-001	 3.275050306784259e+000	 7.568828887504100e+000
 5.433524283577125e-001	 3.280303818010806e+000	 7.733318423286613e+000
 5.125803811482904e-001	 3.285252859785902e+000	 7.862490670002249e+000
 4.818573009974933e-001	 3.289899472834431e+000	 7.960692787525886e+000
 4.511871776541301e-001	 3.294245760506156e+000	 8.032298048253489e+000
 4.205739365759406e-001	 3.298293886811303e+000	 8.081732303431609e+000
 3.900214380432449e-001	 3.302046074448694e+000	 8.113499071647132e+000
 3.595334763357207e-001	 3.305504602828564e+000	 8.132203218389750e+000
 3.291137789717527e-001	 3.308671806092170e+000	 8.142573201300875e+000
 2.987660060097320e-001	 3.311550071130214e+000	 8.149481861294877e+000
 6.095762255751076e-001	 3.294072984173759e+000	 7.673099186206478e+000
 5.784864526137959e-001	 3.299674745183752e+000	 7.785587477944091e+000
 5.474377849602403e-001	 3.304967756494813e+000	 7.875209075471626e+000
 5.164343689744760e-001	 3.309954009110376e+000	 7.945030792458853e+000
 4.854802882207799e-001	 3.314635559099118e+000	 7.998126342656893e+000
 4.545795624460718e-001	 3.319014525625462e+000	 8.037605949991908e+000
 4.237361466228107e-001	 3.323093088970390e+000	 8.066644549183474e+000
 3.929539300559801e-001	 3.326873488544743e+000	 8.088508538390340e+000
 3.622367355536756e-001	 3.330358020897183e+000	 8.106581051431236e+000
 3.315883186607355e-001	 3.333549037718900e+000	 8.124385723054539e+000
 3.010123669547862e-001	 3.336448943847143e+000	 8.145608926518294e+000
 6.141253018846009e-001	 3.318655618386451e+000	 8.016628102582725e+000
 5.828035156919487e-001	 3.324299183583244e+000	 8.035026226216129e+000
 5.515231415631204e-001	 3.329631694978822e+000	 8.047172901271278e+000
 5.202883568011361e-001	 3.334655158434850e+000	 8.054842318638007e+000
 4.891032754446331e-001	 3.339371645363804e+000	 8.059824445785052e+000
 4.579719472386417e-001	 3.343783290744768e+000	 8.063956455998007e+000
 4.268983566703405e-001	 3.347892291129476e+000	 8.069152678646068e+000
 3.958864220693771e-001	 3.351700902640793e+000	 8.077433030381245e+000
 3.649399947722648e-001	 3.355211438965803e+000	 8.090949893446378e+000
 3.340628583502958e-001	 3.358426269345630e+000	 8.112013413419271e+000
 3.032587279003322e-001	 3.361347816564072e+000	 8.143115194729697e+000
 6.186743781941089e-001	 3.343238252599141e+000	 8.385798697109456e+000
 5.871205787703006e-001	 3.348923621982736e+000	 8.308402034331277e+000
 5.556084981663528e-001	 3.354295633462829e+000	 8.241189772039514e+000
 5.241423446282711e-001	 3.359356307759325e+000	 8.184632458348338e+000
 4.927262626690530e-001	 3.364107731628490e+000	 8.139225579902471e+000
 4.613643320318399e-001	 3.368552055864073e+000	 8.105522826947476e+000
 4.300605667185303e-001	 3.372691493288563e+000	 8.084167808967930e+000
 3.988189140834356e-001	 3.376528316736844e+000	 8.075924179184861e+000
 3.676432539914879e-001	 3.380064857034423e+000	 8.081704132712613e+000
 3.365373980404333e-001	 3.383303500972360e+000	 8.102595249549184e+000
 3.055050888463698e-001	 3.386246689281000e+000	 8.139885659810883e+000
 6.232234545036314e-001	 3.367820886811832e+000	 8.771227418382374e+000
 5.914376418488513e-001	 3.373548060382227e+000	 8.597038732288423e+000
 5.596938547699376e-001	 3.378959571946838e+000	 8.449295578654883e+000
 5.279963324558809e-001	 3.384057457083798e+000	 8.327153410271780e+000
 4.963492498940393e-001	 3.388843817893177e+000	 8.229802069634298e+000
 4.647567168256663e-001	 3.393320820983380e+000	 8.156500906907720e+000
 4.332227767673799e-001	 3.397490695447649e+000	 8.106612277016536e+000
 4.017514060981558e-001	 3.401355730832893e+000	 8.079633372530548e+000
 3.703465132113452e-001	 3.404918275103042e+000	 8.075226355759430e+000
 3.390119377311482e-001	 3.408180732599090e+000	 8.093246760075987e+000
 3.077514497928993e-001	 3.411145561997928e+000	 8.133770136947533e+000
 6.277725308131688e-001	 3.392403521024523e+000	 8.788826843308115e+000
 5.957547049276010e-001	 3.398172498781718e+000	 8.892324653147202e+000
 5.637792113738745e-001	 3.403623510430845e+000	 8.663580201827875e+000
 5.318503202839654e-001	 3.408758606408272e+000	 8.475200731931713e+000
 4.999722371195925e-001	 3.413579904157864e+000	 8.325058855092902e+000
 4.681491016201209e-001	 3.418089586102686e+000	 8.211108305098879e+000
 4.363849868168893e-001	 3.422289897606736e+000	 8.131419232866870e+000
 4.046838981135377e-001	 3.426183144928944e+000	 8.084211763146616e+000
 3.730497724318366e-001	 3.429771693171661e+000	 8.067887774967922e+000
 3.414864774224405e-001	 3.433057964225819e+000	 8.081060874693023e+000
 3.099978107399203e-001	 3.436044434714856e+000	 8.122584537219273e+000
 6.323216071227208e-001	 3.416986155237214e+000	 8.560593530451286e+000
 6.000717680065499e-001	 3.422796937181211e+000	 9.185710312773889e+000
 5.678645679781637e-001	 3.428287448914853e+000	 8.876185570019949e+000
 5.357043081125246e-001	 3.433459755732747e+000	 8.621611780022397e+000
 5.035952243457120e-001	 3.438315990422550e+000	 8.418532318658214e+000
 4.715414864152037e-001	 3.442858351221992e+000	 8.263583612974720e+000
 4.395471968670585e-001	 3.447089099765823e+000	 8.153532250837019e+000
 4.076163901295813e-001	 3.451010559024994e+000	 8.085310277213550e+000
 3.757530316529621e-001	 3.454625111240281e+000	 8.056048637712781e+000
 3.439610171143100e-001	 3.457935195852549e+000	 8.063108737066697e+000
 3.122441716874331e-001	 3.460943307431786e+000	 8.104112087171718e+000
 6.368706834322875e-001	 3.441568789449906e+000	 8.325067066834475e+000
 6.043888310856980e-001	 3.447421375580705e+000	 9.468706189026410e+000
 5.719499245828054e-001	 3.452951387398861e+000	 9.079303800595792e+000
 5.395582959415586e-001	 3.458160905057220e+000	 8.759264217581237e+000
 5.072182115723986e-001	 3.463052076687237e+000	 8.503789162040286e+000
 4.749338712109150e-001	 3.467627116341299e+000	 8.308185654856933e+000
 4.427094069178876e-001	 3.471888301924910e+000	 8.167904957193537e+000
 4.105488821462868e-001	 3.475837973121044e+000	 8.078579622454924e+000
 3.784562908747218e-001	 3.479478529308901e+000	 8.036058617969452e+000
 3.464355568067571e-001	 3.482812427479281e+000	 8.036440482908805e+000
 3.144905326354376e-001	 3.485842180148714e+000	 8.076104496121467e+000
 2.920269231775196e-001	 3.236853452979430e+000	 8.189969850727291e+000
 2.624374994324514e-001	 3.239386756599464e+000	 8.202935592362397e+000
 2.329253324867810e-001	 3.241642452436632e+000	 8.199641645486443e+000
 2.034937985235931e-001	 3.243623016616949e+000	 8.188005777031552e+000
 1.741462056470118e-001	 3.245330969105183e+000	 8.176112924127654e+000
 1.448857934907254e-001	 3.246768871790384e+000	 8.172225687757544e+000
 1.157157328821547e-001	 3.247939326581152e+000	 8.184793547711601e+000
 8.663912556126928e-002	 3.248844973512246e+000	 8.222460812528492e+000
 5.765900395300648e-002	 3.249488488864120e+000	 8.294073321711025e+000
 2.877833099221489e-002	 3.249872583296864e+000	 8.408683920904492e+000
 0.000000000000000e+000	 3.250000000000000e+000	 8.575556733908847e+000
 2.942732841210988e-001	 3.261752325696358e+000	 8.169641414612851e+000
 2.644562494246240e-001	 3.264305116266987e+000	 8.193237521400549e+000
 2.347170658106003e-001	 3.266578163610304e+000	 8.202454123781815e+000
 2.050591354327515e-001	 3.268573962899444e+000	 8.204250902026523e+000
 1.754857918421566e-001	 3.270295053483519e+000	 8.205776968796197e+000
 1.460002995927630e-001	 3.271744016958421e+000	 8.214382280051821e+000
 1.166058539029721e-001	 3.272923475247427e+000	 8.237627698642891e+000
 8.730558037229162e-002	 3.273836088693260e+000	 8.283293724741339e+000
 5.810253475200487e-002	 3.274484554163141e+000	 8.359387911037997e+000
 2.899970276876704e-002	 3.274871603168394e+000	 8.474150984155831e+000
 0.000000000000000e+000	 3.275000000000000e+000	 8.636061697055647e+000
 2.965196450651695e-001	 3.286651198413287e+000	 8.156812493954726e+000
 2.664749994171937e-001	 3.289223475934511e+000	 8.187429471008791e+000
 2.365087991347322e-001	 3.291513874783975e+000	 8.205312981321423e+000
 2.066244723421483e-001	 3.293524909181938e+000	 8.216456879023941e+000
 1.768253780374759e-001	 3.295259137861856e+000	 8.227067097977773e+000
 1.471148056949214e-001	 3.296719162126458e+000	 8.243573987167009e+000
 1.174959749238665e-001	 3.297907623913702e+000	 8.272643229230104e+000
 8.797203518335717e-002	 3.298827203874272e+000	 8.321185356781717e+000
 5.854606555102237e-002	 3.299480619462162e+000	 8.396363885088300e+000
 2.922107454532396e-002	 3.299870623039924e+000	 8.505602083334926e+000
 0.000000000000000e+000	 3.300000000000000e+000	 8.656588410179875e+000
 2.987660060097320e-001	 3.311550071130214e+000	 8.149481861294877e+000
 2.684937494101602e-001	 3.314141835602035e+000	 8.184218509473658e+000
 2.383005324591768e-001	 3.316449585957646e+000	 8.207633466253560e+000
 2.081898092517838e-001	 3.318475855464432e+000	 8.224746657878709e+000
 1.781649642329699e-001	 3.320223222240192e+000	 8.240813129722724e+000
 1.482293117972007e-001	 3.321694307294493e+000	 8.261336313607908e+000
 1.183860959448380e-001	 3.322891772579979e+000	 8.292079807777061e+000
 8.863848999446590e-002	 3.323818319055284e+000	 8.339077684678648e+000
 5.898959635005902e-002	 3.324476684761183e+000	 8.408643345780460e+000
 2.944244632188565e-002	 3.324869642911456e+000	 8.507376946457448e+000
 0.000000000000000e+000	 3.324999999999999e+000	 8.642171417585061e+000
 3.010123669547862e-001	 3.336448943847143e+000	 8.145608926518294e+000
 2.705124994035238e-001	 3.339060195269558e+000	 8.182261426651118e+000
 2.400922657839339e-001	 3.341385297131319e+000	 8.208769580809344e+000
 2.097551461616577e-001	 3.343426801746927e+000	 8.229170928107299e+000
 1.795045504286384e-001	 3.345187306618529e+000	 8.247761565118505e+000
 1.493438178996009e-001	 3.346669452462530e+000	 8.269110352765722e+000
 1.192762169658866e-001	 3.347875921246255e+000	 8.298071564423831e+000
 8.930494480561785e-002	 3.348809434236297e+000	 8.339795990914226e+000
 5.943312714911481e-002	 3.349472750060204e+000	 8.399740522279787e+000
 2.966381809845210e-002	 3.349868662782986e+000	 8.483676230204836e+000
 0.000000000000000e+000	 3.350000000000000e+000	 8.597694978670052e+000
 3.032587279003322e-001	 3.361347816564072e+000	 8.143115194729697e+000
 2.725312493972843e-001	 3.363978554937082e+000	 8.180166596130402e+000
 2.418839991090036e-001	 3.366321008304990e+000	 8.208016349669926e+000
 2.113204830717700e-001	 3.368377748029420e+000	 8.229710795197049e+000
 1.808441366244817e-001	 3.370151390996865e+000	 8.248578674102738e+000
 1.504583240021218e-001	 3.371644597630567e+000	 8.268246283626665e+000
 1.201663379870122e-001	 3.372860069912530e+000	 8.292650999967377e+000
 8.997139961681300e-002	 3.373800549417310e+000	 8.326053186406824e+000
 5.987665794818972e-002	 3.374468815359224e+000	 8.373046507026180e+000
 2.988518987502332e-002	 3.374867682654516e+000	 8.438566670714518e+000
 0.000000000000000e+000	 3.375000000000000e+000	 8.527898634037156e+000
 3.055050888463698e-001	 3.386246689281000e+000	 8.139885659810883e+000
 2.745499993914417e-001	 3.388896914604605e+000	 8.176495755244531e+000
 2.436757324343858e-001	 3.391256719478660e+000	 8.204611988258485e+000
 2.128858199821210e-001	 3.393328694311915e+000	 8.226280338841855e+000
 1.821837228204996e-001	 3.395115475375202e+000	 8.243853445137891e+000
 1.515728301047637e-001	 3.396619742798604e+000	 8.260006713212606e+000
 1.210564590082149e-001	 3.397844218578805e+000	 8.277752722234350e+000
 9.063785442805133e-002	 3.398791664598324e+000	 8.300453941818242e+000
 6.032018874728375e-002	 3.399464880658245e+000	 8.331833782819773e+000
 3.010656165159930e-002	 3.399866702526048e+000	 8.375986007129287e+000
 0.000000000000000e+000	 3.400000000000000e+000	 8.437382526035682e+000
 3.077514497928993e-001	 3.411145561997928e+000	 8.133770136947533e+000
 2.765687493859962e-001	 3.413815274272130e+000	 8.169765707122418e+000
 2.454674657600808e-001	 3.416192430652333e+000	 8.197739976070757e+000
 2.144511568927105e-001	 3.418279640594409e+000	 8.218729059139390e+000
 1.835233090166920e-001	 3.420079559753539e+000	 8.234100405703074e+000
 1.526873362075264e-001	 3.421594887966640e+000	 8.245569872638770e+000
 1.219465800294947e-001	 3.422828367245081e+000	 8.255217018817302e+000
 9.130430923933289e-002	 3.423782779779336e+000	 8.265498637928378e+000
 6.076371954639694e-002	 3.424460945957267e+000	 8.279260551639490e+000
 3.032793342818005e-002	 3.424865722397579e+000	 8.299747689517158e+000
 0.000000000000000e+000	 3.425000000000000e+000	 8.330612486289587e+000
 3.099978107399203e-001	 3.436044434714856e+000	 8.122584537219273e+000
 2.785874993809475e-001	 3.438733633939654e+000	 8.158449948740225e+000
 2.472591990860882e-001	 3.441128141826003e+000	 8.186531039861032e+000
 2.160164938035385e-001	 3.443230586876904e+000	 8.206844216431122e+000
 1.848628952130592e-001	 3.445043644131875e+000	 8.219762320155597e+000
 1.538018423104099e-001	 3.446570033134677e+000	 8.226032674210952e+000
 1.228367010508516e-001	 3.447812515911356e+000	 8.226793274474526e+000
 9.197076405065760e-002	 3.448773894960349e+000	 8.223587144253582e+000
 6.120725034552924e-002	 3.449457011256287e+000	 8.218374875253195e+000
 3.054930520476556e-002	 3.449864742269109e+000	 8.213545382098381e+000
 0.000000000000000e+000	 3.449999999999999e+000	 8.211924902028200e+000
 3.122441716874331e-001	 3.460943307431786e+000	 8.104112087171718e+000
 2.806062493762958e-001	 3.463651993607177e+000	 8.140980228696513e+000
 2.490509324124082e-001	 3.466063852999674e+000	 8.170065051222343e+000
 2.175818307146049e-001	 3.468181533159398e+000	 8.190353070142837e+000
 1.862024814096009e-001	 3.470007728510212e+000	 8.201212771138193e+000
 1.549163484134143e-001	 3.471545178302714e+000	 8.202413636563190e+000
 1.237268220722855e-001	 3.472796664577632e+000	 8.194143241015842e+000
 9.263721886202557e-002	 3.473765010141362e+000	 8.177022434560280e+000
 6.165078114468067e-002	 3.474453076555308e+000	 8.152118637094912e+000
 3.077067698135585e-002	 3.474863762140640e+000	 8.120957272088692e+000
 0.000000000000000e+000	 3.474999999999999e+000	 8.085531372359185e+000
 3.144905326354376e-001	 3.485842180148714e+000	 8.076104496121467e+000
 2.826249993720412e-001	 3.488570353274702e+000	 8.115748038225284e+000
 2.508426657390410e-001	 3.490999564173347e+000	 8.147372842842245e+000
 2.191471676259100e-001	 3.493132479441893e+000	 8.168925021673893e+000
 1.875420676063174e-001	 3.494971812888549e+000	 8.178758630354491e+000
 1.560308545165396e-001	 3.496520323470751e+000	 8.175655684431309e+000
 1.246169430937966e-001	 3.497780813243908e+000	 8.158844167050834e+000
 9.330367367343673e-002	 3.498756125322376e+000	 8.128014047426959e+000
 6.209431194385126e-002	 3.499449141854330e+000	 8.083331334348729e+000
 3.099204875795090e-002	 3.499862782012171e+000	 8.025450193878431e+000
 0.000000000000000e+000	 3.500000000000000e+000	 7.955523164987362e+000
 3.500000000000000e+000	 0.000000000000000e+000	 1.066379308515819e+001
 3.499862782012172e+000	 3.099204875794991e-002	 1.061328729379441e+001
 3.499449141854330e+000	 6.209431194385037e-002	 1.057929017293356e+001
 3.498756125322376e+000	 9.330367367343595e-002	 1.056064856534308e+001
 3.497780813243908e+000	 1.246169430937959e-001	 1.055601908203344e+001
 3.496520323470751e+000	 1.560308545165391e-001	 1.056389035578706e+001
 3.494971812888549e+000	 1.875420676063169e-001	 1.058260686417124e+001
 3.493132479441893e+000	 2.191471676259096e-001	 1.061039431717930e+001
 3.490999564173347e+000	 2.508426657390407e-001	 1.064538659961112e+001
 3.488570353274701e+000	 2.826249993720411e-001	 1.068565425308381e+001
 3.485842180148715e+000	 3.144905326354376e-001	 1.072923447715863e+001
 3.525000000000000e+000	 0.000000000000000e+000	 1.067709288241818e+001
 3.524861801883700e+000	 3.121342053454733e-002	 1.061906509837748e+001
 3.524445207153342e+000	 6.253784274303052e-002	 1.058292285095569e+001
 3.523747240503367e+000	 9.397012848486869e-002	 1.056648946205694e+001
 3.522764961910145e+000	 1.255070641153454e-001	 1.056737145264128e+001
 3.521495468638727e+000	 1.571453606197247e-001	 1.058298171964340e+001
 3.519935897266799e+000	 1.888816538031206e-001	 1.061056435394042e+001
 3.518083425724269e+000	 2.207125045373338e-001	 1.064722109481753e+001
 3.515935275346863e+000	 2.526343990658297e-001	 1.068993941118400e+001
 3.513488712942027e+000	 2.846437493679848e-001	 1.073562219439626e+001
 3.510741052865397e+000	 3.167368935836880e-001	 1.078111904196290e+001
 3.549999999999999e+000	 0.000000000000000e+000	 1.070142105058877e+001
 3.549860821755223e+000	 3.143479231114475e-002	 1.063342131634034e+001
 3.549441272452333e+000	 6.298137354221063e-002	 1.059276028506705e+001
 3.548738355684315e+000	 9.463658329630142e-002	 1.057622910263701e+001
 3.547749110576306e+000	 1.263971851368950e-001	 1.058037528489946e+001
 3.546470613806582e+000	 1.582598667229104e-001	 1.060152682847368e+001
 3.544899981644873e+000	 1.902212399999243e-001	 1.063581803496560e+001
 3.543034372006405e+000	 2.222778414487581e-001	 1.067921704437012e+001
 3.540870986520065e+000	 2.544261323926186e-001	 1.072755506805099e+001
 3.538407072608955e+000	 2.866624993639286e-001	 1.077655730612073e+001
 3.535639925581588e+000	 3.189832545319382e-001	 1.082187552827947e+001
 3.574999999999999e+000	 0.000000000000000e+000	 1.073276678085210e+001
 3.574859841626743e+000	 3.165616408774217e-002	 1.065301096601072e+001
 3.574437337751306e+000	 6.342490434139073e-002	 1.060612604689307e+001
 3.573729470865220e+000	 9.530303810773416e-002	 1.058786204218346e+001
 3.572733259242388e+000	 1.272873061584445e-001	 1.059369824474284e+001
 3.571445758974317e+000	 1.593743728260961e-001	 1.061886827690048e+001
 3.569864066022773e+000	 1.915608261967280e-001	 1.065838693238167e+001
 3.567985318288304e+000	 2.238431783601823e-001	 1.070707880093688e+001
 3.565806697692955e+000	 2.562178657194075e-001	 1.075960866620720e+001
 3.563325432275486e+000	 2.886812493598723e-001	 1.081051366161120e+001
 3.560538798297286e+000	 3.212296154801885e-001	 1.085423716309240e+001
 3.600000000000000e+000	 0.000000000000000e+000	 1.076723067574634e+001
 3.599858861498257e+000	 3.187753586433959e-002	 1.067459049923407e+001
 3.599433403050260e+000	 6.386843514057089e-002	 1.062043513241383e+001
 3.598720586046081e+000	 9.596949291916691e-002	 1.059946422309641e+001
 3.597717407908394e+000	 1.281774271799941e-001	 1.060607932396388e+001
 3.596420904141930e+000	 1.604888789292817e-001	 1.063440990315193e+001
 3.594828150400499e+000	 1.929004123935317e-001	 1.067834121551325e+001
 3.592936264569962e+000	 2.254085152716066e-001	 1.073154403094413e+001
 3.590742408865533e+000	 2.580095990461965e-001	 1.078750621044714e+001
 3.588243791941621e+000	 2.906999993558161e-001	 1.083956611467951e+001
 3.585437671012494e+000	 3.234759764284390e-001	 1.088094782360122e+001
 3.625000000000000e+000	 0.000000000000000e+000	 1.080102090739468e+001
 3.624857881369765e+000	 3.209890764093702e-002	 1.069501430366573e+001
 3.624429468349195e+000	 6.431196593975101e-002	 1.063319080940039e+001
 3.623711701226900e+000	 9.663594773059965e-002	 1.060919016861701e+001
 3.622701556574322e+000	 1.290675482015436e-001	 1.061632638070079e+001
 3.621396049309423e+000	 1.616033850324674e-001	 1.064761467721295e+001
 3.619792234778049e+000	 1.942399985903353e-001	 1.069580043428174e+001
 3.617887210851384e+000	 2.269738521830308e-001	 1.075339001727106e+001
 3.615678120037797e+000	 2.598013323729854e-001	 1.081268354854384e+001
 3.613162151607358e+000	 2.927187493517598e-001	 1.086580958302787e+001
 3.610336543727210e+000	 3.257223373766893e-001	 1.090476166997218e+001
 3.650000000000000e+000	 0.000000000000000e+000	 1.083044953361536e+001
 3.649856901241271e+000	 3.232027941753444e-002	 1.071123134880500e+001
 3.649425533648110e+000	 6.475549673893113e-002	 1.064198159440803e+001
 3.648702816407675e+000	 9.730240254203239e-002	 1.061527029170321e+001
 3.647685705240175e+000	 1.299576692230932e-001	 1.062331378100059e+001
 3.646371194476795e+000	 1.627178911356531e-001	 1.065800267576534e+001
 3.644756319155425e+000	 1.955795847871390e-001	 1.071093182808894e+001
 3.642838157132565e+000	 2.285391890944550e-001	 1.077343230252227e+001
 3.640613831209749e+000	 2.615930656997744e-001	 1.083660534922925e+001
 3.638080511272699e+000	 2.947374993477036e-001	 1.089135836112902e+001
 3.635235416441434e+000	 3.279686983249396e-001	 1.092844279318172e+001
 3.675000000000000e+000	 0.000000000000000e+000	 1.085192896439475e+001
 3.674855921112770e+000	 3.254165119413186e-002	 1.072028196892574e+001
 3.674421598947007e+000	 6.519902753811127e-002	 1.064447835315769e+001
 3.673693931588407e+000	 9.796885735346513e-002	 1.061600831374640e+001
 3.672669853905949e+000	 1.308477902446427e-001	 1.062598013664570e+001
 3.671346339644046e+000	 1.638323972388387e-001	 1.066514913978299e+001
 3.669720403532627e+000	 1.969191709839428e-001	 1.072394870372613e+001
 3.667789103413511e+000	 2.301045260058793e-001	 1.079252338767616e+001
 3.665549542381389e+000	 2.633847990265633e-001	 1.086076412188936e+001
 3.662998870937642e+000	 2.967562493436473e-001	 1.091834546115282e+001
 3.660134289155166e+000	 3.302150592731899e-001	 1.095476487723393e+001
 3.699999999999999e+000	 0.000000000000000e+000	 1.086196857161148e+001
 3.699854940984265e+000	 3.276302297072929e-002	 1.071929477642827e+001
 3.699417664245885e+000	 6.564255833729141e-002	 1.063843151846974e+001
 3.698685046769097e+000	 9.863531216489786e-002	 1.060977878793546e+001
 3.697654002571646e+000	 1.317379112661922e-001	 1.062332613468955e+001
 3.696321484811177e+000	 1.649469033420245e-001	 1.066868261087340e+001
 3.694684487909653e+000	 1.982587571807465e-001	 1.073510887904320e+001
 3.692740049694216e+000	 2.316698629173035e-001	 1.081155148349170e+001
 3.690485253552716e+000	 2.651765323533522e-001	 1.088667927600172e+001
 3.687917230602189e+000	 2.987749993395911e-001	 1.094892198061136e+001
 3.685033161868407e+000	 3.324614202214402e-001	 1.098651087507181e+001
 3.724999999999999e+000	 0.000000000000000e+000	 1.085717143528135e+001
 3.724853960855755e+000	 3.298439474732670e-002	 1.070548369948653e+001
 3.724413729544743e+000	 6.608608913647153e-002	 1.062166842022722e+001
 3.723676161949742e+000	 9.930176697633060e-002	 1.059502472235087e+001
 3.722638151237267e+000	 1.326280322877418e-001	 1.061441245439425e+001
 3.721296629978185e+000	 1.660614094452101e-001	 1.066828314266587e+001
 3.719648572286506e+000	 1.995983433775501e-001	 1.074471318928881e+001
 3.717690995974683e+000	 2.332351998287278e-001	 1.083143931219305e+001
 3.715420964723730e+000	 2.669682656801412e-001	 1.091589621844767e+001
 3.712835590266339e+000	 3.007937493355348e-001	 1.098525649546830e+001
 3.709932034581156e+000	 3.347077811696906e-001	 1.102647269753865e+001
 3.750000000000000e+000	 0.000000000000000e+000	 1.083423121995302e+001
 3.749852980727241e+000	 3.320576652392414e-002	 1.067614513818838e+001
 3.749409794843583e+000	 6.652961993565168e-002	 1.059209072213988e+001
 3.748667277130346e+000	 9.996822178776336e-002	 1.057025529813449e+001
 3.747622299902811e+000	 1.335181533092913e-001	 1.059835776748983e+001
 3.746271775145075e+000	 1.671759155483958e-001	 1.066368058374390e+001
 3.744612656663185e+000	 2.009379295743539e-001	 1.075310405319737e+001
 3.742641942254912e+000	 2.348005367401521e-001	 1.085314295708805e+001
 3.740356675894433e+000	 2.687599990069302e-001	 1.094998548693209e+001
 3.737753949930092e+000	 3.028124993314787e-001	 1.102953447752386e+001
 3.734830907293414e+000	 3.369541421179410e-001	 1.107745091478205e+001
 3.485842180148715e+000	 3.144905326354376e-001	 1.072923447715863e+001
 3.482812427479281e+000	 3.464355568067562e-001	 1.073147427856407e+001
 3.479478529308901e+000	 3.784562908747209e-001	 1.072759102765302e+001
 3.475837973121045e+000	 4.105488821462861e-001	 1.071564390247172e+001
 3.471888301924911e+000	 4.427094069178871e-001	 1.069379676309467e+001
 3.467627116341299e+000	 4.749338712109144e-001	 1.066035538591390e+001
 3.463052076687237e+000	 5.072182115723982e-001	 1.061380597139445e+001
 3.458160905057221e+000	 5.395582959415585e-001	 1.055285486288291e+001
 3.452951387398862e+000	 5.719499245828053e-001	 1.047646940776196e+001
 3.447421375580705e+000	 6.043888310856981e-001	 1.038391988593372e+001
 3.441568789449906e+000	 6.368706834322875e-001	 1.172360714367075e+001
 3.510741052865397e+000	 3.167368935836880e-001	 1.078111904196290e+001
 3.507689659105719e+000	 3.489100964994941e-001	 1.078109380957543e+001
 3.504331947377194e+000	 3.811595500968072e-001	 1.076938329560857e+001
 3.500665387216742e+000	 4.134813741633440e-001	 1.074289661926666e+001
 3.496687504083629e+000	 4.458716169690847e-001	 1.069863487402700e+001
 3.492395881460230e+000	 4.783262560070002e-001	 1.063372993727635e+001
 3.487788162951553e+000	 5.108411987994556e-001	 1.054548461680010e+001
 3.482862054381338e+000	 5.434122837709493e-001	 1.043141407009578e+001
 3.477615325882537e+000	 5.760352811877796e-001	 1.028928842597689e+001
 3.472045813979897e+000	 6.087058941651443e-001	 1.011717653140916e+001
 3.466151423662342e+000	 6.414197597421076e-001	 1.190900861915218e+001
 3.535639925581588e+000	 3.189832545319382e-001	 1.082187552827947e+001
 3.532566890731576e+000	 3.513846361922370e-001	 1.081983496098552e+001
 3.529185365444834e+000	 3.838628093189127e-001	 1.080052937425876e+001
 3.525492801311734e+000	 4.164138661804452e-001	 1.075970623340100e+001
 3.521486706241609e+000	 4.490338270203598e-001	 1.069319213664647e+001
 3.517164646578412e+000	 4.817186408032076e-001	 1.059693321907082e+001
 3.512524249215126e+000	 5.144641860266879e-001	 1.046703695750299e+001
 3.507563203704740e+000	 5.472662716005795e-001	 1.029981531077358e+001
 3.502279264365547e+000	 5.801206377930676e-001	 1.009182912291706e+001
 3.496670252378494e+000	 6.130229572449886e-001	 9.839933710200244e+000
 3.490734057874272e+000	 6.459688360524207e-001	 1.206586253017673e+001
 3.560538798297286e+000	 3.212296154801885e-001	 1.085423716309240e+001
 3.557444122356851e+000	 3.538591758849846e-001	 1.085106054013658e+001
 3.554038783511820e+000	 3.865660685410374e-001	 1.082502106782766e+001
 3.550320215406022e+000	 4.193463581975899e-001	 1.077069262567779e+001
 3.546285908398852e+000	 4.521960370717122e-001	 1.068271524680092e+001
 3.541933411695845e+000	 4.851110255995360e-001	 1.055583713529487e+001
 3.537260335477958e+000	 5.180871732540957e-001	 1.038495814955027e+001
 3.532264353027429e+000	 5.511202594304488e-001	 1.016517468416387e+001
 3.526943202847890e+000	 5.842059943986688e-001	 9.891825876197467e+000
 3.521294690776494e+000	 6.173400203252305e-001	 9.560541054559783e+000
 3.515316692085695e+000	 6.505179123632263e-001	 1.219465570581544e+001
 3.585437671012494e+000	 3.234759764284390e-001	 1.088094782360122e+001
 3.582321353981543e+000	 3.563337155777368e-001	 1.087813524874860e+001
 3.578892201578152e+000	 3.892693277631811e-001	 1.084684332694476e+001
 3.575147629499604e+000	 4.222788502147780e-001	 1.078046008676274e+001
 3.571085110555359e+000	 4.553582471231421e-001	 1.067242658870035e+001
 3.566702176812526e+000	 4.885034103959858e-001	 1.051628057550685e+001
 3.561996421740048e+000	 5.217101604816787e-001	 1.030570165414970e+001
 3.556965502349406e+000	 5.549742472605577e-001	 1.003455794041802e+001
 3.551607141329567e+000	 5.882913510045834e-001	 9.696954090004882e+000
 3.545919129173897e+000	 6.216570834058705e-001	 9.287280632724153e+000
 3.539899326296611e+000	 6.550669886745246e-001	 1.229579885812989e+001
 3.610336543727210e+000	 3.257223373766893e-001	 1.090476166997218e+001
 3.607198585605653e+000	 3.588082552704940e-001	 1.090442561759582e+001
 3.603745619643832e+000	 3.919725869853445e-001	 1.086997448497548e+001
 3.599975043592481e+000	 4.252113422320095e-001	 1.079359785477534e+001
 3.595884312711128e+000	 4.585204571746494e-001	 1.066752507324907e+001
 3.591470941928460e+000	 4.918957951925569e-001	 1.048407055325502e+001
 3.586732508001397e+000	 5.253331477094370e-001	 1.023568067542274e+001
 3.581666651670666e+000	 5.588282350909055e-001	 9.914982216766621e+000
 3.576271079810580e+000	 5.923767076108115e-001	 9.514832228664465e+000
 3.570543567570703e+000	 6.259741464869082e-001	 9.138279835883136e+000
 3.564481960507018e+000	 6.596160649863155e-001	 1.236962920689673e+001
 3.635235416441434e+000	 3.279686983249396e-001	 1.092844279318172e+001
 3.632075817229181e+000	 3.612827949632560e-001	 1.093329994386812e+001
 3.628599037708858e+000	 3.946758462075269e-001	 1.089838648464034e+001
 3.624802457684653e+000	 4.281438342492844e-001	 1.081468063078686e+001
 3.620683514866161e+000	 4.616826672262341e-001	 1.067318694192605e+001
 3.616239707043643e+000	 4.952881799892493e-001	 1.046498329772165e+001
 3.611468594262003e+000	 5.289561349373704e-001	 1.018126953907181e+001
 3.606367800991213e+000	 5.626822229214925e-001	 9.813417702345863e+000
 3.600935018290926e+000	 5.964620642173530e-001	 9.353023766634923e+000
 3.595168005966912e+000	 6.302912095683440e-001	 9.369185990330081e+000
 3.589064594716919e+000	 6.641651412985992e-001	 1.241641299646658e+001
 3.660134289155166e+000	 3.302150592731899e-001	 1.095476487723393e+001
 3.656953048852127e+000	 3.637573346560227e-001	 1.096812823108864e+001
 3.653452455773231e+000	 3.973791054297284e-001	 1.093604509538334e+001
 3.649629871776119e+000	 4.310763262666026e-001	 1.084826907327777e+001
 3.645482717020455e+000	 4.648448772778961e-001	 1.069456653785394e+001
 3.641008472158078e+000	 4.986805647860632e-001	 1.046476530081022e+001
 3.636204680521867e+000	 5.325791221654790e-001	 1.014880501477558e+001
 3.631068950311046e+000	 5.665362107523190e-001	 9.736789235071047e+000
 3.625598956770607e+000	 6.005474208242080e-001	 9.219039058911992e+000
 3.619792444362524e+000	 6.346082726501775e-001	 9.592447820868300e+000
 3.613647228926312e+000	 6.687142176113755e-001	 1.243634790989414e+001
 3.685033161868407e+000	 3.324614202214402e-001	 1.098651087507181e+001
 3.681830280474491e+000	 3.662318743487942e-001	 1.101228213146743e+001
 3.678305873836951e+000	 4.000823646519494e-001	 1.098691012192873e+001
 3.674457285866882e+000	 4.340088182839643e-001	 1.089891027254969e+001
 3.670281919174012e+000	 4.680070873296355e-001	 1.073679704560820e+001
 3.665777237271762e+000	 5.020729495829982e-001	 1.048913432178338e+001
 3.660940766780990e+000	 5.362021093937629e-001	 1.014458758497329e+001
 3.655770099630165e+000	 5.703901985833845e-001	 9.691977833772848e+000
 3.650262895249622e+000	 6.046327774313763e-001	 9.120337135605128e+000
 3.644416882757539e+000	 6.389253357324090e-001	 9.808037093979685e+000
 3.638229863135198e+000	 6.732632939246445e-001	 1.242956538519803e+001
 3.709932034581156e+000	 3.347077811696906e-001	 1.102647269753865e+001
 3.706707512096273e+000	 3.687064140415705e-001	 1.106913489057648e+001
 3.703159291900017e+000	 4.027856238741893e-001	 1.105493560443954e+001
 3.699284699956939e+000	 4.369413103013693e-001	 1.097113820603320e+001
 3.695081121326832e+000	 4.711692973814524e-001	 1.080499120123554e+001
 3.690546002384697e+000	 5.054653343800545e-001	 1.054378035144528e+001
 3.685676853039371e+000	 5.398250966222220e-001	 1.017488266255762e+001
 3.680471248948570e+000	 5.742441864146893e-001	 9.685822168636019e+000
 3.674926833727972e+000	 6.087181340388582e-001	 9.064327424248841e+000
 3.669041321151957e+000	 6.432423988150382e-001	 1.001586874802338e+001
 3.662812497343578e+000	 6.778123702384060e-001	 1.239613283834878e+001
 3.734830907293414e+000	 3.369541421179410e-001	 1.107745091478205e+001
 3.731584743717474e+000	 3.711809537343518e-001	 1.114206129423743e+001
 3.728012709962430e+000	 4.054888830964488e-001	 1.114407001066937e+001
 3.724112114046291e+000	 4.398738023188178e-001	 1.106947417538372e+001
 3.719880323478916e+000	 4.743315074333467e-001	 1.090424197387142e+001
 3.715314767496882e+000	 5.088577191772322e-001	 1.063436653775694e+001
 3.710412939297010e+000	 5.434480838508565e-001	 1.024592175985935e+001
 3.705172398266262e+000	 5.780981742462337e-001	 9.725119972821148e+000
 3.699590772205657e+000	 6.128034906466537e-001	 9.058371403221873e+000
 3.693665759545780e+000	 6.475594618980656e-001	 1.021580278750620e+001
 3.687395131551449e+000	 6.823614465526605e-001	 1.233605579733649e+001
 3.441568789449906e+000	 6.368706834322875e-001	 1.172360714367075e+001
 3.435391618878011e+000	 6.693910851321568e-001	 1.159345846143112e+001
 3.428887925790747e+000	 7.019455764256674e-001	 1.147046218914149e+001
 3.422055846180586e+000	 7.345296355551680e-001	 1.135444756734273e+001
 3.414893592100732e+000	 7.671386801043791e-001	 1.124508077790992e+001
 3.407399453636346e+000	 7.997680684061287e-001	 1.114184923772143e+001
 3.399571800851111e+000	 8.324131010182234e-001	 1.104404578596479e+001
 3.391409085706569e+000	 8.650690222672626e-001	 1.095075280888382e+001
 3.382909843951724e+000	 8.977310218600830e-001	 1.086082634754453e+001
 3.374072696980329e+000	 9.303942365624413e-001	 1.077288023587087e+001
 3.364896353653301e+000	 9.630537519444204e-001	 1.068527031776860e+001
 3.466151423662342e+000	 6.414197597421076e-001	 1.190900861915218e+001
 3.459930130443355e+000	 6.741724500248499e-001	 1.173246109415520e+001
 3.453379982405272e+000	 7.069594733984075e-001	 1.156486360614342e+001
 3.446499102226226e+000	 7.397762758068602e-001	 1.140667029204846e+001
 3.439285689188370e+000	 7.726182421023856e-001	 1.125817517053721e+001
 3.431738021163191e+000	 8.054806974630455e-001	 1.111949556948857e+001
 3.423854456571968e+000	 8.383589088792044e-001	 1.099055542651694e+001
 3.415633436318824e+000	 8.712480867083657e-001	 1.087106850772927e+001
 3.407073485693827e+000	 9.041433862981304e-001	 1.076052159176434e+001
 3.398173216243544e+000	 9.370399096768675e-001	 1.065815766791613e+001
 3.388931327606469e+000	 9.699327073115912e-001	 1.056295919879243e+001
 3.490734057874272e+000	 6.459688360524207e-001	 1.206586253017673e+001
 3.484468642008293e+000	 6.789538149181262e-001	 1.184847884440319e+001
 3.477872039019489e+000	 7.119733703718012e-001	 1.164191366503817e+001
 3.470942358271658e+000	 7.450229160592580e-001	 1.144724804376280e+001
 3.463677786275902e+000	 7.780978041011291e-001	 1.126540576573314e+001
 3.456076588690030e+000	 8.111933265207119e-001	 1.109713590274456e+001
 3.448137112292919e+000	 8.443047167409269e-001	 1.094299521879606e+001
 3.439857786931272e+000	 8.774271511501820e-001	 1.080333047464634e+001
 3.431237127436225e+000	 9.105557507368421e-001	 1.067826067989647e+001
 3.422273735507152e+000	 9.436855827918900e-001	 1.056765934297464e+001
 3.412966301560131e+000	 9.768116626792683e-001	 1.047113677112584e+001
 3.515316692085695e+000	 6.505179123632263e-001	 1.219465570581544e+001
 3.509007153572822e+000	 6.837351798119854e-001	 1.194166167462815e+001
 3.502364095633400e+000	 7.169872673458494e-001	 1.170142651886815e+001
 3.495385614316883e+000	 7.502695563123618e-001	 1.147566039988864e+001
 3.488069883363327e+000	 7.835773661006106e-001	 1.126591897671321e+001
 3.480415156216862e+000	 8.169059555791280e-001	 1.107358507660262e+001
 3.472419768013961e+000	 8.502505246033909e-001	 1.089985019731712e+001
 3.464082137543914e+000	 8.836062155927119e-001	 1.074569588908701e+001
 3.455400769178916e+000	 9.169681151762193e-001	 1.061187506633437e+001
 3.446374254771157e+000	 9.503312559075083e-001	 1.049889330111279e+001
 3.437001275514286e+000	 9.836906180474516e-001	 1.040699015204218e+001
 3.539899326296611e+000	 6.550669886745246e-001	 1.229579885812989e+001
 3.533545665136944e+000	 6.885165447064279e-001	 1.201208980730874e+001
 3.526856152247003e+000	 7.220011643205517e-001	 1.174315295863363e+001
 3.519828870361901e+000	 7.555161965661711e-001	 1.149132995195230e+001
 3.512461980450646e+000	 7.890569281008294e-001	 1.125881060251541e+001
 3.504753723743688e+000	 8.226185846382939e-001	 1.104761368049956e+001
 3.496702423735099e+000	 8.561963324665964e-001	 1.085956750145800e+001
 3.488306488156749e+000	 8.897852800359549e-001	 1.069629037715173e+001
 3.479564410921900e+000	 9.233804796162610e-001	 1.055917097833146e+001
 3.470474774035553e+000	 9.569769290237226e-001	 1.044934866304877e+001
 3.461036249468935e+000	 9.905695734161415e-001	 1.036769382596891e+001
 3.564481960507018e+000	 6.596160649863155e-001	 1.236962920689673e+001
 3.558084176700659e+000	 6.932979096014533e-001	 1.205977612977572e+001
 3.551348208860298e+000	 7.270150612959079e-001	 1.176678259819092e+001
 3.544272126406712e+000	 7.607628368206859e-001	 1.149362427063373e+001
 3.536854077537856e+000	 7.945364901017858e-001	 1.124312757331676e+001
 3.529092291270505e+000	 8.283312136982085e-001	 1.101794958004654e+001
 3.520985079456328e+000	 8.621421403305433e-001	 1.082055768218845e+001
 3.512530838769779e+000	 8.959643444799116e-001	 1.065320909963618e+001
 3.503728052665179e+000	 9.297928440569677e-001	 1.051793028590250e+001
 3.494575293300342e+000	 9.636226021405324e-001	 1.041649628254359e+001
 3.485071223424078e+000	 9.974485287853374e-001	 1.035041008010320e+001
 3.589064594716919e+000	 6.641651412985992e-001	 1.241641299646658e+001
 3.582622688263967e+000	 6.980792744970616e-001	 1.208466850021025e+001
 3.575840265473288e+000	 7.320289582719184e-001	 1.177194596935992e+001
 3.568715382451315e+000	 7.660094770759065e-001	 1.148185779004195e+001
 3.561246174624960e+000	 8.000160521034795e-001	 1.121786962402443e+001
 3.553430858797317e+000	 8.340438427588733e-001	 1.098327938017391e+001
 3.545267735177652e+000	 8.680879481952321e-001	 1.078119595509788e+001
 3.536755189383001e+000	 9.021434089245816e-001	 1.061451779536336e+001
 3.527891694408750e+000	 9.362052084983391e-001	 1.048591133597562e+001
 3.518675812565526e+000	 9.702682752579384e-001	 1.039778937198208e+001
 3.509106197379714e+000	 1.004327484155040e+000	 1.035228942212520e+001
 3.613647228926312e+000	 6.687142176113755e-001	 1.243634790989414e+001
 3.607161199826867e+000	 7.028606393932529e-001	 1.208665195951947e+001
 3.600332322085968e+000	 7.370428552485825e-001	 1.175821653151699e+001
 3.593158638495713e+000	 7.712561173318326e-001	 1.145529361508148e+001
 3.585638271711956e+000	 8.054956141059108e-001	 1.118199089955700e+001
 3.577769426324120e+000	 8.397564718202875e-001	 1.094224982855558e+001
 3.569550390899070e+000	 8.740337560606624e-001	 1.073982340227878e+001
 3.560979539996417e+000	 9.083224733699647e-001	 1.057825378193122e+001
 3.552055336152616e+000	 9.426175729403755e-001	 1.046084975249731e+001
 3.542776331831104e+000	 9.769139483759403e-001	 1.039066410241945e+001
 3.533141171335844e+000	 1.011206439525248e+000	 1.037047098086183e+001
 3.638229863135198e+000	 6.732632939246445e-001	 1.242956538519803e+001
 3.631699711389360e+000	 7.076420042900274e-001	 1.206555085354189e+001
 3.624824378698343e+000	 7.420567522259013e-001	 1.172511259971835e+001
 3.617601894539901e+000	 7.765027575884642e-001	 1.141314525554690e+001
 3.610030368798847e+000	 8.109751761090794e-001	 1.113440149504671e+001
 3.602107993850920e+000	 8.454691008824511e-001	 1.089346916213807e+001
 3.593833046620580e+000	 8.799795639268340e-001	 1.069474812548557e+001
 3.585203890610026e+000	 9.145015378160616e-001	 1.054242691588909e+001
 3.576218977896775e+000	 9.490299373830771e-001	 1.044045920410061e+001
 3.566876851097076e+000	 9.835596214945384e-001	 1.039254017930208e+001
 3.557176145292468e+000	 1.018085394895963e+000	 1.040208289070761e+001
 3.662812497343578e+000	 6.778123702384060e-001	 1.239613283834878e+001
 3.656238222951446e+000	 7.124233691873849e-001	 1.202113086979445e+001
 3.649316435310409e+000	 7.470706492038739e-001	 1.167209919518018e+001
 3.642045150583884e+000	 7.817493978458017e-001	 1.135457829038846e+001
 3.634422465885629e+000	 8.164547381129859e-001	 1.107396893402016e+001
 3.626446561377710e+000	 8.511817299453643e-001	 1.083550839944650e+001
 3.618115702342184e+000	 8.859253717937472e-001	 1.064424635285729e+001
 3.609428241223830e+000	 9.206806022628715e-001	 1.050502051424919e+001
 3.600382619641227e+000	 9.554423018264432e-001	 1.042243214086062e+001
 3.590977370363441e+000	 9.902052946137319e-001	 1.040082139500453e+001
 3.581211119249587e+000	 1.024964350267184e+000	 1.044424266056519e+001
 3.687395131551449e+000	 6.823614465526605e-001	 1.233605579733649e+001
 3.680776734513125e+000	 7.172047340853256e-001	 1.195310099274977e+001
 3.673808491922170e+000	 7.520845461825008e-001	 1.159858982174020e+001
 3.666488406627661e+000	 7.869960381038451e-001	 1.127871196540665e+001
 3.658814562972306e+000	 8.219343001176299e-001	 1.099951958745192e+001
 3.650785128904496e+000	 8.568943590090274e-001	 1.076690258119905e+001
 3.642398358063881e+000	 8.918711796614022e-001	 1.058656350137138e+001
 3.633652591837826e+000	 9.268596667103952e-001	 1.046399223913810e+001
 3.624546261385974e+000	 9.618546662704745e-001	 1.040444050157994e+001
 3.615077889630201e+000	 9.968509677335217e-001	 1.041289615926542e+001
 3.605246093207198e+000	 1.031843305638912e+000	 1.049405752802848e+001
 3.364896353653301e+000	 9.630537519444204e-001	 1.068527031776860e+001
 3.355379612083005e+000	 9.957046041917383e-001	 1.081829983673442e+001
 3.345521361378934e+000	 1.028341781982668e+000	 1.095584403984381e+001
 3.335320583350722e+000	 1.060960228429861e+000	 1.109584660866057e+001
 3.324776354164621e+000	 1.093554843085373e+000	 1.123593098088433e+001
 3.313887845952988e+000	 1.126120484008404e+000	 1.137338524839405e+001
 3.302654328373524e+000	 1.158651969894472e+000	 1.150514744544586e+001
 3.291075170115785e+000	 1.191144082264780e+000	 1.162779128356382e+001
 3.279149840352444e+000	 1.223591567714392e+000	 1.173751239003192e+001
 3.266877910132902e+000	 1.255989140217728e+000	 1.171331812228023e+001
 3.254259053716807e+000	 1.288331483489811e+000	 1.117256943255784e+001
 3.388931327606469e+000	 9.699327073115912e-001	 1.056295919879243e+001
 3.379346609310144e+000	 1.002816779932178e+000	 1.070010651475649e+001
 3.369417942529220e+000	 1.035687080421720e+000	 1.084462831728849e+001
 3.359144301800547e+000	 1.068538515772246e+000	 1.099471927722402e+001
 3.348524756691562e+000	 1.101365949104042e+000	 1.114824699966989e+001
 3.337558473421284e+000	 1.134164201748157e+000	 1.130273628457841e+001
 3.326244716430685e+000	 1.166928055390793e+000	 1.145535378079876e+001
 3.314582849899959e+000	 1.199652254278306e+000	 1.160289309178341e+001
 3.302572339210159e+000	 1.232331507481436e+000	 1.174176039152085e+001
 3.290212752346753e+000	 1.264960491217280e+000	 1.156672077332746e+001
 3.277503761242674e+000	 1.297533851227396e+000	 1.104049258180947e+001
 3.412966301560131e+000	 9.768116626792683e-001	 1.047113677112584e+001
 3.403313606537867e+000	 1.009928955673029e+000	 1.061066734127814e+001
 3.393314523680163e+000	 1.043032378861098e+000	 1.076057031149871e+001
 3.382968020251078e+000	 1.076116803114882e+000	 1.091929600341559e+001
 3.372273159219242e+000	 1.109177055122895e+000	 1.108496069153394e+001
 3.361229100890329e+000	 1.142207919488038e+000	 1.125533021542257e+001
 3.349835104488587e+000	 1.175204140887197e+000	 1.142780398879630e+001
 3.338090529684847e+000	 1.208160426291878e+000	 1.159939946533742e+001
 3.325994838068540e+000	 1.241071447248501e+000	 1.176673712151930e+001
 3.313547594561199e+000	 1.273931842216838e+000	 1.143235804898910e+001
 3.300748468769045e+000	 1.306736218964982e+000	 1.092340124587893e+001
 3.437001275514286e+000	 9.836906180474516e-001	 1.040699015204218e+001
 3.427280603766174e+000	 1.017041131414290e+000	 1.054702077993281e+001
 3.417211104831760e+000	 1.050377677300802e+000	 1.070056159300029e+001
 3.406791738702315e+000	 1.083695090457767e+000	 1.086632332331596e+001
 3.396021561747658e+000	 1.116988161141932e+000	 1.104267551400129e+001
 3.384899728360124e+000	 1.150251637228048e+000	 1.122762947197828e+001
 3.373425492547230e+000	 1.183480226383683e+000	 1.141882162113040e+001
 3.361598209470448e+000	 1.216668598305496e+000	 1.161349731740898e+001
 3.349417336927583e+000	 1.249811387015586e+000	 1.180849518786740e+001
 3.336882436776241e+000	 1.282903193216401e+000	 1.130996820438897e+001
 3.323993176295922e+000	 1.315938586702568e+000	 1.082097537856686e+001
 3.461036249468935e+000	 9.905695734161415e-001	 1.036769382596891e+001
 3.451247600995065e+000	 1.024153307155963e+000	 1.050619421280504e+001
 3.441107685984012e+000	 1.057722975740830e+000	 1.066148420531195e+001
 3.430615457154258e+000	 1.091273377800902e+000	 1.083253980312979e+001
 3.419769964276813e+000	 1.124799267161153e+000	 1.101798851377544e+001
 3.408570355830670e+000	 1.158295354968185e+000	 1.121609163478052e+001
 3.397015880606614e+000	 1.191756311880252e+000	 1.142472693984877e+001
 3.385105889256760e+000	 1.225176770319161e+000	 1.164137183228756e+001
 3.372839835787290e+000	 1.258551326782692e+000	 1.168026954703054e+001
 3.360217278991877e+000	 1.291874544215968e+000	 1.119929088410011e+001
 3.347237883823303e+000	 1.325140954440153e+000	 1.073289787930181e+001
 3.485071223424078e+000	 9.974485287853374e-001	 1.035041008010320e+001
 3.475214598224541e+000	 1.031265482898046e+000	 1.048520432255268e+001
 3.465004267136918e+000	 1.065068274181185e+000	 1.064021099346312e+001
 3.454439175606908e+000	 1.098851665144287e+000	 1.081467631400920e+001
 3.443518366806705e+000	 1.132610373180557e+000	 1.100749054780152e+001
 3.432240983301964e+000	 1.166339072708451e+000	 1.121716960110685e+001
 3.420606268666739e+000	 1.200032397376902e+000	 1.144183703079079e+001
 3.408613569043785e+000	 1.233684942332872e+000	 1.167920652498612e+001
 3.396262334647662e+000	 1.267291266549819e+000	 1.155692188673323e+001
 3.383552121208107e+000	 1.300845895215541e+000	 1.110006707423267e+001
 3.370482591351189e+000	 1.334343322177739e+000	 1.065885449156670e+001
 3.509106197379714e+000	 1.004327484155040e+000	 1.035228942212520e+001
 3.499181595454600e+000	 1.038377658640541e+000	 1.048105745882575e+001
 3.488900848290481e+000	 1.072413572621866e+000	 1.063360591901042e+001
 3.478262894060265e+000	 1.106429952487923e+000	 1.080945629558271e+001
 3.467266769337335e+000	 1.140421479200146e+000	 1.100776649524419e+001
 3.455911610774007e+000	 1.174382790448845e+000	 1.122731174536275e+001
 3.444196656727606e+000	 1.208308482873634e+000	 1.146646591236178e+001
 3.432121248831524e+000	 1.242193114346629e+000	 1.172318329840793e+001
 3.419684833508697e+000	 1.276031206316967e+000	 1.144225421081254e+001
 3.406886963424932e+000	 1.309817246215119e+000	 1.101203905649086e+001
 3.393727298879581e+000	 1.343545689915324e+000	 1.059853370549975e+001
 3.533141171335844e+000	 1.011206439525248e+000	 1.037047098086183e+001
 3.523148592685243e+000	 1.045489834383448e+000	 1.049074998972922e+001
 3.512797429444697e+000	 1.079758871062871e+000	 1.063852436219662e+001
 3.502086612514328e+000	 1.114008239831808e+000	 1.081359600872845e+001
 3.491015171868703e+000	 1.148232585219919e+000	 1.101539546081350e+001
 3.479582238246800e+000	 1.182426508189367e+000	 1.124296207292091e+001
 3.467787044789213e+000	 1.216584568370449e+000	 1.149492463986759e+001
 3.455628928619975e+000	 1.250701286360433e+000	 1.175482434722790e+001
 3.443107332370397e+000	 1.284771146084135e+000	 1.133606271292780e+001
 3.430221805642353e+000	 1.318788597214702e+000	 1.093495036410524e+001
 3.416972006408479e+000	 1.352748057652910e+000	 1.055162666447081e+001
 3.557176145292468e+000	 1.018085394895963e+000	 1.040208289070761e+001
 3.547115589916470e+000	 1.052602010126765e+000	 1.051126863903731e+001
 3.536694010599569e+000	 1.087104169504203e+000	 1.065181341186002e+001
 3.525910330969096e+000	 1.121586527175943e+000	 1.082380477809914e+001
 3.514763574400809e+000	 1.156043691239876e+000	 1.102695096984786e+001
 3.503252865720343e+000	 1.190470225930017e+000	 1.126056036772364e+001
 3.491377432851563e+000	 1.224860653867346e+000	 1.152352140561914e+001
 3.479136608409138e+000	 1.259209458374282e+000	 1.162638564441176e+001
 3.466529831232760e+000	 1.293511085851323e+000	 1.123814343969081e+001
 3.453556647860368e+000	 1.327759948214291e+000	 1.086854573955116e+001
 3.440216713937880e+000	 1.361950425390495e+000	 1.051782707544517e+001
 3.581211119249587e+000	 1.024964350267184e+000	 1.044424266056519e+001
 3.571082587148281e+000	 1.059714185870493e+000	 1.053959080982882e+001
 3.560590591755095e+000	 1.094449467945860e+000	 1.067031214366933e+001
 3.549734049424571e+000	 1.129164814520328e+000	 1.083678522488160e+001
 3.538511976933653e+000	 1.163854797260017e+000	 1.103900115554120e+001
 3.526923493194636e+000	 1.198513943670795e+000	 1.127654233394149e+001
 3.514967820914652e+000	 1.233136739364325e+000	 1.154856163500605e+001
 3.502644288199015e+000	 1.267717630388179e+000	 1.150366609378228e+001
 3.489952330095787e+000	 1.302251025618533e+000	 1.114829229560007e+001
 3.476891490078979e+000	 1.336731299213884e+000	 1.081257109397040e+001
 3.463461421467788e+000	 1.371152793128081e+000	 1.049683112295682e+001
 3.605246093207198e+000	 1.031843305638912e+000	 1.049405752802848e+001
 3.595049584380677e+000	 1.066826361614633e+000	 1.057268489517691e+001
 3.584487172911277e+000	 1.101794766387843e+000	 1.069085188722935e+001
 3.573557767880753e+000	 1.136743101864963e+000	 1.084923349024550e+001
 3.562260379467235e+000	 1.171665903280343e+000	 1.104810893868113e+001
 3.550594120669678e+000	 1.206557661411702e+000	 1.128733973196586e+001
 3.538558208978485e+000	 1.241412824861387e+000	 1.156634807872757e+001
 3.526151967989605e+000	 1.276225802402121e+000	 1.138651043082256e+001
 3.513374828959480e+000	 1.310990965385763e+000	 1.106630504777813e+001
 3.500226332298184e+000	 1.345702650213484e+000	 1.076677346821541e+001
 3.486706128998200e+000	 1.380355160865667e+000	 1.048833738652295e+001
 3.254259053716807e+000	 1.288331483489811e+000	 1.117256943255784e+001
 3.241293049845800e+000	 1.320613253401518e+000	 1.131997533025271e+001
 3.227979782949083e+000	 1.352829080447324e+000	 1.143902811310167e+001
 3.214319244282112e+000	 1.384973572263021e+000	 1.152743925957011e+001
 3.200311532997376e+000	 1.417041316191710e+000	 1.158288657618169e+001
 3.185956857143147e+000	 1.449026881896089e+000	 1.160301605592555e+001
 3.171255534588795e+000	 1.480924824014684e+000	 1.158544385229056e+001
 3.156207993874709e+000	 1.512729684859718e+000	 1.152775836842850e+001
 3.140814774984898e+000	 1.544435997154200e+000	 1.142752246061559e+001
 3.125076530040452e+000	 1.576038286805697e+000	 1.128227575484907e+001
 3.108994023912139e+000	 1.607531075714235e+000	 1.130828195608765e+001
 3.277503761242674e+000	 1.297533851227396e+000	 1.104049258180947e+001
 3.264445143058997e+000	 1.330046205210258e+000	 1.117337912969678e+001
 3.251036781399277e+000	 1.362492145306674e+000	 1.128149680111614e+001
 3.237278667456502e+000	 1.394866240635549e+000	 1.136261315458121e+001
 3.223170901091398e+000	 1.427163039878150e+000	 1.141445863217910e+001
 3.208713691838290e+000	 1.459377073909050e+000	 1.143472831707585e+001
 3.193907359837048e+000	 1.491502858471334e+000	 1.142108381081789e+001
 3.178752336689059e+000	 1.523534896893743e+000	 1.137115523017459e+001
 3.163249166235359e+000	 1.555467682847304e+000	 1.128254332293007e+001
 3.147398505255051e+000	 1.587295703138928e+000	 1.115282170169022e+001
 3.131201124082256e+000	 1.619013440539351e+000	 1.097953919441942e+001
 3.300748468769045e+000	 1.306736218964982e+000	 1.092340124587893e+001
 3.287597236272605e+000	 1.339479157018998e+000	 1.104327241708096e+001
 3.274093779849794e+000	 1.372155210166024e+000	 1.114192925585858e+001
 3.260238090631141e+000	 1.404758909008078e+000	 1.121719442656427e+001
 3.246030269185602e+000	 1.437284763564591e+000	 1.126685002762358e+001
 3.231470526533562e+000	 1.469727265922010e+000	 1.128863924886708e+001
 3.216559185085382e+000	 1.502080892927983e+000	 1.128026815286001e+001
 3.201296679503453e+000	 1.534340108927767e+000	 1.123940758021621e+001
 3.185683557485842e+000	 1.566499368540410e+000	 1.116369517854418e+001
 3.169720480469652e+000	 1.598553119472158e+000	 1.105073755431925e+001
 3.153408224252373e+000	 1.630495805364467e+000	 1.089811254661831e+001
 3.323993176295922e+000	 1.315938586702568e+000	 1.082097537856686e+001
 3.310749329486621e+000	 1.348912108827738e+000	 1.092930349126368e+001
 3.297150778300636e+000	 1.381818275025375e+000	 1.101994323134297e+001
 3.283197513806030e+000	 1.414651577380607e+000	 1.109077141436385e+001
 3.268889637279991e+000	 1.447406487251031e+000	 1.113962083481692e+001
 3.254227361228962e+000	 1.480077457934971e+000	 1.116428182398781e+001
 3.239211010333798e+000	 1.512658927384633e+000	 1.116250393605141e+001
 3.223841022317895e+000	 1.545145320961793e+000	 1.113199776262801e+001
 3.208117948736344e+000	 1.577531054233515e+000	 1.107043687568434e+001
 3.192042455684260e+000	 1.609810535805389e+000	 1.097545989830431e+001
 3.175615324422491e+000	 1.641978170189583e+000	 1.084467270248584e+001
 3.347237883823303e+000	 1.325140954440153e+000	 1.073289787930181e+001
 3.333901422701049e+000	 1.358345060636478e+000	 1.083112441829604e+001
 3.320207776751802e+000	 1.391481339884724e+000	 1.091516104510625e+001
 3.306156936981168e+000	 1.424544245753135e+000	 1.098293779093126e+001
 3.291749005374562e+000	 1.457528210937471e+000	 1.103233720450442e+001
 3.276984195924488e+000	 1.490427649947931e+000	 1.106119581117019e+001
 3.261862835582295e+000	 1.523236961841283e+000	 1.106730570445790e+001
 3.246385365132382e+000	 1.555950532995816e+000	 1.104841627062694e+001
 3.230552339986867e+000	 1.588562739926619e+000	 1.100223604630320e+001
 3.214364430898873e+000	 1.621067952138620e+000	 1.092643470896069e+001
 3.197822424592608e+000	 1.653460535014698e+000	 1.081864519962439e+001
 3.370482591351189e+000	 1.334343322177739e+000	 1.065885449156670e+001
 3.357053515915887e+000	 1.367778012445218e+000	 1.074839090151867e+001
 3.343264775203294e+000	 1.401144404744074e+000	 1.082720942084563e+001
 3.329116360156555e+000	 1.434436914125664e+000	 1.089329237938996e+001
 3.314608373469317e+000	 1.467649934623911e+000	 1.094457115627310e+001
 3.299741030620142e+000	 1.500777841960892e+000	 1.097892754084391e+001
 3.284514660830875e+000	 1.533814996297934e+000	 1.099419523042380e+001
 3.268929707946915e+000	 1.566755745029841e+000	 1.098816146556714e+001
 3.252986731237411e+000	 1.599594425619724e+000	 1.095856880319253e+001
 3.236686406113491e+000	 1.632325368471850e+000	 1.090311702756649e+001
 3.220029524762726e+000	 1.664942899839814e+000	 1.081946519873714e+001
 3.393727298879581e+000	 1.343545689915324e+000	 1.059853370549975e+001
 3.380205609131133e+000	 1.377210964253957e+000	 1.068076215699696e+001
 3.366321773655109e+000	 1.410807469603424e+000	 1.075571933752259e+001
 3.352075783332191e+000	 1.444329582498193e+000	 1.082143897665980e+001
 3.337467741564255e+000	 1.477771658310352e+000	 1.087590037756425e+001
 3.322497865315923e+000	 1.511128033973852e+000	 1.091702968042022e+001
 3.307166486079537e+000	 1.544393030754584e+000	 1.094270126702785e+001
 3.291474050761495e+000	 1.577560957063865e+000	 1.095073930748341e+001
 3.275421122487976e+000	 1.610626111312829e+000	 1.093891944954365e+001
 3.259008381328113e+000	 1.643582784805081e+000	 1.090497065088438e+001
 3.242236624932843e+000	 1.676425264664929e+000	 1.084657715406952e+001
 3.416972006408479e+000	 1.352748057652910e+000	 1.055162666447081e+001
 3.403357702346791e+000	 1.386643916062697e+000	 1.062790079404088e+001
 3.389378772107250e+000	 1.420470534462774e+000	 1.070032588462603e+001
 3.375035206508074e+000	 1.454222250870722e+000	 1.076698618428023e+001
 3.360327109659376e+000	 1.487893381996792e+000	 1.082590803088913e+001
 3.345254700011833e+000	 1.521478225986812e+000	 1.087506101874862e+001
 3.329818311328280e+000	 1.554971065211234e+000	 1.091235931064368e+001
 3.314018393576121e+000	 1.588366169097890e+000	 1.093566309663247e+001
 3.297855513738560e+000	 1.621657797005934e+000	 1.094278020036223e+001
 3.281330356542741e+000	 1.654840201138311e+000	 1.093146783335591e+001
 3.264443725102960e+000	 1.687907629490045e+000	 1.089943449730266e+001
 3.440216713937880e+000	 1.361950425390495e+000	 1.051782707544517e+001
 3.426509795562858e+000	 1.396076867871437e+000	 1.058947270056779e+001
 3.412435770559716e+000	 1.430133599322125e+000	 1.066066812330299e+001
 3.397994629684209e+000	 1.464114919243250e+000	 1.072954724609204e+001
 3.383186477754681e+000	 1.498015105683232e+000	 1.079418256886034e+001
 3.368011534707869e+000	 1.531828417999773e+000	 1.085258625931129e+001
 3.352470136577104e+000	 1.565549099667884e+000	 1.090271137312556e+001
 3.336562736390792e+000	 1.599171381131915e+000	 1.094245322551254e+001
 3.320289904989165e+000	 1.632689482699039e+000	 1.096965091517760e+001
 3.303652331757374e+000	 1.666097617471542e+000	 1.098208900136936e+001
 3.286650825273078e+000	 1.699389994315161e+000	 1.097749933426136e+001
 3.463461421467788e+000	 1.371152793128081e+000	 1.049683112295682e+001
 3.449661888779335e+000	 1.405509819680177e+000	 1.056514693308273e+001
 3.435492769012504e+000	 1.439796664181474e+000	 1.063638895308178e+001
 3.420954052860590e+000	 1.474007587615779e+000	 1.070873989245558e+001
 3.406045845850169e+000	 1.508136829369672e+000	 1.078031755667175e+001
 3.390768369404033e+000	 1.542178610012734e+000	 1.084917582174565e+001
 3.375121961826010e+000	 1.576127134124534e+000	 1.091330576316808e+001
 3.359107079205509e+000	 1.609976593165939e+000	 1.097063694086885e+001
 3.342724296239791e+000	 1.643721168392144e+000	 1.101903884151463e+001
 3.325974306972012e+000	 1.677355033804772e+000	 1.105632247903314e+001
 3.308857925443196e+000	 1.710872359140276e+000	 1.108024215383564e+001
 3.486706128998200e+000	 1.380355160865667e+000	 1.048833738652295e+001
 3.472813981996224e+000	 1.414942771488917e+000	 1.055459561105827e+001
 3.458549767465620e+000	 1.449459729040825e+000	 1.062713498392565e+001
 3.443913476037222e+000	 1.483900255988308e+000	 1.070418619069993e+001
 3.428905213945840e+000	 1.518258553056112e+000	 1.078391150167909e+001
 3.413525204100325e+000	 1.552528802025694e+000	 1.086440565130571e+001
 3.397773787075000e+000	 1.586705168581185e+000	 1.094369687641161e+001
 3.381651422020274e+000	 1.620781805199964e+000	 1.101974811521847e+001
 3.365158687490438e+000	 1.654752854085249e+000	 1.109045836862759e+001
 3.348296282186656e+000	 1.688612450138003e+000	 1.115366422491839e+001
 3.331065025613314e+000	 1.722354723965393e+000	 1.120714154854518e+001
 3.108994023912139e+000	 1.607531075714235e+000	 1.130828195608765e+001
 3.092568134750085e+000	 1.638908884611238e+000	 1.151649976031855e+001
 3.075799854430276e+000	 1.670166235927714e+000	 1.167813080326647e+001
 3.058690288915436e+000	 1.701297656688459e+000	 1.179251228738925e+001
 3.041240658528325e+000	 1.732297681428426e+000	 1.185904785045979e+001
 3.023452298137442e+000	 1.763160855129283e+000	 1.187720907647654e+001
 3.005326657253558e+000	 1.793881736172810e+000	 1.184653690457491e+001
 2.986865300036171e+000	 1.824454899308037e+000	 1.176664293172121e+001
 2.968069905208957e+000	 1.854874938628937e+000	 1.163721060518623e+001
 2.948942265883543e+000	 1.885136470559466e+000	 1.152527733133723e+001
 2.929484289290938e+000	 1.915234136842687e+000	 1.150290044763125e+001
 3.131201124082256e+000	 1.619013440539351e+000	 1.097953919441942e+001
 3.114657907139728e+000	 1.650615376642425e+000	 1.111980405444110e+001
 3.097769853388398e+000	 1.682095994753727e+000	 1.129742014555054e+001
 3.080538076690725e+000	 1.713449782805372e+000	 1.142801157074898e+001
 3.062963806086062e+000	 1.744671236293278e+000	 1.151093177590148e+001
 3.045048385977679e+000	 1.775754861234694e+000	 1.154560231018739e+001
 3.026793276230001e+000	 1.806695177142702e+000	 1.153151429349796e+001
 3.008200052175089e+000	 1.837486720014538e+000	 1.146822977726571e+001
 2.989270404527510e+000	 1.868124045330561e+000	 1.135538299460874e+001
 2.970006139206824e+000	 1.898601731060611e+000	 1.134618908209750e+001
 2.950409177067122e+000	 1.928914380674490e+000	 1.134099887321372e+001
 3.153408224252373e+000	 1.630495805364467e+000	 1.089811254661831e+001
 3.136747679529372e+000	 1.662321868673618e+000	 1.091979992767043e+001
 3.119739852346521e+000	 1.694025753579759e+000	 1.095148693199337e+001
 3.102385864466013e+000	 1.725601908922329e+000	 1.109738376832039e+001
 3.084686953643797e+000	 1.757044791158208e+000	 1.119576159049680e+001
 3.066644473817916e+000	 1.788348867340229e+000	 1.124599226551748e+001
 3.048259895206443e+000	 1.819508618112772e+000	 1.124751747128361e+001
 3.029534804314008e+000	 1.850518540721281e+000	 1.119985011549438e+001
 3.010470903846061e+000	 1.881373152032501e+000	 1.114161466762957e+001
 2.991070012530105e+000	 1.912066991562159e+000	 1.119108041192956e+001
 2.971334064843307e+000	 1.942594624506790e+000	 1.120216389129487e+001
 3.175615324422491e+000	 1.641978170189583e+000	 1.084467270248584e+001
 3.158837451919014e+000	 1.674028360704815e+000	 1.089067679757534e+001
 3.141709851304644e+000	 1.705955512405812e+000	 1.087316336960924e+001
 3.124233652241303e+000	 1.737754035039330e+000	 1.080053273767257e+001
 3.106410101201533e+000	 1.769418346023217e+000	 1.091346438809950e+001
 3.088240561658154e+000	 1.800942873445887e+000	 1.097832932655729e+001
 3.069726514182885e+000	 1.832322059083020e+000	 1.099452015563602e+001
 3.050869556452928e+000	 1.863550361428267e+000	 1.096150103049354e+001
 3.031671403164613e+000	 1.894622258734760e+000	 1.099556352083574e+001
 3.012133885853384e+000	 1.925532252064108e+000	 1.105954468455111e+001
 2.992258952619491e+000	 1.956274868339587e+000	 1.108601544434034e+001
 3.197822424592608e+000	 1.653460535014698e+000	 1.081864519962439e+001
 3.180927224308658e+000	 1.685734852736017e+000	 1.088822476536272e+001
 3.163679850262765e+000	 1.717885271231884e+000	 1.089510542482821e+001
 3.146081440016592e+000	 1.749906161156377e+000	 1.083658074482438e+001
 3.128133248759268e+000	 1.781791900888304e+000	 1.070993936871218e+001
 3.109836649498390e+000	 1.813536879551669e+000	 1.074257085902303e+001
 3.091193133159327e+000	 1.845135500053447e+000	 1.077250243377078e+001
 3.072204308591847e+000	 1.876582182135497e+000	 1.076183852547328e+001
 3.052871902483165e+000	 1.907871365437335e+000	 1.087355499098323e+001
 3.033197759176665e+000	 1.938997512566460e+000	 1.095117977149755e+001
 3.013183840395675e+000	 1.969955112172882e+000	 1.099217735454721e+001
 3.220029524762726e+000	 1.664942899839814e+000	 1.081946519873714e+001
 3.203016996698300e+000	 1.697441344767224e+000	 1.091189890216464e+001
 3.185649849220887e+000	 1.729815030057976e+000	 1.094245526526240e+001
 3.167929227791881e+000	 1.762058287273467e+000	 1.090834949052419e+001
 3.149856396317004e+000	 1.794165455753471e+000	 1.080678982122872e+001
 3.131432737338627e+000	 1.826130885657574e+000	 1.063498080469880e+001
 3.112659752135769e+000	 1.857948941024050e+000	 1.058145054277605e+001
 3.093539060730765e+000	 1.889614002842968e+000	 1.065164333491973e+001
 3.074072401801716e+000	 1.921120472140229e+000	 1.077516632817591e+001
 3.054261632499945e+000	 1.952462773069215e+000	 1.086558789667999e+001
 3.034108728171860e+000	 1.983635356006674e+000	 1.092027719006022e+001
 3.242236624932843e+000	 1.676425264664929e+000	 1.084657715406952e+001
 3.225106769087943e+000	 1.709147836798436e+000	 1.096116302613059e+001
 3.207619848179009e+000	 1.741744788884087e+000	 1.101469646478421e+001
 3.189777015567171e+000	 1.774210413390602e+000	 1.100431435518424e+001
 3.171579543874739e+000	 1.806539010618717e+000	 1.092714457015082e+001
 3.153028825178865e+000	 1.838724891763603e+000	 1.078030930560033e+001
 3.134126371112212e+000	 1.870762381994834e+000	 1.056092852025515e+001
 3.114873812869685e+000	 1.902645823550684e+000	 1.056548486237960e+001
 3.095272901120267e+000	 1.934369578843439e+000	 1.069997956816754e+001
 3.075325505823225e+000	 1.965928033572372e+000	 1.080237548733141e+001
 3.055033615948044e+000	 1.997315599840964e+000	 1.086994613668587e+001
 3.264443725102960e+000	 1.687907629490045e+000	 1.089943449730266e+001
 3.247196541477585e+000	 1.720854328829652e+000	 1.103548940491014e+001
 3.229589847137131e+000	 1.753674547710218e+000	 1.111132051368664e+001
 3.211624803342459e+000	 1.786362539507780e+000	 1.112398642915829e+001
 3.193302691432475e+000	 1.818912565484043e+000	 1.107053467364434e+001
 3.174624913019101e+000	 1.851318897869756e+000	 1.094800509382128e+001
 3.155592990088654e+000	 1.883575822965795e+000	 1.079131643059471e+001
 3.136208565008604e+000	 1.915677644258641e+000	 1.067787950811416e+001
 3.116473400438819e+000	 1.947618685546969e+000	 1.064758136958470e+001
 3.096389379146506e+000	 1.979393294075932e+000	 1.076115303103637e+001
 3.075958503724228e+000	 2.010995843675750e+000	 1.084081887484281e+001
 3.286650825273078e+000	 1.699389994315161e+000	 1.097749933426136e+001
 3.269286313867229e+000	 1.732560820860875e+000	 1.113435847019646e+001
 3.251559846095253e+000	 1.765604306536369e+000	 1.123182655123635e+001
 3.233472591117748e+000	 1.798514665625004e+000	 1.126688393195192e+001
 3.215025838990211e+000	 1.831286120349446e+000	 1.123649779467532e+001
 3.196221000859339e+000	 1.863912903976033e+000	 1.113762562916775e+001
 3.177059609065096e+000	 1.896389263936934e+000	 1.105623269482585e+001
 3.157543317147523e+000	 1.928709464966842e+000	 1.096418209098322e+001
 3.137673899757372e+000	 1.960867792250815e+000	 1.081846228114581e+001
 3.117453252469786e+000	 1.992858554579893e+000	 1.074153493855714e+001
 3.096883391500412e+000	 2.024676087511034e+000	 1.083253346150034e+001
 3.308857925443196e+000	 1.710872359140276e+000	 1.108024215383564e+001
 3.291376086256872e+000	 1.744267312892101e+000	 1.125725854376559e+001
 3.273529845053376e+000	 1.777534065362540e+000	 1.137572110899701e+001
 3.255320378893038e+000	 1.810666791742272e+000	 1.143253197298921e+001
 3.236748986547947e+000	 1.843659675214930e+000	 1.142457797937234e+001
 3.217817088699576e+000	 1.876506910082433e+000	 1.135415402681239e+001
 3.198526228041538e+000	 1.909202704908251e+000	 1.133529196745472e+001
 3.178878069286443e+000	 1.941741285675286e+000	 1.126349123348516e+001
 3.158874399075923e+000	 1.974116898954978e+000	 1.113838488451333e+001
 3.138517125793067e+000	 2.006323815084258e+000	 1.095964742749924e+001
 3.117808279276597e+000	 2.038356331346816e+000	 1.084473121687173e+001
 3.331065025613314e+000	 1.722354723965393e+000	 1.120714154854518e+001
 3.313465858646516e+000	 1.755973804923333e+000	 1.140368557447328e+001
 3.295499844011498e+000	 1.789463824188730e+000	 1.154251786441927e+001
 3.277168166668328e+000	 1.822818917859585e+000	 1.162046232194874e+001
 3.258472134105683e+000	 1.856033230080492e+000	 1.163432544425421e+001
 3.239413176539814e+000	 1.889100916188957e+000	 1.162801127785878e+001
 3.219992847017981e+000	 1.922016145879748e+000	 1.162789703504596e+001
 3.200212821425363e+000	 1.954773106383972e+000	 1.157521993885209e+001
 3.180074898394475e+000	 1.987366005659460e+000	 1.146960056673867e+001
 3.159580999116348e+000	 2.019789075589025e+000	 1.131070035849695e+001
 3.138733167052782e+000	 2.052036575183095e+000	 1.109822013771548e+001
 2.929484289290938e+000	 1.915234136842687e+000	 1.150290044763125e+001
 2.909697996420158e+000	 1.945162607531509e+000	 1.136825143651094e+001
 2.889585521563813e+000	 1.974916583975221e+000	 1.126042256174551e+001
 2.869149111770381e+000	 2.004490801800127e+000	 1.117814013841934e+001
 2.848391126202986e+000	 2.033880033882548e+000	 1.112006367347879e+001
 2.827314035404899e+000	 2.063079093308325e+000	 1.108478848475135e+001
 2.805920420471948e+000	 2.092082836316264e+000	 1.107084848830034e+001
 2.784212972132169e+000	 2.120886165222104e+000	 1.107671914839061e+001
 2.762194489733197e+000	 2.149484031319626e+000	 1.110082058380028e+001
 2.739867880138053e+000	 2.177871437755531e+000	 1.114152082369341e+001
 2.717236156530065e+000	 2.206043442374710e+000	 1.119713920576325e+001
 2.950409177067122e+000	 1.928914380674490e+000	 1.134099887321372e+001
 2.930481553533042e+000	 1.959056626154036e+000	 1.123891062973809e+001
 2.910225418142123e+000	 1.989023131001015e+000	 1.115842077535432e+001
 2.889643033993194e+000	 2.018808593239061e+000	 1.109816017962924e+001
 2.868736777100538e+000	 2.048407748407898e+000	 1.105669644950258e+001
 2.847509135654170e+000	 2.077815372543980e+000	 1.103253670019659e+001
 2.825962709186314e+000	 2.107026285144963e+000	 1.102413049202416e+001
 2.804100207644490e+000	 2.136035352114551e+000	 1.102987292705157e+001
 2.781924450371678e+000	 2.164837488684344e+000	 1.104810789903540e+001
 2.759438364994202e+000	 2.193427662309229e+000	 1.107713148953095e+001
 2.736644986218128e+000	 2.221800895532991e+000	 1.111519550256779e+001
 2.971334064843307e+000	 1.942594624506790e+000	 1.120216389129487e+001
 2.951265110645926e+000	 1.972950644777149e+000	 1.113206709591669e+001
 2.930865314720434e+000	 2.003129678027466e+000	 1.107844043547514e+001
 2.910136956216006e+000	 2.033126384678703e+000	 1.103981906958306e+001
 2.889082427998092e+000	 2.062935462933987e+000	 1.101467836224379e+001
 2.867704235903441e+000	 2.092551651780385e+000	 1.100143680512758e+001
 2.846004997900679e+000	 2.121969733974401e+000	 1.099845910442875e+001
 2.823987443156811e+000	 2.151184539007710e+000	 1.100405942494308e+001
 2.801654411010158e+000	 2.180190946049722e+000	 1.101650478446605e+001
 2.779008849850350e+000	 2.208983886863518e+000	 1.103401859109138e+001
 2.756053815906193e+000	 2.237558348691773e+000	 1.105478431548975e+001
 2.992258952619491e+000	 1.956274868339587e+000	 1.108601544434034e+001
 2.972048667758809e+000	 1.986844663400851e+000	 1.104736072418645e+001
 2.951505211298745e+000	 2.017236225054575e+000	 1.102013997126633e+001
 2.930630878438819e+000	 2.047444176119055e+000	 1.100279235238496e+001
 2.909428078895645e+000	 2.077463177460814e+000	 1.099370062796470e+001
 2.887899336152712e+000	 2.107287931017539e+000	 1.099119422818610e+001
 2.866047286615045e+000	 2.136913182804579e+000	 1.099355249051405e+001
 2.843874678669132e+000	 2.166333725901580e+000	 1.099900805192970e+001
 2.821384371648636e+000	 2.195544403415762e+000	 1.100575038864822e+001
 2.798579334706497e+000	 2.224540111418399e+000	 1.101192949558361e+001
 2.775462645594258e+000	 2.253315801851058e+000	 1.101565969732112e+001
 3.013183840395675e+000	 1.969955112172882e+000	 1.099217735454721e+001
 2.992832224871694e+000	 2.000738682025141e+000	 1.098443484629548e+001
 2.972145107877056e+000	 2.031342772082342e+000	 1.098318086300108e+001
 2.951124800661631e+000	 2.061761967560113e+000	 1.098675827771272e+001
 2.929773729793200e+000	 2.091990891988381e+000	 1.099345686920432e+001
 2.908094436401984e+000	 2.122024210255443e+000	 1.100151655150314e+001
 2.886089575329410e+000	 2.151856631635498e+000	 1.100913076272750e+001
 2.863761914181453e+000	 2.181482912796159e+000	 1.101445000623446e+001
 2.841114332287117e+000	 2.210897860782463e+000	 1.101558553653818e+001
 2.818149819562645e+000	 2.240096335973871e+000	 1.101061318193702e+001
 2.794871475282322e+000	 2.269073255010843e+000	 1.099757729529173e+001
 3.034108728171860e+000	 1.983635356006674e+000	 1.092027719006022e+001
 3.013615781984577e+000	 2.014632700650016e+000	 1.094293611788909e+001
 2.992785004455367e+000	 2.045449319110766e+000	 1.096722753685689e+001
 2.971618722884442e+000	 2.076079759001880e+000	 1.099139770752178e+001
 2.950119380690752e+000	 2.106518606516687e+000	 1.101364303180293e+001
 2.928289536651255e+000	 2.136760489494097e+000	 1.103211343644063e+001
 2.906131864043775e+000	 2.166800080467156e+000	 1.104491591381039e+001
 2.883649149693777e+000	 2.196632099691450e+000	 1.105011821277125e+001
 2.860844292925597e+000	 2.226251318149825e+000	 1.104575267168514e+001
 2.837720304418794e+000	 2.255652560529935e+000	 1.102982018522477e+001
 2.814280304970386e+000	 2.284830708171129e+000	 1.100029429608866e+001
 3.055033615948044e+000	 1.997315599840964e+000	 1.086994613668587e+001
 3.034399339097461e+000	 2.028526719275481e+000	 1.092251440467810e+001
 3.013424901033678e+000	 2.059555866139849e+000	 1.097194726402823e+001
 2.992112645107256e+000	 2.090397550444355e+000	 1.101639402658397e+001
 2.970465031588305e+000	 2.121046321045732e+000	 1.105395730533742e+001
 2.948484636900527e+000	 2.151496768733499e+000	 1.108269655238478e+001
 2.926174152758140e+000	 2.181743529299554e+000	 1.110063175240473e+001
 2.903536385206097e+000	 2.211781286587451e+000	 1.110574726401175e+001
 2.880574253564077e+000	 2.241604775517847e+000	 1.109599580080048e+001
 2.857290789274942e+000	 2.271208785086589e+000	 1.106930254337144e+001
 2.833689134658449e+000	 2.300588161331918e+000	 1.102356937313492e+001
 3.075958503724228e+000	 2.010995843675750e+000	 1.084081887484281e+001
 3.055182896210345e+000	 2.042420737901532e+000	 1.092282267325259e+001
 3.034064797611989e+000	 2.073662413169589e+000	 1.099701006395734e+001
 3.012606567330068e+000	 2.104715341887539e+000	 1.106143305667732e+001
 2.990810682485859e+000	 2.135574035575516e+000	 1.111410004680334e+001
 2.968679737149798e+000	 2.166233047973652e+000	 1.115297950844618e+001
 2.946216441472506e+000	 2.196686978132693e+000	 1.117600384128732e+001
 2.923423620718418e+000	 2.226930473484162e+000	 1.118107336326561e+001
 2.900304214202557e+000	 2.256958232886531e+000	 1.116606044058857e+001
 2.876861274131090e+000	 2.286765009643835e+000	 1.112881374603539e+001
 2.853097964346514e+000	 2.316345614493208e+000	 1.106716263602042e+001
 3.096883391500412e+000	 2.024676087511034e+000	 1.083253346150034e+001
 3.075966453323229e+000	 2.056314756528171e+000	 1.094351688632274e+001
 3.054704694190301e+000	 2.087768960199988e+000	 1.104208861148797e+001
 3.033100489552881e+000	 2.119033133331432e+000	 1.112620297425475e+001
 3.011156333383412e+000	 2.150101750106038e+000	 1.119377370739167e+001
 2.988874837399069e+000	 2.180969327214554e+000	 1.124267778792833e+001
 2.966258730186871e+000	 2.211630426966572e+000	 1.127075943810911e+001
 2.943310856230740e+000	 2.242079660381585e+000	 1.127583427026039e+001
 2.920034174841037e+000	 2.272311690255877e+000	 1.125569356673369e+001
 2.896431758987238e+000	 2.302321234201672e+000	 1.120810868556382e+001
 2.872506794034578e+000	 2.332103067654998e+000	 1.113083558198270e+001
 3.117808279276597e+000	 2.038356331346816e+000	 1.084473121687173e+001
 3.096750010436112e+000	 2.070208775155397e+000	 1.098425590217768e+001
 3.075344590768612e+000	 2.101875507231044e+000	 1.110685814775800e+001
 3.053594411775694e+000	 2.133350924776032e+000	 1.121039423142808e+001
 3.031501984280965e+000	 2.164629464637299e+000	 1.129268276221342e+001
 3.009069937648340e+000	 2.195705606456205e+000	 1.135150868543531e+001
 2.986301018901237e+000	 2.226573875801190e+000	 1.138462743851949e+001
 2.963198091743061e+000	 2.257228847279717e+000	 1.138976924891250e+001
 2.939764135479517e+000	 2.287665147625882e+000	 1.136464356494086e+001
 2.916002243843386e+000	 2.317877458760100e+000	 1.130694360992274e+001
 2.891915623722642e+000	 2.347860520817291e+000	 1.121435104934158e+001
 3.138733167052782e+000	 2.052036575183095e+000	 1.109822013771548e+001
 3.117533567548996e+000	 2.084102793783212e+000	 1.104470137816636e+001
 3.095984487346924e+000	 2.115982054262759e+000	 1.119099639465630e+001
 3.074088333998506e+000	 2.147668716221341e+000	 1.131369948011291e+001
 3.051847635178520e+000	 2.179157179169300e+000	 1.141053364283592e+001
 3.029265037897612e+000	 2.210441885698606e+000	 1.147919124649531e+001
 3.006343307615602e+000	 2.241517324636550e+000	 1.151733832156702e+001
 2.983085327255384e+000	 2.272378034178561e+000	 1.152261901718793e+001
 2.959494096117997e+000	 2.303018604996550e+000	 1.149266018393538e+001
 2.935572728699535e+000	 2.333433683319120e+000	 1.142507607750951e+001
 2.911324453410707e+000	 2.363617973980084e+000	 1.131747317279639e+001
 2.717236156530065e+000	 2.206043442374710e+000	 1.119713920576325e+001
 2.694302437127753e+000	 2.233995160532463e+000	 1.138037123033299e+001
 2.671069943811037e+000	 2.261721767870785e+000	 1.151807895258409e+001
 2.647542000659859e+000	 2.289218503055032e+000	 1.160818667789972e+001
 2.623722032406191e+000	 2.316480670467651e+000	 1.164863891424467e+001
 2.599613562801293e+000	 2.343503642856166e+000	 1.163740473261340e+001
 2.575220212899677e+000	 2.370282863932164e+000	 1.157248214502154e+001
 2.550545699261520e+000	 2.396813850918234e+000	 1.145190248919646e+001
 2.525593832075398e+000	 2.423092197039894e+000	 1.127373480898982e+001
 2.500368513203295e+000	 2.449113573959596e+000	 1.103609021944011e+001
 2.474873734150000e+000	 2.474873734150000e+000	 1.091826676970657e+001
 2.736644986218128e+000	 2.221800895532991e+000	 1.111519550256779e+001
 2.713547454534904e+000	 2.249952268820610e+000	 1.127461840372325e+001
 2.690149014837810e+000	 2.277876923354377e+000	 1.139279388550018e+001
 2.666453014950212e+000	 2.305570063790118e+000	 1.146757952507406e+001
 2.642462904066459e+000	 2.333026960970151e+000	 1.149684831644883e+001
 2.618182231107459e+000	 2.360242954590200e+000	 1.147849314145515e+001
 2.593614642992401e+000	 2.387213455816933e+000	 1.141043126572634e+001
 2.568763882828319e+000	 2.413933949853100e+000	 1.129060884855347e+001
 2.543633788019421e+000	 2.440399998447260e+000	 1.111700545537201e+001
 2.518228288298136e+000	 2.466607242345167e+000	 1.088763856151954e+001
 2.492551403680000e+000	 2.492551403680000e+000	 1.065464299263159e+001
 2.756053815906193e+000	 2.237558348691773e+000	 1.105478431548975e+001
 2.732792471942056e+000	 2.265909377109163e+000	 1.119035505763729e+001
 2.709228085864582e+000	 2.294032078838291e+000	 1.128889763352726e+001
 2.685364029240567e+000	 2.321921624525449e+000	 1.134820193671574e+001
 2.661203775726728e+000	 2.349573251472833e+000	 1.136606851667227e+001
 2.636750899413627e+000	 2.376982266324359e+000	 1.134031316202660e+001
 2.612009073085126e+000	 2.404144047701782e+000	 1.126877151621316e+001
 2.586982066395117e+000	 2.431054048788012e+000	 1.114930371415930e+001
 2.561673743963445e+000	 2.457707799854646e+000	 1.097979902849339e+001
 2.536088063392977e+000	 2.484100910730743e+000	 1.075818051362011e+001
 2.510229073210000e+000	 2.510229073210000e+000	 1.055752136104115e+001
 2.775462645594258e+000	 2.253315801851058e+000	 1.101565969732112e+001
 2.752037489349208e+000	 2.281866485398122e+000	 1.112734851370388e+001
 2.728307156891355e+000	 2.310187234322526e+000	 1.120617227313995e+001
 2.704275043530920e+000	 2.338273185261025e+000	 1.124985221852040e+001
 2.679944647386995e+000	 2.366119541975694e+000	 1.125611551152532e+001
 2.655319567719793e+000	 2.393721578058644e+000	 1.122269992983051e+001
 2.630403503177849e+000	 2.421074639586712e+000	 1.114735860412218e+001
 2.605200249961917e+000	 2.448174147722969e+000	 1.102786478330370e+001
 2.579713699907469e+000	 2.475015601262053e+000	 1.086201661609066e+001
 2.553947838487818e+000	 2.501594579116324e+000	 1.065815113731288e+001
 2.527906742740000e+000	 2.527906742740000e+000	 1.057967097585616e+001
 2.794871475282322e+000	 2.269073255010843e+000	 1.099757729529173e+001
 2.771282506756359e+000	 2.297823593687487e+000	 1.108536749240045e+001
 2.747386227918127e+000	 2.326342389807081e+000	 1.114440104709991e+001
 2.723186057821275e+000	 2.354624745996849e+000	 1.117232957299837e+001
 2.698685519047264e+000	 2.382665832478737e+000	 1.116680588813449e+001
 2.673888236025960e+000	 2.410460889793055e+000	 1.112548882787097e+001
 2.648797933270572e+000	 2.438005231471722e+000	 1.104604810499671e+001
 2.623418433528715e+000	 2.465294246657971e+000	 1.092616920515384e+001
 2.597753655851493e+000	 2.492323402669479e+000	 1.076355830550534e+001
 2.571807613582660e+000	 2.519088247501910e+000	 1.067637981523023e+001
 2.545584412270000e+000	 2.545584412270000e+000	 1.061000136797575e+001
 2.814280304970386e+000	 2.284830708171129e+000	 1.100029429608866e+001
 2.790527524163510e+000	 2.313780701977259e+000	 1.106418206481693e+001
 2.766465298944899e+000	 2.342497545291958e+000	 1.110336832423907e+001
 2.742097072111628e+000	 2.370976306732918e+000	 1.111543406854978e+001
 2.717426390707531e+000	 2.399212122981960e+000	 1.109795680377988e+001
 2.692456904332127e+000	 2.427200201527592e+000	 1.104851547811920e+001
 2.667192363363297e+000	 2.454935823356812e+000	 1.096469546683792e+001
 2.641636617095514e+000	 2.482414345593019e+000	 1.084409359965494e+001
 2.615793611795517e+000	 2.509631204076925e+000	 1.073820909589706e+001
 2.589667388677501e+000	 2.536581915887501e+000	 1.070339532709742e+001
 2.563262081800000e+000	 2.563262081800000e+000	 1.064825652907278e+001
 2.833689134658449e+000	 2.300588161331918e+000	 1.102356937313492e+001
 2.809772541570663e+000	 2.329737810267437e+000	 1.106356360640188e+001
 2.785544369971670e+000	 2.358652700777156e+000	 1.108285956089571e+001
 2.761008086401983e+000	 2.387327867469234e+000	 1.107896660981087e+001
 2.736167262367800e+000	 2.415758413485364e+000	 1.104938596636957e+001
 2.711025572638294e+000	 2.443939513262253e+000	 1.099161573332933e+001
 2.685586793456021e+000	 2.471866415241983e+000	 1.090315601447298e+001
 2.659854800662312e+000	 2.499534444528111e+000	 1.078151407565438e+001
 2.633833567739540e+000	 2.526939005484392e+000	 1.076727258131299e+001
 2.607527163772342e+000	 2.554075584273096e+000	 1.073892248353445e+001
 2.580939751329999e+000	 2.580939751329999e+000	 1.069417857394119e+001
 2.853097964346514e+000	 2.316345614493208e+000	 1.106716263602042e+001
 2.829017558977814e+000	 2.345694918558022e+000	 1.108328475259659e+001
 2.804623440998443e+000	 2.374807856262675e+000	 1.108266126392422e+001
 2.779919100692337e+000	 2.403679428205794e+000	 1.106272890921067e+001
 2.754908134028069e+000	 2.432304703988949e+000	 1.102091161571053e+001
 2.729594240944461e+000	 2.460678824997041e+000	 1.095462566918908e+001
 2.703981223548746e+000	 2.488797007127234e+000	 1.086128495374446e+001
 2.678072984229112e+000	 2.516654543463249e+000	 1.081553929525376e+001
 2.651873523683564e+000	 2.544246806891879e+000	 1.080535227645618e+001
 2.625386938867184e+000	 2.571569252658698e+000	 1.078268475422628e+001
 2.598617420860000e+000	 2.598617420860000e+000	 1.074750780433556e+001
 2.872506794034578e+000	 2.332103067654998e+000	 1.113083558198270e+001
 2.848262576384966e+000	 2.361652026849011e+000	 1.112311935626772e+001
 2.823702512025216e+000	 2.390963011748516e+000	 1.110256095520495e+001
 2.798830114982691e+000	 2.420030988942601e+000	 1.106652345968059e+001
 2.773649005688337e+000	 2.448850994492715e+000	 1.101235250553927e+001
 2.748162909250628e+000	 2.477418136731953e+000	 1.093738157678780e+001
 2.722375653641469e+000	 2.505727599012566e+000	 1.086188125635237e+001
 2.696291167795911e+000	 2.533774642398432e+000	 1.086129854283751e+001
 2.669913479627587e+000	 2.561554608299386e+000	 1.085215527556859e+001
 2.643246713962024e+000	 2.589062921044303e+000	 1.083440431322483e+001
 2.616295090390000e+000	 2.616295090390000e+000	 1.080798277022225e+001
 2.891915623722642e+000	 2.347860520817291e+000	 1.121435104934158e+001
 2.867507593792117e+000	 2.377609135140408e+000	 1.118284244685409e+001
 2.842781583051988e+000	 2.407118167234676e+000	 1.114234713758260e+001
 2.817741129273045e+000	 2.436382549679654e+000	 1.109015350846314e+001
 2.792389877348605e+000	 2.465397284996661e+000	 1.102352788627572e+001
 2.766731577556794e+000	 2.494157448466992e+000	 1.093971995538848e+001
 2.740770083734194e+000	 2.522658190897978e+000	 1.092029701101222e+001
 2.714509351362710e+000	 2.550894741333660e+000	 1.091619405934807e+001
 2.687953435571612e+000	 2.578862409706913e+000	 1.090738783145931e+001
 2.661106489056866e+000	 2.606556589429915e+000	 1.089380208242665e+001
 2.633972759920000e+000	 2.633972759920000e+000	 1.087534032856451e+001
 2.911324453410707e+000	 2.363617973980084e+000	 1.131747317279639e+001
 2.886752611199269e+000	 2.393566243432211e+000	 1.126223019114764e+001
 2.861860654078760e+000	 2.423273322721160e+000	 1.120180926216782e+001
 2.836652143563400e+000	 2.452734110416954e+000	 1.113342303196824e+001
 2.811130749008875e+000	 2.481943575500790e+000	 1.105425748846724e+001
 2.785300245862961e+000	 2.510896760202157e+000	 1.099565510582998e+001
 2.759164513826918e+000	 2.539588782783471e+000	 1.098819139742471e+001
 2.732727534929510e+000	 2.568014840268934e+000	 1.097991825552125e+001
 2.705993391515635e+000	 2.596170211114460e+000	 1.097075538355242e+001
 2.678966264151708e+000	 2.624050257815532e+000	 1.096059777331115e+001
 2.651650429450000e+000	 2.651650429450000e+000	 1.094931569975560e+001
 2.474873734150000e+000	 2.474873734150000e+000	 1.091826676970657e+001
 2.449113573959596e+000	 2.500368513203294e+000	 1.084371388237419e+001
 2.423092197039895e+000	 2.525593832075397e+000	 1.094578077954319e+001
 2.396813850918235e+000	 2.550545699261519e+000	 1.102495362353571e+001
 2.370282863932165e+000	 2.575220212899675e+000	 1.107992122105265e+001
 2.343503642856167e+000	 2.599613562801293e+000	 1.110943139477769e+001
 2.316480670467652e+000	 2.623722032406190e+000	 1.111229357389840e+001
 2.289218503055033e+000	 2.647542000659857e+000	 1.108738124312696e+001
 2.261721767870786e+000	 2.671069943811037e+000	 1.103363424434725e+001
 2.233995160532465e+000	 2.694302437127753e+000	 1.095006092546310e+001
 2.206043442374710e+000	 2.717236156530064e+000	 1.083574013149050e+001
 2.492551403680000e+000	 2.492551403680000e+000	 1.065464299263159e+001
 2.466607242345168e+000	 2.518228288298135e+000	 1.072233449730117e+001
 2.440399998447261e+000	 2.543633788019420e+000	 1.082514233276300e+001
 2.413933949853101e+000	 2.568763882828318e+000	 1.090498629053992e+001
 2.387213455816933e+000	 2.593614642992400e+000	 1.096059958050054e+001
 2.360242954590201e+000	 2.618182231107459e+000	 1.099077533152901e+001
 2.333026960970152e+000	 2.642462904066458e+000	 1.099436916087663e+001
 2.305570063790118e+000	 2.666453014950211e+000	 1.097030159963021e+001
 2.277876923354379e+000	 2.690149014837809e+000	 1.091756036842514e+001
 2.249952268820611e+000	 2.713547454534904e+000	 1.083520249798652e+001
 2.221800895532991e+000	 2.736644986218128e+000	 1.072235628955680e+001
 2.510229073210000e+000	 2.510229073210000e+000	 1.055752136104115e+001
 2.484100910730744e+000	 2.536088063392976e+000	 1.061010791510042e+001
 2.457707799854647e+000	 2.561673743963444e+000	 1.071549757670797e+001
 2.431054048788013e+000	 2.586982066395117e+000	 1.079783311839442e+001
 2.404144047701783e+000	 2.612009073085124e+000	 1.085589067270639e+001
 2.376982266324360e+000	 2.636750899413626e+000	 1.088850722381006e+001
 2.349573251472833e+000	 2.661203775726726e+000	 1.089458315744679e+001
 2.321921624525449e+000	 2.685364029240565e+000	 1.087308466456333e+001
 2.294032078838292e+000	 2.709228085864582e+000	 1.082304599274005e+001
 2.265909377109164e+000	 2.732792471942056e+000	 1.074357154000747e+001
 2.237558348691774e+000	 2.756053815906193e+000	 1.063383778612242e+001
 2.527906742740000e+000	 2.527906742740000e+000	 1.057967097585616e+001
 2.501594579116325e+000	 2.553947838487817e+000	 1.051967780283137e+001
 2.475015601262053e+000	 2.579713699907468e+000	 1.061722919944594e+001
 2.448174147722970e+000	 2.605200249961916e+000	 1.070384450393126e+001
 2.421074639586713e+000	 2.630403503177848e+000	 1.076611249326685e+001
 2.393721578058645e+000	 2.655319567719792e+000	 1.080291256743692e+001
 2.366119541975695e+000	 2.679944647386995e+000	 1.081318847271200e+001
 2.338273185261026e+000	 2.704275043530919e+000	 1.079595068514634e+001
 2.310187234322526e+000	 2.728307156891354e+000	 1.075027863936433e+001
 2.281866485398123e+000	 2.752037489349207e+000	 1.067532279722688e+001
 2.253315801851058e+000	 2.775462645594258e+000	 1.057030655146125e+001
 2.545584412270000e+000	 2.545584412270000e+000	 1.061000136797575e+001
 2.519088247501911e+000	 2.571807613582659e+000	 1.056096945580678e+001
 2.492323402669479e+000	 2.597753655851491e+000	 1.053071991157639e+001
 2.465294246657972e+000	 2.623418433528714e+000	 1.062337188058324e+001
 2.438005231471723e+000	 2.648797933270572e+000	 1.069158508538507e+001
 2.410460889793056e+000	 2.673888236025959e+000	 1.073427991328926e+001
 2.382665832478737e+000	 2.698685519047263e+000	 1.075044207426349e+001
 2.354624745996849e+000	 2.723186057821274e+000	 1.073912496600040e+001
 2.326342389807082e+000	 2.747386227918125e+000	 1.069945188169657e+001
 2.297823593687488e+000	 2.771282506756358e+000	 1.063061805513732e+001
 2.269073255010843e+000	 2.794871475282322e+000	 1.053189253817638e+001
 2.563262081800000e+000	 2.563262081800000e+000	 1.064825652907278e+001
 2.536581915887501e+000	 2.589667388677499e+000	 1.061181749874208e+001
 2.509631204076926e+000	 2.615793611795515e+000	 1.053293476791130e+001
 2.482414345593019e+000	 2.641636617095514e+000	 1.055676768263928e+001
 2.454935823356813e+000	 2.667192363363296e+000	 1.063263046926382e+001
 2.427200201527592e+000	 2.692456904332126e+000	 1.068290076196303e+001
 2.399212122981961e+000	 2.717426390707532e+000	 1.070660484823292e+001
 2.370976306732919e+000	 2.742097072111628e+000	 1.070283769475467e+001
 2.342497545291959e+000	 2.766465298944898e+000	 1.067076513579539e+001
 2.313780701977260e+000	 2.790527524163510e+000	 1.060962589627135e+001
 2.284830708171130e+000	 2.814280304970386e+000	 1.051873344456798e+001
 2.580939751329999e+000	 2.580939751329999e+000	 1.069417857394119e+001
 2.554075584273098e+000	 2.607527163772341e+000	 1.067193045270623e+001
 2.526939005484393e+000	 2.633833567739539e+000	 1.060734389351274e+001
 2.499534444528112e+000	 2.659854800662313e+000	 1.050438531096828e+001
 2.471866415241984e+000	 2.685586793456020e+000	 1.058957257440001e+001
 2.443939513262254e+000	 2.711025572638293e+000	 1.064906946275304e+001
 2.415758413485365e+000	 2.736167262367800e+000	 1.068194146509559e+001
 2.387327867469234e+000	 2.761008086401982e+000	 1.068732377482011e+001
 2.358652700777157e+000	 2.785544369971670e+000	 1.066442346028815e+001
 2.329737810267438e+000	 2.809772541570661e+000	 1.061252146742636e+001
 2.300588161331918e+000	 2.833689134658449e+000	 1.053097444936976e+001
 2.598617420860000e+000	 2.598617420860000e+000	 1.074750780433556e+001
 2.571569252658698e+000	 2.625386938867181e+000	 1.074101594333502e+001
 2.544246806891880e+000	 2.651873523683562e+000	 1.069229621165285e+001
 2.516654543463250e+000	 2.678072984229111e+000	 1.060157575168502e+001
 2.488797007127235e+000	 2.703981223548744e+000	 1.056273717464259e+001
 2.460678824997042e+000	 2.729594240944459e+000	 1.063308311675832e+001
 2.432304703988950e+000	 2.754908134028068e+000	 1.067672025095138e+001
 2.403679428205795e+000	 2.779919100692336e+000	 1.069282266498861e+001
 2.374807856262676e+000	 2.804623440998443e+000	 1.068063736444689e+001
 2.345694918558022e+000	 2.829017558977812e+000	 1.063948625639012e+001
 2.316345614493208e+000	 2.853097964346514e+000	 1.056876795731242e+001
 2.616295090390000e+000	 2.616295090390000e+000	 1.080798277022225e+001
 2.589062921044304e+000	 2.643246713962023e+000	 1.081878073108246e+001
 2.561554608299387e+000	 2.669913479627586e+000	 1.078746693243554e+001
 2.533774642398432e+000	 2.696291167795909e+000	 1.071433885778018e+001
 2.505727599012567e+000	 2.722375653641469e+000	 1.059971011048405e+001
 2.477418136731955e+000	 2.748162909250626e+000	 1.063524148391565e+001
 2.448850994492716e+000	 2.773649005688336e+000	 1.069121306402393e+001
 2.420030988942602e+000	 2.798830114982690e+000	 1.071957822553511e+001
 2.390963011748517e+000	 2.823702512025214e+000	 1.071962262404498e+001
 2.361652026849012e+000	 2.848262576384964e+000	 1.069070787771819e+001
 2.332103067654998e+000	 2.872506794034578e+000	 1.063227335500215e+001
 2.633972759920000e+000	 2.633972759920000e+000	 1.087534032856451e+001
 2.606556589429916e+000	 2.661106489056865e+000	 1.090493074025355e+001
 2.578862409706913e+000	 2.687953435571610e+000	 1.089253128491590e+001
 2.550894741333661e+000	 2.714509351362708e+000	 1.083850903482961e+001
 2.522658190897979e+000	 2.740770083734192e+000	 1.074324633696285e+001
 2.494157448466993e+000	 2.766731577556793e+000	 1.065584689377712e+001
 2.465397284996662e+000	 2.792389877348605e+000	 1.072569517613294e+001
 2.436382549679655e+000	 2.817741129273044e+000	 1.076783857051676e+001
 2.407118167234678e+000	 2.842781583051987e+000	 1.078160010462880e+001
 2.377609135140409e+000	 2.867507593792116e+000	 1.076637986713768e+001
 2.347860520817291e+000	 2.891915623722642e+000	 1.072165677662942e+001
 2.651650429450000e+000	 2.651650429450000e+000	 1.094931569975560e+001
 2.624050257815533e+000	 2.678966264151706e+000	 1.099917108687597e+001
 2.596170211114461e+000	 2.705993391515634e+000	 1.100716451646868e+001
 2.568014840268936e+000	 2.732727534929508e+000	 1.097373191146212e+001
 2.539588782783471e+000	 2.759164513826918e+000	 1.089932360964473e+001
 2.510896760202158e+000	 2.785300245862960e+000	 1.078440399934375e+001
 2.481943575500790e+000	 2.811130749008873e+000	 1.078044515890766e+001
 2.452734110416956e+000	 2.836652143563399e+000	 1.083785592598015e+001
 2.423273322721161e+000	 2.861860654078759e+000	 1.086679559185874e+001
 2.393566243432213e+000	 2.886752611199269e+000	 1.086670148417487e+001
 2.363617973980084e+000	 2.911324453410707e+000	 1.083709087904967e+001
 2.206043442374710e+000	 2.717236156530064e+000	 1.083574013149050e+001
 2.177871437755532e+000	 2.739867880138052e+000	 1.073619304152743e+001
 2.149484031319626e+000	 2.762194489733196e+000	 1.064752693019886e+001
 2.120886165222105e+000	 2.784212972132167e+000	 1.057009783474825e+001
 2.092082836316265e+000	 2.805920420471948e+000	 1.050429418920400e+001
 2.063079093308326e+000	 2.827314035404899e+000	 1.045053707330290e+001
 2.033880033882549e+000	 2.848391126202985e+000	 1.040928034876835e+001
 2.004490801800128e+000	 2.869149111770380e+000	 1.038101068258009e+001
 1.974916583975222e+000	 2.889585521563812e+000	 1.036624745725893e+001
 1.945162607531510e+000	 2.909697996420158e+000	 1.036554256857496e+001
 1.915234136842688e+000	 2.929484289290938e+000	 1.037948011146807e+001
 2.221800895532991e+000	 2.736644986218128e+000	 1.072235628955680e+001
 2.193427662309230e+000	 2.759438364994201e+000	 1.064749487284744e+001
 2.164837488684345e+000	 2.781924450371677e+000	 1.058152888834560e+001
 2.136035352114552e+000	 2.804100207644488e+000	 1.052464364478760e+001
 2.107026285144964e+000	 2.825962709186313e+000	 1.047706050819406e+001
 2.077815372543982e+000	 2.847509135654170e+000	 1.043903732812419e+001
 2.048407748407899e+000	 2.868736777100538e+000	 1.041086874381448e+001
 2.018808593239062e+000	 2.889643033993194e+000	 1.039288636958230e+001
 1.989023131001015e+000	 2.910225418142123e+000	 1.038545885928246e+001
 1.959056626154036e+000	 2.930481553533042e+000	 1.038899185001219e+001
 1.928914380674490e+000	 2.950409177067122e+000	 1.040392778566038e+001
 2.237558348691774e+000	 2.756053815906193e+000	 1.063383778612242e+001
 2.208983886863519e+000	 2.779008849850348e+000	 1.058014216618830e+001
 2.180190946049723e+000	 2.801654411010157e+000	 1.053335873903709e+001
 2.151184539007711e+000	 2.823987443156809e+000	 1.049350330478590e+001
 2.121969733974402e+000	 2.846004997900678e+000	 1.046063139354581e+001
 2.092551651780386e+000	 2.867704235903441e+000	 1.043483886817139e+001
 2.062935462933988e+000	 2.889082427998092e+000	 1.041626239938990e+001
 2.033126384678704e+000	 2.910136956216005e+000	 1.040507981243568e+001
 2.003129678027467e+000	 2.930865314720434e+000	 1.040151030474372e+001
 1.972950644777151e+000	 2.951265110645926e+000	 1.040581453468561e+001
 1.942594624506790e+000	 2.971334064843307e+000	 1.041829458175365e+001
 2.253315801851058e+000	 2.775462645594258e+000	 1.057030655146125e+001
 2.224540111418400e+000	 2.798579334706496e+000	 1.053433155662284e+001
 2.195544403415763e+000	 2.821384371648636e+000	 1.050328707678896e+001
 2.166333725901581e+000	 2.843874678669132e+000	 1.047702058600107e+001
 2.136913182804580e+000	 2.866047286615044e+000	 1.045542297395490e+001
 2.107287931017541e+000	 2.887899336152712e+000	 1.043842932444142e+001
 2.077463177460816e+000	 2.909428078895645e+000	 1.042601955862741e+001
 2.047444176119055e+000	 2.930630878438818e+000	 1.041821894204641e+001
 2.017236225054575e+000	 2.951505211298744e+000	 1.041509845462251e+001
 1.986844663400852e+000	 2.972048667758810e+000	 1.041677502349813e+001
 1.956274868339587e+000	 2.992258952619491e+000	 1.042341161888414e+001
 2.269073255010843e+000	 2.794871475282322e+000	 1.053189253817638e+001
 2.240096335973872e+000	 2.818149819562644e+000	 1.051026569028370e+001
 2.210897860782464e+000	 2.841114332287116e+000	 1.049158850936453e+001
 2.181482912796160e+000	 2.863761914181453e+000	 1.047554128951645e+001
 2.151856631635498e+000	 2.886089575329410e+000	 1.046185143983059e+001
 2.122024210255444e+000	 2.908094436401983e+000	 1.045029443775152e+001
 2.091990891988382e+000	 2.929773729793198e+000	 1.044069463969949e+001
 2.061761967560114e+000	 2.951124800661630e+000	 1.043292594757264e+001
 2.031342772082343e+000	 2.972145107877056e+000	 1.042691233022085e+001
 2.000738682025141e+000	 2.992832224871692e+000	 1.042262819945277e+001
 1.969955112172882e+000	 3.013183840395675e+000	 1.042009864060703e+001
 2.284830708171130e+000	 2.814280304970386e+000	 1.051873344456798e+001
 2.255652560529935e+000	 2.837720304418793e+000	 1.050815301708535e+001
 2.226251318149826e+000	 2.860844292925596e+000	 1.049854151938691e+001
 2.196632099691451e+000	 2.883649149693775e+000	 1.048941317624681e+001
 2.166800080467157e+000	 2.906131864043774e+000	 1.048033304116776e+001
 2.136760489494098e+000	 2.928289536651255e+000	 1.047091812391786e+001
 2.106518606516688e+000	 2.950119380690751e+000	 1.046083836771350e+001
 2.076079759001881e+000	 2.971618722884442e+000	 1.044981747441570e+001
 2.045449319110767e+000	 2.992785004455367e+000	 1.043763357660025e+001
 2.014632700650018e+000	 3.013615781984576e+000	 1.042411975585626e+001
 1.983635356006674e+000	 3.034108728171860e+000	 1.040916440715782e+001
 2.300588161331918e+000	 2.833689134658449e+000	 1.053097444936976e+001
 2.271208785086590e+000	 2.857290789274941e+000	 1.052820759196455e+001
 2.241604775517849e+000	 2.880574253564076e+000	 1.052442833163848e+001
 2.211781286587452e+000	 2.903536385206096e+000	 1.051898589982089e+001
 2.181743529299556e+000	 2.926174152758140e+000	 1.051128408550636e+001
 2.151496768733501e+000	 2.948484636900526e+000	 1.050078253625549e+001
 2.121046321045733e+000	 2.970465031588304e+000	 1.048699790118652e+001
 2.090397550444356e+000	 2.992112645107255e+000	 1.046950481407491e+001
 2.059555866139851e+000	 3.013424901033678e+000	 1.044793671519256e+001
 2.028526719275482e+000	 3.034399339097460e+000	 1.042198651103458e+001
 1.997315599840964e+000	 3.055033615948044e+000	 1.039140707159358e+001
 2.316345614493208e+000	 2.853097964346514e+000	 1.056876795731242e+001
 2.286765009643835e+000	 2.876861274131089e+000	 1.057064888423323e+001
 2.256958232886533e+000	 2.900304214202556e+000	 1.056953478577636e+001
 2.226930473484163e+000	 2.923423620718418e+000	 1.056461094220335e+001
 2.196686978132694e+000	 2.946216441472505e+000	 1.055512093597405e+001
 2.166233047973653e+000	 2.968679737149796e+000	 1.054036812552753e+001
 2.135574035575516e+000	 2.990810682485858e+000	 1.051971695335787e+001
 2.104715341887540e+000	 3.012606567330067e+000	 1.049259408625295e+001
 2.073662413169591e+000	 3.034064797611989e+000	 1.045848938610040e+001
 2.042420737901533e+000	 3.055182896210344e+000	 1.041695671020304e+001
 2.010995843675750e+000	 3.075958503724228e+000	 1.036761454058115e+001
 2.332103067654998e+000	 2.872506794034578e+000	 1.063227335500215e+001
 2.302321234201673e+000	 2.896431758987238e+000	 1.063570159466046e+001
 2.272311690255878e+000	 2.920034174841036e+000	 1.063415021420843e+001
 2.242079660381585e+000	 2.943310856230739e+000	 1.062664155192660e+001
 2.211630426966573e+000	 2.966258730186871e+000	 1.061226000940815e+001
 2.180969327214555e+000	 2.988874837399069e+000	 1.059015369746361e+001
 2.150101750106039e+000	 3.011156333383411e+000	 1.055953590858369e+001
 2.119033133331433e+000	 3.033100489552880e+000	 1.051968641357885e+001
 2.087768960199989e+000	 3.054704694190300e+000	 1.046995258057438e+001
 2.056314756528172e+000	 3.075966453323228e+000	 1.040975031509836e+001
 2.024676087511034e+000	 3.096883391500412e+000	 1.033856482055906e+001
 2.347860520817291e+000	 2.891915623722642e+000	 1.072165677662942e+001
 2.317877458760101e+000	 2.916002243843385e+000	 1.072359547992018e+001
 2.287665147625883e+000	 2.939764135479516e+000	 1.071856732488678e+001
 2.257228847279718e+000	 2.963198091743061e+000	 1.070543268481019e+001
 2.226573875801192e+000	 2.986301018901236e+000	 1.068311777455345e+001
 2.195705606456206e+000	 3.009069937648340e+000	 1.065061646796255e+001
 2.164629464637301e+000	 3.031501984280965e+000	 1.060699193404442e+001
 2.133350924776033e+000	 3.053594411775692e+000	 1.055137808929500e+001
 2.101875507231045e+000	 3.075344590768611e+000	 1.048298086412909e+001
 2.070208775155399e+000	 3.096750010436112e+000	 1.040107928194790e+001
 2.038356331346816e+000	 3.117808279276597e+000	 1.030502634995990e+001
 2.363617973980084e+000	 2.911324453410707e+000	 1.083709087904967e+001
 2.333433683319122e+000	 2.935572728699535e+000	 1.083456518406111e+001
 2.303018604996550e+000	 2.959494096117997e+000	 1.082308208878970e+001
 2.272378034178562e+000	 2.983085327255382e+000	 1.080134094705099e+001
 2.241517324636551e+000	 3.006343307615601e+000	 1.076811075033196e+001
 2.210441885698608e+000	 3.029265037897612e+000	 1.072223211608649e+001
 2.179157179169301e+000	 3.051847635178518e+000	 1.066261908698396e+001
 2.147668716221342e+000	 3.074088333998505e+000	 1.058826073823656e+001
 2.115982054262759e+000	 3.095984487346923e+000	 1.049822259073416e+001
 2.084102793783214e+000	 3.117533567548997e+000	 1.039164782831979e+001
 2.052036575183095e+000	 3.138733167052782e+000	 1.045765969191875e+001
 1.915234136842688e+000	 2.929484289290938e+000	 1.037948011146807e+001
 1.885136470559467e+000	 2.948942265883543e+000	 1.028708429239251e+001
 1.854874938628939e+000	 2.968069905208957e+000	 1.021344754626108e+001
 1.824454899308039e+000	 2.986865300036170e+000	 1.015912211822515e+001
 1.793881736172811e+000	 3.005326657253558e+000	 1.010727728422205e+001
 1.763160855129284e+000	 3.023452298137441e+000	 1.006053289202907e+001
 1.732297681428427e+000	 3.041240658528325e+000	 1.002147200018664e+001
 1.701297656688460e+000	 3.058690288915435e+000	 9.992635308001626e+000
 1.670166235927715e+000	 3.075799854430275e+000	 9.976515731262490e+000
 1.638908884611239e+000	 3.092568134750085e+000	 9.975553135842901e+000
 1.607531075714235e+000	 3.108994023912138e+000	 9.992129240753402e+000
 1.928914380674490e+000	 2.950409177067122e+000	 1.040392778566038e+001
 1.898601731060612e+000	 2.970006139206823e+000	 1.028008375589381e+001
 1.868124045330562e+000	 2.989270404527509e+000	 1.014505394932562e+001
 1.837486720014539e+000	 3.008200052175089e+000	 1.006200072260923e+001
 1.806695177142703e+000	 3.026793276230000e+000	 9.982448126128098e+000
 1.775754861234695e+000	 3.045048385977678e+000	 9.909144250964415e+000
 1.744671236293279e+000	 3.062963806086061e+000	 9.844798352260872e+000
 1.713449782805373e+000	 3.080538076690723e+000	 9.792075096663828e+000
 1.682095994753728e+000	 3.097769853388398e+000	 9.753588960879929e+000
 1.650615376642427e+000	 3.114657907139728e+000	 9.731898793860557e+000
 1.619013440539351e+000	 3.131201124082256e+000	 9.805233237462510e+000
 1.942594624506790e+000	 2.971334064843307e+000	 1.041829458175365e+001
 1.912066991562159e+000	 2.991070012530103e+000	 1.026366701002438e+001
 1.881373152032502e+000	 3.010470903846060e+000	 1.007924175677023e+001
 1.850518540721283e+000	 3.029534804314008e+000	 9.948925684429870e+000
 1.819508618112773e+000	 3.048259895206442e+000	 9.841706176215068e+000
 1.788348867340230e+000	 3.066644473817916e+000	 9.741878120911121e+000
 1.757044791158208e+000	 3.084686953643796e+000	 9.652278303404138e+000
 1.725601908922330e+000	 3.102385864466013e+000	 9.575696680855184e+000
 1.694025753579761e+000	 3.119739852346521e+000	 9.514870601824034e+000
 1.662321868673619e+000	 3.136747679529370e+000	 9.629136592661098e+000
 1.630495805364467e+000	 3.153408224252373e+000	 9.817316855122034e+000
 1.956274868339587e+000	 2.992258952619491e+000	 1.042341161888414e+001
 1.925532252064109e+000	 3.012133885853384e+000	 1.023864471470948e+001
 1.894622258734761e+000	 3.031671403164613e+000	 1.002362254128051e+001
 1.863550361428269e+000	 3.050869556452927e+000	 9.820735404833503e+000
 1.832322059083021e+000	 3.069726514182884e+000	 9.685856857588327e+000
 1.800942873445888e+000	 3.088240561658152e+000	 9.559507120017711e+000
 1.769418346023217e+000	 3.106410101201532e+000	 9.444651864025698e+000
 1.737754035039332e+000	 3.124233652241302e+000	 9.344207684293831e+000
 1.705955512405813e+000	 3.141709851304642e+000	 9.498746385410838e+000
 1.674028360704816e+000	 3.158837451919013e+000	 9.670333141100128e+000
 1.641978170189583e+000	 3.175615324422491e+000	 9.843713940705406e+000
 1.969955112172882e+000	 3.013183840395675e+000	 1.042009864060703e+001
 1.938997512566461e+000	 3.033197759176664e+000	 1.020581671033457e+001
 1.907871365437337e+000	 3.052871902483164e+000	 9.960789460036970e+000
 1.876582182135498e+000	 3.072204308591846e+000	 9.684634794902623e+000
 1.845135500053448e+000	 3.091193133159327e+000	 9.515696408793536e+000
 1.813536879551670e+000	 3.109836649498390e+000	 9.362795215029536e+000
 1.781791900888306e+000	 3.128133248759268e+000	 9.269084905200749e+000
 1.749906161156378e+000	 3.146081440016591e+000	 9.411963196699839e+000
 1.717885271231885e+000	 3.163679850262765e+000	 9.565076154704343e+000
 1.685734852736018e+000	 3.180927224308657e+000	 9.723929639703988e+000
 1.653460535014698e+000	 3.197822424592608e+000	 9.884174474592303e+000
 1.983635356006674e+000	 3.034108728171860e+000	 1.040916440715782e+001
 1.952462773069216e+000	 3.054261632499945e+000	 1.016597239083266e+001
 1.921120472140230e+000	 3.074072401801716e+000	 9.891512438888002e+000
 1.889614002842970e+000	 3.093539060730765e+000	 9.585438371818142e+000
 1.857948941024053e+000	 3.112659752135769e+000	 9.332012200525435e+000
 1.826130885657575e+000	 3.131432737338627e+000	 9.249260397080240e+000
 1.794165455753473e+000	 3.149856396317004e+000	 9.366977305026882e+000
 1.762058287273468e+000	 3.167929227791880e+000	 9.499414874436390e+000
 1.729815030057977e+000	 3.185649849220886e+000	 9.641841970098200e+000
 1.697441344767225e+000	 3.203016996698299e+000	 9.789666183164043e+000
 1.664942899839814e+000	 3.220029524762726e+000	 9.938442562510167e+000
 1.997315599840964e+000	 3.055033615948044e+000	 1.039140707159358e+001
 1.965928033572373e+000	 3.075325505823225e+000	 1.011989106143960e+001
 1.934369578843441e+000	 3.095272901120267e+000	 9.816551828464959e+000
 1.902645823550685e+000	 3.114873812869685e+000	 9.481078686114381e+000
 1.870762381994835e+000	 3.134126371112211e+000	 9.272593850486294e+000
 1.838724891763604e+000	 3.153028825178864e+000	 9.362299819216572e+000
 1.806539010618719e+000	 3.171579543874739e+000	 9.471520742760571e+000
 1.774210413390603e+000	 3.189777015567169e+000	 9.595290162469807e+000
 1.741744788884088e+000	 3.207619848179009e+000	 9.728773365817689e+000
 1.709147836798437e+000	 3.225106769087942e+000	 9.867276726946496e+000
 1.676425264664929e+000	 3.242236624932843e+000	 1.000625663672109e+001
 2.010995843675750e+000	 3.075958503724228e+000	 1.036761454058115e+001
 1.979393294075933e+000	 3.096389379146505e+000	 1.006834228184709e+001
 1.947618685546970e+000	 3.116473400438819e+000	 9.736658729869749e+000
 1.915677644258642e+000	 3.136208565008603e+000	 9.538126147223291e+000
 1.883575822965796e+000	 3.155592990088652e+000	 9.444476078710054e+000
 1.851318897869758e+000	 3.174624913019101e+000	 9.479899102556844e+000
 1.818912565484044e+000	 3.193302691432475e+000	 9.582428830314598e+000
 1.786362539507782e+000	 3.211624803342458e+000	 9.699307397790983e+000
 1.753674547710219e+000	 3.229589847137130e+000	 9.825593489321166e+000
 1.720854328829654e+000	 3.247196541477586e+000	 9.956489296109552e+000
 1.687907629490045e+000	 3.264443725102961e+000	 1.008734964899673e+001
 2.024676087511034e+000	 3.096883391500412e+000	 1.033856482055906e+001
 1.992858554579895e+000	 3.117453252469786e+000	 1.001208619544390e+001
 1.960867792250816e+000	 3.137673899757371e+000	 9.836642970809908e+000
 1.928709464966843e+000	 3.157543317147523e+000	 9.750550492227013e+000
 1.896389263936935e+000	 3.177059609065096e+000	 9.648507346632346e+000
 1.863912903976033e+000	 3.196221000859338e+000	 9.601759708430942e+000
 1.831286120349448e+000	 3.215025838990211e+000	 9.699408108765960e+000
 1.798514665625005e+000	 3.233472591117747e+000	 9.811178299405631e+000
 1.765604306536370e+000	 3.251559846095253e+000	 9.932019317069194e+000
 1.732560820860876e+000	 3.269286313867228e+000	 1.005702618565504e+001
 1.699389994315161e+000	 3.286650825273078e+000	 1.018144925577008e+001
 2.038356331346816e+000	 3.117808279276597e+000	 1.030502634995990e+001
 2.006323815084259e+000	 3.138517125793066e+000	 1.014381876581837e+001
 1.974116898954979e+000	 3.158874399075922e+000	 1.006512711582996e+001
 1.941741285675287e+000	 3.178878069286442e+000	 9.971030758864178e+000
 1.909202704908253e+000	 3.198526228041537e+000	 9.861785206189090e+000
 1.876506910082434e+000	 3.217817088699575e+000	 9.737609891930630e+000
 1.843659675214930e+000	 3.236748986547946e+000	 9.822158285632177e+000
 1.810666791742273e+000	 3.255320378893037e+000	 9.930608190414253e+000
 1.777534065362541e+000	 3.273529845053375e+000	 1.004776186160497e+001
 1.744267312892102e+000	 3.291376086256872e+000	 1.016860415281211e+001
 1.710872359140276e+000	 3.308857925443196e+000	 1.028827799583134e+001
 2.052036575183095e+000	 3.138733167052782e+000	 1.045765969191875e+001
 2.019789075589026e+000	 3.159580999116348e+000	 1.038624518508119e+001
 1.987366005659461e+000	 3.180074898394475e+000	 1.029991131431293e+001
 1.954773106383974e+000	 3.200212821425363e+000	 1.019897432131848e+001
 1.922016145879749e+000	 3.219992847017980e+000	 1.008370996763493e+001
 1.889100916188958e+000	 3.239413176539813e+000	 9.954355222528660e+000
 1.856033230080493e+000	 3.258472134105683e+000	 9.950372462656707e+000
 1.822818917859586e+000	 3.277168166668327e+000	 1.005729621120914e+001
 1.789463824188732e+000	 3.295499844011497e+000	 1.017252637035163e+001
 1.755973804923334e+000	 3.313465858646516e+000	 1.029093460162980e+001
 1.722354723965393e+000	 3.331065025613313e+000	 1.040755346091601e+001
 1.607531075714235e+000	 3.108994023912138e+000	 9.992129240753402e+000
 1.576038286805698e+000	 3.125076530040452e+000	 9.755715342910943e+000
 1.544435997154201e+000	 3.140814774984898e+000	 9.723449574502562e+000
 1.512729684859720e+000	 3.156207993874709e+000	 9.707091081747743e+000
 1.480924824014684e+000	 3.171255534588795e+000	 9.702966157135595e+000
 1.449026881896091e+000	 3.185956857143146e+000	 9.707552293615539e+000
 1.417041316191712e+000	 3.200311532997376e+000	 9.717484034000613e+000
 1.384973572263022e+000	 3.214319244282112e+000	 9.729558389564287e+000
 1.352829080447325e+000	 3.227979782949083e+000	 9.740739821051781e+000
 1.320613253401520e+000	 3.241293049845799e+000	 9.748164776694694e+000
 1.288331483489811e+000	 3.254259053716808e+000	 9.749145783178129e+000
 1.619013440539351e+000	 3.131201124082256e+000	 9.805233237462510e+000
 1.587295703138929e+000	 3.147398505255050e+000	 9.732455777711769e+000
 1.555467682847306e+000	 3.163249166235358e+000	 9.682702075071589e+000
 1.523534896893744e+000	 3.178752336689058e+000	 9.652042976048694e+000
 1.491502858471335e+000	 3.193907359837046e+000	 9.636693889679574e+000
 1.459377073909051e+000	 3.208713691838290e+000	 9.633021274376963e+000
 1.427163039878152e+000	 3.223170901091397e+000	 9.637548696632017e+000
 1.394866240635551e+000	 3.237278667456501e+000	 9.646962453051392e+000
 1.362492145306675e+000	 3.251036781399276e+000	 9.658116748604350e+000
 1.330046205210259e+000	 3.264445143058997e+000	 9.668038425351465e+000
 1.297533851227396e+000	 3.277503761242674e+000	 9.673931237312019e+000
 1.630495805364467e+000	 3.153408224252373e+000	 9.817316855122034e+000
 1.598553119472159e+000	 3.169720480469653e+000	 9.725106375288645e+000
 1.566499368540411e+000	 3.185683557485841e+000	 9.659122940201588e+000
 1.534340108927769e+000	 3.201296679503454e+000	 9.615324679307536e+000
 1.502080892927985e+000	 3.216559185085382e+000	 9.589814024599846e+000
 1.469727265922012e+000	 3.231470526533562e+000	 9.578844414649440e+000
 1.437284763564592e+000	 3.246030269185602e+000	 9.578826564796618e+000
 1.404758909008079e+000	 3.260238090631141e+000	 9.586334294609808e+000
 1.372155210166025e+000	 3.274093779849793e+000	 9.598109905141115e+000
 1.339479157018999e+000	 3.287597236272605e+000	 9.611069099931006e+000
 1.306736218964982e+000	 3.300748468769045e+000	 9.622305445125599e+000
 1.641978170189583e+000	 3.175615324422491e+000	 9.843713940705406e+000
 1.609810535805390e+000	 3.192042455684259e+000	 9.733431842920572e+000
 1.577531054233516e+000	 3.208117948736343e+000	 9.652486662214272e+000
 1.545145320961793e+000	 3.223841022317894e+000	 9.596721586570789e+000
 1.512658927384635e+000	 3.239211010333797e+000	 9.562123952130808e+000
 1.480077457934971e+000	 3.254227361228960e+000	 9.544832166839056e+000
 1.447406487251032e+000	 3.268889637279991e+000	 9.541142194351425e+000
 1.414651577380608e+000	 3.283197513806030e+000	 9.547513588933043e+000
 1.381818275025375e+000	 3.297150778300635e+000	 9.560575073529394e+000
 1.348912108827739e+000	 3.310749329486621e+000	 9.577129654641544e+000
 1.315938586702568e+000	 3.323993176295921e+000	 9.594159269077879e+000
 1.653460535014698e+000	 3.197822424592608e+000	 9.884174474592303e+000
 1.621067952138621e+000	 3.214364430898872e+000	 9.757191141301160e+000
 1.588562739926621e+000	 3.230552339986867e+000	 9.662562286622633e+000
 1.555950532995818e+000	 3.246385365132382e+000	 9.596013907803375e+000
 1.523236961841285e+000	 3.261862835582296e+000	 9.553416101175539e+000
 1.490427649947932e+000	 3.276984195924487e+000	 9.530790207889353e+000
 1.457528210937472e+000	 3.291749005374561e+000	 9.524315513796925e+000
 1.424544245753136e+000	 3.306156936981167e+000	 9.530335493841836e+000
 1.391481339884725e+000	 3.320207776751802e+000	 9.545363592786831e+000
 1.358345060636479e+000	 3.333901422701048e+000	 9.566088535589277e+000
 1.325140954440153e+000	 3.347237883823303e+000	 9.589379162202686e+000
 1.664942899839814e+000	 3.220029524762726e+000	 9.938442562510167e+000
 1.632325368471851e+000	 3.236686406113489e+000	 9.796137682696751e+000
 1.599594425619725e+000	 3.252986731237410e+000	 9.689113599951972e+000
 1.566755745029842e+000	 3.268929707946914e+000	 9.612976846684592e+000
 1.533814996297935e+000	 3.284514660830875e+000	 9.563478110386223e+000
 1.500777841960892e+000	 3.299741030620141e+000	 9.536519603952719e+000
 1.467649934623913e+000	 3.314608373469316e+000	 9.528161983841212e+000
 1.434436914125665e+000	 3.329116360156554e+000	 9.534630806038006e+000
 1.401144404744075e+000	 3.343264775203294e+000	 9.552322511317943e+000
 1.367778012445219e+000	 3.357053515915887e+000	 9.577809932782051e+000
 1.334343322177739e+000	 3.370482591351189e+000	 9.607847320157877e+000
 1.676425264664929e+000	 3.242236624932843e+000	 1.000625663672109e+001
 1.643582784805082e+000	 3.259008381328112e+000	 9.850019520960974e+000
 1.610626111312830e+000	 3.275421122487975e+000	 9.731899309842207e+000
 1.577560957063867e+000	 3.291474050761495e+000	 9.647380772056257e+000
 1.544393030754585e+000	 3.307166486079536e+000	 9.592092992213779e+000
 1.511128033973854e+000	 3.322497865315922e+000	 9.561816968294005e+000
 1.477771658310353e+000	 3.337467741564254e+000	 9.552492750406517e+000
 1.444329582498194e+000	 3.352075783332189e+000	 9.560226110458046e+000
 1.410807469603425e+000	 3.366321773655108e+000	 9.581294733852513e+000
 1.377210964253959e+000	 3.380205609131134e+000	 9.612153925885894e+000
 1.343545689915324e+000	 3.393727298879581e+000	 9.649441827025866e+000
 1.687907629490045e+000	 3.264443725102961e+000	 1.008734964899673e+001
 1.654840201138312e+000	 3.281330356542740e+000	 9.918579533793785e+000
 1.621657797005935e+000	 3.297855513738559e+000	 9.790673217799052e+000
 1.588366169097892e+000	 3.314018393576120e+000	 9.698991382372885e+000
 1.554971065211235e+000	 3.329818311328279e+000	 9.639039290261655e+000
 1.521478225986814e+000	 3.345254700011832e+000	 9.606474612749484e+000
 1.487893381996793e+000	 3.360327109659374e+000	 9.597114791390627e+000
 1.454222250870723e+000	 3.375035206508074e+000	 9.606943923530379e+000
 1.420470534462776e+000	 3.389378772107250e+000	 9.632119162387250e+000
 1.386643916062698e+000	 3.403357702346790e+000	 9.668976624032856e+000
 1.352748057652909e+000	 3.416972006408478e+000	 9.714036795163093e+000
 1.699389994315161e+000	 3.286650825273078e+000	 1.018144925577008e+001
 1.666097617471543e+000	 3.303652331757373e+000	 1.000155559761145e+001
 1.632689482699040e+000	 3.320289904989165e+000	 9.865184384941800e+000
 1.599171381131916e+000	 3.336562736390792e+000	 9.767569863485161e+000
 1.565549099667885e+000	 3.352470136577103e+000	 9.704091230260399e+000
 1.531828417999774e+000	 3.368011534707868e+000	 9.670280693045140e+000
 1.498015105683233e+000	 3.383186477754680e+000	 9.661831057478546e+000
 1.464114919243252e+000	 3.397994629684208e+000	 9.674602830624934e+000
 1.430133599322126e+000	 3.412435770559714e+000	 9.704630831413052e+000
 1.396076867871438e+000	 3.426509795562858e+000	 9.748130299960423e+000
 1.361950425390495e+000	 3.440216713937880e+000	 9.801502499379993e+000
 1.710872359140276e+000	 3.308857925443196e+000	 1.028827799583134e+001
 1.677355033804773e+000	 3.325974306972011e+000	 1.009868075537485e+001
 1.643721168392145e+000	 3.342724296239791e+000	 9.955177291076774e+000
 1.609976593165940e+000	 3.359107079205509e+000	 9.852873040069465e+000
 1.576127134124536e+000	 3.375121961826011e+000	 9.787018864962779e+000
 1.542178610012735e+000	 3.390768369404032e+000	 9.753019348263660e+000
 1.508136829369673e+000	 3.406045845850167e+000	 9.746440607283869e+000
 1.474007587615780e+000	 3.420954052860589e+000	 9.763017617967970e+000
 1.439796664181476e+000	 3.435492769012504e+000	 9.798661037697148e+000
 1.405509819680178e+000	 3.449661888779335e+000	 9.849463518749646e+000
 1.371152793128081e+000	 3.463461421467788e+000	 9.911705505717675e+000
 1.722354723965393e+000	 3.331065025613313e+000	 1.040755346091601e+001
 1.688612450138004e+000	 3.348296282186655e+000	 1.020968337770473e+001
 1.654752854085250e+000	 3.365158687490438e+000	 1.006039198740762e+001
 1.620781805199965e+000	 3.381651422020274e+000	 9.954653521000447e+000
 1.586705168581186e+000	 3.397773787074999e+000	 9.887588213242941e+000
 1.552528802025695e+000	 3.413525204100325e+000	 9.854470834732428e+000
 1.518258553056114e+000	 3.428905213945839e+000	 9.850738737084447e+000
 1.483900255988309e+000	 3.443913476037222e+000	 9.871999399280060e+000
 1.449459729040826e+000	 3.458549767465619e+000	 9.914037464873896e+000
 1.414942771488918e+000	 3.472813981996223e+000	 9.972821261413857e+000
 1.380355160865667e+000	 3.486706128998200e+000	 1.004450879507362e+001
 1.288331483489811e+000	 3.254259053716808e+000	 9.749145783178129e+000
 1.255989140217728e+000	 3.266877910132902e+000	 8.928031727223036e+000
 1.223591567714392e+000	 3.279149840352444e+000	 8.664399224953026e+000
 1.191144082264780e+000	 3.291075170115785e+000	 8.558332485069837e+000
 1.158651969894472e+000	 3.302654328373524e+000	 8.494025024830343e+000
 1.126120484008404e+000	 3.313887845952988e+000	 8.471112073977803e+000
 1.093554843085374e+000	 3.324776354164621e+000	 8.489474056740757e+000
 1.060960228429861e+000	 3.335320583350721e+000	 8.549215813773017e+000
 1.028341781982669e+000	 3.345521361378934e+000	 8.650645738092088e+000
 9.957046041917395e-001	 3.355379612083005e+000	 8.794254891298442e+000
 9.630537519444204e-001	 3.364896353653301e+000	 8.980696164558585e+000
 1.297533851227396e+000	 3.277503761242674e+000	 9.673931237312019e+000
 1.264960491217280e+000	 3.290212752346754e+000	 8.892955294728379e+000
 1.232331507481436e+000	 3.302572339210159e+000	 8.518641430205332e+000
 1.199652254278306e+000	 3.314582849899960e+000	 8.484655534636481e+000
 1.166928055390794e+000	 3.326244716430685e+000	 8.481711283403625e+000
 1.134164201748158e+000	 3.337558473421284e+000	 8.509810637722335e+000
 1.101365949104043e+000	 3.348524756691562e+000	 8.569212726211680e+000
 1.068538515772247e+000	 3.359144301800547e+000	 8.660412117912742e+000
 1.035687080421721e+000	 3.369417942529220e+000	 8.784117007947449e+000
 1.002816779932179e+000	 3.379346609310144e+000	 8.941227384325057e+000
 9.699327073115912e-001	 3.388931327606469e+000	 9.132813242544760e+000
 1.306736218964982e+000	 3.300748468769045e+000	 9.622305445125599e+000
 1.273931842216838e+000	 3.313547594561200e+000	 8.883735963354027e+000
 1.241071447248501e+000	 3.325994838068540e+000	 8.374911979228417e+000
 1.208160426291878e+000	 3.338090529684847e+000	 8.409681269405125e+000
 1.175204140887197e+000	 3.349835104488587e+000	 8.464694543054476e+000
 1.142207919488039e+000	 3.361229100890329e+000	 8.540327201263299e+000
 1.109177055122895e+000	 3.372273159219241e+000	 8.637223892812264e+000
 1.076116803114882e+000	 3.382968020251077e+000	 8.756275824393804e+000
 1.043032378861099e+000	 3.393314523680163e+000	 8.898597982171669e+000
 1.009928955673030e+000	 3.403313606537866e+000	 9.065506335444789e+000
 9.768116626792683e-001	 3.412966301560131e+000	 9.258495091259137e+000
 1.315938586702568e+000	 3.323993176295921e+000	 9.594159269077879e+000
 1.282903193216400e+000	 3.336882436776241e+000	 8.900242668549904e+000
 1.249811387015587e+000	 3.349417336927583e+000	 8.238508013625198e+000
 1.216668598305496e+000	 3.361598209470448e+000	 8.338546797500452e+000
 1.183480226383683e+000	 3.373425492547230e+000	 8.447947696060794e+000
 1.150251637228049e+000	 3.384899728360124e+000	 8.567466392271532e+000
 1.116988161141932e+000	 3.396021561747658e+000	 8.698140006450730e+000
 1.083695090457768e+000	 3.406791738702315e+000	 8.841263429619525e+000
 1.050377677300802e+000	 3.417211104831759e+000	 8.998365566955954e+000
 1.017041131414291e+000	 3.427280603766173e+000	 9.171185564399613e+000
 9.836906180474517e-001	 3.437001275514286e+000	 9.361649089476453e+000
 1.325140954440153e+000	 3.347237883823303e+000	 9.589379162202686e+000
 1.291874544215968e+000	 3.360217278991877e+000	 8.942341032779991e+000
 1.258551326782692e+000	 3.372839835787290e+000	 8.314380366837881e+000
 1.225176770319161e+000	 3.385105889256760e+000	 8.276388263164147e+000
 1.191756311880252e+000	 3.397015880606614e+000	 8.436443921767069e+000
 1.158295354968186e+000	 3.408570355830669e+000	 8.596034426186092e+000
 1.124799267161153e+000	 3.419769964276812e+000	 8.756596454346314e+000
 1.091273377800903e+000	 3.430615457154258e+000	 8.919835764758197e+000
 1.057722975740832e+000	 3.441107685984012e+000	 9.087702447671877e+000
 1.024153307155963e+000	 3.451247600995064e+000	 9.262366160521017e+000
 9.905695734161415e-001	 3.461036249468935e+000	 9.446191420981091e+000
 1.334343322177739e+000	 3.370482591351189e+000	 9.607847320157877e+000
 1.300845895215541e+000	 3.383552121208107e+000	 9.009893479763200e+000
 1.267291266549819e+000	 3.396262334647662e+000	 8.422206311695538e+000
 1.233684942332872e+000	 3.408613569043785e+000	 8.228340879992533e+000
 1.200032397376902e+000	 3.420606268666739e+000	 8.435156676685336e+000
 1.166339072708452e+000	 3.432240983301964e+000	 8.630839051463660e+000
 1.132610373180558e+000	 3.443518366806705e+000	 8.817231459743210e+000
 1.098851665144288e+000	 3.454439175606908e+000	 8.996457846268708e+000
 1.065068274181186e+000	 3.465004267136918e+000	 9.170896889589150e+000
 1.031265482898047e+000	 3.475214598224539e+000	 9.343156232054941e+000
 9.974485287853375e-001	 3.485071223424078e+000	 9.516046770946383e+000
 1.343545689915324e+000	 3.393727298879581e+000	 9.649441827025866e+000
 1.309817246215119e+000	 3.406886963424932e+000	 9.102759344019480e+000
 1.276031206316967e+000	 3.419684833508697e+000	 8.557564879704669e+000
 1.242193114346629e+000	 3.432121248831523e+000	 8.199538962807914e+000
 1.208308482873635e+000	 3.444196656727605e+000	 8.449059685003487e+000
 1.174382790448846e+000	 3.455911610774007e+000	 8.676689497077852e+000
 1.140421479200147e+000	 3.467266769337335e+000	 8.884685984786211e+000
 1.106429952487923e+000	 3.478262894060265e+000	 9.075598732568468e+000
 1.072413572621866e+000	 3.488900848290479e+000	 9.252242546783243e+000
 1.038377658640542e+000	 3.499181595454600e+000	 9.417670665787568e+000
 1.004327484155040e+000	 3.509106197379714e+000	 9.575148034790999e+000
 1.352748057652909e+000	 3.416972006408478e+000	 9.714036795163093e+000
 1.318788597214702e+000	 3.430221805642352e+000	 9.220794975944553e+000
 1.284771146084135e+000	 3.443107332370397e+000	 8.720292540066868e+000
 1.250701286360433e+000	 3.455628928619975e+000	 8.211928242691036e+000
 1.216584568370449e+000	 3.467787044789213e+000	 8.483126929480426e+000
 1.182426508189368e+000	 3.479582238246801e+000	 8.738396422161758e+000
 1.148232585219920e+000	 3.491015171868703e+000	 8.963603637360855e+000
 1.114008239831808e+000	 3.502086612514328e+000	 9.161731386552123e+000
 1.079758871062872e+000	 3.512797429444696e+000	 9.336038278842770e+000
 1.045489834383448e+000	 3.523148592685243e+000	 9.490030896483134e+000
 1.011206439525248e+000	 3.533141171335845e+000	 9.627436038918948e+000
 1.361950425390495e+000	 3.440216713937880e+000	 9.801502499379993e+000
 1.327759948214291e+000	 3.453556647860368e+000	 9.363853842624993e+000
 1.293511085851323e+000	 3.466529831232760e+000	 8.910223878477524e+000
 1.259209458374282e+000	 3.479136608409138e+000	 8.440051505667499e+000
 1.224860653867346e+000	 3.491377432851562e+000	 8.542332642710539e+000
 1.190470225930017e+000	 3.503252865720344e+000	 8.820771867691587e+000
 1.156043691239877e+000	 3.514763574400809e+000	 9.058630581710343e+000
 1.121586527175943e+000	 3.525910330969096e+000	 9.259332543683312e+000
 1.087104169504204e+000	 3.536694010599568e+000	 9.426587975007694e+000
 1.052602010126766e+000	 3.547115589916470e+000	 9.564364685668227e+000
 1.018085394895963e+000	 3.557176145292468e+000	 9.676859272780932e+000
 1.371152793128081e+000	 3.463461421467788e+000	 9.911705505717675e+000
 1.336731299213884e+000	 3.476891490078979e+000	 9.531786624593492e+000
 1.302251025618533e+000	 3.489952330095787e+000	 9.127191660330800e+000
 1.267717630388179e+000	 3.502644288199014e+000	 8.697396768819974e+000
 1.233136739364326e+000	 3.514967820914653e+000	 8.631651298740223e+000
 1.198513943670795e+000	 3.526923493194636e+000	 8.928629210116084e+000
 1.163854797260018e+000	 3.538511976933653e+000	 9.174415452651761e+000
 1.129164814520328e+000	 3.549734049424571e+000	 9.372882585398608e+000
 1.094449467945861e+000	 3.560590591755095e+000	 9.528200385388804e+000
 1.059714185870494e+000	 3.571082587148281e+000	 9.644805909324367e+000
 1.024964350267184e+000	 3.581211119249587e+000	 9.727373631725248e+000
 1.380355160865667e+000	 3.486706128998200e+000	 1.004450879507362e+001
 1.345702650213483e+000	 3.500226332298184e+000	 9.724441308714038e+000
 1.310990965385763e+000	 3.513374828959480e+000	 9.371026891396271e+000
 1.276225802402122e+000	 3.526151967989605e+000	 8.983776078107891e+000
 1.241412824861387e+000	 3.538558208978485e+000	 8.756057605019345e+000
 1.206557661411702e+000	 3.550594120669679e+000	 9.066783116840977e+000
 1.171665903280343e+000	 3.562260379467234e+000	 9.315609273223666e+000
 1.136743101864963e+000	 3.573557767880752e+000	 9.506865417574989e+000
 1.101794766387844e+000	 3.584487172911276e+000	 9.645188958939077e+000
 1.066826361614634e+000	 3.595049584380677e+000	 9.735494354073055e+000
 1.031843305638912e+000	 3.605246093207198e+000	 9.782942170134382e+000
 9.630537519444204e-001	 3.364896353653301e+000	 8.980696164558585e+000
 9.303942365624410e-001	 3.374072696980329e+000	 8.943635359642768e+000
 8.977310218600831e-001	 3.382909843951724e+000	 8.897220672378911e+000
 8.650690222672628e-001	 3.391409085706569e+000	 8.842404848475647e+000
 8.324131010182240e-001	 3.399571800851111e+000	 8.780267561501004e+000
 7.997680684061290e-001	 3.407399453636346e+000	 8.711994942677636e+000
 7.671386801043798e-001	 3.414893592100731e+000	 8.638859453359833e+000
 7.345296355551686e-001	 3.422055846180586e+000	 8.562200150000260e+000
 7.019455764256682e-001	 3.428887925790746e+000	 8.483403388610222e+000
 6.693910851321578e-001	 3.435391618878011e+000	 8.403884012835084e+000
 6.368706834322875e-001	 3.441568789449906e+000	 8.325067066834475e+000
 9.699327073115912e-001	 3.388931327606469e+000	 9.132813242544760e+000
 9.370399096768675e-001	 3.398173216243544e+000	 9.082219629270783e+000
 9.041433862981303e-001	 3.407073485693827e+000	 9.013230815336065e+000
 8.712480867083660e-001	 3.415633436318824e+000	 8.927613501753321e+000
 8.383589088792047e-001	 3.423854456571968e+000	 8.827261330530172e+000
 8.054806974630461e-001	 3.431738021163191e+000	 8.714173218342310e+000
 7.726182421023863e-001	 3.439285689188370e+000	 8.590432058990173e+000
 7.397762758068609e-001	 3.446499102226225e+000	 8.458183846264745e+000
 7.069594733984083e-001	 3.453379982405272e+000	 8.319617265928818e+000
 6.741724500248509e-001	 3.459930130443355e+000	 8.176943802518892e+000
 6.414197597421077e-001	 3.466151423662343e+000	 8.032378403620964e+000
 9.768116626792683e-001	 3.412966301560131e+000	 9.258495091259137e+000
 9.436855827918899e-001	 3.422273735507152e+000	 9.199840904120372e+000
 9.105557507368421e-001	 3.431237127436225e+000	 9.113726250822532e+000
 8.774271511501822e-001	 3.439857786931272e+000	 9.002735005290624e+000
 8.443047167409272e-001	 3.448137112292919e+000	 8.869578045122093e+000
 8.111933265207124e-001	 3.456076588690030e+000	 8.717070378996469e+000
 7.780978041011298e-001	 3.463677786275902e+000	 8.548108669139998e+000
 7.450229160592590e-001	 3.470942358271658e+000	 8.365649202313481e+000
 7.119733703718022e-001	 3.477872039019490e+000	 8.172686359746111e+000
 6.789538149181272e-001	 3.484468642008293e+000	 7.972231633325167e+000
 6.459688360524208e-001	 3.490734057874272e+000	 7.767293232174903e+000
 9.836906180474517e-001	 3.437001275514286e+000	 9.361649089476453e+000
 9.503312559075080e-001	 3.446374254771155e+000	 9.300022954667492e+000
 9.169681151762193e-001	 3.455400769178916e+000	 9.201844069256268e+000
 8.836062155927121e-001	 3.464082137543915e+000	 9.070516925275767e+000
 8.502505246033911e-001	 3.472419768013961e+000	 8.909573130131500e+000
 8.169059555791284e-001	 3.480415156216863e+000	 8.722647317378172e+000
 7.835773661006110e-001	 3.488069883363327e+000	 8.513453479002145e+000
 7.502695563123625e-001	 3.495385614316883e+000	 8.285761774535700e+000
 7.169872673458503e-001	 3.502364095633400e+000	 8.043375869166759e+000
 6.837351798119865e-001	 3.509007153572822e+000	 7.790110849773575e+000
 6.505179123632263e-001	 3.515316692085695e+000	 7.529771764515124e+000
 9.905695734161415e-001	 3.461036249468935e+000	 9.446191420981091e+000
 9.569769290237222e-001	 3.470474774035552e+000	 9.386305323485178e+000
 9.233804796162610e-001	 3.479564410921900e+000	 9.280744143340000e+000
 8.897852800359551e-001	 3.488306488156749e+000	 9.133736660131419e+000
 8.561963324665967e-001	 3.496702423735099e+000	 8.949638929036865e+000
 8.226185846382941e-001	 3.504753723743687e+000	 8.732908964376465e+000
 7.890569281008298e-001	 3.512461980450645e+000	 8.488081871303169e+000
 7.555161965661715e-001	 3.519828870361901e+000	 8.219745482836039e+000
 7.220011643205525e-001	 3.526856152247003e+000	 7.932516556160697e+000
 6.885165447064289e-001	 3.533545665136944e+000	 7.631017578763847e+000
 6.550669886745246e-001	 3.539899326296611e+000	 7.319854231548925e+000
 9.974485287853375e-001	 3.485071223424078e+000	 9.516046770946383e+000
 9.636226021405323e-001	 3.494575293300343e+000	 9.462242781378070e+000
 9.297928440569677e-001	 3.503728052665179e+000	 9.353608342465090e+000
 8.959643444799118e-001	 3.512530838769779e+000	 9.195200411816867e+000
 8.621421403305437e-001	 3.520985079456329e+000	 8.992203430884716e+000
 8.283312136982091e-001	 3.529092291270506e+000	 8.749902770474112e+000
 7.945364901017862e-001	 3.536854077537855e+000	 8.473658651215899e+000
 7.607628368206867e-001	 3.544272126406713e+000	 8.168880598099721e+000
 7.270150612959087e-001	 3.551348208860298e+000	 7.841002484774616e+000
 6.932979096014542e-001	 3.558084176700659e+000	 7.495458219838759e+000
 6.596160649863155e-001	 3.564481960507018e+000	 7.137658123799612e+000
 1.004327484155040e+000	 3.509106197379714e+000	 9.575148034790999e+000
 9.702682752579384e-001	 3.518675812565526e+000	 9.531404805867826e+000
 9.362052084983391e-001	 3.527891694408750e+000	 9.423639779400656e+000
 9.021434089245815e-001	 3.536755189383000e+000	 9.257742199405632e+000
 8.680879481952324e-001	 3.545267735177653e+000	 9.039729049550772e+000
 8.340438427588738e-001	 3.553430858797317e+000	 8.775717249597355e+000
 8.000160521034800e-001	 3.561246174624960e+000	 8.471896353810021e+000
 7.660094770759071e-001	 3.568715382451315e+000	 8.134501812364521e+000
 7.320289582719192e-001	 3.575840265473287e+000	 7.769788853252663e+000
 6.980792744970626e-001	 3.582622688263966e+000	 7.384007038586604e+000
 6.641651412985992e-001	 3.589064594716919e+000	 6.983375545529581e+000
 1.011206439525248e+000	 3.533141171335845e+000	 9.627436038918948e+000
 9.769139483759403e-001	 3.542776331831105e+000	 9.597375080964339e+000
 9.426175729403755e-001	 3.552055336152616e+000	 9.494062087729239e+000
 9.083224733699647e-001	 3.560979539996417e+000	 9.324222912924830e+000
 8.740337560606624e-001	 3.569550390899068e+000	 9.094711452827820e+000
 8.397564718202881e-001	 3.577769426324122e+000	 8.812480582399854e+000
 8.054956141059113e-001	 3.585638271711957e+000	 8.484553620586190e+000
 7.712561173318331e-001	 3.593158638495711e+000	 8.117996387760845e+000
 7.370428552485837e-001	 3.600332322085969e+000	 7.719889914642230e+000
 7.028606393932541e-001	 3.607161199826867e+000	 7.297303858272639e+000
 6.687142176113755e-001	 3.613647228926312e+000	 6.857270676857977e+000
 1.018085394895963e+000	 3.557176145292468e+000	 9.676859272780932e+000
 9.835596214945382e-001	 3.566876851097076e+000	 9.663751017217404e+000
 9.490299373830770e-001	 3.576218977896776e+000	 9.568118728576588e+000
 9.145015378160616e-001	 3.585203890610027e+000	 9.397529405553293e+000
 8.799795639268342e-001	 3.593833046620580e+000	 9.159678438981958e+000
 8.454691008824514e-001	 3.602107993850920e+000	 8.862359276171173e+000
 8.109751761090801e-001	 3.610030368798847e+000	 8.513433641826516e+000
 7.765027575884650e-001	 3.617601894539902e+000	 8.120802380495666e+000
 7.420567522259022e-001	 3.624824378698342e+000	 7.692376981699036e+000
 7.076420042900284e-001	 3.631699711389360e+000	 7.236051845052407e+000
 6.732632939246444e-001	 3.638229863135198e+000	 6.759677338765949e+000
 1.024964350267184e+000	 3.581211119249587e+000	 9.727373631725248e+000
 9.902052946137315e-001	 3.590977370363441e+000	 9.734143291094007e+000
 9.554423018264432e-001	 3.600382619641227e+000	 9.649072325257565e+000
 9.206806022628717e-001	 3.609428241223828e+000	 9.480573622374314e+000
 8.859253717937474e-001	 3.618115702342184e+000	 9.237188858549486e+000
 8.511817299453649e-001	 3.626446561377710e+000	 8.927556878707481e+000
 8.164547381129864e-001	 3.634422465885629e+000	 8.560382661668811e+000
 7.817493978458024e-001	 3.642045150583884e+000	 8.144406936353056e+000
 7.470706492038749e-001	 3.649316435310410e+000	 7.688376512131931e+000
 7.124233691873859e-001	 3.656238222951445e+000	 7.201015382371804e+000
 6.778123702384060e-001	 3.662812497343578e+000	 6.690996656154279e+000
 1.031843305638912e+000	 3.605246093207198e+000	 9.782942170134382e+000
 9.968509677335214e-001	 3.615077889630200e+000	 9.812175402781440e+000
 9.618546662704745e-001	 3.624546261385974e+000	 9.740204024536606e+000
 9.268596667103954e-001	 3.633652591837827e+000	 9.576291763979139e+000
 8.918711796614026e-001	 3.642398358063882e+000	 9.329831579260846e+000
 8.568943590090278e-001	 3.650785128904495e+000	 9.010312743628312e+000
 8.219343001176305e-001	 3.658814562972306e+000	 8.627288542978077e+000
 7.869960381038458e-001	 3.666488406627660e+000	 8.190344654374837e+000
 7.520845461825019e-001	 3.673808491922170e+000	 7.709068270438023e+000
 7.172047340853268e-001	 3.680776734513124e+000	 7.193018030390555e+000
 6.823614465526605e-001	 3.687395131551449e+000	 6.651694814380633e+000
 6.368706834322875e-001	 3.441568789449906e+000	 8.325067066834475e+000
 6.043888310856980e-001	 3.447421375580705e+000	 9.468706189026410e+000
 5.719499245828054e-001	 3.452951387398861e+000	 9.079303800595792e+000
 5.395582959415586e-001	 3.458160905057220e+000	 8.759264217581237e+000
 5.072182115723986e-001	 3.463052076687237e+000	 8.503789162040286e+000
 4.749338712109150e-001	 3.467627116341299e+000	 8.308185654856933e+000
 4.427094069178876e-001	 3.471888301924910e+000	 8.167904957193537e+000
 4.105488821462868e-001	 3.475837973121044e+000	 8.078579622454924e+000
 3.784562908747218e-001	 3.479478529308901e+000	 8.036058617969452e+000
 3.464355568067571e-001	 3.482812427479281e+000	 8.036440482908805e+000
 3.144905326354376e-001	 3.485842180148714e+000	 8.076104496121467e+000
 6.414197597421077e-001	 3.466151423662343e+000	 8.032378403620964e+000
 6.087058941651441e-001	 3.472045813979897e+000	 9.691162512559721e+000
 5.760352811877797e-001	 3.477615325882537e+000	 9.231376449398917e+000
 5.434122837709494e-001	 3.482862054381338e+000	 8.854441947098438e+000
 5.108411987994559e-001	 3.487788162951552e+000	 8.554226773954190e+000
 4.783262560070006e-001	 3.492395881460230e+000	 8.324717042752400e+000
 4.458716169690854e-001	 3.496687504083628e+000	 8.160057969099819e+000
 4.134813741633447e-001	 3.500665387216742e+000	 8.054592663291297e+000
 3.811595500968081e-001	 3.504331947377194e+000	 8.002898913544584e+000
 3.489100964994951e-001	 3.507689659105719e+000	 7.999823925990061e+000
 3.167368935836879e-001	 3.510741052865397e+000	 8.040516994191405e+000
 6.459688360524208e-001	 3.490734057874272e+000	 7.767293232174903e+000
 6.130229572449885e-001	 3.496670252378494e+000	 9.920534939565398e+000
 5.801206377930676e-001	 3.502279264365547e+000	 9.392982270736386e+000
 5.472662716005796e-001	 3.507563203704741e+000	 8.961618602826240e+000
 5.144641860266883e-001	 3.512524249215126e+000	 8.618964221053556e+000
 4.817186408032080e-001	 3.517164646578413e+000	 8.357671123310118e+000
 4.490338270203604e-001	 3.521486706241609e+000	 8.170565613500733e+000
 4.164138661804459e-001	 3.525492801311734e+000	 8.050688850379940e+000
 3.838628093189135e-001	 3.529185365444833e+000	 7.991335308332240e+000
 3.513846361922379e-001	 3.532566890731576e+000	 7.986089114342069e+000
 3.189832545319382e-001	 3.535639925581587e+000	 8.028858233028572e+000
 6.505179123632263e-001	 3.515316692085695e+000	 7.529771764515124e+000
 6.173400203252304e-001	 3.521294690776494e+000	 1.014778576398913e+001
 5.842059943986689e-001	 3.526943202847890e+000	 9.555729947342391e+000
 5.511202594304491e-001	 3.532264353027429e+000	 9.073052535618967e+000
 5.180871732540961e-001	 3.537260335477959e+000	 8.690912408769963e+000
 4.851110255995365e-001	 3.541933411695844e+000	 8.400613854286242e+000
 4.521960370717128e-001	 3.546285908398853e+000	 8.193651014009491e+000
 4.193463581975906e-001	 3.550320215406021e+000	 8.061750207319284e+000
 3.865660685410383e-001	 3.554038783511820e+000	 7.996910085751161e+000
 3.538591758849856e-001	 3.557444122356851e+000	 7.991439582144626e+000
 3.212296154801886e-001	 3.560538798297287e+000	 8.037993625290547e+000
 6.550669886745246e-001	 3.539899326296611e+000	 7.319854231548925e+000
 6.216570834058705e-001	 3.545919129173898e+000	 1.036394913787367e+001
 5.882913510045833e-001	 3.551607141329567e+000	 9.711291769096659e+000
 5.549742472605577e-001	 3.556965502349405e+000	 9.181057366548316e+000
 5.217101604816790e-001	 3.561996421740048e+000	 8.763029094021215e+000
 4.885034103959862e-001	 3.566702176812527e+000	 8.447149548551547e+000
 4.553582471231428e-001	 3.571085110555360e+000	 8.223567079488433e+000
 4.222788502147787e-001	 3.575147629499603e+000	 8.082679903726051e+000
 3.892693277631822e-001	 3.578892201578152e+000	 8.015177970749374e+000
 3.563337155777379e-001	 3.582321353981542e+000	 8.012082539442035e+000
 3.234759764284389e-001	 3.585437671012494e+000	 8.064783436715254e+000
 6.596160649863155e-001	 3.564481960507018e+000	 7.137658123799612e+000
 6.259741464869081e-001	 3.570543567570702e+000	 1.043831180354844e+001
 5.923767076108115e-001	 3.576271079810580e+000	 9.851401439674675e+000
 5.588282350909055e-001	 3.581666651670665e+000	 9.278000081033882e+000
 5.253331477094372e-001	 3.586732508001397e+000	 8.828317269642882e+000
 4.918957951925573e-001	 3.591470941928460e+000	 8.490919551501131e+000
 4.585204571746501e-001	 3.595884312711128e+000	 8.254595476971758e+000
 4.252113422320101e-001	 3.599975043592480e+000	 8.108401526062485e+000
 3.919725869853454e-001	 3.603745619643832e+000	 8.041705700785919e+000
 3.588082552704951e-001	 3.607198585605654e+000	 8.044228745389221e+000
 3.257223373766892e-001	 3.610336543727210e+000	 8.106082963600818e+000
 6.641651412985992e-001	 3.589064594716919e+000	 6.983375545529581e+000
 6.302912095683438e-001	 3.595168005966912e+000	 1.008947218416150e+001
 5.964620642173529e-001	 3.600935018290926e+000	 9.967851973335833e+000
 5.626822229214927e-001	 3.606367800991213e+000	 9.356299201296597e+000
 5.289561349373706e-001	 3.611468594262003e+000	 8.879823615213104e+000
 4.952881799892498e-001	 3.616239707043643e+000	 8.525600972817394e+000
 4.616826672262346e-001	 3.620683514866160e+000	 8.281045646796235e+000
 4.281438342492851e-001	 3.624802457684653e+000	 8.133858378429201e+000
 3.946758462075277e-001	 3.628599037708858e+000	 8.072071614443667e+000
 3.612827949632569e-001	 3.632075817229181e+000	 8.084092386707020e+000
 3.279686983249396e-001	 3.635235416441434e+000	 8.158742702991976e+000
 6.687142176113755e-001	 3.613647228926312e+000	 6.857270676857977e+000
 6.346082726501774e-001	 3.619792444362524e+000	 9.748420344227222e+000
 6.005474208242082e-001	 3.625598956770607e+000	 1.005249367755614e+001
 5.665362107523191e-001	 3.631068950311045e+000	 9.408423033406868e+000
 5.325791221654793e-001	 3.636204680521867e+000	 8.910637011108733e+000
 4.986805647860634e-001	 3.641008472158077e+000	 8.544905469997795e+000
 4.648448772778966e-001	 3.645482717020455e+000	 8.297253857931283e+000
 4.310763262666033e-001	 3.649629871776119e+000	 8.154012811897305e+000
 3.973791054297293e-001	 3.653452455773231e+000	 8.101865256832930e+000
 3.637573346560238e-001	 3.656953048852127e+000	 8.127890961098082e+000
 3.302150592731899e-001	 3.660134289155166e+000	 8.219608515919950e+000
 6.732632939246444e-001	 3.638229863135198e+000	 6.759677338765949e+000
 6.389253357324087e-001	 3.644416882757539e+000	 9.415602610415096e+000
 6.046327774313762e-001	 3.650262895249622e+000	 1.009723221744713e+001
 5.703901985833847e-001	 3.655770099630165e+000	 9.426887985397375e+000
 5.362021093937632e-001	 3.660940766780990e+000	 8.913887112803007e+000
 5.020729495829986e-001	 3.665777237271762e+000	 8.542578081198988e+000
 4.680070873296361e-001	 3.670281919174012e+000	 8.297582301606258e+000
 4.340088182839650e-001	 3.674457285866882e+000	 8.163845581029301e+000
 4.000823646519501e-001	 3.678305873836950e+000	 8.126687000992968e+000
 3.662318743487953e-001	 3.681830280474491e+000	 8.171845165389513e+000
 3.324614202214402e-001	 3.685033161868407e+000	 8.285521784024509e+000
 6.778123702384060e-001	 3.662812497343578e+000	 6.690996656154279e+000
 6.432423988150381e-001	 3.669041321151957e+000	 9.091525749270181e+000
 6.087181340388583e-001	 3.674926833727972e+000	 1.009402675811653e+001
 5.742441864146897e-001	 3.680471248948570e+000	 9.404256953103626e+000
 5.398250966222223e-001	 3.685676853039370e+000	 8.882742982573545e+000
 5.054653343800549e-001	 3.690546002384696e+000	 8.512396105080189e+000
 4.711692973814530e-001	 3.695081121326833e+000	 8.276418221436225e+000
 4.369413103013700e-001	 3.699284699956938e+000	 8.158355226312901e+000
 4.027856238741904e-001	 3.703159291900017e+000	 8.142147684538429e+000
 3.687064140415716e-001	 3.706707512096273e+000	 8.212178788179710e+000
 3.347077811696906e-001	 3.709932034581156e+000	 8.353319559869174e+000
 6.823614465526605e-001	 3.687395131551449e+000	 6.651694814380633e+000
 6.475594618980655e-001	 3.693665759545780e+000	 8.776754952550871e+000
 6.128034906466536e-001	 3.699590772205656e+000	 1.003488818133591e+001
 5.780981742462338e-001	 3.705172398266261e+000	 9.333137770570232e+000
 5.434480838508567e-001	 3.710412939297010e+000	 8.810411775942390e+000
 5.088577191772328e-001	 3.715314767496883e+000	 8.448168025453386e+000
 4.743315074333473e-001	 3.719880323478916e+000	 8.228173078341964e+000
 4.398738023188186e-001	 3.724112114046291e+000	 8.132557481296450e+000
 4.054888830964497e-001	 3.728012709962431e+000	 8.143868260840348e+000
 3.711809537343529e-001	 3.731584743717474e+000	 8.245118606779302e+000
 3.369541421179410e-001	 3.734830907293413e+000	 8.419834711243848e+000
 3.144905326354376e-001	 3.485842180148714e+000	 8.076104496121467e+000
 2.826249993720412e-001	 3.488570353274702e+000	 8.115748038225284e+000
 2.508426657390410e-001	 3.490999564173347e+000	 8.147372842842245e+000
 2.191471676259100e-001	 3.493132479441893e+000	 8.168925021673893e+000
 1.875420676063174e-001	 3.494971812888549e+000	 8.178758630354491e+000
 1.560308545165396e-001	 3.496520323470751e+000	 8.175655684431309e+000
 1.246169430937966e-001	 3.497780813243908e+000	 8.158844167050834e+000
 9.330367367343673e-002	 3.498756125322376e+000	 8.128014047426959e+000
 6.209431194385126e-002	 3.499449141854330e+000	 8.083331334348729e+000
 3.099204875795090e-002	 3.499862782012171e+000	 8.025450193878431e+000
 0.000000000000000e+000	 3.500000000000000e+000	 7.955523164987362e+000
 3.167368935836879e-001	 3.510741052865397e+000	 8.040516994191405e+000
 2.846437493679849e-001	 3.513488712942027e+000	 8.086680654166388e+000
 2.526343990658300e-001	 3.515935275346863e+000	 8.128412641283665e+000
 2.207125045373342e-001	 3.518083425724269e+000	 8.162375390283120e+000
 1.888816538031211e-001	 3.519935897266798e+000	 8.185667301299896e+000
 1.571453606197253e-001	 3.521495468638728e+000	 8.195843931078940e+000
 1.255070641153461e-001	 3.522764961910145e+000	 8.190937090834682e+000
 9.397012848486949e-002	 3.523747240503367e+000	 8.169471870385689e+000
 6.253784274303140e-002	 3.524445207153342e+000	 8.130481613560548e+000
 3.121342053454833e-002	 3.524861801883700e+000	 8.073520874936749e+000
 0.000000000000000e+000	 3.525000000000000e+000	 7.998676392734172e+000
 3.189832545319382e-001	 3.535639925581587e+000	 8.028858233028572e+000
 2.866624993639287e-001	 3.538407072608955e+000	 8.079193804449552e+000
 2.544261323926189e-001	 3.540870986520065e+000	 8.128413588146140e+000
 2.222778414487585e-001	 3.543034372006405e+000	 8.171887615118715e+000
 1.902212399999247e-001	 3.544899981644873e+000	 8.205450334668672e+000
 1.582598667229110e-001	 3.546470613806583e+000	 8.225422988593291e+000
 1.263971851368957e-001	 3.547749110576306e+000	 8.228633805950880e+000
 9.463658329630222e-002	 3.548738355684315e+000	 8.212436038597231e+000
 6.298137354221153e-002	 3.549441272452333e+000	 8.174723863243289e+000
 3.143479231114575e-002	 3.549860821755224e+000	 8.113946181025723e+000
 0.000000000000000e+000	 3.549999999999999e+000	 8.029118350508194e+000
 3.212296154801886e-001	 3.560538798297287e+000	 8.037993625290547e+000
 2.886812493598724e-001	 3.563325432275487e+000	 8.090881042724146e+000
 2.562178657194078e-001	 3.565806697692955e+000	 8.145697530211313e+000
 2.238431783601827e-001	 3.567985318288303e+000	 8.196511615454776e+000
 1.915608261967285e-001	 3.569864066022773e+000	 8.237885135748254e+000
 1.593743728260967e-001	 3.571445758974316e+000	 8.264896803111231e+000
 1.272873061584453e-001	 3.572733259242388e+000	 8.273163502892100e+000
 9.530303810773495e-002	 3.573729470865220e+000	 8.258859346626023e+000
 6.342490434139166e-002	 3.574437337751306e+000	 8.218732505667672e+000
 3.165616408774319e-002	 3.574859841626742e+000	 8.150119857539844e+000
 0.000000000000000e+000	 3.574999999999999e+000	 8.050959482032265e+000
 3.234759764284389e-001	 3.585437671012494e+000	 8.064783436715254e+000
 2.906999993558162e-001	 3.588243791941620e+000	 8.119320066728756e+000
 2.580095990461968e-001	 3.590742408865532e+000	 8.178559693791749e+000
 2.254085152716069e-001	 3.592936264569963e+000	 8.235259874710371e+000
 1.929004123935321e-001	 3.594828150400498e+000	 8.282700812449942e+000
 1.604888789292823e-001	 3.596420904141930e+000	 8.314710120381594e+000
 1.281774271799948e-001	 3.597717407908394e+000	 8.325685231853280e+000
 9.596949291916773e-002	 3.598720586046082e+000	 8.310613476470039e+000
 6.386843514057181e-002	 3.599433403050262e+000	 8.265089850392990e+000
 3.187753586434061e-002	 3.599858861498256e+000	 8.185332513565481e+000
 0.000000000000000e+000	 3.600000000000000e+000	 8.068196052037045e+000
 3.257223373766892e-001	 3.610336543727210e+000	 8.106082963600818e+000
 2.927187493517600e-001	 3.613162151607358e+000	 8.162073265046276e+000
 2.598013323729857e-001	 3.615678120037797e+000	 8.225269602678107e+000
 2.269738521830311e-001	 3.617887210851384e+000	 8.287108731341146e+000
 1.942399985903358e-001	 3.619792234778049e+000	 8.339579840735810e+000
 1.616033850324680e-001	 3.621396049309423e+000	 8.375250527158189e+000
 1.290675482015443e-001	 3.622701556574323e+000	 8.387290321362640e+000
 9.663594773060046e-002	 3.623711701226900e+000	 8.369491794545727e+000
 6.431196593975193e-002	 3.624429468349195e+000	 8.316289270567690e+000
 3.209890764093804e-002	 3.624857881369765e+000	 8.222775178305556e+000
 0.000000000000000e+000	 3.625000000000000e+000	 8.084714083467695e+000
 3.279686983249396e-001	 3.635235416441434e+000	 8.158742702991976e+000
 2.947374993477037e-001	 3.638080511272698e+000	 8.216688241390640e+000
 2.615930656997746e-001	 3.640613831209749e+000	 8.284071958362709e+000
 2.285391890944554e-001	 3.642838157132565e+000	 8.350999616680396e+000
 1.955795847871396e-001	 3.644756319155425e+000	 8.408159661603092e+000
 1.627178911356537e-001	 3.646371194476796e+000	 8.446850408699376e+000
 1.299576692230939e-001	 3.647685705240174e+000	 8.459004697516704e+000
 9.730240254203321e-002	 3.648702816407676e+000	 8.437212033728512e+000
 6.475549673893206e-002	 3.649425533648111e+000	 8.374738248696486e+000
 3.232027941753547e-002	 3.649856901241270e+000	 8.265542711349504e+000
 0.000000000000000e+000	 3.650000000000000e+000	 8.104293132887371e+000
 3.302150592731899e-001	 3.660134289155166e+000	 8.219608515919950e+000
 2.967562493436475e-001	 3.662998870937642e+000	 8.280698317493087e+000
 2.633847990265636e-001	 3.665549542381390e+000	 8.353187484335171e+000
 2.301045260058796e-001	 3.667789103413511e+000	 8.425840242256237e+000
 1.969191709839432e-001	 3.669720403532626e+000	 8.488034212885925e+000
 1.638323972388393e-001	 3.671346339644046e+000	 8.529788826369956e+000
 1.308477902446434e-001	 3.672669853905949e+000	 8.541791108552944e+000
 9.796885735346593e-002	 3.673693931588407e+000	 8.515418865922225e+000
 6.519902753811220e-002	 3.674421598947008e+000	 8.442761298091185e+000
 3.254165119413290e-002	 3.674855921112771e+000	 8.316637073748346e+000
 0.000000000000000e+000	 3.675000000000000e+000	 8.130609911782852e+000
 3.324614202214402e-001	 3.685033161868407e+000	 8.285521784024509e+000
 2.987749993395912e-001	 3.687917230602189e+000	 8.351623015601767e+000
 2.651765323533525e-001	 3.690485253552716e+000	 8.430813736150164e+000
 2.316698629173039e-001	 3.692740049694216e+000	 8.510505738974242e+000
 1.982587571807470e-001	 3.694684487909653e+000	 8.578755398956657e+000
 1.649469033420251e-001	 3.696321484811176e+000	 8.624293319124238e+000
 1.317379112661929e-001	 3.697654002571646e+000	 8.636551259236832e+000
 9.863531216489868e-002	 3.698685046769096e+000	 8.605686370335210e+000
 6.564255833729234e-002	 3.699417664245885e+000	 8.522602765883615e+000
 3.276302297073033e-002	 3.699854940984265e+000	 8.378970466479192e+000
 0.000000000000000e+000	 3.699999999999999e+000	 8.167241761060248e+000
 3.347077811696906e-001	 3.709932034581156e+000	 8.353319559869174e+000
 3.007937493355350e-001	 3.712835590266338e+000	 8.426968521551626e+000
 2.669682656801414e-001	 3.715420964723729e+000	 8.515125878874883e+000
 2.332351998287282e-001	 3.717690995974683e+000	 8.603839750426779e+000
 1.995983433775506e-001	 3.719648572286506e+000	 8.679834501244795e+000
 1.660614094452107e-001	 3.721296629978186e+000	 8.730541632445842e+000
 1.326280322877425e-001	 3.722638151237267e+000	 8.744127859300548e+000
 9.930176697633145e-002	 3.723676161949743e+000	 8.709520402362664e+000
 6.608608913647246e-002	 3.724413729544744e+000	 8.616429523166339e+000
 3.298439474732776e-002	 3.724853960855755e+000	 8.455368342527885e+000
 0.000000000000000e+000	 3.724999999999999e+000	 8.217669985628438e+000
 3.369541421179410e-001	 3.734830907293413e+000	 8.419834711243848e+000
 3.028124993314788e-001	 3.737753949930092e+000	 8.504228129311462e+000
 2.687599990069305e-001	 3.740356675894433e+000	 8.604277433438716e+000
 2.348005367401525e-001	 3.742641942254912e+000	 8.704655482470447e+000
 2.009379295743544e-001	 3.744612656663185e+000	 8.790743532334936e+000
 1.671759155483964e-001	 3.746271775145075e+000	 8.848663378129999e+000
 1.335181533092921e-001	 3.747622299902811e+000	 8.865306589943980e+000
 9.996822178776421e-002	 3.748667277130346e+000	 8.828360867713725e+000
 6.652961993565264e-002	 3.749409794843583e+000	 8.726333547526853e+000
 3.320576652392519e-002	 3.749852980727242e+000	 8.548572298488955e+000
 0.000000000000000e+000	 3.750000000000000e+000	 8.285283055598766e+000
 3.750000000000000e+000	 0.000000000000000e+000	 1.083423121995302e+001
 3.749852980727241e+000	 3.320576652392414e-002	 1.067614513818838e+001
 3.749409794843583e+000	 6.652961993565168e-002	 1.059209072213988e+001
 3.748667277130346e+000	 9.996822178776336e-002	 1.057025529813449e+001
 3.747622299902811e+000	 1.335181533092913e-001	 1.059835776748983e+001
 3.746271775145075e+000	 1.671759155483958e-001	 1.066368058374390e+001
 3.744612656663185e+000	 2.009379295743539e-001	 1.075310405319737e+001
 3.742641942254912e+000	 2.348005367401521e-001	 1.085314295708805e+001
 3.740356675894433e+000	 2.687599990069302e-001	 1.094998548693209e+001
 3.737753949930092e+000	 3.028124993314787e-001	 1.102953447752386e+001
 3.734830907293414e+000	 3.369541421179410e-001	 1.107745091478205e+001
 3.775000000000000e+000	 0.000000000000000e+000	 1.080173910186214e+001
 3.774852000598727e+000	 3.342713830051917e-002	 1.064526339956360e+001
 3.774405860142423e+000	 6.697315073482224e-002	 1.056225801950660e+001
 3.773658392310948e+000	 1.006346765991745e-001	 1.053952488328773e+001
 3.772606448568354e+000	 1.344082743308024e-001	 1.056368268711147e+001
 3.771246920311963e+000	 1.682904216515211e-001	 1.062115804767478e+001
 3.769576741039862e+000	 2.022775157710703e-001	 1.069817609137475e+001
 3.767592888535142e+000	 2.363658736514571e-001	 1.078075049474572e+001
 3.765292387065135e+000	 2.705517323335628e-001	 1.085467298666162e+001
 3.762672309593844e+000	 3.048312493272240e-001	 1.090550232556827e+001
 3.759729780005671e+000	 3.392005030659454e-001	 1.091855276782317e+001
 3.800000000000000e+000	 0.000000000000000e+000	 1.076893067973601e+001
 3.799851020470218e+000	 3.364851007710944e-002	 1.061409394627716e+001
 3.799401925441280e+000	 6.741668153397368e-002	 1.052964812328296e+001
 3.798649507491594e+000	 1.013011314105425e-001	 1.050279936301709e+001
 3.797590597233975e+000	 1.352983953522363e-001	 1.052058287460507e+001
 3.796222065478973e+000	 1.694049277545255e-001	 1.056985361675854e+001
 3.794540825416714e+000	 2.036171019676120e-001	 1.063727639693286e+001
 3.792543834815608e+000	 2.379312105625235e-001	 1.070931538465933e+001
 3.790228098236149e+000	 2.723434656598829e-001	 1.077222304951791e+001
 3.787590669257994e+000	 3.068499993225723e-001	 1.081202853703738e+001
 3.784628652718419e+000	 3.414468640134583e-001	 1.081452549872197e+001
 3.824999999999999e+000	 0.000000000000000e+000	 1.073772286344952e+001
 3.824850040341712e+000	 3.386988185369495e-002	 1.058615135954734e+001
 3.824397990740157e+000	 6.786021233310595e-002	 1.050185562289106e+001
 3.823640622672282e+000	 1.019675862218672e-001	 1.047245115755601e+001
 3.822574745899673e+000	 1.361885163735931e-001	 1.048539496042126e+001
 3.821197210646104e+000	 1.705194338574090e-001	 1.052797575463883e+001
 3.819504909793741e+000	 2.049566881639791e-001	 1.058730359216165e+001
 3.817494781096314e+000	 2.394965474733515e-001	 1.065029883290763e+001
 3.815163809407477e+000	 2.741351989858903e-001	 1.070368051095552e+001
 3.812509028922541e+000	 3.088687493175237e-001	 1.073395410108097e+001
 3.809527525431660e+000	 3.436932249604792e-001	 1.072739870195649e+001
 3.850000000000000e+000	 0.000000000000000e+000	 1.070998277301035e+001
 3.849849060213212e+000	 3.409125363027569e-002	 1.056299154786358e+001
 3.849394056039055e+000	 6.830374313221913e-002	 1.048012363437086e+001
 3.848631737853014e+000	 1.026340410331487e-001	 1.044940915046211e+001
 3.847558894565447e+000	 1.370786373948729e-001	 1.045873229998623e+001
 3.846172355813354e+000	 1.716339399601717e-001	 1.049582114075670e+001
 3.844468994170942e+000	 2.062962743601716e-001	 1.054823668379127e+001
 3.842445727377257e+000	 2.410618843839409e-001	 1.060336133116024e+001
 3.840099520579115e+000	 2.759269323115852e-001	 1.064838666276431e+001
 3.837427388587484e+000	 3.108874993120781e-001	 1.067030058537663e+001
 3.834426398145392e+000	 3.459395859070087e-001	 1.065587386039670e+001
 3.875000000000000e+000	 0.000000000000000e+000	 1.068752934468470e+001
 3.874848080084717e+000	 3.431262540685167e-002	 1.054612595165112e+001
 3.874390121337971e+000	 6.874727393131318e-002	 1.046565453781576e+001
 3.873622853033790e+000	 1.033004958443871e-001	 1.043456523667604e+001
 3.872543043231299e+000	 1.379687584160757e-001	 1.044117502139389e+001
 3.871147500980726e+000	 1.727484460628135e-001	 1.047365700117532e+001
 3.869433078548318e+000	 2.076358605561895e-001	 1.052002901048535e+001
 3.867396673658440e+000	 2.426272212942919e-001	 1.056814149834646e+001
 3.865035231751068e+000	 2.777186656369675e-001	 1.060566472796693e+001
 3.862345748252824e+000	 3.129062493062355e-001	 1.062007530005999e+001
 3.859325270859617e+000	 3.481859468530463e-001	 1.059864201642642e+001
 3.900000000000000e+000	 0.000000000000000e+000	 1.067213487534690e+001
 3.899847099956226e+000	 3.453399718342289e-002	 1.053702296852938e+001
 3.899386186636904e+000	 6.919080473038806e-002	 1.045961128301159e+001
 3.898613968214608e+000	 1.039669506555822e-001	 1.042877550805400e+001
 3.897527191897228e+000	 1.388588794372013e-001	 1.043327109038473e+001
 3.896122646148219e+000	 1.738629521653345e-001	 1.046172205259913e+001
 3.894397162925869e+000	 2.089754467520327e-001	 1.050260906553560e+001
 3.892347619939861e+000	 2.441925582044043e-001	 1.054425678170492e+001
 3.889970942923332e+000	 2.795103989620373e-001	 1.057482043994659e+001
 3.887264107918562e+000	 3.149249992999960e-001	 1.058227175469728e+001
 3.884224143574332e+000	 3.504323077985923e-001	 1.055438410657415e+001
 3.924999999999999e+000	 0.000000000000000e+000	 1.066552650781108e+001
 3.924846119827740e+000	 3.475536895998933e-002	 1.053710932410190e+001
 3.924382251935859e+000	 6.963433552944384e-002	 1.046311864517884e+001
 3.923605083395470e+000	 1.046334054667341e-001	 1.043286139359326e+001
 3.922511340563234e+000	 1.397490004582499e-001	 1.043553733462428e+001
 3.921097791315832e+000	 1.749774582677347e-001	 1.046022741031497e+001
 3.919361247303594e+000	 2.103150329477013e-001	 1.049588128811561e+001
 3.917298566221521e+000	 2.457578951142783e-001	 1.053130413104121e+001
 3.914906654095911e+000	 2.813021322867944e-001	 1.055514259944142e+001
 3.912182467584696e+000	 3.169437492933596e-001	 1.055587009779404e+001
 3.909123016289540e+000	 3.526786687436464e-001	 1.052177128335564e+001
 3.949999999999999e+000	 0.000000000000000e+000	 1.066938765975672e+001
 3.949845139699260e+000	 3.497674073655101e-002	 1.054777139069075e+001
 3.949378317234833e+000	 7.007786632848050e-002	 1.047726443302911e+001
 3.948596198576375e+000	 1.052998602778429e-001	 1.044761075635826e+001
 3.947495489229316e+000	 1.406391214792214e-001	 1.044846042908534e+001
 3.946072936483568e+000	 1.760919643700140e-001	 1.046935746165443e+001
 3.944325331681494e+000	 2.116546191431953e-001	 1.049972682448726e+001
 3.942249512503419e+000	 2.473232320239136e-001	 1.052886064738107e+001
 3.939842365268800e+000	 2.830938656112389e-001	 1.054590361038825e+001
 3.937100827251227e+000	 3.189624992863261e-001	 1.053983753961339e+001
 3.934021889005238e+000	 3.549250296882090e-001	 1.049946522489461e+001
 3.974999999999999e+000	 0.000000000000000e+000	 1.068535939873318e+001
 3.974844159570782e+000	 3.519811251310792e-002	 1.057035645630837e+001
 3.974374382533824e+000	 7.052139712749800e-002	 1.050310065123345e+001
 3.973587313757323e+000	 1.059663150889084e-001	 1.047377894901295e+001
 3.972479637895476e+000	 1.415292425001158e-001	 1.047249784424599e+001
 3.971048081651422e+000	 1.772064704721724e-001	 1.048927070649620e+001
 3.969289416059570e+000	 2.129942053385146e-001	 1.051400426048210e+001
 3.967200458785555e+000	 2.488885689333105e-001	 1.053648420714542e+001
 3.964778076442002e+000	 2.848855989353708e-001	 1.054635999554483e+001
 3.962019186918156e+000	 3.209812492788958e-001	 1.053312875903916e+001
 3.958920761721430e+000	 3.571713906322798e-001	 1.048611843285959e+001
 4.000000000000000e+000	 0.000000000000000e+000	 1.071504176560108e+001
 3.999843179442312e+000	 3.541948428966008e-002	 1.060617394604111e+001
 3.999370447832837e+000	 7.096492792649639e-002	 1.054164461929866e+001
 3.998578428938315e+000	 1.066327698999308e-001	 1.051208982977088e+001
 3.997463786561714e+000	 1.424193635209331e-001	 1.050807875872990e+001
 3.996023226819399e+000	 1.783209765742101e-001	 1.052010056624840e+001
 3.994253500437819e+000	 2.143337915336594e-001	 1.053855032651504e+001
 3.992151405067931e+000	 2.504539058424689e-001	 1.055371406291966e+001
 3.989713787615519e+000	 2.866773322591902e-001	 1.055575289277697e+001
 3.986937546585482e+000	 3.229999992710685e-001	 1.053468629518143e+001
 3.983819634438112e+000	 3.594177515758590e-001	 1.048037451922830e+001
 3.734830907293414e+000	 3.369541421179410e-001	 1.107745091478205e+001
 3.731584743717474e+000	 3.711809537343518e-001	 1.114206129423743e+001
 3.728012709962430e+000	 4.054888830964488e-001	 1.114407001066937e+001
 3.724112114046291e+000	 4.398738023188178e-001	 1.106947417538372e+001
 3.719880323478916e+000	 4.743315074333467e-001	 1.090424197387142e+001
 3.715314767496882e+000	 5.088577191772322e-001	 1.063436653775694e+001
 3.710412939297010e+000	 5.434480838508565e-001	 1.024592175985935e+001
 3.705172398266262e+000	 5.780981742462337e-001	 9.725119972821148e+000
 3.699590772205657e+000	 6.128034906466537e-001	 9.058371403221873e+000
 3.693665759545780e+000	 6.475594618980656e-001	 1.021580278750620e+001
 3.687395131551449e+000	 6.823614465526605e-001	 1.233605579733649e+001
 3.759729780005671e+000	 3.392005030659454e-001	 1.091855276782317e+001
 3.756461975338673e+000	 3.736554934268418e-001	 1.096299699967542e+001
 3.752866128024844e+000	 4.081921423183815e-001	 1.093935866290923e+001
 3.748939528135643e+000	 4.428062943359137e-001	 1.083848150466329e+001
 3.744679525630999e+000	 4.774937174848724e-001	 1.066004904590585e+001
 3.740083532609068e+000	 5.122501039740350e-001	 1.037638114220235e+001
 3.735149025554649e+000	 5.470710710791201e-001	 9.973074191126418e+000
 3.729873547583952e+000	 5.819521620774207e-001	 9.435862015912161e+000
 3.724254710683340e+000	 6.168888472541161e-001	 8.750676644442105e+000
 3.718290197939601e+000	 6.518765249807944e-001	 1.008265780024049e+001
 3.711977765759320e+000	 6.869105228666610e-001	 1.197173753108394e+001
 3.784628652718419e+000	 3.414468640134583e-001	 1.081452549872197e+001
 3.781339206960455e+000	 3.761300331187450e-001	 1.086979677072925e+001
 3.777719546087910e+000	 4.108954015396415e-001	 1.086001658064623e+001
 3.773766942225699e+000	 4.457387863522611e-001	 1.077094163395963e+001
 3.769478727783819e+000	 4.806559275355834e-001	 1.058805308060563e+001
 3.764852297722003e+000	 5.156424887699673e-001	 1.029654152946439e+001
 3.759885111813029e+000	 5.506940583064662e-001	 9.881291652600829e+000
 3.754574696902358e+000	 5.858061499076546e-001	 9.326866417638902e+000
 3.748918649161690e+000	 6.209742038605993e-001	 8.623569321034484e+000
 3.742914636334019e+000	 6.561935880625284e-001	 1.007583085083700e+001
 3.736560399967698e+000	 6.914595991796617e-001	 1.173387263999679e+001
 3.809527525431660e+000	 3.436932249604792e-001	 1.072739870195649e+001
 3.806216438582819e+000	 3.786045728100612e-001	 1.079419881954323e+001
 3.802572964151630e+000	 4.135986607602289e-001	 1.079897762624190e+001
 3.798594356316461e+000	 4.486712783678601e-001	 1.072798521133420e+001
 3.794277929937377e+000	 4.838181375854797e-001	 1.056720068193881e+001
 3.789621062835688e+000	 5.190348735650284e-001	 1.030231632947448e+001
 3.784621198072153e+000	 5.543170455328956e-001	 9.918721352862647e+000
 3.779275846221477e+000	 5.896601377369354e-001	 9.401485177828930e+000
 3.773582587640705e+000	 6.250595604661036e-001	 8.739191170896024e+000
 3.767539074729035e+000	 6.605106511432676e-001	 1.024147708532575e+001
 3.761143034176585e+000	 6.960086754916621e-001	 1.165618089083656e+001
 3.834426398145392e+000	 3.459395859070087e-001	 1.065587386039670e+001
 3.831093670205765e+000	 3.810791125007904e-001	 1.073460021933210e+001
 3.827426382216002e+000	 4.163019199801439e-001	 1.075433487669799e+001
 3.823421770407928e+000	 4.516037703827104e-001	 1.070182791307619e+001
 3.819077132091672e+000	 4.869803476345614e-001	 1.056356308789086e+001
 3.814389827950121e+000	 5.224272583592187e-001	 1.032574114702294e+001
 3.809357284332017e+000	 5.579400327584078e-001	 9.974262653697931e+000
 3.803976995541311e+000	 5.935141255652630e-001	 9.494710382991608e+000
 3.798246526120385e+000	 6.291449170706286e-001	 9.109615364823625e+000
 3.792163513124647e+000	 6.648277142230122e-001	 1.041604146150968e+001
 3.785725668385978e+000	 7.005577518026629e-001	 1.163894776886242e+001
 3.859325270859617e+000	 3.481859468530463e-001	 1.059864201642642e+001
 3.855970901829293e+000	 3.835536521909328e-001	 1.068939101472898e+001
 3.852279800281029e+000	 4.190051791993864e-001	 1.072417778393104e+001
 3.848249184500100e+000	 4.545362623968124e-001	 1.069025917148100e+001
 3.843876334246704e+000	 4.901425576828286e-001	 1.057463045445748e+001
 3.839158593065305e+000	 5.258196431525382e-001	 1.036400777737629e+001
 3.834093370592623e+000	 5.615630199830028e-001	 1.004481007933986e+001
 3.828678144861858e+000	 5.973681133926372e-001	 9.603140551869595e+000
 3.822910464600731e+000	 6.332302736741744e-001	 9.437960840580075e+000
 3.816787951520856e+000	 6.691447773017618e-001	 1.055797222684040e+001
 3.810308302595879e+000	 7.051068281126635e-001	 1.159845336109440e+001
 3.884224143574332e+000	 3.504323077985923e-001	 1.055438410657415e+001
 3.880848133453403e+000	 3.860281918804883e-001	 1.065695444706056e+001
 3.877133218346708e+000	 4.217084384179562e-001	 1.070659229096136e+001
 3.873076598592977e+000	 4.574687544101659e-001	 1.069106819482579e+001
 3.868675536402473e+000	 4.933047677302811e-001	 1.059789598755283e+001
 3.863927358181238e+000	 5.292120279449869e-001	 1.041431432729152e+001
 3.858829456853970e+000	 5.651860072066808e-001	 1.012726771328106e+001
 3.853379294183119e+000	 6.012221012190582e-001	 9.723386994979835e+000
 3.847574403081743e+000	 6.373156302767411e-001	 9.724995977435970e+000
 3.841412389917662e+000	 6.734618403795167e-001	 1.066799095094293e+001
 3.834890936806286e+000	 7.096559044216639e-001	 1.153537263698010e+001
 3.909123016289540e+000	 3.526786687436464e-001	 1.052177128335564e+001
 3.905725365078095e+000	 3.885027315694568e-001	 1.063566717101289e+001
 3.901986636413041e+000	 4.244116976358535e-001	 1.069966094366105e+001
 3.897904012686559e+000	 4.604012464227709e-001	 1.070204397450349e+001
 3.893474738558979e+000	 4.964669777769189e-001	 1.063085584587837e+001
 3.888696123297921e+000	 5.326044127365646e-001	 1.047386501401319e+001
 3.883565543116061e+000	 5.688089944294418e-001	 1.021854889383865e+001
 3.878080443505093e+000	 6.050760890445261e-001	 9.852073407232396e+000
 3.872238341563422e+000	 6.414009868783286e-001	 9.971504652436877e+000
 3.866036828315065e+000	 6.777789034562769e-001	 1.074683779698812e+001
 3.859473571017202e+000	 7.142049807296647e-001	 1.145040223623327e+001
 3.934021889005238e+000	 3.549250296882090e-001	 1.049946522489461e+001
 3.930602596703371e+000	 3.909772712578384e-001	 1.062389946306948e+001
 3.926840054480028e+000	 4.271149568530782e-001	 1.070146299825885e+001
 3.922731426780848e+000	 4.633337384346274e-001	 1.072097529188651e+001
 3.918273940716222e+000	 4.996291878227421e-001	 1.067100904748049e+001
 3.913464888415353e+000	 5.359967975272714e-001	 1.053986997190362e+001
 3.908301629378892e+000	 5.724319816512854e-001	 1.031557592127991e+001
 3.902781592827782e+000	 6.089300768690406e-001	 9.985835476019268e+000
 3.896902280045765e+000	 6.454863434789371e-001	 1.017828574996732e+001
 3.890661266713064e+000	 6.820959665320422e-001	 1.079527093328895e+001
 3.884056205228624e+000	 7.187540570366653e-001	 1.134425978306584e+001
 3.958920761721430e+000	 3.571713906322798e-001	 1.048611843285959e+001
 3.955479828329226e+000	 3.934518109456330e-001	 1.062001542208376e+001
 3.951693472547667e+000	 4.298182160696304e-001	 1.071007452478814e+001
 3.947558840875840e+000	 4.662662304457354e-001	 1.074565072493105e+001
 3.943073142874203e+000	 5.027913978677507e-001	 1.071585737983370e+001
 3.938233653533534e+000	 5.393891823171073e-001	 1.060954506637009e+001
 3.933037715642466e+000	 5.760549688722120e-001	 1.041527977600027e+001
 3.927482742151185e+000	 6.127840646926019e-001	 1.012132050409224e+001
 3.921566218528774e+000	 6.495717000785662e-001	 1.034615268982193e+001
 3.915285705111661e+000	 6.864130296068129e-001	 1.081406596710157e+001
 3.908638839440555e+000	 7.233031333426659e-001	 1.121768322629822e+001
 3.983819634438112e+000	 3.594177515758590e-001	 1.048037451922830e+001
 3.980357059955668e+000	 3.959263506328409e-001	 1.062237316232980e+001
 3.976546890615960e+000	 4.325214752855102e-001	 1.072356850665539e+001
 3.972386254971538e+000	 4.691987224560951e-001	 1.077385865453405e+001
 3.967872345032923e+000	 5.059536079119449e-001	 1.076290531329616e+001
 3.963002418652466e+000	 5.427815671060726e-001	 1.068011171476955e+001
 3.957773801906782e+000	 5.796779560922218e-001	 1.051459984726903e+001
 3.952183891475304e+000	 6.166380525152102e-001	 1.025518704658307e+001
 3.946230157012451e+000	 6.536570566772164e-001	 1.047593297297373e+001
 3.939910143510855e+000	 6.907300926805887e-001	 1.080401539965774e+001
 3.933221473652993e+000	 7.278522096476667e-001	 1.107143020421485e+001
 3.687395131551449e+000	 6.823614465526605e-001	 1.233605579733649e+001
 3.680776734513125e+000	 7.172047340853256e-001	 1.195310099274977e+001
 3.673808491922170e+000	 7.520845461825008e-001	 1.159858982174020e+001
 3.666488406627661e+000	 7.869960381038451e-001	 1.127871196540665e+001
 3.658814562972306e+000	 8.219343001176299e-001	 1.099951958745192e+001
 3.650785128904496e+000	 8.568943590090274e-001	 1.076690258119905e+001
 3.642398358063881e+000	 8.918711796614022e-001	 1.058656350137138e+001
 3.633652591837826e+000	 9.268596667103952e-001	 1.046399223913810e+001
 3.624546261385974e+000	 9.618546662704745e-001	 1.040444050157994e+001
 3.615077889630201e+000	 9.968509677335217e-001	 1.041289615926542e+001
 3.605246093207198e+000	 1.031843305638912e+000	 1.049405752802848e+001
 3.711977765759320e+000	 6.869105228666610e-001	 1.197173753108394e+001
 3.705315246074803e+000	 7.219860989830625e-001	 1.162107830881639e+001
 3.698300548533930e+000	 7.570984431609740e-001	 1.130050092260029e+001
 3.690931662671435e+000	 7.922426783617845e-001	 1.101624426501432e+001
 3.683206660058982e+000	 8.274138621222202e-001	 1.077440379596486e+001
 3.675123696431280e+000	 8.626069880726868e-001	 1.058090629717634e+001
 3.666681013785579e+000	 8.978169875291037e-001	 1.044148430922465e+001
 3.657876942451823e+000	 9.330387311580154e-001	 1.036165031087981e+001
 3.648709903130722e+000	 9.682670307146525e-001	 1.034667070323033e+001
 3.639178408896960e+000	 1.003496640853508e+000	 1.040153966363912e+001
 3.629281067164810e+000	 1.038722261010886e+000	 1.053095293702372e+001
 3.736560399967698e+000	 6.914595991796617e-001	 1.173387263999679e+001
 3.729853757636888e+000	 7.267674638798090e-001	 1.140369038025072e+001
 3.722792605145995e+000	 7.621123401384855e-001	 1.110530722916096e+001
 3.715374918715417e+000	 7.974893186188111e-001	 1.084502092687938e+001
 3.707598757145765e+000	 8.328934241259660e-001	 1.062897986414154e+001
 3.699462263958071e+000	 8.683196171355897e-001	 1.046315733086319e+001
 3.690963669507181e+000	 9.037627953961570e-001	 1.035332544480681e+001
 3.682101293065625e+000	 9.392177956051157e-001	 1.030502882137688e+001
 3.672873544875174e+000	 9.746793951584591e-001	 1.032355804835465e+001
 3.663278928163324e+000	 1.010142313973292e+000	 1.041392303200740e+001
 3.653316041121927e+000	 1.045601216382847e+000	 1.058082628349325e+001
 3.761143034176585e+000	 6.960086754916621e-001	 1.165618089083656e+001
 3.754392269199381e+000	 7.315488287755653e-001	 1.131441085804384e+001
 3.747284661758370e+000	 7.671262371150364e-001	 1.100983232950684e+001
 3.739818174759607e+000	 8.027359588749252e-001	 1.076186570916445e+001
 3.731990854232656e+000	 8.383729861288675e-001	 1.056007290462179e+001
 3.723800831484868e+000	 8.740322461977365e-001	 1.041048336903783e+001
 3.715246325228692e+000	 9.097086032625619e-001	 1.031891842310425e+001
 3.706325643679236e+000	 9.453968600516962e-001	 1.029096440136923e+001
 3.697037186619333e+000	 9.810917596018945e-001	 1.033194560345589e+001
 3.687379447429297e+000	 1.016787987092875e+000	 1.044689711801993e+001
 3.677351015078551e+000	 1.052480171754797e+000	 1.064053758982191e+001
 3.785725668385978e+000	 7.005577518026629e-001	 1.163894776886242e+001
 3.778930780762281e+000	 7.363301936703310e-001	 1.133121435696847e+001
 3.771776718371052e+000	 7.721401340906254e-001	 1.104819021517677e+001
 3.764261430804003e+000	 8.079825991301265e-001	 1.079640003079228e+001
 3.756382951319652e+000	 8.438525481309244e-001	 1.058256395471450e+001
 3.748139399011674e+000	 8.797448752591269e-001	 1.041972233650525e+001
 3.739528980950109e+000	 9.156544111283189e-001	 1.033510227325010e+001
 3.730549994292651e+000	 9.515759244977564e-001	 1.031629847713219e+001
 3.721200828363198e+000	 9.875041240449586e-001	 1.036867851843722e+001
 3.711479966694875e+000	 1.023433660212255e+000	 1.049731215428564e+001
 3.701385989034681e+000	 1.059359127126733e+000	 1.070694356183591e+001
 3.810308302595879e+000	 7.051068281126635e-001	 1.159845336109440e+001
 3.803469292325589e+000	 7.411115585641065e-001	 1.132275298837464e+001
 3.796268774984041e+000	 7.771540310652531e-001	 1.107072011979424e+001
 3.788704686848607e+000	 8.132292393844148e-001	 1.084856026606011e+001
 3.780775048406757e+000	 8.493321101321369e-001	 1.066267383209978e+001
 3.772477966538484e+000	 8.854575043197605e-001	 1.051966544828615e+001
 3.763811636671432e+000	 9.216002189934276e-001	 1.042635327153397e+001
 3.754774344905874e+000	 9.577549889432976e-001	 1.038977822171031e+001
 3.745364470106771e+000	 9.939164884876515e-001	 1.043060395939561e+001
 3.735580485960057e+000	 1.030079333331432e+000	 1.056201777240638e+001
 3.725420962990317e+000	 1.066238082498657e+000	 1.077689769578882e+001
 3.834890936806286e+000	 7.096559044216639e-001	 1.153537263698010e+001
 3.828007803889303e+000	 7.458929234568915e-001	 1.128987255658530e+001
 3.820760831597337e+000	 7.821679280389193e-001	 1.106695353185659e+001
 3.813147942893418e+000	 8.184758796377906e-001	 1.087249937117312e+001
 3.805167145493967e+000	 8.548116721325046e-001	 1.071258824819151e+001
 3.796816534065303e+000	 8.911701333796384e-001	 1.059350258857938e+001
 3.788094292392663e+000	 9.275460268578879e-001	 1.052173893870208e+001
 3.778998695518902e+000	 9.639340533883181e-001	 1.050401778071455e+001
 3.769528111850048e+000	 1.000328852929973e+000	 1.054729325716499e+001
 3.759681005224847e+000	 1.036725006450407e+000	 1.065876276695615e+001
 3.749455936945461e+000	 1.073117037870568e+000	 1.084725038123226e+001
 3.859473571017202e+000	 7.142049807296647e-001	 1.145040223623327e+001
 3.852546315453426e+000	 7.506742883486862e-001	 1.123343805805413e+001
 3.845252888210939e+000	 7.871818250116243e-001	 1.103792317648029e+001
 3.837591198938437e+000	 8.237225198902534e-001	 1.086941707724333e+001
 3.829559242581285e+000	 8.602912341320280e-001	 1.073367312229928e+001
 3.821155101592128e+000	 8.968827624387594e-001	 1.063664899865983e+001
 3.812376948113800e+000	 9.334918347217005e-001	 1.058451716134515e+001
 3.803223046131738e+000	 9.701131178328190e-001	 1.058367523390877e+001
 3.793691753593033e+000	 1.006741217371923e+000	 1.064075632857875e+001
 3.783781524489245e+000	 1.043370679569180e+000	 1.076263924674319e+001
 3.773490910900110e+000	 1.079995993242467e+000	 1.095645851928667e+001
 3.884056205228624e+000	 7.187540570366653e-001	 1.134425978306584e+001
 3.877084827017956e+000	 7.554556532394905e-001	 1.115433307401934e+001
 3.869744944824850e+000	 7.921957219833682e-001	 1.098467796334914e+001
 3.862034454983660e+000	 8.289691601418033e-001	 1.084052690022899e+001
 3.853951339668710e+000	 8.657707961307070e-001	 1.072730576037000e+001
 3.845493669118960e+000	 9.025953914971244e-001	 1.065064486362820e+001
 3.836659603834844e+000	 9.394376425848643e-001	 1.061638999799667e+001
 3.827447396744379e+000	 9.762921822767999e-001	 1.063061341241209e+001
 3.817855395335725e+000	 1.013153581813503e+000	 1.069962473934683e+001
 3.807882043753248e+000	 1.050016352687752e+000	 1.082998180678004e+001
 3.797525884854265e+000	 1.086874948614353e+000	 1.102850129786705e+001
 3.908638839440555e+000	 7.233031333426659e-001	 1.121768322629822e+001
 3.901623338582893e+000	 7.602370181293046e-001	 1.105345918607660e+001
 3.894237001439066e+000	 7.972096189541506e-001	 1.090828247776477e+001
 3.886477711029094e+000	 8.342158003924408e-001	 1.078705570744925e+001
 3.878343436756242e+000	 8.712503581285414e-001	 1.069487449691758e+001
 3.869832236645798e+000	 9.083080205547328e-001	 1.063703907681721e+001
 3.860942259555794e+000	 9.453834504473802e-001	 1.061906589855169e+001
 3.851671747356829e+000	 9.824712467202612e-001	 1.064669922631640e+001
 3.842019037078121e+000	 1.019565946254710e+000	 1.072592266915309e+001
 3.831982563016857e+000	 1.056662025806120e+000	 1.086297061147010e+001
 3.821560858807927e+000	 1.093753903986227e+000	 1.106433949914229e+001
 3.933221473652993e+000	 7.278522096476667e-001	 1.107143020421485e+001
 3.926161850148238e+000	 7.650183830181283e-001	 1.093173541366803e+001
 3.918729058053593e+000	 8.022235159239719e-001	 1.080981649078447e+001
 3.910920967074734e+000	 8.394624406421655e-001	 1.071024330035356e+001
 3.902735533843881e+000	 8.767299201255315e-001	 1.063777835038025e+001
 3.894170804172645e+000	 9.140206496115851e-001	 1.059738896765932e+001
 3.885224915276651e+000	 9.513292583092480e-001	 1.059425950453696e+001
 3.875896097969084e+000	 9.886503111632026e-001	 1.063380353721844e+001
 3.866182678820226e+000	 1.025978310695547e+000	 1.072167601439588e+001
 3.856083082280073e+000	 1.063307698924287e+000	 1.086378531348064e+001
 3.845595832761096e+000	 1.100632859358089e+000	 1.106630516033463e+001
 3.605246093207198e+000	 1.031843305638912e+000	 1.049405752802848e+001
 3.595049584380677e+000	 1.066826361614633e+000	 1.057268489517691e+001
 3.584487172911277e+000	 1.101794766387843e+000	 1.069085188722935e+001
 3.573557767880753e+000	 1.136743101864963e+000	 1.084923349024550e+001
 3.562260379467235e+000	 1.171665903280343e+000	 1.104810893868113e+001
 3.550594120669678e+000	 1.206557661411702e+000	 1.128733973196586e+001
 3.538558208978485e+000	 1.241412824861387e+000	 1.156634807872757e+001
 3.526151967989605e+000	 1.276225802402121e+000	 1.138651043082256e+001
 3.513374828959480e+000	 1.310990965385763e+000	 1.106630504777813e+001
 3.500226332298184e+000	 1.345702650213484e+000	 1.076677346821541e+001
 3.486706128998200e+000	 1.380355160865667e+000	 1.048833738652295e+001
 3.629281067164810e+000	 1.038722261010886e+000	 1.053095293702372e+001
 3.619016581613070e+000	 1.073938537359064e+000	 1.059914665320500e+001
 3.608383754067449e+000	 1.109140064830154e+000	 1.071050186871222e+001
 3.597381486336912e+000	 1.144321389209950e+000	 1.086588299475123e+001
 3.586008782000778e+000	 1.179477009301037e+000	 1.106574939829438e+001
 3.574264748144659e+000	 1.214601379152982e+000	 1.131013276817999e+001
 3.562148597042228e+000	 1.249688910358819e+000	 1.159861491587733e+001
 3.549659647780074e+000	 1.284733974416420e+000	 1.130360926241404e+001
 3.536797327823013e+000	 1.319730905153325e+000	 1.102285359439741e+001
 3.523561174517189e+000	 1.354674001213380e+000	 1.076230616885133e+001
 3.509950836528365e+000	 1.389557528603505e+000	 1.052236459625857e+001
 3.653316041121927e+000	 1.045601216382847e+000	 1.058082628349325e+001
 3.642983578844875e+000	 1.081050713103668e+000	 1.063298945807046e+001
 3.632280335222947e+000	 1.116485363272793e+000	 1.073209699775652e+001
 3.621205204792321e+000	 1.151899676555394e+000	 1.087920945778680e+001
 3.609757184533503e+000	 1.187288115322284e+000	 1.107497289633932e+001
 3.597935375618768e+000	 1.222645096894885e+000	 1.131959557714541e+001
 3.585738985105053e+000	 1.257964995856909e+000	 1.148098477021670e+001
 3.573167327569589e+000	 1.293242146431386e+000	 1.122016465827078e+001
 3.560219826685568e+000	 1.328470844921530e+000	 1.097868421008976e+001
 3.546896016735199e+000	 1.363645352213865e+000	 1.075697305608906e+001
 3.533195544057530e+000	 1.398759896341848e+000	 1.055540487095484e+001
 3.677351015078551e+000	 1.052480171754797e+000	 1.064053758982191e+001
 3.666950576076089e+000	 1.088162888848445e+000	 1.067098586349396e+001
 3.656176916377769e+000	 1.123830661715762e+000	 1.075232404706468e+001
 3.645028923246981e+000	 1.159477963901295e+000	 1.088581562953690e+001
 3.633505587065414e+000	 1.195099221344086e+000	 1.107229998868526e+001
 3.621606003092005e+000	 1.230688814637408e+000	 1.131216841705736e+001
 3.609329373166962e+000	 1.266241081355659e+000	 1.135745964178710e+001
 3.596675007358151e+000	 1.301750318447018e+000	 1.113613099234972e+001
 3.583642325547142e+000	 1.337210784690379e+000	 1.093375253069587e+001
 3.570230858952214e+000	 1.372616703214941e+000	 1.075073101103292e+001
 3.556440251585695e+000	 1.407962264080697e+000	 1.058741631910703e+001
 3.701385989034681e+000	 1.059359127126733e+000	 1.070694356183591e+001
 3.690917573306717e+000	 1.095275064593396e+000	 1.070990496798035e+001
 3.680073497531918e+000	 1.131175960159060e+000	 1.076786620039393e+001
 3.668852641700889e+000	 1.167056251247652e+000	 1.088230054253405e+001
 3.657253989596509e+000	 1.202910327366441e+000	 1.105424738995752e+001
 3.645276630564370e+000	 1.238732532380554e+000	 1.128428758648197e+001
 3.632919761227951e+000	 1.274517166855068e+000	 1.123349412787772e+001
 3.620182687145758e+000	 1.310258490463316e+000	 1.105145845817820e+001
 3.607064824407738e+000	 1.345950724459871e+000	 1.088800990938240e+001
 3.593565701168234e+000	 1.381588054216606e+000	 1.074353253541541e+001
 3.579684959112860e+000	 1.417164631820050e+000	 1.061835257876645e+001
 3.725420962990317e+000	 1.066238082498657e+000	 1.077689769578882e+001
 3.714884570536753e+000	 1.102387240338519e+000	 1.074651252627731e+001
 3.703970078685392e+000	 1.138521258602688e+000	 1.077540316832872e+001
 3.692676360154048e+000	 1.174634538594465e+000	 1.086525963158285e+001
 3.681002392126788e+000	 1.210721433389351e+000	 1.101732809744886e+001
 3.668947258035863e+000	 1.246776250124321e+000	 1.123238555208600e+001
 3.656510149288022e+000	 1.282793252355136e+000	 1.110903331102832e+001
 3.643690366932412e+000	 1.318766662480280e+000	 1.096609320370677e+001
 3.630487323267354e+000	 1.354690664230006e+000	 1.084140355479296e+001
 3.616900543383259e+000	 1.390559405218860e+000	 1.073532589286742e+001
 3.602929666639025e+000	 1.426366999559909e+000	 1.064816296174810e+001
 3.749455936945461e+000	 1.073117037870568e+000	 1.084725038123226e+001
 3.738851567766202e+000	 1.109499416083815e+000	 1.077757105654716e+001
 3.727866659838193e+000	 1.145866557046645e+000	 1.077161129960024e+001
 3.716500078606457e+000	 1.182212825941735e+000	 1.083128484907175e+001
 3.704750794656250e+000	 1.218532539412814e+000	 1.095805151026450e+001
 3.692617885506485e+000	 1.254819967868709e+000	 1.110560231736304e+001
 3.680100537347176e+000	 1.291069337855863e+000	 1.098401845876189e+001
 3.667198046718112e+000	 1.327274834497911e+000	 1.087997746097513e+001
 3.653909822125991e+000	 1.363430604000785e+000	 1.079387666388537e+001
 3.640235385597290e+000	 1.399530756221705e+000	 1.072605524475476e+001
 3.626174374164190e+000	 1.435569367300273e+000	 1.067679259229228e+001
 3.773490910900110e+000	 1.079995993242467e+000	 1.095645851928667e+001
 3.762818564995062e+000	 1.116611591829284e+000	 1.082807102947131e+001
 3.751763240990317e+000	 1.153211855490931e+000	 1.075756421376681e+001
 3.740323797058116e+000	 1.189791113289461e+000	 1.077696477587801e+001
 3.728499197184897e+000	 1.226343645436830e+000	 1.087292354391424e+001
 3.716288512976234e+000	 1.262863685613718e+000	 1.094100478078570e+001
 3.703690925405412e+000	 1.299345423357249e+000	 1.085838714508205e+001
 3.690705726502859e+000	 1.335783006516208e+000	 1.079304967082254e+001
 3.677332320983648e+000	 1.372170543772207e+000	 1.074536854969233e+001
 3.663570227810326e+000	 1.408502107225140e+000	 1.071566078082351e+001
 3.649419081688355e+000	 1.444771735041142e+000	 1.070418254042671e+001
 3.797525884854265e+000	 1.086874948614353e+000	 1.102850129786705e+001
 3.786785562223331e+000	 1.123723767574926e+000	 1.087324421110988e+001
 3.775659822141769e+000	 1.160557153935546e+000	 1.077320300218061e+001
 3.764147515509024e+000	 1.197369400637643e+000	 1.073474281407802e+001
 3.752247599712728e+000	 1.234154751461400e+000	 1.076453526601589e+001
 3.739959140445111e+000	 1.270907403359349e+000	 1.077594581179390e+001
 3.727281313462731e+000	 1.307621508859294e+000	 1.073207336735655e+001
 3.714213406286651e+000	 1.344291178535172e+000	 1.070524460286251e+001
 3.700754819840327e+000	 1.380910483544273e+000	 1.069581476423043e+001
 3.686905070022366e+000	 1.417473458229163e+000	 1.070407884488426e+001
 3.672663789211519e+000	 1.453974102782516e+000	 1.073026995026450e+001
 3.821560858807927e+000	 1.093753903986227e+000	 1.106433949914229e+001
 3.810752559451014e+000	 1.130835943320741e+000	 1.088465696676554e+001
 3.799556403292546e+000	 1.167902452380491e+000	 1.075744235387714e+001
 3.787971233959182e+000	 1.204947687986281e+000	 1.068895850133553e+001
 3.775996002239742e+000	 1.241965857486525e+000	 1.068578185228950e+001
 3.763629767913117e+000	 1.278951121105601e+000	 1.065050625481764e+001
 3.750871701519130e+000	 1.315897594361998e+000	 1.060756061801247e+001
 3.737721086069491e+000	 1.352799350554803e+000	 1.061649347093033e+001
 3.724177318696025e+000	 1.389650423316981e+000	 1.064514721677106e+001
 3.710239912233413e+000	 1.426444809233777e+000	 1.069124205575345e+001
 3.695908496733685e+000	 1.463176470524395e+000	 1.075498816346058e+001
 3.845595832761096e+000	 1.100632859358089e+000	 1.106630516033463e+001
 3.834719556678107e+000	 1.137948119066728e+000	 1.086471041308064e+001
 3.823452984442649e+000	 1.175247750825766e+000	 1.071275111573874e+001
 3.811794952408592e+000	 1.212525975335377e+000	 1.061658366022994e+001
 3.799744404765942e+000	 1.249776963512203e+000	 1.058268526201616e+001
 3.787300395380251e+000	 1.286994838852475e+000	 1.056121427807593e+001
 3.774462089574614e+000	 1.324173679865362e+000	 1.055313995716421e+001
 3.761228765851377e+000	 1.361307522575099e+000	 1.056077618359556e+001
 3.747599817550745e+000	 1.398390363090334e+000	 1.059329428767636e+001
 3.733574754443465e+000	 1.435416160238980e+000	 1.067707942365943e+001
 3.719153204254849e+000	 1.472378838266780e+000	 1.077826683803840e+001
 3.486706128998200e+000	 1.380355160865667e+000	 1.048833738652295e+001
 3.472813981996224e+000	 1.414942771488917e+000	 1.055459561105827e+001
 3.458549767465620e+000	 1.449459729040825e+000	 1.062713498392565e+001
 3.443913476037222e+000	 1.483900255988308e+000	 1.070418619069993e+001
 3.428905213945840e+000	 1.518258553056112e+000	 1.078391150167909e+001
 3.413525204100325e+000	 1.552528802025694e+000	 1.086440565130571e+001
 3.397773787075000e+000	 1.586705168581185e+000	 1.094369687641161e+001
 3.381651422020274e+000	 1.620781805199964e+000	 1.101974811521847e+001
 3.365158687490438e+000	 1.654752854085249e+000	 1.109045836862759e+001
 3.348296282186656e+000	 1.688612450138003e+000	 1.115366422491839e+001
 3.331065025613314e+000	 1.722354723965393e+000	 1.120714154854518e+001
 3.509950836528365e+000	 1.389557528603505e+000	 1.052236459625857e+001
 3.495966075212821e+000	 1.424375723297864e+000	 1.058438891179910e+001
 3.481606765918416e+000	 1.459122793900348e+000	 1.065118742847985e+001
 3.466872899213523e+000	 1.493792924360983e+000	 1.072098988866588e+001
 3.451764582041180e+000	 1.528380276742684e+000	 1.079195795996461e+001
 3.436282038796304e+000	 1.562878994038780e+000	 1.086218611635767e+001
 3.420425612323706e+000	 1.597283203037964e+000	 1.092970267895039e+001
 3.404195764834802e+000	 1.631587017234133e+000	 1.099247101830302e+001
 3.387593078740911e+000	 1.665784539778523e+000	 1.104839091990433e+001
 3.370618257401204e+000	 1.699869866471437e+000	 1.109530011393235e+001
 3.353272125783427e+000	 1.733837088790756e+000	 1.113097597001294e+001
 3.533195544057530e+000	 1.398759896341848e+000	 1.055540487095484e+001
 3.519118168428428e+000	 1.433808675107226e+000	 1.061390689051569e+001
 3.504663764370250e+000	 1.468785858760214e+000	 1.067571640244469e+001
 3.489832322388911e+000	 1.503685592733951e+000	 1.073906196801095e+001
 3.474623950135680e+000	 1.538502000429517e+000	 1.080210437123246e+001
 3.459038873491527e+000	 1.573229186052116e+000	 1.086293750140791e+001
 3.443077437571767e+000	 1.607861237495003e+000	 1.091958939612652e+001
 3.426740107648814e+000	 1.642392229268589e+000	 1.097002344675088e+001
 3.410027469991017e+000	 1.676816225472133e+000	 1.101213976796524e+001
 3.392940232615552e+000	 1.711127282805277e+000	 1.104377673255875e+001
 3.375479225953534e+000	 1.745319453616616e+000	 1.106271267217665e+001
 3.556440251585695e+000	 1.407962264080697e+000	 1.058741631910703e+001
 3.542270261643044e+000	 1.443241626917004e+000	 1.064309306275801e+001
 3.527720762821125e+000	 1.478448923620424e+000	 1.070065054745651e+001
 3.512791745563388e+000	 1.513578261107213e+000	 1.075831591964928e+001
 3.497483318229335e+000	 1.548623724116611e+000	 1.081424880312838e+001
 3.481795708185998e+000	 1.583579378065703e+000	 1.086654218265015e+001
 3.465729262819184e+000	 1.618439271952301e+000	 1.091322344895663e+001
 3.449284450462312e+000	 1.653197441303334e+000	 1.095225560722944e+001
 3.432461861240756e+000	 1.687847911166080e+000	 1.098153865059989e+001
 3.415262207829705e+000	 1.722384699139524e+000	 1.099891109991166e+001
 3.397686326123631e+000	 1.756801818442972e+000	 1.100215171049333e+001
 3.579684959112860e+000	 1.417164631820050e+000	 1.061835257876645e+001
 3.565422354856672e+000	 1.452674578727196e+000	 1.067188679867979e+001
 3.550777761271038e+000	 1.488111988480978e+000	 1.072591469733878e+001
 3.535751168736951e+000	 1.523470929480767e+000	 1.077866177672292e+001
 3.520342686322148e+000	 1.558745447803968e+000	 1.082828622793765e+001
 3.504552542879714e+000	 1.593929570079540e+000	 1.087287981560446e+001
 3.488381088065954e+000	 1.629017306409858e+000	 1.091046892464274e+001
 3.471828793275290e+000	 1.664002653338366e+000	 1.093901577151074e+001
 3.454896252490128e+000	 1.698879596860365e+000	 1.095641978156110e+001
 3.437584183043659e+000	 1.733642115474176e+000	 1.096051913373776e+001
 3.419893426293720e+000	 1.768284183269824e+000	 1.094909247339521e+001
 3.602929666639025e+000	 1.426366999559909e+000	 1.064816296174810e+001
 3.588574448069307e+000	 1.462107530537802e+000	 1.070022345676101e+001
 3.573834759719990e+000	 1.497775053341877e+000	 1.075143000093491e+001
 3.558710591909605e+000	 1.533363597854615e+000	 1.080000622614295e+001
 3.543202054414116e+000	 1.568867171491586e+000	 1.084410862243528e+001
 3.527309377572677e+000	 1.604279762093628e+000	 1.088182742288118e+001
 3.511032913312081e+000	 1.639595340867674e+000	 1.091118765185710e+001
 3.494373136087754e+000	 1.674807865373686e+000	 1.093015033888742e+001
 3.477330643739132e+000	 1.709911282554986e+000	 1.093661389972725e+001
 3.459906158257415e+000	 1.744899531809235e+000	 1.092841568594421e+001
 3.442100526463804e+000	 1.779766548097172e+000	 1.090333370380669e+001
 3.626174374164190e+000	 1.435569367300273e+000	 1.067679259229228e+001
 3.611726541280953e+000	 1.471540482348824e+000	 1.072803451238714e+001
 3.596891758167982e+000	 1.507438118203120e+000	 1.077711404021647e+001
 3.581670015081346e+000	 1.543256266228756e+000	 1.082225271584040e+001
 3.566061422505244e+000	 1.578988895179467e+000	 1.086160506389602e+001
 3.550066212264884e+000	 1.614629954107966e+000	 1.089325947856880e+001
 3.533684738557561e+000	 1.650173375325750e+000	 1.091523927313024e+001
 3.516917478899702e+000	 1.685613077409294e+000	 1.092550389618805e+001
 3.499765034987770e+000	 1.720942968249944e+000	 1.092195031637421e+001
 3.482228133470974e+000	 1.756156948144700e+000	 1.090241457676015e+001
 3.464307626633878e+000	 1.791248912925016e+000	 1.086467351983349e+001
 3.649419081688355e+000	 1.444771735041142e+000	 1.070418254042671e+001
 3.634878634491609e+000	 1.480973434160260e+000	 1.075524768151468e+001
 3.619948756615012e+000	 1.517101183064707e+000	 1.080288094387787e+001
 3.604629438252175e+000	 1.553148934603190e+000	 1.084530155791860e+001
 3.588920790595527e+000	 1.589110618867609e+000	 1.088066182243509e+001
 3.572823046956339e+000	 1.624980146122554e+000	 1.090704798939729e+001
 3.556336563802397e+000	 1.660751409784085e+000	 1.092248131447392e+001
 3.539461821711133e+000	 1.696418289445191e+000	 1.092491927549894e+001
 3.522199426236039e+000	 1.731974653945239e+000	 1.091225696064009e+001
 3.504550108684335e+000	 1.767414364480572e+000	 1.088232862759276e+001
 3.486514726803943e+000	 1.802731277753356e+000	 1.083290943466161e+001
 3.672663789211519e+000	 1.453974102782516e+000	 1.073026995026450e+001
 3.658030727701275e+000	 1.490406385972112e+000	 1.078178703964022e+001
 3.643005755061082e+000	 1.526764247926639e+000	 1.082864149661730e+001
 3.627588861422094e+000	 1.563041602977917e+000	 1.086905002788819e+001
 3.611780158684969e+000	 1.599232342556013e+000	 1.090116244984244e+001
 3.595579881647038e+000	 1.635330338137393e+000	 1.092306257281899e+001
 3.578988389046587e+000	 1.671329444242678e+000	 1.093276925235939e+001
 3.562006164522048e+000	 1.707223501481375e+000	 1.092823760969400e+001
 3.544633817483944e+000	 1.743006339640872e+000	 1.090736042326404e+001
 3.526872083897500e+000	 1.778671780816850e+000	 1.086796969263552e+001
 3.508721826974002e+000	 1.814213642582192e+000	 1.080783837570023e+001
 3.695908496733685e+000	 1.463176470524395e+000	 1.075498816346058e+001
 3.681182820909950e+000	 1.499839337784378e+000	 1.080757313628052e+001
 3.666062753506192e+000	 1.536427312788914e+000	 1.085430324429390e+001
 3.650548284591099e+000	 1.572934271352936e+000	 1.089339246015734e+001
 3.634639526773567e+000	 1.609354066244679e+000	 1.092298786506456e+001
 3.618336716336984e+000	 1.645680530152483e+000	 1.094117053214310e+001
 3.601640214290131e+000	 1.681907478701531e+000	 1.094595657816809e+001
 3.584550507332447e+000	 1.718028713517847e+000	 1.093529838586906e+001
 3.567068208731480e+000	 1.754038025336840e+000	 1.090708599867398e+001
 3.549194059110465e+000	 1.789929197153534e+000	 1.085914868928372e+001
 3.530928927144053e+000	 1.825696007411524e+000	 1.078925670300230e+001
 3.719153204254849e+000	 1.472378838266780e+000	 1.077826683803840e+001
 3.704334914117635e+000	 1.509272289597060e+000	 1.083252310515931e+001
 3.689119751950341e+000	 1.546090377651534e+000	 1.087977059514136e+001
 3.673507707759193e+000	 1.582826939728250e+000	 1.091822033994143e+001
 3.657498894861323e+000	 1.619475789933606e+000	 1.094601643648090e+001
 3.641093551026176e+000	 1.656030722167824e+000	 1.096123692885269e+001
 3.624292039533033e+000	 1.692485513160644e+000	 1.096189486022620e+001
 3.607094850142330e+000	 1.728833925554607e+000	 1.094593949677236e+001
 3.589502599978650e+000	 1.765069711033147e+000	 1.091125772549651e+001
 3.571516034323234e+000	 1.801186613490625e+000	 1.085567562740943e+001
 3.553136027314097e+000	 1.837178372241353e+000	 1.077696022699458e+001
 3.331065025613314e+000	 1.722354723965393e+000	 1.120714154854518e+001
 3.313465858646516e+000	 1.755973804923333e+000	 1.140368557447328e+001
 3.295499844011498e+000	 1.789463824188730e+000	 1.154251786441927e+001
 3.277168166668328e+000	 1.822818917859585e+000	 1.162046232194874e+001
 3.258472134105683e+000	 1.856033230080492e+000	 1.163432544425421e+001
 3.239413176539814e+000	 1.889100916188957e+000	 1.162801127785878e+001
 3.219992847017981e+000	 1.922016145879748e+000	 1.162789703504596e+001
 3.200212821425363e+000	 1.954773106383972e+000	 1.157521993885209e+001
 3.180074898394475e+000	 1.987366005659460e+000	 1.146960056673867e+001
 3.159580999116348e+000	 2.019789075589025e+000	 1.131070035849695e+001
 3.138733167052782e+000	 2.052036575183095e+000	 1.109822013771548e+001
 3.353272125783427e+000	 1.733837088790756e+000	 1.113097597001294e+001
 3.335555631036250e+000	 1.767680296954858e+000	 1.129928345271629e+001
 3.317469842969797e+000	 1.801393583015249e+000	 1.141566547388818e+001
 3.299015954443868e+000	 1.834971043977250e+000	 1.147702446664365e+001
 3.280195281663736e+000	 1.868406784946423e+000	 1.148023972268946e+001
 3.261009264380424e+000	 1.901694922295855e+000	 1.150441103296631e+001
 3.241459465994842e+000	 1.934829586851614e+000	 1.150100330134591e+001
 3.221547573564735e+000	 1.967804927093014e+000	 1.145109216839793e+001
 3.201275397713507e+000	 2.000615112364273e+000	 1.135442386645648e+001
 3.180644872440124e+000	 2.033254336094088e+000	 1.121078038056461e+001
 3.159658054829465e+000	 2.065716819019625e+000	 1.101997775685914e+001
 3.375479225953534e+000	 1.745319453616616e+000	 1.106271267217665e+001
 3.357645403426167e+000	 1.779386788986964e+000	 1.120496676127508e+001
 3.339439841928449e+000	 1.813323341842404e+000	 1.130102333831752e+001
 3.320863742219913e+000	 1.847123170095580e+000	 1.134786180620262e+001
 3.301918429222425e+000	 1.880780339813014e+000	 1.135729841217088e+001
 3.282605352221780e+000	 1.914288928403379e+000	 1.139229109699102e+001
 3.262926084972540e+000	 1.947643027824042e+000	 1.138692825918349e+001
 3.242882325705017e+000	 1.980836747802524e+000	 1.134104910679670e+001
 3.222475897033498e+000	 2.013864219069430e+000	 1.125452538684222e+001
 3.201708745764889e+000	 2.046719596599341e+000	 1.112725952868294e+001
 3.180582942607150e+000	 2.079397062856160e+000	 1.095918273896304e+001
 3.397686326123631e+000	 1.756801818442972e+000	 1.100215171049333e+001
 3.379735175816265e+000	 1.791093281019651e+000	 1.112049707603625e+001
 3.361409840887453e+000	 1.825253100670198e+000	 1.119831616648015e+001
 3.342711529996462e+000	 1.859275296214572e+000	 1.123266381716446e+001
 3.323641576781748e+000	 1.893153894680264e+000	 1.126254883668527e+001
 3.304201440063883e+000	 1.926882934511529e+000	 1.129109928514280e+001
 3.284392703951076e+000	 1.960456468797033e+000	 1.128508035755768e+001
 3.264217077846207e+000	 1.993868568512504e+000	 1.124446147850090e+001
 3.243676396354447e+000	 2.027113325774931e+000	 1.116923979820268e+001
 3.222772619090644e+000	 2.060184857104784e+000	 1.105943811721323e+001
 3.201507830385834e+000	 2.093077306692701e+000	 1.091510276747098e+001
 3.419893426293720e+000	 1.768284183269824e+000	 1.094909247339521e+001
 3.401824948206546e+000	 1.802799773052920e+000	 1.104563630435108e+001
 3.383379839846811e+000	 1.837182859498628e+000	 1.110726996048800e+001
 3.364559317773516e+000	 1.871427422334228e+000	 1.113112219405336e+001
 3.345364724341706e+000	 1.905527449548174e+000	 1.117684969368351e+001
 3.325797527906732e+000	 1.939476940620305e+000	 1.120028736586771e+001
 3.305859322930449e+000	 1.973269909770585e+000	 1.119487280818033e+001
 3.285551829988307e+000	 2.006900389222952e+000	 1.116070554067017e+001
 3.264876895676357e+000	 2.040362432480777e+000	 1.109790803355220e+001
 3.243836492417388e+000	 2.073650117610417e+000	 1.100662341274374e+001
 3.222432718165519e+000	 2.106757550529247e+000	 1.088701312662680e+001
 3.442100526463804e+000	 1.779766548097172e+000	 1.090333370380669e+001
 3.423914720597010e+000	 1.814506265086770e+000	 1.098014667434293e+001
 3.405349838806522e+000	 1.849112618327695e+000	 1.102761197407159e+001
 3.386407105551072e+000	 1.883579548454547e+000	 1.105666945072733e+001
 3.367087871902300e+000	 1.917901004416743e+000	 1.109969588607890e+001
 3.347393615750327e+000	 1.952070946729706e+000	 1.111931093332422e+001
 3.327325941910658e+000	 1.986083350744700e+000	 1.111572343184029e+001
 3.306886582131313e+000	 2.019932209933867e+000	 1.108916290469632e+001
 3.286077394999225e+000	 2.053611539186967e+000	 1.103987708658996e+001
 3.264900365745123e+000	 2.087115378116240e+000	 1.096812940982432e+001
 3.243357605946203e+000	 2.120437794365798e+000	 1.087419645628707e+001
 3.464307626633878e+000	 1.791248912925016e+000	 1.086467351983349e+001
 3.446004492987656e+000	 1.826212757121202e+000	 1.092379072462604e+001
 3.427319837766585e+000	 1.861042377157399e+000	 1.095907067246379e+001
 3.408254893329133e+000	 1.895731674575529e+000	 1.099557907560729e+001
 3.388811019463528e+000	 1.930274559285972e+000	 1.103058522513549e+001
 3.368989703594668e+000	 1.964664952839734e+000	 1.104762928476401e+001
 3.348792560891707e+000	 1.998896791719378e+000	 1.104705451067646e+001
 3.328221334275229e+000	 2.032964030645251e+000	 1.102922036459391e+001
 3.307277894323052e+000	 2.066860645893501e+000	 1.099449981744718e+001
 3.285964239073847e+000	 2.100580638622254e+000	 1.094327661532643e+001
 3.264282493727888e+000	 2.134118038202354e+000	 1.087594251616437e+001
 3.486514726803943e+000	 1.802731277753356e+000	 1.083290943466161e+001
 3.468094265378485e+000	 1.837919249156214e+000	 1.087633129441764e+001
 3.449289836727001e+000	 1.872972135987740e+000	 1.090137569381705e+001
 3.430102681107698e+000	 1.907883800697174e+000	 1.094075415136943e+001
 3.410534167025391e+000	 1.942648114155861e+000	 1.096901833784555e+001
 3.390585791439756e+000	 1.977258958950388e+000	 1.098470530259940e+001
 3.370259179873592e+000	 2.011710232694617e+000	 1.098829264609662e+001
 3.349556086420052e+000	 2.045995851357104e+000	 1.098026973194794e+001
 3.328478393647839e+000	 2.080109752600380e+000	 1.096113476585802e+001
 3.307028112403561e+000	 2.114045899128457e+000	 1.093139184104453e+001
 3.285207381510571e+000	 2.147798282038917e+000	 1.089154795908023e+001
 3.508721826974002e+000	 1.814213642582192e+000	 1.080783837570023e+001
 3.490184037769495e+000	 1.849625741191809e+000	 1.083753151402473e+001
 3.471259835687771e+000	 1.884901894818718e+000	 1.086111746852915e+001
 3.451950468886766e+000	 1.920035926819482e+000	 1.089173643259501e+001
 3.432257314587890e+000	 1.955021669026408e+000	 1.091449857782429e+001
 3.412181879285590e+000	 1.989852965061668e+000	 1.093000534094851e+001
 3.391725798856314e+000	 2.024523673670418e+000	 1.093886862209185e+001
 3.370890838565784e+000	 2.059027672069425e+000	 1.094170767713047e+001
 3.349678892973585e+000	 2.093358859307604e+000	 1.093914597142531e+001
 3.328091985734265e+000	 2.127511159634850e+000	 1.093180800417323e+001
 3.306132269294255e+000	 2.161478525875483e+000	 1.092031611282873e+001
 3.530928927144053e+000	 1.825696007411524e+000	 1.078925670300230e+001
 3.512273810160687e+000	 1.861332233227984e+000	 1.080715479569074e+001
 3.493229834648894e+000	 1.896831653650335e+000	 1.082687211607550e+001
 3.473798256666339e+000	 1.932188052942454e+000	 1.084806956043323e+001
 3.453980462151024e+000	 1.967395223897616e+000	 1.086653193956692e+001
 3.433777967132170e+000	 2.002446971173574e+000	 1.088299911646247e+001
 3.413192417839874e+000	 2.037337114646782e+000	 1.089821727370847e+001
 3.392225590712426e+000	 2.072059492782215e+000	 1.091293557650835e+001
 3.370879392300290e+000	 2.106607966015172e+000	 1.092790280066879e+001
 3.349155859065959e+000	 2.140976420141434e+000	 1.094386393531339e+001
 3.327057157078940e+000	 2.175158769712056e+000	 1.096155677027179e+001
 3.553136027314097e+000	 1.837178372241353e+000	 1.077696022699458e+001
 3.534363582552064e+000	 1.873038725264742e+000	 1.078496482478464e+001
 3.515199833610371e+000	 1.908761412482587e+000	 1.079629742144583e+001
 3.495646044446416e+000	 1.944340179066090e+000	 1.080929900364577e+001
 3.475703609714792e+000	 1.979768778769483e+000	 1.082462697592108e+001
 3.455374054979497e+000	 2.015040977286106e+000	 1.084315960324591e+001
 3.434659036824272e+000	 2.050150555623709e+000	 1.086577736045285e+001
 3.413560342859975e+000	 2.085091313495474e+000	 1.089335936538078e+001
 3.392079891627955e+000	 2.119857072723085e+000	 1.092677978055878e+001
 3.370219732398644e+000	 2.154441680648208e+000	 1.096690419367822e+001
 3.347982044864625e+000	 2.188839013548634e+000	 1.101458598730567e+001
 3.138733167052782e+000	 2.052036575183095e+000	 1.109822013771548e+001
 3.117533567548996e+000	 2.084102793783212e+000	 1.104470137816636e+001
 3.095984487346924e+000	 2.115982054262759e+000	 1.119099639465630e+001
 3.074088333998506e+000	 2.147668716221341e+000	 1.131369948011291e+001
 3.051847635178520e+000	 2.179157179169300e+000	 1.141053364283592e+001
 3.029265037897612e+000	 2.210441885698606e+000	 1.147919124649531e+001
 3.006343307615602e+000	 2.241517324636550e+000	 1.151733832156702e+001
 2.983085327255384e+000	 2.272378034178561e+000	 1.152261901718793e+001
 2.959494096117997e+000	 2.303018604996550e+000	 1.149266018393538e+001
 2.935572728699535e+000	 2.333433683319120e+000	 1.142507607750951e+001
 2.911324453410707e+000	 2.363617973980084e+000	 1.131747317279639e+001
 3.159658054829465e+000	 2.065716819019625e+000	 1.101997775685914e+001
 3.138317124662376e+000	 2.097996812411230e+000	 1.088694780220042e+001
 3.116624383925715e+000	 2.130088601294633e+000	 1.085138583937847e+001
 3.094582256221774e+000	 2.161986507666773e+000	 1.100575433332280e+001
 3.072193286076492e+000	 2.193684893701391e+000	 1.113308857185018e+001
 3.049460138147259e+000	 2.225178164941070e+000	 1.123093624195492e+001
 3.026385596330288e+000	 2.256460773471950e+000	 1.129681843058700e+001
 3.002972562767960e+000	 2.287527221077427e+000	 1.132823426996273e+001
 2.979224056756659e+000	 2.318372062367227e+000	 1.132266571655399e+001
 2.955143213555780e+000	 2.348989907878142e+000	 1.127758245335862e+001
 2.930733283098773e+000	 2.379375427142877e+000	 1.119044690454454e+001
 3.180582942607150e+000	 2.079397062856160e+000	 1.095918273896304e+001
 3.159100681776744e+000	 2.111890831039068e+000	 1.086715797404562e+001
 3.137264280505467e+000	 2.144195148326173e+000	 1.073447479342413e+001
 3.115076178445952e+000	 2.176304299111745e+000	 1.072249514153205e+001
 3.092538936975307e+000	 2.208212608232925e+000	 1.087898907717300e+001
 3.069655238397657e+000	 2.239914444182911e+000	 1.100472329387799e+001
 3.046427885045616e+000	 2.271404222306690e+000	 1.109707376926318e+001
 3.022859798281050e+000	 2.302676407975628e+000	 1.115339441159635e+001
 2.998954017395683e+000	 2.333725519737262e+000	 1.117102203571245e+001
 2.974713698412216e+000	 2.364546132436578e+000	 1.114728146466519e+001
 2.950142112786840e+000	 2.395132880305170e+000	 1.107949074582026e+001
 3.201507830385834e+000	 2.093077306692701e+000	 1.091510276747098e+001
 3.179884238892103e+000	 2.125784849666726e+000	 1.086221744197062e+001
 3.157904177086179e+000	 2.158301695357378e+000	 1.076739519171394e+001
 3.135570100671042e+000	 2.190622090556255e+000	 1.063125728335383e+001
 3.112884587874964e+000	 2.222740322763901e+000	 1.064784933067101e+001
 3.089850338648807e+000	 2.254650723424128e+000	 1.080020288569559e+001
 3.066470173761587e+000	 2.286347671140770e+000	 1.091779089090484e+001
 3.042747033794652e+000	 2.317825594873164e+000	 1.099782179981701e+001
 3.018683978035068e+000	 2.349078977106657e+000	 1.103748701430406e+001
 2.994284183268846e+000	 2.380102356994427e+000	 1.103396618644385e+001
 2.969550942474911e+000	 2.410890333466961e+000	 1.098443263695593e+001
 3.222432718165519e+000	 2.106757550529247e+000	 1.088701312662680e+001
 3.200667796008453e+000	 2.139678868294204e+000	 1.087142596568289e+001
 3.178544073667851e+000	 2.172408242388246e+000	 1.081265190414308e+001
 3.156064022897041e+000	 2.204939882000303e+000	 1.071126348396369e+001
 3.133230238775461e+000	 2.237268037294320e+000	 1.056785660644553e+001
 3.110045438900708e+000	 2.269387002664722e+000	 1.061702894163933e+001
 3.086512462478199e+000	 2.301291119974192e+000	 1.075865899089387e+001
 3.062634269308766e+000	 2.332974781770035e+000	 1.086124064775656e+001
 3.038413938674817e+000	 2.364432434475412e+000	 1.092181960641880e+001
 3.013854668125669e+000	 2.395658581551691e+000	 1.093743001355678e+001
 2.988959772162985e+000	 2.426647786628250e+000	 1.090510009002992e+001
 3.243357605946203e+000	 2.120437794365798e+000	 1.087419645628707e+001
 3.221451353125792e+000	 2.153572886921502e+000	 1.089408983524036e+001
 3.199183970250482e+000	 2.186514789418779e+000	 1.086957467334340e+001
 3.176557945123952e+000	 2.219257673443890e+000	 1.080117643315932e+001
 3.153575889676799e+000	 2.251795751824183e+000	 1.068944453928431e+001
 3.130240539153362e+000	 2.284123281904694e+000	 1.053494964122954e+001
 3.106554751195452e+000	 2.316234568806954e+000	 1.061936982145646e+001
 3.082521504823394e+000	 2.348123968666242e+000	 1.074337696409854e+001
 3.058143899314928e+000	 2.379785891843527e+000	 1.082377981246548e+001
 3.033425152982684e+000	 2.411214806108368e+000	 1.085746665039576e+001
 3.008368601851061e+000	 2.442405239789038e+000	 1.084132020268127e+001
 3.264282493727888e+000	 2.134118038202354e+000	 1.087594251616437e+001
 3.242234910244121e+000	 2.167466905548621e+000	 1.092952166174566e+001
 3.219823866834076e+000	 2.200621336448977e+000	 1.093749877350727e+001
 3.197051867351773e+000	 2.233575464887016e+000	 1.090035387319152e+001
 3.173921540578978e+000	 2.266323466353487e+000	 1.081859152570249e+001
 3.150435639406766e+000	 2.298859561144041e+000	 1.069273810605873e+001
 3.126597039913348e+000	 2.331178017639057e+000	 1.052333905418211e+001
 3.102408740338531e+000	 2.363273155561782e+000	 1.064395849552869e+001
 3.077873859955401e+000	 2.395139349210999e+000	 1.074312864563629e+001
 3.052995637839892e+000	 2.426771030664460e+000	 1.079387010096167e+001
 3.027777431539140e+000	 2.458162692949324e+000	 1.079291967139276e+001
 3.285207381510571e+000	 2.147798282038917e+000	 1.089154795908023e+001
 3.263018467363441e+000	 2.181360924175559e+000	 1.097704017603877e+001
 3.240463763418629e+000	 2.214727883478839e+000	 1.101576483422305e+001
 3.217545789580504e+000	 2.247893256329680e+000	 1.100815814678657e+001
 3.194267191481999e+000	 2.280851180882235e+000	 1.095468142963974e+001
 3.170630739660923e+000	 2.313595840382766e+000	 1.085581837019663e+001
 3.146639328631885e+000	 2.346121466470502e+000	 1.071207228388506e+001
 3.122295975854182e+000	 2.378422342456657e+000	 1.056271467138435e+001
 3.097603820596237e+000	 2.410492806577833e+000	 1.067962809965232e+001
 3.072566122697292e+000	 2.442327255219965e+000	 1.074643465932260e+001
 3.047186261227222e+000	 2.473920146109110e+000	 1.075972480426689e+001
 3.306132269294255e+000	 2.161478525875483e+000	 1.092031611282873e+001
 3.283802024483750e+000	 2.195254942802317e+000	 1.103597003503438e+001
 3.261103660004143e+000	 2.228834430508366e+000	 1.110371867100065e+001
 3.238039711810148e+000	 2.262211047771884e+000	 1.112395605156167e+001
 3.214612842385860e+000	 2.295378895410425e+000	 1.109710184839214e+001
 3.190825839915831e+000	 2.328332119620868e+000	 1.102359864227298e+001
 3.166681617351065e+000	 2.361064915301285e+000	 1.090390917907140e+001
 3.142183211370345e+000	 2.393571529350869e+000	 1.073851362236263e+001
 3.117333781237436e+000	 2.425846263944024e+000	 1.063304111773433e+001
 3.092136607554884e+000	 2.457883479774884e+000	 1.071495490043453e+001
 3.066595090915306e+000	 2.489677599268394e+000	 1.074156153331617e+001
 3.327057157078940e+000	 2.175158769712056e+000	 1.096155677027179e+001
 3.304585581605049e+000	 2.209148961428895e+000	 1.110564163536751e+001
 3.281743556590617e+000	 2.242940977537558e+000	 1.120071112219219e+001
 3.258533634040701e+000	 2.276528839213626e+000	 1.124711869993371e+001
 3.234958493290563e+000	 2.309906609938058e+000	 1.124524399521132e+001
 3.211020940171490e+000	 2.343068398858345e+000	 1.119549005758444e+001
 3.186723906070887e+000	 2.376008364131412e+000	 1.109828061275276e+001
 3.162070446887020e+000	 2.408720716244414e+000	 1.095405731246363e+001
 3.137063741878997e+000	 2.441199721309575e+000	 1.076327699016352e+001
 3.111707092412670e+000	 2.473439704329216e+000	 1.069922567130855e+001
 3.086003920603393e+000	 2.505435052427177e+000	 1.073754926002217e+001
 3.347982044864625e+000	 2.188839013548634e+000	 1.101458598730567e+001
 3.325369138727341e+000	 2.223042980055294e+000	 1.118539093402717e+001
 3.302383453178052e+000	 2.257047524566414e+000	 1.130609789202822e+001
 3.279027556272166e+000	 2.290846630654906e+000	 1.137702138428224e+001
 3.255304144196107e+000	 2.324434324465134e+000	 1.139850258630587e+001
 3.231216040427901e+000	 2.357804678095200e+000	 1.137090658663608e+001
 3.206766194791350e+000	 2.390951812960878e+000	 1.129461963499993e+001
 3.181957682404209e+000	 2.423869903137295e+000	 1.117004638728728e+001
 3.156793702520921e+000	 2.456553178674486e+000	 1.099760715645784e+001
 3.131277577270649e+000	 2.488995928882964e+000	 1.077773517849829e+001
 3.105412750291483e+000	 2.521192505585459e+000	 1.074118315541839e+001
 2.911324453410707e+000	 2.363617973980084e+000	 1.131747317279639e+001
 2.886752611199269e+000	 2.393566243432211e+000	 1.126223019114764e+001
 2.861860654078760e+000	 2.423273322721160e+000	 1.120180926216782e+001
 2.836652143563400e+000	 2.452734110416954e+000	 1.113342303196824e+001
 2.811130749008875e+000	 2.481943575500790e+000	 1.105425748846724e+001
 2.785300245862961e+000	 2.510896760202157e+000	 1.099565510582998e+001
 2.759164513826918e+000	 2.539588782783471e+000	 1.098819139742471e+001
 2.732727534929510e+000	 2.568014840268934e+000	 1.097991825552125e+001
 2.705993391515635e+000	 2.596170211114460e+000	 1.097075538355242e+001
 2.678966264151708e+000	 2.624050257815532e+000	 1.096059777331115e+001
 2.651650429450000e+000	 2.651650429450000e+000	 1.094931569975560e+001
 2.930733283098773e+000	 2.379375427142877e+000	 1.119044690454454e+001
 2.905997628606329e+000	 2.409523351724013e+000	 1.114653263053573e+001
 2.880939725105363e+000	 2.439428478207633e+000	 1.109551865701473e+001
 2.855563157853522e+000	 2.469085671154231e+000	 1.103457811641366e+001
 2.829871620668863e+000	 2.498489866004877e+000	 1.096085846860558e+001
 2.803868914168816e+000	 2.527636071937259e+000	 1.095030833565012e+001
 2.777558943919313e+000	 2.556519374668873e+000	 1.094123739753755e+001
 2.750945718495975e+000	 2.585134939204085e+000	 1.092970871010223e+001
 2.724033347459339e+000	 2.613478012521847e+000	 1.091568275278915e+001
 2.696826039246256e+000	 2.641543926200946e+000	 1.089909613416640e+001
 2.669328098979750e+000	 2.669328098979750e+000	 1.087986154122483e+001
 2.950142112786840e+000	 2.395132880305170e+000	 1.107949074582026e+001
 2.925242646013206e+000	 2.425480460015402e+000	 1.104792894640932e+001
 2.900018796131629e+000	 2.455583633693764e+000	 1.100737672766290e+001
 2.874474172143182e+000	 2.485437231891217e+000	 1.095496625226069e+001
 2.848612492328294e+000	 2.515036156508704e+000	 1.092262912767948e+001
 2.822437582474046e+000	 2.544375383672110e+000	 1.091677827338133e+001
 2.795953374011048e+000	 2.573449966554016e+000	 1.090682879613184e+001
 2.769163902061777e+000	 2.602255038138946e+000	 1.089280452403776e+001
 2.742073303402402e+000	 2.630785813928893e+000	 1.087470639886669e+001
 2.714685814340219e+000	 2.659037594585949e+000	 1.085251230034526e+001
 2.687005768509000e+000	 2.687005768509000e+000	 1.082617695020312e+001
 2.969550942474911e+000	 2.410890333466961e+000	 1.098443263695593e+001
 2.944487663419903e+000	 2.441437568306380e+000	 1.096624019113432e+001
 2.919097867157557e+000	 2.471738789179555e+000	 1.093719732944525e+001
 2.893385186432378e+000	 2.501788792627911e+000	 1.089766267413093e+001
 2.867353363987166e+000	 2.531582447012270e+000	 1.089908014617017e+001
 2.841006250778654e+000	 2.561114695406711e+000	 1.089468869884395e+001
 2.814347804102124e+000	 2.590380558438898e+000	 1.088457325982724e+001
 2.787382085626915e+000	 2.619375137073517e+000	 1.086879699189822e+001
 2.760113259344827e+000	 2.648093615335601e+000	 1.084740099344312e+001
 2.732545589433598e+000	 2.676531262970542e+000	 1.082040407780512e+001
 2.704683438037750e+000	 2.704683438037750e+000	 1.078780263231613e+001
 2.988959772162985e+000	 2.426647786628250e+000	 1.090510009002992e+001
 2.963732680826416e+000	 2.457394676596947e+000	 1.090128732948723e+001
 2.938176938183148e+000	 2.487893944665004e+000	 1.088479458282373e+001
 2.912296200721111e+000	 2.518140353364315e+000	 1.088075570686627e+001
 2.886094235645480e+000	 2.548128737515575e+000	 1.088593099254364e+001
 2.859574919082637e+000	 2.577854007141061e+000	 1.088366478589255e+001
 2.832742234192540e+000	 2.607311150323519e+000	 1.087408024859940e+001
 2.805600269191387e+000	 2.636495236007797e+000	 1.085727961214049e+001
 2.778153215286611e+000	 2.665401416741968e+000	 1.083334383361061e+001
 2.750405364526393e+000	 2.694024931354726e+000	 1.080233233030379e+001
 2.722361107566000e+000	 2.722361107566000e+000	 1.076428279396817e+001
 3.008368601851061e+000	 2.442405239789038e+000	 1.084132020268127e+001
 2.982977698232747e+000	 2.473351784887102e+000	 1.085289124148089e+001
 2.957256009208400e+000	 2.504049100150112e+000	 1.085449371301814e+001
 2.931207215009382e+000	 2.534491914100428e+000	 1.087327043488360e+001
 2.904835107303235e+000	 2.564675028018619e+000	 1.088282327284070e+001
 2.878143587385996e+000	 2.594593318875161e+000	 1.088333305744749e+001
 2.851136664282298e+000	 2.624241742207880e+000	 1.087496095792958e+001
 2.823818452755197e+000	 2.653615334941788e+000	 1.085784801601469e+001
 2.796193171227756e+000	 2.682709218147994e+000	 1.083211475720414e+001
 2.768265139618602e+000	 2.711518599738500e+000	 1.079786088076043e+001
 2.740038777093750e+000	 2.740038777093750e+000	 1.075516502941371e+001
 3.027777431539140e+000	 2.458162692949324e+000	 1.079291967139276e+001
 3.002222715638894e+000	 2.489308893176847e+000	 1.082087272508094e+001
 2.976335080233315e+000	 2.520204255634879e+000	 1.084949658838368e+001
 2.950118229297190e+000	 2.550843474836250e+000	 1.087486388548995e+001
 2.923575978960432e+000	 2.581221318521403e+000	 1.088939953554679e+001
 2.896712255688731e+000	 2.611332630609009e+000	 1.089332134225522e+001
 2.869531094371396e+000	 2.641172334091980e+000	 1.088682826317968e+001
 2.842036636318340e+000	 2.670735433875488e+000	 1.087009989920546e+001
 2.814233127168260e+000	 2.700017019553681e+000	 1.084329606136736e+001
 2.786124914710225e+000	 2.729012268121863e+000	 1.080655641641088e+001
 2.757716446621000e+000	 2.757716446620999e+000	 1.076000021217267e+001
 3.047186261227222e+000	 2.473920146109110e+000	 1.075972480426689e+001
 3.021467733044860e+000	 2.505266001466179e+000	 1.080747639112113e+001
 2.995414151257892e+000	 2.536359411119304e+000	 1.085267538326405e+001
 2.969029243584533e+000	 2.567195035571781e+000	 1.088519365710616e+001
 2.942316850617070e+000	 2.597767609023926e+000	 1.090530324157745e+001
 2.915280923990843e+000	 2.628071942342609e+000	 1.091325873330189e+001
 2.887925524459835e+000	 2.658102925975821e+000	 1.090929666609273e+001
 2.860254819880819e+000	 2.687855532808898e+000	 1.089363495608571e+001
 2.832273083108126e+000	 2.717324820959028e+000	 1.086647242423053e+001
 2.803984689801264e+000	 2.746505936504817e+000	 1.082798839758726e+001
 2.775394116147749e+000	 2.775394116147750e+000	 1.077834239059495e+001
 3.066595090915306e+000	 2.489677599268394e+000	 1.074156153331617e+001
 3.040712750450644e+000	 2.521223109755101e+000	 1.080922266597577e+001
 3.014493222282131e+000	 2.552514566603390e+000	 1.086370182896712e+001
 2.987940257871414e+000	 2.583546596307021e+000	 1.090391790119393e+001
 2.961057722273150e+000	 2.614313899526189e+000	 1.093017873540424e+001
 2.933849592292330e+000	 2.644811254075957e+000	 1.094277554780533e+001
 2.906319954547613e+000	 2.675033517859401e+000	 1.094198224332512e+001
 2.878473003442633e+000	 2.704975631742018e+000	 1.092805481646687e+001
 2.850313039047351e+000	 2.734632622364035e+000	 1.090123082956316e+001
 2.821844464891718e+000	 2.763999604887360e+000	 1.086172896996169e+001
 2.793071785673999e+000	 2.793071785673999e+000	 1.080974868739129e+001
 3.086003920603393e+000	 2.505435052427177e+000	 1.073754926002217e+001
 3.059957767856244e+000	 2.537180218043611e+000	 1.081798540794385e+001
 3.033572293306033e+000	 2.568669722087133e+000	 1.088224788231359e+001
 3.006851272157832e+000	 2.599898157041970e+000	 1.093069530486436e+001
 2.979798593928670e+000	 2.630860190028190e+000	 1.096367121726983e+001
 2.952418260593193e+000	 2.661550565809054e+000	 1.098150328871751e+001
 2.924714384634735e+000	 2.691964109742722e+000	 1.098450259692126e+001
 2.896691187003782e+000	 2.722095730674847e+000	 1.097296298473614e+001
 2.868352994985936e+000	 2.751940423768701e+000	 1.094716049426931e+001
 2.839704239981587e+000	 2.781493273269494e+000	 1.090735288010200e+001
 2.810749455199750e+000	 2.810749455199749e+000	 1.085377920295523e+001
 3.105412750291483e+000	 2.521192505585459e+000	 1.074118315541839e+001
 3.079202785261663e+000	 2.553137326331711e+000	 1.083344954756232e+001
 3.052651364329598e+000	 2.584824877570536e+000	 1.090798571858990e+001
 3.025762286443788e+000	 2.616249717776629e+000	 1.096518507413902e+001
 2.998539465583634e+000	 2.647406480529932e+000	 1.100542671644520e+001
 2.970986928893433e+000	 2.678289877541902e+000	 1.102907460767027e+001
 2.943108814721196e+000	 2.708894701625782e+000	 1.103647680664476e+001
 2.914909370564268e+000	 2.739215829607388e+000	 1.102796478127600e+001
 2.886392950923881e+000	 2.769248225173028e+000	 1.100385279860223e+001
 2.857564015070873e+000	 2.798986941651219e+000	 1.096443739419315e+001
 2.828427124725000e+000	 2.828427124725000e+000	 1.090999692231049e+001
 2.651650429450000e+000	 2.651650429450000e+000	 1.094931569975560e+001
 2.624050257815533e+000	 2.678966264151706e+000	 1.099917108687597e+001
 2.596170211114461e+000	 2.705993391515634e+000	 1.100716451646868e+001
 2.568014840268936e+000	 2.732727534929508e+000	 1.097373191146212e+001
 2.539588782783471e+000	 2.759164513826918e+000	 1.089932360964473e+001
 2.510896760202158e+000	 2.785300245862960e+000	 1.078440399934375e+001
 2.481943575500790e+000	 2.811130749008873e+000	 1.078044515890766e+001
 2.452734110416956e+000	 2.836652143563399e+000	 1.083785592598015e+001
 2.423273322721161e+000	 2.861860654078759e+000	 1.086679559185874e+001
 2.393566243432213e+000	 2.886752611199269e+000	 1.086670148417487e+001
 2.363617973980084e+000	 2.911324453410707e+000	 1.083709087904967e+001
 2.669328098979750e+000	 2.669328098979750e+000	 1.087986154122483e+001
 2.641543926200946e+000	 2.696826039246255e+000	 1.093341094211997e+001
 2.613478012521847e+000	 2.724033347459337e+000	 1.094758752988968e+001
 2.585134939204087e+000	 2.750945718495975e+000	 1.092275467748142e+001
 2.556519374668874e+000	 2.777558943919311e+000	 1.085928730348111e+001
 2.527636071937260e+000	 2.803868914168815e+000	 1.075757159303909e+001
 2.498489866004878e+000	 2.829871620668862e+000	 1.063036094787067e+001
 2.469085671154232e+000	 2.855563157853521e+000	 1.069847070279554e+001
 2.439428478207634e+000	 2.880939725105363e+000	 1.073947602983524e+001
 2.409523351724014e+000	 2.905997628606328e+000	 1.075270000749775e+001
 2.379375427142877e+000	 2.930733283098773e+000	 1.073754578921754e+001
 2.687005768509000e+000	 2.687005768509000e+000	 1.082617695020312e+001
 2.659037594585950e+000	 2.714685814340219e+000	 1.088195604342449e+001
 2.630785813928895e+000	 2.742073303402402e+000	 1.090082884219058e+001
 2.602255038138947e+000	 2.769163902061777e+000	 1.088308686847839e+001
 2.573449966554017e+000	 2.795953374011047e+000	 1.082903032265097e+001
 2.544375383672111e+000	 2.822437582474045e+000	 1.073896788904656e+001
 2.515036156508705e+000	 2.848612492328293e+000	 1.061321657909391e+001
 2.485437231891217e+000	 2.874474172143180e+000	 1.057033027517790e+001
 2.455583633693765e+000	 2.900018796131628e+000	 1.062175907951185e+001
 2.425480460015403e+000	 2.925242646013206e+000	 1.064661047278851e+001
 2.395132880305170e+000	 2.950142112786840e+000	 1.064417381254554e+001
 2.704683438037750e+000	 2.704683438037750e+000	 1.078780263231613e+001
 2.676531262970543e+000	 2.732545589433597e+000	 1.084437576789365e+001
 2.648093615335602e+000	 2.760113259344826e+000	 1.086648730367824e+001
 2.619375137073518e+000	 2.787382085626914e+000	 1.085435759511915e+001
 2.590380558438899e+000	 2.814347804102123e+000	 1.080821281019032e+001
 2.561114695406712e+000	 2.841006250778652e+000	 1.072828481907471e+001
 2.531582447012271e+000	 2.867353363987166e+000	 1.061481112599516e+001
 2.501788792627913e+000	 2.893385186432377e+000	 1.046803484283990e+001
 2.471738789179556e+000	 2.919097867157556e+000	 1.051416043444632e+001
 2.441437568306381e+000	 2.944487663419902e+000	 1.054898452936177e+001
 2.410890333466960e+000	 2.969550942474911e+000	 1.055756280569684e+001
 2.722361107566000e+000	 2.722361107566000e+000	 1.076428279396817e+001
 2.694024931354727e+000	 2.750405364526391e+000	 1.082024225202898e+001
 2.665401416741969e+000	 2.778153215286610e+000	 1.084416376636707e+001
 2.636495236007798e+000	 2.805600269191386e+000	 1.083619719614725e+001
 2.607311150323519e+000	 2.832742234192541e+000	 1.079649534802267e+001
 2.577854007141062e+000	 2.859574919082636e+000	 1.072521394935885e+001
 2.548128737515576e+000	 2.886094235645479e+000	 1.062251166824132e+001
 2.518140353364316e+000	 2.912296200721111e+000	 1.048855017975079e+001
 2.487893944665005e+000	 2.938176938183147e+000	 1.041719292264466e+001
 2.457394676596948e+000	 2.963732680826415e+000	 1.046037010000960e+001
 2.426647786628250e+000	 2.988959772162985e+000	 1.047829602474916e+001
 2.740038777093750e+000	 2.740038777093750e+000	 1.075516502941371e+001
 2.711518599738501e+000	 2.768265139618600e+000	 1.080913030271679e+001
 2.682709218147995e+000	 2.796193171227754e+000	 1.083346101940769e+001
 2.653615334941789e+000	 2.823818452755194e+000	 1.082823719876864e+001
 2.624241742207881e+000	 2.851136664282297e+000	 1.079353894280148e+001
 2.594593318875162e+000	 2.878143587385995e+000	 1.072944649245015e+001
 2.564675028018621e+000	 2.904835107303234e+000	 1.063604033526031e+001
 2.534491914100428e+000	 2.931207215009381e+000	 1.051340136379658e+001
 2.504049100150114e+000	 2.957256009208400e+000	 1.036161108392441e+001
 2.473351784887103e+000	 2.982977698232745e+000	 1.038131150121182e+001
 2.442405239789038e+000	 3.008368601851061e+000	 1.040695227360074e+001
 2.757716446621000e+000	 2.757716446620999e+000	 1.076000021217267e+001
 2.729012268121864e+000	 2.786124914710225e+000	 1.081061731163891e+001
 2.700017019553682e+000	 2.814233127168259e+000	 1.083398372699919e+001
 2.670735433875489e+000	 2.842036636318339e+000	 1.083011028055960e+001
 2.641172334091982e+000	 2.869531094371395e+000	 1.079900501229696e+001
 2.611332630609011e+000	 2.896712255688730e+000	 1.074067331855198e+001
 2.581221318521404e+000	 2.923575978960431e+000	 1.065511814682975e+001
 2.550843474836251e+000	 2.950118229297189e+000	 1.054234024586678e+001
 2.520204255634880e+000	 2.976335080233314e+000	 1.040233846989722e+001
 2.489308893176847e+000	 3.002222715638894e+000	 1.031234955872303e+001
 2.458162692949325e+000	 3.027777431539140e+000	 1.034410604666860e+001
 2.775394116147749e+000	 2.775394116147750e+000	 1.077834239059495e+001
 2.746505936504817e+000	 2.803984689801263e+000	 1.082428317295435e+001
 2.717324820959029e+000	 2.832273083108124e+000	 1.084533836867427e+001
 2.687855532808900e+000	 2.860254819880818e+000	 1.084145023283080e+001
 2.658102925975823e+000	 2.887925524459833e+000	 1.081255537230320e+001
 2.628071942342610e+000	 2.915280923990842e+000	 1.075858496642255e+001
 2.597767609023927e+000	 2.942316850617069e+000	 1.067946504841618e+001
 2.567195035571781e+000	 2.969029243584532e+000	 1.057511684664628e+001
 2.536359411119306e+000	 2.995414151257891e+000	 1.044545718440151e+001
 2.505266001466179e+000	 3.021467733044859e+000	 1.029039893676729e+001
 2.473920146109110e+000	 3.047186261227222e+000	 1.029032766613284e+001
 2.793071785673999e+000	 2.793071785673999e+000	 1.080974868739129e+001
 2.763999604887362e+000	 2.821844464891717e+000	 1.084971020410688e+001
 2.734632622364035e+000	 2.850313039047350e+000	 1.086713318185199e+001
 2.704975631742019e+000	 2.878473003442632e+000	 1.086189192538269e+001
 2.675033517859403e+000	 2.906319954547613e+000	 1.083385222404248e+001
 2.644811254075958e+000	 2.933849592292328e+000	 1.078287165386366e+001
 2.614313899526190e+000	 2.961057722273149e+000	 1.070879994517224e+001
 2.583546596307022e+000	 2.987940257871413e+000	 1.061147941453366e+001
 2.552514566603391e+000	 3.014493222282131e+000	 1.049074545962565e+001
 2.521223109755101e+000	 3.040712750450642e+000	 1.034642711538044e+001
 2.489677599268394e+000	 3.066595090915306e+000	 1.024618341396971e+001
 2.810749455199750e+000	 2.810749455199749e+000	 1.085377920295523e+001
 2.781493273269495e+000	 2.839704239981586e+000	 1.088648306962129e+001
 2.751940423768702e+000	 2.868352994985934e+000	 1.089897810655825e+001
 2.722095730674849e+000	 2.896691187003782e+000	 1.089107127259054e+001
 2.691964109742723e+000	 2.924714384634733e+000	 1.086255814204481e+001
 2.661550565809056e+000	 2.952418260593193e+000	 1.081322328781379e+001
 2.630860190028192e+000	 2.979798593928670e+000	 1.074284073465106e+001
 2.599898157041972e+000	 3.006851272157831e+000	 1.065117448137331e+001
 2.568669722087134e+000	 3.033572293306032e+000	 1.053797909038475e+001
 2.537180218043612e+000	 3.059957767856243e+000	 1.040300034268251e+001
 2.505435052427177e+000	 3.086003920603393e+000	 1.024597595625500e+001
 2.828427124725000e+000	 2.828427124725000e+000	 1.090999692231049e+001
 2.798986941651219e+000	 2.857564015070872e+000	 1.093418870775695e+001
 2.769248225173028e+000	 2.886392950923880e+000	 1.094048473221938e+001
 2.739215829607389e+000	 2.914909370564268e+000	 1.092862520076160e+001
 2.708894701625782e+000	 2.943108814721194e+000	 1.089833606248218e+001
 2.678289877541904e+000	 2.970986928893432e+000	 1.084932947406251e+001
 2.647406480529933e+000	 2.998539465583634e+000	 1.078130433829347e+001
 2.616249717776630e+000	 3.025762286443787e+000	 1.069394691609762e+001
 2.584824877570537e+000	 3.052651364329597e+000	 1.058693151028877e+001
 2.553137326331712e+000	 3.079202785261663e+000	 1.045992121904679e+001
 2.521192505585459e+000	 3.105412750291483e+000	 1.031256875682508e+001
 2.363617973980084e+000	 2.911324453410707e+000	 1.083709087904967e+001
 2.333433683319122e+000	 2.935572728699535e+000	 1.083456518406111e+001
 2.303018604996550e+000	 2.959494096117997e+000	 1.082308208878970e+001
 2.272378034178562e+000	 2.983085327255382e+000	 1.080134094705099e+001
 2.241517324636551e+000	 3.006343307615601e+000	 1.076811075033196e+001
 2.210441885698608e+000	 3.029265037897612e+000	 1.072223211608649e+001
 2.179157179169301e+000	 3.051847635178518e+000	 1.066261908698396e+001
 2.147668716221342e+000	 3.074088333998505e+000	 1.058826073823656e+001
 2.115982054262759e+000	 3.095984487346923e+000	 1.049822259073416e+001
 2.084102793783214e+000	 3.117533567548997e+000	 1.039164782831979e+001
 2.052036575183095e+000	 3.138733167052782e+000	 1.045765969191875e+001
 2.379375427142877e+000	 2.930733283098773e+000	 1.073754578921754e+001
 2.348989907878144e+000	 2.955143213555779e+000	 1.072860454431082e+001
 2.318372062367228e+000	 2.979224056756658e+000	 1.070746728219343e+001
 2.287527221077428e+000	 3.002972562767960e+000	 1.067282603859574e+001
 2.256460773471950e+000	 3.026385596330287e+000	 1.062344663443074e+001
 2.225178164941071e+000	 3.049460138147259e+000	 1.055817067018447e+001
 2.193684893701392e+000	 3.072193286076491e+000	 1.047591732404198e+001
 2.161986507666775e+000	 3.094582256221773e+000	 1.037568495089885e+001
 2.130088601294635e+000	 3.116624383925714e+000	 1.025655248002917e+001
 2.097996812411231e+000	 3.138317124662375e+000	 1.029624843455352e+001
 2.065716819019625e+000	 3.159658054829465e+000	 1.044277064749021e+001
 2.395132880305170e+000	 2.950142112786840e+000	 1.064417381254554e+001
 2.364546132436579e+000	 2.974713698412216e+000	 1.062904179085984e+001
 2.333725519737264e+000	 2.998954017395681e+000	 1.059848173919854e+001
 2.302676407975629e+000	 3.022859798281050e+000	 1.055117775785339e+001
 2.271404222306690e+000	 3.046427885045616e+000	 1.048589189721628e+001
 2.239914444182912e+000	 3.069655238397657e+000	 1.040146615905729e+001
 2.208212608232926e+000	 3.092538936975307e+000	 1.029682429426836e+001
 2.176304299111746e+000	 3.115076178445951e+000	 1.017097339424533e+001
 2.144195148326174e+000	 3.137264280505466e+000	 1.018176835819483e+001
 2.111890831039069e+000	 3.159100681776744e+000	 1.031295290233632e+001
 2.079397062856160e+000	 3.180582942607150e+000	 1.044164379552708e+001
 2.410890333466960e+000	 2.969550942474911e+000	 1.055756280569684e+001
 2.380102356994429e+000	 2.994284183268845e+000	 1.053646177907435e+001
 2.349078977106659e+000	 3.018683978035067e+000	 1.049670646476830e+001
 2.317825594873165e+000	 3.042747033794651e+000	 1.043697241041314e+001
 2.286347671140772e+000	 3.066470173761586e+000	 1.035601729673874e+001
 2.254650723424130e+000	 3.089850338648807e+000	 1.025268294652687e+001
 2.222740322763903e+000	 3.112884587874963e+000	 1.012589712271071e+001
 2.190622090556256e+000	 3.135570100671041e+000	 1.010615686188834e+001
 2.158301695357378e+000	 3.157904177086176e+000	 1.022608361572275e+001
 2.125784849666727e+000	 3.179884238892103e+000	 1.034178966647397e+001
 2.093077306692701e+000	 3.201507830385834e+000	 1.045347210467058e+001
 2.426647786628250e+000	 2.988959772162985e+000	 1.047829602474916e+001
 2.395658581551693e+000	 3.013854668125669e+000	 1.045144490140794e+001
 2.364432434475413e+000	 3.038413938674816e+000	 1.040271815390409e+001
 2.332974781770037e+000	 3.062634269308765e+000	 1.033078216003003e+001
 2.301291119974193e+000	 3.086512462478198e+000	 1.023438963240765e+001
 2.269387002664724e+000	 3.110045438900708e+000	 1.011238163591377e+001
 2.237268037294321e+000	 3.133230238775460e+000	 1.006157022044098e+001
 2.204939882000303e+000	 3.156064022897041e+000	 1.017426514507693e+001
 2.172408242388248e+000	 3.178544073667850e+000	 1.028096475940863e+001
 2.139678868294205e+000	 3.200667796008452e+000	 1.038195224432887e+001
 2.106757550529247e+000	 3.222432718165518e+000	 1.047744599311191e+001
 2.442405239789038e+000	 3.008368601851061e+000	 1.040695227360074e+001
 2.411214806108369e+000	 3.033425152982682e+000	 1.037456723136637e+001
 2.379785891843528e+000	 3.058143899314927e+000	 1.031708933067658e+001
 2.348123968666243e+000	 3.082521504823393e+000	 1.023317516223251e+001
 2.316234568806955e+000	 3.106554751195451e+000	 1.012157187269009e+001
 2.284123281904695e+000	 3.130240539153362e+000	 1.004038448330248e+001
 2.251795751824184e+000	 3.153575889676798e+000	 1.014981984942388e+001
 2.219257673443891e+000	 3.176557945123951e+000	 1.025143635575172e+001
 2.186514789418780e+000	 3.199183970250482e+000	 1.034560538305594e+001
 2.153572886921503e+000	 3.221451353125791e+000	 1.043263142306651e+001
 2.120437794365798e+000	 3.243357605946203e+000	 1.051275341086476e+001
 2.458162692949325e+000	 3.027777431539140e+000	 1.034410604666860e+001
 2.426771030664461e+000	 3.052995637839891e+000	 1.030640066193548e+001
 2.395139349211001e+000	 3.077873859955400e+000	 1.024038848190936e+001
 2.363273155561783e+000	 3.102408740338530e+000	 1.014471569279128e+001
 2.331178017639059e+000	 3.126597039913347e+000	 1.003519573427551e+001
 2.298859561144043e+000	 3.150435639406766e+000	 1.014529080182130e+001
 2.266323466353488e+000	 3.173921540578978e+000	 1.024569290550039e+001
 2.233575464887017e+000	 3.197051867351772e+000	 1.033686375402704e+001
 2.200621336448978e+000	 3.219823866834076e+000	 1.041919619746876e+001
 2.167466905548621e+000	 3.242234910244120e+000	 1.049301534716189e+001
 2.134118038202355e+000	 3.264282493727888e+000	 1.055857991887359e+001
 2.473920146109110e+000	 3.047186261227222e+000	 1.029032766613284e+001
 2.442327255219966e+000	 3.072566122697290e+000	 1.024751303871870e+001
 2.410492806577833e+000	 3.097603820596236e+000	 1.017318018575367e+001
 2.378422342456659e+000	 3.122295975854181e+000	 1.006596427127833e+001
 2.346121466470502e+000	 3.146639328631884e+000	 1.015344184966120e+001
 2.313595840382767e+000	 3.170630739660921e+000	 1.025644454647776e+001
 2.280851180882236e+000	 3.194267191481997e+000	 1.034838196380434e+001
 2.247893256329681e+000	 3.217545789580504e+000	 1.042973758921466e+001
 2.214727883478840e+000	 3.240463763418628e+000	 1.050092512226696e+001
 2.181360924175559e+000	 3.263018467363440e+000	 1.056228960256147e+001
 2.147798282038917e+000	 3.285207381510571e+000	 1.061410876509859e+001
 2.489677599268394e+000	 3.066595090915306e+000	 1.024618341396971e+001
 2.457883479774885e+000	 3.092136607554884e+000	 1.019846828801878e+001
 2.425846263944025e+000	 3.117333781237435e+000	 1.011602523538050e+001
 2.393571529350870e+000	 3.142183211370344e+000	 1.016725701548483e+001
 2.361064915301287e+000	 3.166681617351065e+000	 1.027662295869744e+001
 2.328332119620868e+000	 3.190825839915830e+000	 1.037303731179881e+001
 2.295378895410426e+000	 3.214612842385860e+000	 1.045707648403875e+001
 2.262211047771885e+000	 3.238039711810147e+000	 1.052924519510240e+001
 2.228834430508368e+000	 3.261103660004142e+000	 1.058997737421495e+001
 2.195254942802318e+000	 3.283802024483749e+000	 1.063963729764933e+001
 2.161478525875483e+000	 3.306132269294256e+000	 1.067852095771152e+001
 2.505435052427177e+000	 3.086003920603393e+000	 1.024597595625500e+001
 2.473439704329218e+000	 3.111707092412669e+000	 1.015982654008623e+001
 2.441199721309576e+000	 3.137063741878996e+000	 1.017993923405079e+001
 2.408720716244416e+000	 3.162070446887020e+000	 1.029938054736466e+001
 2.376008364131413e+000	 3.186723906070886e+000	 1.040392943229688e+001
 2.343068398858346e+000	 3.211020940171488e+000	 1.049425749371445e+001
 2.309906609938059e+000	 3.234958493290562e+000	 1.057096290844495e+001
 2.276528839213626e+000	 3.258533634040700e+000	 1.063457108163724e+001
 2.242940977537559e+000	 3.281743556590616e+000	 1.068553555221698e+001
 2.209148961428896e+000	 3.304585581605049e+000	 1.072423914115804e+001
 2.175158769712056e+000	 3.327057157078940e+000	 1.075099533552909e+001
 2.521192505585459e+000	 3.105412750291483e+000	 1.031256875682508e+001
 2.488995928882964e+000	 3.131277577270647e+000	 1.018490842450363e+001
 2.456553178674486e+000	 3.156793702520920e+000	 1.031808895115471e+001
 2.423869903137296e+000	 3.181957682404208e+000	 1.043437925345010e+001
 2.390951812960879e+000	 3.206766194791349e+000	 1.053454837946524e+001
 2.357804678095202e+000	 3.231216040427900e+000	 1.061929038951388e+001
 2.324434324465136e+000	 3.255304144196106e+000	 1.068922475609866e+001
 2.290846630654908e+000	 3.279027556272165e+000	 1.074489702317040e+001
 2.257047524566415e+000	 3.302383453178051e+000	 1.078677971912538e+001
 2.223042980055296e+000	 3.325369138727340e+000	 1.081527351715756e+001
 2.188839013548634e+000	 3.347982044864625e+000	 1.083070863580553e+001
 2.052036575183095e+000	 3.138733167052782e+000	 1.045765969191875e+001
 2.019789075589026e+000	 3.159580999116348e+000	 1.038624518508119e+001
 1.987366005659461e+000	 3.180074898394475e+000	 1.029991131431293e+001
 1.954773106383974e+000	 3.200212821425363e+000	 1.019897432131848e+001
 1.922016145879749e+000	 3.219992847017980e+000	 1.008370996763493e+001
 1.889100916188958e+000	 3.239413176539813e+000	 9.954355222528660e+000
 1.856033230080493e+000	 3.258472134105683e+000	 9.950372462656707e+000
 1.822818917859586e+000	 3.277168166668327e+000	 1.005729621120914e+001
 1.789463824188732e+000	 3.295499844011497e+000	 1.017252637035163e+001
 1.755973804923334e+000	 3.313465858646516e+000	 1.029093460162980e+001
 1.722354723965393e+000	 3.331065025613313e+000	 1.040755346091601e+001
 2.065716819019625e+000	 3.159658054829465e+000	 1.044277064749021e+001
 2.033254336094089e+000	 3.180644872440123e+000	 1.035829951025214e+001
 2.000615112364274e+000	 3.201275397713506e+000	 1.026187228969835e+001
 1.967804927093015e+000	 3.221547573564735e+000	 1.015376421270658e+001
 1.934829586851615e+000	 3.241459465994842e+000	 1.003420578353222e+001
 1.901694922295856e+000	 3.261009264380423e+000	 9.903384589539428e+000
 1.868406784946424e+000	 3.280195281663736e+000	 9.811201539685404e+000
 1.834971043977252e+000	 3.299015954443867e+000	 9.924649456073356e+000
 1.801393583015250e+000	 3.317469842969796e+000	 1.004773930699731e+001
 1.767680296954860e+000	 3.335555631036249e+000	 1.017515593526413e+001
 1.733837088790757e+000	 3.353272125783427e+000	 1.030174699697443e+001
 2.079397062856160e+000	 3.180582942607150e+000	 1.044164379552708e+001
 2.046719596599342e+000	 3.201708745764888e+000	 1.034406564170113e+001
 2.013864219069431e+000	 3.222475897033497e+000	 1.023749355410395e+001
 1.980836747802526e+000	 3.242882325705017e+000	 1.012216145768428e+001
 1.947643027824043e+000	 3.262926084972540e+000	 9.998254283390134e+000
 1.914288928403381e+000	 3.282605352221780e+000	 9.865909892816006e+000
 1.880780339813015e+000	 3.301918429222424e+000	 9.725221153862115e+000
 1.847123170095581e+000	 3.320863742219913e+000	 9.800958318216686e+000
 1.813323341842406e+000	 3.339439841928448e+000	 9.932373027686914e+000
 1.779386788986965e+000	 3.357645403426165e+000	 1.006921004602257e+001
 1.745319453616616e+000	 3.375479225953533e+000	 1.020612984283181e+001
 2.093077306692701e+000	 3.201507830385834e+000	 1.045347210467058e+001
 2.060184857104785e+000	 3.222772619090644e+000	 1.034275146747662e+001
 2.027113325774932e+000	 3.243676396354447e+000	 1.022599902023651e+001
 1.993868568512505e+000	 3.264217077846207e+000	 1.010340708544889e+001
 1.960456468797033e+000	 3.284392703951076e+000	 9.975114690485224e+000
 1.926882934511530e+000	 3.304201440063883e+000	 9.841209612256083e+000
 1.893153894680265e+000	 3.323641576781748e+000	 9.701730579589787e+000
 1.859275296214573e+000	 3.342711529996461e+000	 9.685859156027780e+000
 1.825253100670199e+000	 3.361409840887453e+000	 9.826096896851249e+000
 1.791093281019653e+000	 3.379735175816265e+000	 9.972799729095105e+000
 1.756801818442972e+000	 3.397686326123631e+000	 1.012043861627311e+001
 2.106757550529247e+000	 3.222432718165518e+000	 1.047744599311191e+001
 2.073650117610419e+000	 3.243836492417388e+000	 1.035356213340629e+001
 2.040362432480778e+000	 3.264876895676356e+000	 1.022660965044453e+001
 2.006900389222952e+000	 3.285551829988305e+000	 1.009673895048971e+001
 1.973269909770587e+000	 3.305859322930448e+000	 9.964042812986909e+000
 1.939476940620306e+000	 3.325797527906732e+000	 9.828558556374734e+000
 1.905527449548175e+000	 3.345364724341706e+000	 9.690270368369029e+000
 1.871427422334229e+000	 3.364559317773515e+000	 9.578984097067849e+000
 1.837182859498629e+000	 3.383379839846811e+000	 9.728575745313274e+000
 1.802799773052922e+000	 3.401824948206546e+000	 9.885622928185413e+000
 1.768284183269824e+000	 3.419893426293720e+000	 1.004440475083538e+001
 2.120437794365798e+000	 3.243357605946203e+000	 1.051275341086476e+001
 2.087115378116242e+000	 3.264900365745122e+000	 1.037570013155567e+001
 2.053611539186969e+000	 3.286077394999225e+000	 1.023854355189121e+001
 2.019932209933868e+000	 3.306886582131313e+000	 1.010139183499775e+001
 1.986083350744702e+000	 3.327325941910658e+000	 9.964291154122281e+000
 1.952070946729708e+000	 3.347393615750326e+000	 9.827227980736241e+000
 1.917901004416745e+000	 3.367087871902299e+000	 9.690131543933488e+000
 1.883579548454547e+000	 3.386407105551071e+000	 9.552876450611011e+000
 1.849112618327696e+000	 3.405349838806521e+000	 9.639470016533632e+000
 1.814506265086771e+000	 3.423914720597009e+000	 9.807372892010418e+000
 1.779766548097172e+000	 3.442100526463804e+000	 9.977754663041432e+000
 2.134118038202355e+000	 3.264282493727888e+000	 1.055857991887359e+001
 2.100580638622255e+000	 3.285964239073846e+000	 1.040836538528467e+001
 2.066860645893503e+000	 3.307277894323052e+000	 1.026101606806671e+001
 2.032964030645252e+000	 3.328221334275228e+000	 1.011659754733701e+001
 1.998896791719379e+000	 3.348792560891706e+000	 9.975109018103661e+000
 1.964664952839736e+000	 3.368989703594667e+000	 9.836485701830654e+000
 1.930274559285973e+000	 3.388811019463527e+000	 9.700601436181321e+000
 1.895731674575530e+000	 3.408254893329132e+000	 9.567271432048427e+000
 1.861042377157401e+000	 3.427319837766585e+000	 9.558435907231226e+000
 1.826212757121203e+000	 3.446004492987655e+000	 9.737738324780613e+000
 1.791248912925016e+000	 3.464307626633877e+000	 9.920209913201562e+000
 2.147798282038917e+000	 3.285207381510571e+000	 1.061410876509859e+001
 2.114045899128458e+000	 3.307028112403561e+000	 1.045075533105345e+001
 2.080109752600382e+000	 3.328478393647839e+000	 1.029323986680321e+001
 2.045995851357105e+000	 3.349556086420052e+000	 1.014158501675223e+001
 2.011710232694617e+000	 3.370259179873590e+000	 9.995742612008142e+000
 1.977258958950390e+000	 3.390585791439755e+000	 9.855596206598429e+000
 1.942648114155862e+000	 3.410534167025391e+000	 9.720963798813365e+000
 1.907883800697175e+000	 3.430102681107696e+000	 9.591600726398644e+000
 1.872972135987741e+000	 3.449289836727000e+000	 9.485125502629765e+000
 1.837919249156216e+000	 3.468094265378483e+000	 9.676403530929532e+000
 1.802731277753356e+000	 3.486514726803944e+000	 9.871487360070091e+000
 2.161478525875483e+000	 3.306132269294256e+000	 1.067852095771152e+001
 2.127511159634852e+000	 3.328091985734265e+000	 1.050206499712176e+001
 2.093358859307605e+000	 3.349678892973584e+000	 1.033442502494759e+001
 2.059027672069427e+000	 3.370890838565784e+000	 1.017558038448029e+001
 2.024523673670420e+000	 3.391725798856314e+000	 1.002543514378813e+001
 1.989852965061669e+000	 3.412181879285588e+000	 9.883820757795940e+000
 1.955021669026410e+000	 3.432257314587889e+000	 9.750498922503784e+000
 1.920035926819483e+000	 3.451950468886766e+000	 9.625164609678453e+000
 1.884901894818720e+000	 3.471259835687771e+000	 9.507449269923939e+000
 1.849625741191810e+000	 3.490184037769494e+000	 9.623048554347260e+000
 1.814213642582192e+000	 3.508721826974003e+000	 9.831299309628665e+000
 2.175158769712056e+000	 3.327057157078940e+000	 1.075099533552909e+001
 2.140976420141436e+000	 3.349155859065959e+000	 1.056148707927853e+001
 2.106607966015173e+000	 3.370879392300290e+000	 1.038377910983908e+001
 2.072059492782216e+000	 3.392225590712424e+000	 1.021780709142347e+001
 2.037337114646784e+000	 3.413192417839873e+000	 1.006342691658339e+001
 2.002446971173575e+000	 3.433777967132169e+000	 9.920417495384896e+000
 1.967395223897617e+000	 3.453980462151023e+000	 9.788483743800439e+000
 1.932188052942455e+000	 3.473798256666338e+000	 9.667259759258711e+000
 1.896831653650335e+000	 3.493229834648894e+000	 9.556312170852385e+000
 1.861332233227986e+000	 3.512273810160688e+000	 9.577349312359772e+000
 1.825696007411525e+000	 3.530928927144053e+000	 9.799353658255349e+000
 2.188839013548634e+000	 3.347982044864625e+000	 1.083070863580553e+001
 2.154441680648210e+000	 3.370219732398643e+000	 1.062821201373163e+001
 2.119857072723086e+000	 3.392079891627955e+000	 1.044050725773129e+001
 2.085091313495476e+000	 3.413560342859975e+000	 1.026748596253479e+001
 2.050150555623710e+000	 3.434659036824271e+000	 1.010895541949659e+001
 2.015040977286107e+000	 3.455374054979496e+000	 9.964641534119711e+000
 1.979768778769484e+000	 3.475703609714792e+000	 9.834191949941165e+000
 1.944340179066091e+000	 3.495646044446416e+000	 9.717179366322181e+000
 1.908761412482589e+000	 3.515199833610370e+000	 9.613105037232986e+000
 1.873038725264743e+000	 3.534363582552064e+000	 9.538977724683996e+000
 1.837178372241353e+000	 3.553136027314097e+000	 9.775354030524564e+000
 1.722354723965393e+000	 3.331065025613313e+000	 1.040755346091601e+001
 1.688612450138004e+000	 3.348296282186655e+000	 1.020968337770473e+001
 1.654752854085250e+000	 3.365158687490438e+000	 1.006039198740762e+001
 1.620781805199965e+000	 3.381651422020274e+000	 9.954653521000447e+000
 1.586705168581186e+000	 3.397773787074999e+000	 9.887588213242941e+000
 1.552528802025695e+000	 3.413525204100325e+000	 9.854470834732428e+000
 1.518258553056114e+000	 3.428905213945839e+000	 9.850738737084447e+000
 1.483900255988309e+000	 3.443913476037222e+000	 9.871999399280060e+000
 1.449459729040826e+000	 3.458549767465619e+000	 9.914037464873896e+000
 1.414942771488918e+000	 3.472813981996223e+000	 9.972821261413857e+000
 1.380355160865667e+000	 3.486706128998200e+000	 1.004450879507362e+001
 1.733837088790757e+000	 3.353272125783427e+000	 1.030174699697443e+001
 1.699869866471438e+000	 3.370618257401203e+000	 1.010786430121113e+001
 1.665784539778524e+000	 3.387593078740911e+000	 9.960175938183449e+000
 1.631587017234134e+000	 3.404195764834802e+000	 9.853588744152487e+000
 1.597283203037966e+000	 3.420425612323706e+000	 9.783160008552148e+000
 1.562878994038781e+000	 3.436282038796303e+000	 9.744106131249481e+000
 1.528380276742685e+000	 3.451764582041180e+000	 9.731810782101888e+000
 1.493792924360984e+000	 3.466872899213522e+000	 9.741832550695735e+000
 1.459122793900349e+000	 3.481606765918415e+000	 9.769912075839466e+000
 1.424375723297866e+000	 3.495966075212821e+000	 9.811978646073646e+000
 1.389557528603505e+000	 3.509950836528365e+000	 9.864156264145102e+000
 1.745319453616616e+000	 3.375479225953533e+000	 1.020612984283181e+001
 1.711127282805278e+000	 3.392940232615552e+000	 1.001856580338717e+001
 1.676816225472134e+000	 3.410027469991017e+000	 9.874788469012687e+000
 1.642392229268591e+000	 3.426740107648816e+000	 9.769634099243540e+000
 1.607861237495004e+000	 3.443077437571767e+000	 9.698093928070891e+000
 1.573229186052117e+000	 3.459038873491527e+000	 9.655322950131668e+000
 1.538502000429518e+000	 3.474623950135679e+000	 9.636648198178383e+000
 1.503685592733952e+000	 3.489832322388909e+000	 9.637576499553006e+000
 1.468785858760215e+000	 3.504663764370250e+000	 9.653801701113098e+000
 1.433808675107228e+000	 3.519118168428427e+000	 9.681211353781508e+000
 1.398759896341848e+000	 3.533195544057530e+000	 9.715892849608389e+000
 1.756801818442972e+000	 3.397686326123631e+000	 1.012043861627311e+001
 1.722384699139524e+000	 3.415262207829704e+000	 9.941518832603732e+000
 1.687847911166081e+000	 3.432461861240755e+000	 9.803954469066298e+000
 1.653197441303335e+000	 3.449284450462311e+000	 9.702508016380495e+000
 1.618439271952302e+000	 3.465729262819183e+000	 9.632101533429696e+000
 1.583579378065704e+000	 3.481795708185997e+000	 9.587825566118005e+000
 1.548623724116613e+000	 3.497483318229334e+000	 9.564947546301514e+000
 1.513578261107214e+000	 3.512791745563387e+000	 9.558919658353974e+000
 1.478448923620425e+000	 3.527720762821125e+000	 9.565386162685325e+000
 1.443241626917004e+000	 3.542270261643044e+000	 9.580190167289281e+000
 1.407962264080697e+000	 3.556440251585694e+000	 9.599379840148732e+000
 1.768284183269824e+000	 3.419893426293720e+000	 1.004440475083538e+001
 1.733642115474177e+000	 3.437584183043659e+000	 9.876449840655821e+000
 1.698879596860366e+000	 3.454896252490127e+000	 9.747395022788874e+000
 1.664002653338367e+000	 3.471828793275291e+000	 9.651925816631309e+000
 1.629017306409860e+000	 3.488381088065955e+000	 9.584891976406535e+000
 1.593929570079541e+000	 3.504552542879713e+000	 9.541316546441449e+000
 1.558745447803969e+000	 3.520342686322146e+000	 9.516404385121907e+000
 1.523470929480769e+000	 3.535751168736951e+000	 9.505550144919173e+000
 1.488111988480980e+000	 3.550777761271038e+000	 9.504345697671015e+000
 1.452674578727196e+000	 3.565422354856671e+000	 9.508586996096279e+000
 1.417164631820050e+000	 3.579684959112860e+000	 9.514280364307613e+000
 1.779766548097172e+000	 3.442100526463804e+000	 9.977754663041432e+000
 1.744899531809236e+000	 3.459906158257415e+000	 9.823080927813468e+000
 1.709911282554987e+000	 3.477330643739131e+000	 9.704827532631734e+000
 1.674807865373688e+000	 3.494373136087754e+000	 9.617599812316458e+000
 1.639595340867676e+000	 3.511032913312080e+000	 9.556172076663810e+000
 1.604279762093629e+000	 3.527309377572675e+000	 9.515496805909702e+000
 1.568867171491588e+000	 3.543202054414117e+000	 9.490713303286960e+000
 1.533363597854616e+000	 3.558710591909605e+000	 9.477155791893440e+000
 1.497775053341879e+000	 3.573834759719990e+000	 9.470360944918381e+000
 1.462107530537803e+000	 3.588574448069307e+000	 9.466074840102740e+000
 1.426366999559909e+000	 3.602929666639025e+000	 9.460259331132489e+000
 1.791248912925016e+000	 3.464307626633877e+000	 9.920209913201562e+000
 1.756156948144701e+000	 3.482228133470974e+000	 9.781129982293628e+000
 1.720942968249945e+000	 3.499765034987769e+000	 9.675965837065542e+000
 1.685613077409296e+000	 3.516917478899702e+000	 9.599239403443320e+000
 1.650173375325751e+000	 3.533684738557561e+000	 9.545646396495679e+000
 1.614629954107967e+000	 3.550066212264884e+000	 9.510065659867649e+000
 1.578988895179468e+000	 3.566061422505243e+000	 9.487567950530378e+000
 1.543256266228757e+000	 3.581670015081346e+000	 9.473424155885995e+000
 1.507438118203121e+000	 3.596891758167981e+000	 9.463112932132772e+000
 1.471540482348825e+000	 3.611726541280953e+000	 9.452327754660953e+000
 1.435569367300273e+000	 3.626174374164190e+000	 9.436983373109374e+000
 1.802731277753356e+000	 3.486514726803944e+000	 9.871487360070091e+000
 1.767414364480573e+000	 3.504550108684335e+000	 9.750310814402015e+000
 1.731974653945240e+000	 3.522199426236039e+000	 9.660520324082750e+000
 1.696418289445192e+000	 3.539461821711133e+000	 9.596551170454895e+000
 1.660751409784086e+000	 3.556336563802396e+000	 9.553017312718877e+000
 1.624980146122556e+000	 3.572823046956338e+000	 9.524720875135577e+000
 1.589110618867610e+000	 3.588920790595527e+000	 9.506661067574147e+000
 1.553148934603191e+000	 3.604629438252175e+000	 9.494042526261646e+000
 1.517101183064709e+000	 3.619948756615013e+000	 9.482283063492789e+000
 1.480973434160261e+000	 3.634878634491608e+000	 9.467020816962213e+000
 1.444771735041142e+000	 3.649419081688354e+000	 9.444120791276188e+000
 1.814213642582192e+000	 3.508721826974003e+000	 9.831299309628665e+000
 1.778671780816851e+000	 3.526872083897497e+000	 9.730333285580889e+000
 1.743006339640873e+000	 3.544633817483943e+000	 9.658198040390190e+000
 1.707223501481376e+000	 3.562006164522049e+000	 9.609238963456503e+000
 1.671329444242679e+000	 3.578988389046587e+000	 9.577985085833273e+000
 1.635330338137395e+000	 3.595579881647038e+000	 9.559158719013109e+000
 1.599232342556014e+000	 3.611780158684969e+000	 9.547684514894604e+000
 1.563041602977918e+000	 3.627588861422093e+000	 9.538697933597646e+000
 1.526764247926640e+000	 3.643005755061083e+000	 9.527553107736518e+000
 1.490406385972113e+000	 3.658030727701274e+000	 9.509830093700083e+000
 1.453974102782516e+000	 3.672663789211519e+000	 9.481341502420451e+000
 1.825696007411525e+000	 3.530928927144053e+000	 9.799353658255349e+000
 1.789929197153535e+000	 3.549194059110465e+000	 9.720903432587233e+000
 1.754038025336842e+000	 3.567068208731479e+000	 9.668702796480675e+000
 1.718028713517848e+000	 3.584550507332446e+000	 9.637003988075536e+000
 1.681907478701533e+000	 3.601640214290131e+000	 9.620247926572727e+000
 1.645680530152485e+000	 3.618336716336984e+000	 9.613074006434086e+000
 1.609354066244680e+000	 3.634639526773566e+000	 9.610329300403118e+000
 1.572934271352938e+000	 3.650548284591098e+000	 9.607077157821749e+000
 1.536427312788915e+000	 3.666062753506191e+000	 9.598605186697412e+000
 1.499839337784379e+000	 3.681182820909949e+000	 9.580432609953913e+000
 1.463176470524395e+000	 3.695908496733685e+000	 9.548316988269651e+000
 1.837178372241353e+000	 3.553136027314097e+000	 9.775354030524564e+000
 1.801186613490626e+000	 3.571516034323234e+000	 9.721723587014051e+000
 1.765069711033149e+000	 3.589502599978649e+000	 9.691735267764875e+000
 1.728833925554609e+000	 3.607094850142330e+000	 9.679544888101352e+000
 1.692485513160645e+000	 3.624292039533032e+000	 9.679502059960401e+000
 1.656030722167825e+000	 3.641093551026176e+000	 9.686160145352822e+000
 1.619475789933608e+000	 3.657498894861322e+000	 9.694285606088799e+000
 1.582826939728251e+000	 3.673507707759193e+000	 9.698866736045138e+000
 1.546090377651535e+000	 3.689119751950340e+000	 9.695121764270077e+000
 1.509272289597061e+000	 3.704334914117635e+000	 9.678506319239494e+000
 1.472378838266780e+000	 3.719153204254850e+000	 9.644720246586763e+000
 1.380355160865667e+000	 3.486706128998200e+000	 1.004450879507362e+001
 1.345702650213483e+000	 3.500226332298184e+000	 9.724441308714038e+000
 1.310990965385763e+000	 3.513374828959480e+000	 9.371026891396271e+000
 1.276225802402122e+000	 3.526151967989605e+000	 8.983776078107891e+000
 1.241412824861387e+000	 3.538558208978485e+000	 8.756057605019345e+000
 1.206557661411702e+000	 3.550594120669679e+000	 9.066783116840977e+000
 1.171665903280343e+000	 3.562260379467234e+000	 9.315609273223666e+000
 1.136743101864963e+000	 3.573557767880752e+000	 9.506865417574989e+000
 1.101794766387844e+000	 3.584487172911276e+000	 9.645188958939077e+000
 1.066826361614634e+000	 3.595049584380677e+000	 9.735494354073055e+000
 1.031843305638912e+000	 3.605246093207198e+000	 9.782942170134382e+000
 1.389557528603505e+000	 3.509950836528365e+000	 9.864156264145102e+000
 1.354674001213380e+000	 3.523561174517189e+000	 9.577670920612819e+000
 1.319730905153325e+000	 3.536797327823012e+000	 9.257261717164017e+000
 1.284733974416421e+000	 3.549659647780073e+000	 8.902405656391501e+000
 1.249688910358819e+000	 3.562148597042228e+000	 8.519568998629707e+000
 1.214601379152983e+000	 3.574264748144659e+000	 8.842587418070593e+000
 1.179477009301037e+000	 3.586008782000778e+000	 9.100672862854784e+000
 1.144321389209951e+000	 3.597381486336912e+000	 9.298530026000739e+000
 1.109140064830154e+000	 3.608383754067449e+000	 9.441176915795360e+000
 1.073938537359065e+000	 3.619016581613070e+000	 9.533912925752439e+000
 1.038722261010886e+000	 3.629281067164810e+000	 9.582286993156357e+000
 1.398759896341848e+000	 3.533195544057530e+000	 9.715892849608389e+000
 1.363645352213865e+000	 3.546896016735199e+000	 9.464809873095186e+000
 1.328470844921530e+000	 3.560219826685568e+000	 9.179143683353699e+000
 1.293242146431386e+000	 3.573167327569589e+000	 8.858335707092653e+000
 1.257964995856910e+000	 3.585738985105053e+000	 8.502040955775332e+000
 1.222645096894885e+000	 3.597935375618769e+000	 8.665708118682783e+000
 1.187288115322285e+000	 3.609757184533503e+000	 8.927063357013219e+000
 1.151899676555395e+000	 3.621205204792321e+000	 9.125338785454392e+000
 1.116485363272794e+000	 3.632280335222947e+000	 9.265942424639723e+000
 1.081050713103669e+000	 3.642983578844874e+000	 9.354568143603890e+000
 1.045601216382847e+000	 3.653316041121927e+000	 9.397162897190123e+000
 1.407962264080697e+000	 3.556440251585694e+000	 9.599379840148732e+000
 1.372616703214941e+000	 3.570230858952214e+000	 9.385512334583758e+000
 1.337210784690379e+000	 3.583642325547142e+000	 9.136319980343686e+000
 1.301750318447018e+000	 3.596675007358150e+000	 8.851206575103756e+000
 1.266241081355660e+000	 3.609329373166960e+000	 8.529793098521434e+000
 1.230688814637409e+000	 3.621606003092004e+000	 8.540818669994286e+000
 1.195099221344087e+000	 3.633505587065414e+000	 8.799308891905483e+000
 1.159477963901296e+000	 3.645028923246980e+000	 8.991673072784334e+000
 1.123830661715763e+000	 3.656176916377770e+000	 9.123718768543014e+000
 1.088162888848447e+000	 3.666950576076089e+000	 9.201543972709144e+000
 1.052480171754797e+000	 3.677351015078551e+000	 9.231503415558372e+000
 1.417164631820050e+000	 3.579684959112860e+000	 9.514280364307613e+000
 1.381588054216606e+000	 3.593565701168235e+000	 9.339434954008421e+000
 1.345950724459871e+000	 3.607064824407739e+000	 9.128440904722455e+000
 1.310258490463316e+000	 3.620182687145758e+000	 8.880662322098104e+000
 1.274517166855068e+000	 3.632919761227949e+000	 8.595684207770193e+000
 1.238732532380554e+000	 3.645276630564370e+000	 8.472597415165575e+000
 1.202910327366442e+000	 3.657253989596509e+000	 8.721943059761097e+000
 1.167056251247653e+000	 3.668852641700889e+000	 8.901920269282241e+000
 1.131175960159061e+000	 3.680073497531919e+000	 9.018745767551728e+000
 1.095275064593397e+000	 3.690917573306715e+000	 9.078931431651965e+000
 1.059359127126733e+000	 3.701385989034681e+000	 9.089249635498998e+000
 1.426366999559909e+000	 3.602929666639025e+000	 9.460259331132489e+000
 1.390559405218861e+000	 3.616900543383259e+000	 9.326236780789927e+000
 1.354690664230007e+000	 3.630487323267354e+000	 9.155159759088319e+000
 1.318766662480280e+000	 3.643690366932412e+000	 8.946350606633494e+000
 1.282793252355136e+000	 3.656510149288021e+000	 8.699356391131243e+000
 1.246776250124321e+000	 3.668947258035863e+000	 8.465727431399730e+000
 1.210721433389352e+000	 3.681002392126787e+000	 8.699504732831755e+000
 1.174634538594466e+000	 3.692676360154047e+000	 8.860473566991377e+000
 1.138521258602689e+000	 3.703970078685392e+000	 8.955269567818098e+000
 1.102387240338520e+000	 3.714884570536752e+000	 8.990828364986038e+000
 1.066238082498657e+000	 3.725420962990318e+000	 8.974349954490158e+000
 1.435569367300273e+000	 3.626174374164190e+000	 9.436983373109374e+000
 1.399530756221705e+000	 3.640235385597289e+000	 9.345579187901121e+000
 1.363430604000785e+000	 3.653909822125991e+000	 9.216132755702883e+000
 1.327274834497912e+000	 3.667198046718112e+000	 9.047922568867579e+000
 1.291069337855864e+000	 3.680100537347176e+000	 8.840455795413735e+000
 1.254819967868709e+000	 3.692617885506485e+000	 8.593469197300612e+000
 1.218532539412814e+000	 3.704750794656250e+000	 8.736537894159859e+000
 1.182212825941736e+000	 3.716500078606457e+000	 8.871731782464403e+000
 1.145866557046645e+000	 3.727866659838191e+000	 8.937542438839895e+000
 1.109499416083816e+000	 3.738851567766201e+000	 8.941339224453605e+000
 1.073117037870568e+000	 3.749455936945461e+000	 8.890759845948040e+000
 1.444771735041142e+000	 3.649419081688354e+000	 9.444120791276188e+000
 1.408502107225139e+000	 3.663570227810325e+000	 9.397125797868480e+000
 1.372170543772207e+000	 3.677332320983648e+000	 9.311018923826731e+000
 1.335783006516209e+000	 3.690705726502859e+000	 9.185032719678921e+000
 1.299345423357249e+000	 3.703690925405411e+000	 9.018632477989259e+000
 1.262863685613718e+000	 3.716288512976234e+000	 8.811517211853506e+000
 1.226343645436831e+000	 3.728499197184896e+000	 8.837591474814529e+000
 1.189791113289461e+000	 3.740323797058115e+000	 8.940099177639128e+000
 1.153211855490932e+000	 3.751763240990317e+000	 8.964175284743028e+000
 1.116611591829285e+000	 3.762818564995060e+000	 8.913737320650490e+000
 1.079995993242467e+000	 3.773490910900110e+000	 8.841194222504484e+000
 1.453974102782516e+000	 3.672663789211519e+000	 9.481341502420451e+000
 1.417473458229163e+000	 3.686905070022366e+000	 9.480542411583565e+000
 1.380910483544273e+000	 3.700754819840327e+000	 9.439480020573688e+000
 1.344291178535173e+000	 3.714213406286652e+000	 9.357338833998391e+000
 1.307621508859294e+000	 3.727281313462730e+000	 9.233540283039812e+000
 1.270907403359350e+000	 3.739959140445111e+000	 9.067743765503492e+000
 1.234154751461401e+000	 3.752247599712727e+000	 8.991544877832309e+000
 1.197369400637643e+000	 3.764147515509024e+000	 8.996990492519357e+000
 1.160557153935547e+000	 3.775659822141768e+000	 8.971038554163892e+000
 1.123723767574927e+000	 3.786785562223331e+000	 8.920065661768708e+000
 1.086874948614353e+000	 3.797525884854265e+000	 8.850183406201419e+000
 1.463176470524395e+000	 3.695908496733685e+000	 9.548316988269651e+000
 1.426444809233777e+000	 3.710239912233413e+000	 9.595496939801116e+000
 1.389650423316982e+000	 3.724177318696026e+000	 9.601180445129486e+000
 1.352799350554802e+000	 3.737721086069490e+000	 9.564501848166387e+000
 1.315897594361999e+000	 3.750871701519130e+000	 9.475079746570238e+000
 1.278951121105602e+000	 3.763629767913117e+000	 9.231446727031376e+000
 1.241965857486526e+000	 3.775996002239742e+000	 9.049016131942416e+000
 1.204947687986282e+000	 3.787971233959182e+000	 9.051236377470111e+000
 1.167902452380492e+000	 3.799556403292546e+000	 9.025530543915691e+000
 1.130835943320742e+000	 3.810752559451013e+000	 8.978165459563973e+000
 1.093753903986227e+000	 3.821560858807927e+000	 8.915136104924200e+000
 1.472378838266780e+000	 3.719153204254850e+000	 9.644720246586763e+000
 1.435416160238980e+000	 3.733574754443465e+000	 9.741659337205759e+000
 1.398390363090334e+000	 3.747599817550745e+000	 9.795787156186867e+000
 1.361307522575100e+000	 3.761228765851377e+000	 9.655388731136013e+000
 1.324173679865362e+000	 3.774462089574614e+000	 9.479136707273160e+000
 1.286994838852476e+000	 3.787300395380251e+000	 9.306577975132081e+000
 1.249776963512204e+000	 3.799744404765942e+000	 9.142861639517028e+000
 1.212525975335377e+000	 3.811794952408591e+000	 9.145943954660790e+000
 1.175247750825766e+000	 3.823452984442648e+000	 9.124634252867352e+000
 1.137948119066730e+000	 3.834719556678107e+000	 9.085083792565746e+000
 1.100632859358089e+000	 3.845595832761096e+000	 9.033165100439579e+000
 1.031843305638912e+000	 3.605246093207198e+000	 9.782942170134382e+000
 9.968509677335214e-001	 3.615077889630200e+000	 9.812175402781440e+000
 9.618546662704745e-001	 3.624546261385974e+000	 9.740204024536606e+000
 9.268596667103954e-001	 3.633652591837827e+000	 9.576291763979139e+000
 8.918711796614026e-001	 3.642398358063882e+000	 9.329831579260846e+000
 8.568943590090278e-001	 3.650785128904495e+000	 9.010312743628312e+000
 8.219343001176305e-001	 3.658814562972306e+000	 8.627288542978077e+000
 7.869960381038458e-001	 3.666488406627660e+000	 8.190344654374837e+000
 7.520845461825019e-001	 3.673808491922170e+000	 7.709068270438023e+000
 7.172047340853268e-001	 3.680776734513124e+000	 7.193018030390555e+000
 6.823614465526605e-001	 3.687395131551449e+000	 6.651694814380633e+000
 1.038722261010886e+000	 3.629281067164810e+000	 9.582286993156357e+000
 1.003496640853508e+000	 3.639178408896960e+000	 9.676942796706287e+000
 9.682670307146524e-001	 3.648709903130721e+000	 9.667092977905801e+000
 9.330387311580157e-001	 3.657876942451824e+000	 9.562103932744932e+000
 8.978169875291040e-001	 3.666681013785579e+000	 9.371478294748830e+000
 8.626069880726872e-001	 3.675123696431279e+000	 9.104821339039861e+000
 8.274138621222209e-001	 3.683206660058982e+000	 8.771808005494178e+000
 7.922426783617852e-001	 3.690931662671434e+000	 8.382150611478489e+000
 7.570984431609750e-001	 3.698300548533929e+000	 7.945567320552270e+000
 7.219860989830635e-001	 3.705315246074803e+000	 7.471751429331685e+000
 6.869105228666611e-001	 3.711977765759321e+000	 6.970341530448045e+000
 1.045601216382847e+000	 3.653316041121927e+000	 9.397162897190123e+000
 1.010142313973292e+000	 3.663278928163324e+000	 9.542790577621354e+000
 9.746793951584590e-001	 3.672873544875174e+000	 9.580516389490475e+000
 9.392177956051158e-001	 3.682101293065625e+000	 9.519822119004493e+000
 9.037627953961572e-001	 3.690963669507182e+000	 9.370332774983005e+000
 8.683196171355901e-001	 3.699462263958070e+000	 9.141782294189824e+000
 8.328934241259666e-001	 3.707598757145765e+000	 8.843979873209857e+000
 7.974893186188121e-001	 3.715374918715417e+000	 8.486776998941759e+000
 7.621123401384867e-001	 3.722792605145996e+000	 8.080035245594450e+000
 7.267674638798101e-001	 3.729853757636888e+000	 7.633594901808355e+000
 6.914595991796617e-001	 3.736560399967698e+000	 7.157244487179846e+000
 1.052480171754797e+000	 3.677351015078551e+000	 9.231503415558372e+000
 1.016787987092874e+000	 3.687379447429296e+000	 9.413649671475314e+000
 9.810917596018945e-001	 3.697037186619333e+000	 9.484400707248351e+000
 9.453968600516964e-001	 3.706325643679236e+000	 9.453366476521275e+000
 9.097086032625622e-001	 3.715246325228692e+000	 9.330307118699482e+000
 8.740322461977368e-001	 3.723800831484868e+000	 9.125097948170367e+000
 8.383729861288681e-001	 3.731990854232655e+000	 8.847695077915580e+000
 8.027359588749260e-001	 3.739818174759606e+000	 8.508101751190718e+000
 7.671262371150371e-001	 3.747284661758370e+000	 8.116335450690961e+000
 7.315488287755665e-001	 3.754392269199381e+000	 7.683164243598337e+000
 6.960086754916622e-001	 3.761143034176585e+000	 7.217029982596525e+000
 1.059359127126733e+000	 3.701385989034681e+000	 9.089249635498998e+000
 1.023433660212254e+000	 3.711479966694873e+000	 9.293455176683249e+000
 9.875041240449586e-001	 3.721200828363198e+000	 9.382673179257454e+000
 9.515759244977566e-001	 3.730549994292651e+000	 9.366654597313181e+000
 9.156544111283191e-001	 3.739528980950110e+000	 9.255307512855131e+000
 8.797448752591270e-001	 3.748139399011673e+000	 9.058661391424417e+000
 8.438525481309249e-001	 3.756382951319653e+000	 8.800734513612396e+000
 8.079825991301270e-001	 3.764261430804003e+000	 8.487437037736065e+000
 7.721401340906262e-001	 3.771776718371052e+000	 8.123277651541779e+000
 7.363301936703323e-001	 3.778930780762281e+000	 7.715719727888646e+000
 7.005577518026629e-001	 3.785725668385978e+000	 7.272120677982618e+000
 1.066238082498657e+000	 3.725420962990318e+000	 8.974349954490158e+000
 1.030079333331432e+000	 3.735580485960057e+000	 9.186146229530339e+000
 9.939164884876516e-001	 3.745364470106771e+000	 9.279261827905700e+000
 9.577549889432974e-001	 3.754774344905874e+000	 9.272450064007483e+000
 9.216002189934277e-001	 3.763811636671432e+000	 9.187491043856040e+000
 8.854575043197611e-001	 3.772477966538485e+000	 9.027860676785805e+000
 8.493321101321374e-001	 3.780775048406756e+000	 8.801008984091219e+000
 8.132292393844156e-001	 3.788704686848607e+000	 8.514258397374453e+000
 7.771540310652541e-001	 3.796268774984041e+000	 8.174813042705116e+000
 7.411115585641076e-001	 3.803469292325590e+000	 7.789767860737929e+000
 7.051068281126635e-001	 3.810308302595879e+000	 7.366117532566524e+000
 1.073117037870568e+000	 3.749455936945461e+000	 8.890759845948040e+000
 1.036725006450407e+000	 3.759681005224847e+000	 9.102812369742805e+000
 1.000328852929973e+000	 3.769528111850049e+000	 9.217225922132693e+000
 9.639340533883182e-001	 3.778998695518902e+000	 9.241798775977600e+000
 9.275460268578883e-001	 3.788094292392663e+000	 9.183873032787249e+000
 8.911701333796387e-001	 3.796816534065303e+000	 9.050646996931024e+000
 8.548116721325053e-001	 3.805167145493967e+000	 8.849185320115064e+000
 8.184758796377912e-001	 3.813147942893418e+000	 8.586429029923595e+000
 7.821679280389206e-001	 3.820760831597337e+000	 8.269205407529187e+000
 7.458929234568927e-001	 3.828007803889304e+000	 7.904237681573970e+000
 7.096559044216639e-001	 3.834890936806286e+000	 7.498154507172148e+000
 1.079995993242467e+000	 3.773490910900110e+000	 8.841194222504484e+000
 1.043370679569180e+000	 3.783781524489244e+000	 9.076740875280224e+000
 1.006741217371923e+000	 3.793691753593033e+000	 9.215575316352091e+000
 9.701131178328190e-001	 3.803223046131738e+000	 9.264797009709646e+000
 9.334918347217005e-001	 3.812376948113800e+000	 9.231353412078621e+000
 8.968827624387600e-001	 3.821155101592128e+000	 9.122050852020742e+000
 8.602912341320287e-001	 3.829559242581285e+000	 8.943565312854542e+000
 8.237225198902540e-001	 3.837591198938435e+000	 8.702453081605055e+000
 7.871818250116256e-001	 3.845252888210939e+000	 8.405161228097748e+000
 7.506742883486873e-001	 3.852546315453426e+000	 8.058037880280942e+000
 7.142049807296647e-001	 3.859473571017202e+000	 7.667342263888220e+000
 1.086874948614353e+000	 3.797525884854265e+000	 8.850183406201419e+000
 1.050016352687752e+000	 3.807882043753248e+000	 9.106942235972458e+000
 1.013153581813503e+000	 3.817855395335725e+000	 9.267693993339233e+000
 9.762921822768005e-001	 3.827447396744380e+000	 9.339138233129376e+000
 9.394376425848647e-001	 3.836659603834844e+000	 9.327824455146152e+000
 9.025953914971249e-001	 3.845493669118961e+000	 9.240163646998024e+000
 8.657707961307076e-001	 3.853951339668709e+000	 9.082439713667553e+000
 8.289691601418042e-001	 3.862034454983661e+000	 8.860820754948213e+000
 7.921957219833692e-001	 3.869744944824849e+000	 8.581370153856481e+000
 7.554556532394918e-001	 3.877084827017955e+000	 8.250057441172631e+000
 7.187540570366653e-001	 3.884056205228624e+000	 7.872768903370341e+000
 1.093753903986227e+000	 3.821560858807927e+000	 8.915136104924200e+000
 1.056662025806120e+000	 3.831982563016857e+000	 9.190717284922689e+000
 1.019565946254710e+000	 3.842019037078121e+000	 9.371077734191450e+000
 9.824712467202612e-001	 3.851671747356829e+000	 9.462513735200613e+000
 9.453834504473807e-001	 3.860942259555793e+000	 9.471173406982128e+000
 9.083080205547334e-001	 3.869832236645799e+000	 9.403068920116132e+000
 8.712503581285419e-001	 3.878343436756241e+000	 9.264088581263305e+000
 8.342158003924415e-001	 3.886477711029093e+000	 9.060008747271208e+000
 7.972096189541517e-001	 3.894237001439068e+000	 8.796505530941326e+000
 7.602370181293057e-001	 3.901623338582893e+000	 8.479166262664798e+000
 7.233031333426661e-001	 3.908638839440555e+000	 8.113500674319383e+000
 1.100632859358089e+000	 3.845595832761096e+000	 9.033165100439579e+000
 1.063307698924287e+000	 3.856083082280073e+000	 9.325370293333556e+000
 1.025978310695547e+000	 3.866182678820226e+000	 9.523222979303334e+000
 9.886503111632028e-001	 3.875896097969085e+000	 9.632612694018148e+000
 9.513292583092484e-001	 3.885224915276652e+000	 9.659282641293165e+000
 9.140206496115856e-001	 3.894170804172645e+000	 9.608842588772768e+000
 8.767299201255320e-001	 3.902735533843881e+000	 9.486781615847585e+000
 8.394624406421662e-001	 3.910920967074734e+000	 9.298480672718718e+000
 8.022235159239728e-001	 3.918729058053592e+000	 9.049224911657367e+000
 7.650183830181295e-001	 3.926161850148238e+000	 8.744215753709149e+000
 7.278522096476668e-001	 3.933221473652993e+000	 8.388582656355975e+000
 6.823614465526605e-001	 3.687395131551449e+000	 6.651694814380633e+000
 6.475594618980655e-001	 3.693665759545780e+000	 8.776754952550871e+000
 6.128034906466536e-001	 3.699590772205656e+000	 1.003488818133591e+001
 5.780981742462338e-001	 3.705172398266261e+000	 9.333137770570232e+000
 5.434480838508567e-001	 3.710412939297010e+000	 8.810411775942390e+000
 5.088577191772328e-001	 3.715314767496883e+000	 8.448168025453386e+000
 4.743315074333473e-001	 3.719880323478916e+000	 8.228173078341964e+000
 4.398738023188186e-001	 3.724112114046291e+000	 8.132557481296450e+000
 4.054888830964497e-001	 3.728012709962431e+000	 8.143868260840348e+000
 3.711809537343529e-001	 3.731584743717474e+000	 8.245118606779302e+000
 3.369541421179410e-001	 3.734830907293413e+000	 8.419834711243848e+000
 6.869105228666611e-001	 3.711977765759321e+000	 6.970341530448045e+000
 6.518765249807942e-001	 3.718290197939601e+000	 8.870908688686809e+000
 6.168888472541161e-001	 3.724254710683340e+000	 1.035242406735639e+001
 5.819521620774210e-001	 3.729873547583953e+000	 9.659820546247904e+000
 5.470710710791203e-001	 3.735149025554648e+000	 9.129365857987022e+000
 5.122501039740356e-001	 3.740083532609068e+000	 8.742008718459369e+000
 4.774937174848729e-001	 3.744679525630999e+000	 8.479029699777483e+000
 4.428062943359145e-001	 3.748939528135642e+000	 8.322097401118015e+000
 4.081921423183823e-001	 3.752866128024843e+000	 8.260336554620171e+000
 3.736554934268430e-001	 3.756461975338674e+000	 8.296057097489060e+000
 3.392005030659454e-001	 3.759729780005672e+000	 8.416354964615801e+000
 6.914595991796617e-001	 3.736560399967698e+000	 7.157244487179846e+000
 6.561935880625281e-001	 3.742914636334019e+000	 8.830296265692841e+000
 6.209742038605993e-001	 3.748918649161690e+000	 1.047000574239048e+001
 5.858061499076548e-001	 3.754574696902359e+000	 9.791515062314341e+000
 5.506940583064666e-001	 3.759885111813029e+000	 9.257914291132639e+000
 5.156424887699677e-001	 3.764852297722003e+000	 8.863073671587017e+000
 4.806559275355840e-001	 3.769478727783819e+000	 8.595708289282021e+000
 4.457387863522619e-001	 3.773766942225699e+000	 8.444084970124379e+000
 4.108954015396423e-001	 3.777719546087910e+000	 8.396018428261776e+000
 3.761300331187461e-001	 3.781339206960455e+000	 8.438869057788356e+000
 3.414468640134582e-001	 3.784628652718419e+000	 8.559542338962844e+000
 6.960086754916622e-001	 3.761143034176585e+000	 7.217029982596525e+000
 6.605106511432675e-001	 3.767539074729034e+000	 8.655862272456453e+000
 6.250595604661036e-001	 3.773582587640705e+000	 1.036628615888756e+001
 5.896601377369356e-001	 3.779275846221478e+000	 9.746528349736034e+000
 5.543170455328959e-001	 3.784621198072152e+000	 9.261576048256947e+000
 5.190348735650290e-001	 3.789621062835688e+000	 8.905580346581367e+000
 4.838181375854804e-001	 3.794277929937376e+000	 8.667963567779275e+000
 4.486712783678608e-001	 3.798594356316461e+000	 8.537685818203679e+000
 4.135986607602300e-001	 3.802572964151630e+000	 8.503240255200286e+000
 3.786045728100624e-001	 3.806216438582819e+000	 8.552650056866620e+000
 3.436932249604792e-001	 3.809527525431660e+000	 8.673467064524402e+000
 7.005577518026629e-001	 3.785725668385978e+000	 7.272120677982618e+000
 6.648277142230121e-001	 3.792163513124647e+000	 8.503045674024049e+000
 6.291449170706286e-001	 3.798246526120384e+000	 9.990322594289081e+000
 5.935141255652632e-001	 3.803976995541311e+000	 9.684892145078175e+000
 5.579400327584080e-001	 3.809357284332017e+000	 9.246087303349349e+000
 5.224272583592192e-001	 3.814389827950121e+000	 8.926737770363067e+000
 4.869803476345622e-001	 3.819077132091672e+000	 8.716981258105353e+000
 4.516037703827113e-001	 3.823421770407927e+000	 8.606478863143831e+000
 4.163019199801448e-001	 3.827426382216002e+000	 8.584409448453329e+000
 3.810791125007916e-001	 3.831093670205765e+000	 8.639465786491551e+000
 3.459395859070087e-001	 3.834426398145392e+000	 8.759852434092098e+000
 7.051068281126635e-001	 3.810308302595879e+000	 7.366117532566524e+000
 6.691447773017617e-001	 3.816787951520856e+000	 8.397736796733792e+000
 6.332302736741743e-001	 3.822910464600731e+000	 9.670646827985772e+000
 5.973681133926373e-001	 3.828678144861857e+000	 9.610688533754701e+000
 5.615630199830032e-001	 3.834093370592623e+000	 9.215197896789164e+000
 5.258196431525387e-001	 3.839158593065305e+000	 8.929961889500369e+000
 4.901425576828293e-001	 3.843876334246703e+000	 8.745841980011779e+000
 4.545362623968133e-001	 3.848249184500100e+000	 8.653208177362785e+000
 4.190051791993872e-001	 3.852279800281029e+000	 8.641932521639404e+000
 3.835536521909340e-001	 3.855970901829294e+000	 8.701384395480021e+000
 3.481859468530463e-001	 3.859325270859617e+000	 8.820427627416043e+000
 7.096559044216639e-001	 3.834890936806286e+000	 7.498154507172148e+000
 6.734618403795165e-001	 3.841412389917662e+000	 8.339059983990417e+000
 6.373156302767410e-001	 3.847574403081744e+000	 9.406370601815734e+000
 6.012221012190584e-001	 3.853379294183118e+000	 9.527983622238683e+000
 5.651860072066810e-001	 3.858829456853971e+000	 9.172644553683382e+000
 5.292120279449872e-001	 3.863927358181238e+000	 8.918658479907887e+000
 4.933047677302817e-001	 3.868675536402473e+000	 8.757619206225373e+000
 4.574687544101668e-001	 3.873076598592977e+000	 8.680613786937943e+000
 4.217084384179571e-001	 3.877133218346708e+000	 8.678215117804914e+000
 3.860281918804893e-001	 3.880848133453402e+000	 8.740476410946334e+000
 3.504323077985923e-001	 3.884224143574332e+000	 8.856927522520541e+000
 7.142049807296647e-001	 3.859473571017202e+000	 7.667342263888220e+000
 6.777789034562769e-001	 3.866036828315065e+000	 8.326118806740350e+000
 6.414009868783286e-001	 3.872238341563422e+000	 9.196587495323819e+000
 6.050760890445261e-001	 3.878080443505093e+000	 9.440828046945788e+000
 5.688089944294419e-001	 3.883565543116061e+000	 9.122151301550892e+000
 5.326044127365650e-001	 3.888696123297920e+000	 8.896223470752881e+000
 4.964669777769196e-001	 3.893474738558979e+000	 8.755379490060706e+000
 4.604012464227718e-001	 3.897904012686560e+000	 8.691431800470404e+000
 4.244116976358545e-001	 3.901986636413041e+000	 8.695662037149168e+000
 3.885027315694579e-001	 3.905725365078095e+000	 8.758814662560255e+000
 3.526786687436464e-001	 3.909123016289539e+000	 8.871092514229964e+000
 7.187540570366653e-001	 3.884056205228624e+000	 7.872768903370341e+000
 6.820959665320421e-001	 3.890661266713064e+000	 8.357996720827071e+000
 6.454863434789370e-001	 3.896902280045765e+000	 9.040373500518548e+000
 6.089300768690408e-001	 3.902781592827782e+000	 9.353257463793167e+000
 5.724319816512857e-001	 3.908301629378893e+000	 9.067429872144595e+000
 5.359967975272718e-001	 3.913464888415352e+000	 8.866043256060719e+000
 4.996291878227429e-001	 3.918273940716222e+000	 8.742182684388581e+000
 4.633337384346282e-001	 3.922731426780846e+000	 8.688394533055615e+000
 4.271149568530792e-001	 3.926840054480027e+000	 8.696677263696978e+000
 3.909772712578394e-001	 3.930602596703371e+000	 8.758474209681298e+000
 3.549250296882090e-001	 3.934021889005239e+000	 8.864668339586824e+000
 7.233031333426661e-001	 3.908638839440555e+000	 8.113500674319383e+000
 6.864130296068128e-001	 3.915285705111661e+000	 8.433757699541895e+000
 6.495717000785661e-001	 3.921566218528774e+000	 8.936787574938643e+000
 6.127840646926022e-001	 3.927482742151186e+000	 9.269293019284124e+000
 5.760549688722124e-001	 3.933037715642466e+000	 9.012180088110471e+000
 5.393891823171079e-001	 3.938233653533534e+000	 8.831494994562622e+000
 5.027913978677514e-001	 3.943073142874203e+000	 8.721082152342000e+000
 4.662662304457361e-001	 3.947558840875839e+000	 8.674230625576138e+000
 4.298182160696315e-001	 3.951693472547667e+000	 8.683663990964325e+000
 3.934518109456341e-001	 3.955479828329227e+000	 8.741532271242891e+000
 3.571713906322799e-001	 3.958920761721430e+000	 8.839405909857137e+000
 7.278522096476668e-001	 3.933221473652993e+000	 8.388582656355975e+000
 6.907300926805886e-001	 3.939910143510855e+000	 8.552446842453881e+000
 6.536570566772164e-001	 3.946230157012450e+000	 8.884872173980845e+000
 6.166380525152104e-001	 3.952183891475303e+000	 9.192941803927321e+000
 5.796779560922222e-001	 3.957773801906782e+000	 8.960090235147668e+000
 5.427815671060731e-001	 3.963002418652466e+000	 8.795946898298107e+000
 5.059536079119456e-001	 3.967872345032922e+000	 8.695124970120371e+000
 4.691987224560958e-001	 3.972386254971537e+000	 8.651665159520656e+000
 4.325214752855112e-001	 3.976546890615961e+000	 8.659024646661781e+000
 3.959263506328420e-001	 3.980357059955668e+000	 8.710068158265276e+000
 3.594177515758589e-001	 3.983819634438112e+000	 8.797061148836169e+000
 3.369541421179410e-001	 3.734830907293413e+000	 8.419834711243848e+000
 3.028124993314788e-001	 3.737753949930092e+000	 8.504228129311462e+000
 2.687599990069305e-001	 3.740356675894433e+000	 8.604277433438716e+000
 2.348005367401525e-001	 3.742641942254912e+000	 8.704655482470447e+000
 2.009379295743544e-001	 3.744612656663185e+000	 8.790743532334936e+000
 1.671759155483964e-001	 3.746271775145075e+000	 8.848663378129999e+000
 1.335181533092921e-001	 3.747622299902811e+000	 8.865306589943980e+000
 9.996822178776421e-002	 3.748667277130346e+000	 8.828360867713725e+000
 6.652961993565264e-002	 3.749409794843583e+000	 8.726333547526853e+000
 3.320576652392519e-002	 3.749852980727242e+000	 8.548572298488955e+000
 0.000000000000000e+000	 3.750000000000000e+000	 8.285283055598766e+000
 3.392005030659454e-001	 3.759729780005672e+000	 8.416354964615801e+000
 3.048312493272241e-001	 3.762672309593844e+000	 8.438304934822943e+000
 2.705517323335631e-001	 3.765292387065135e+000	 8.497804092232839e+000
 2.363658736514575e-001	 3.767592888535142e+000	 8.579142281878539e+000
 2.022775157710708e-001	 3.769576741039862e+000	 8.666216554846455e+000
 1.682904216515218e-001	 3.771246920311963e+000	 8.742538456934661e+000
 1.344082743308031e-001	 3.772606448568354e+000	 8.791242587644355e+000
 1.006346765991754e-001	 3.773658392310948e+000	 8.795096377845647e+000
 6.697315073482320e-002	 3.774405860142423e+000	 8.736511032192823e+000
 3.342713830052024e-002	 3.774852000598727e+000	 8.597553580369304e+000
 0.000000000000000e+000	 3.775000000000000e+000	 8.359959979502616e+000
 3.414468640134582e-001	 3.784628652718419e+000	 8.559542338962844e+000
 3.068499993225725e-001	 3.787590669257995e+000	 8.556510188009902e+000
 2.723434656598832e-001	 3.790228098236149e+000	 8.593712525040399e+000
 2.379312105625239e-001	 3.792543834815608e+000	 8.655998002167532e+000
 2.036171019676125e-001	 3.794540825416714e+000	 8.727797854089161e+000
 1.694049277545261e-001	 3.796222065478974e+000	 8.793132878451166e+000
 1.352983953522370e-001	 3.797590597233975e+000	 8.835621743190226e+000
 1.013011314105433e-001	 3.798649507491593e+000	 8.838490567910162e+000
 6.741668153397462e-002	 3.799401925441280e+000	 8.784583723986682e+000
 3.364851007711052e-002	 3.799851020470217e+000	 8.656375796014110e+000
 0.000000000000000e+000	 3.800000000000000e+000	 8.435984645390759e+000
 3.436932249604792e-001	 3.809527525431660e+000	 8.673467064524402e+000
 3.088687493175238e-001	 3.812509028922540e+000	 8.647188802744093e+000
 2.741351989858907e-001	 3.815163809407477e+000	 8.664068788947880e+000
 2.394965474733519e-001	 3.817494781096314e+000	 8.709519800230458e+000
 2.049566881639796e-001	 3.819504909793741e+000	 8.768512166987613e+000
 1.705194338574096e-001	 3.821197210646103e+000	 8.825580444015440e+000
 1.361885163735939e-001	 3.822574745899673e+000	 8.864831465995145e+000
 1.019675862218680e-001	 3.823640622672282e+000	 8.869953733108472e+000
 6.786021233310693e-002	 3.824397990740158e+000	 8.824228070076439e+000
 3.386988185369604e-002	 3.824850040341712e+000	 8.710539499745096e+000
 0.000000000000000e+000	 3.824999999999999e+000	 8.511390270445805e+000
 3.459395859070087e-001	 3.834426398145392e+000	 8.759852434092098e+000
 3.108874993120783e-001	 3.837427388587484e+000	 8.711689582561800e+000
 2.759269323115856e-001	 3.840099520579116e+000	 8.709849092457660e+000
 2.410618843839413e-001	 3.842445727377257e+000	 8.740313365188598e+000
 2.062962743601721e-001	 3.844468994170942e+000	 8.788596915154159e+000
 1.716339399601724e-001	 3.846172355813354e+000	 8.839752730543523e+000
 1.370786373948737e-001	 3.847558894565447e+000	 8.878380076694727e+000
 1.026340410331496e-001	 3.848631737853014e+000	 8.888633686429065e+000
 6.830374313222011e-002	 3.849394056039055e+000	 8.854234279228898e+000
 3.409125363027678e-002	 3.849849060213212e+000	 8.758480348865700e+000
 0.000000000000000e+000	 3.850000000000000e+000	 8.584261157118867e+000
 3.481859468530463e-001	 3.859325270859617e+000	 8.820427627416043e+000
 3.129062493062357e-001	 3.862345748252824e+000	 8.751371535065145e+000
 2.777186656369678e-001	 3.865035231751069e+000	 8.732044178403669e+000
 2.426272212942922e-001	 3.867396673658439e+000	 8.749003262104802e+000
 2.076358605561900e-001	 3.869433078548318e+000	 8.788312747305414e+000
 1.727484460628142e-001	 3.871147500980726e+000	 8.835548901002131e+000
 1.379687584160764e-001	 3.872543043231299e+000	 8.875807846960804e+000
 1.033004958443879e-001	 3.873622853033790e+000	 8.893714561201852e+000
 6.874727393131415e-002	 3.874390121337970e+000	 8.873433252480803e+000
 3.431262540685277e-002	 3.874848080084716e+000	 8.798679065835209e+000
 0.000000000000000e+000	 3.875000000000000e+000	 8.652731045216308e+000
 3.504323077985923e-001	 3.884224143574332e+000	 8.856927522520541e+000
 3.149249992999961e-001	 3.887264107918561e+000	 8.767603544868878e+000
 2.795103989620376e-001	 3.889970942923332e+000	 8.731658858107430e+000
 2.441925582044047e-001	 3.892347619939861e+000	 8.736232326985451e+000
 2.089754467520333e-001	 3.894397162925869e+000	 8.767942794803661e+000
 1.738629521653352e-001	 3.896122646148219e+000	 8.812894820240382e+000
 1.388588794372020e-001	 3.897527191897227e+000	 8.856685975429995e+000
 1.039669506555831e-001	 3.898613968214609e+000	 8.884415646983987e+000
 6.919080473038904e-002	 3.899386186636905e+000	 8.880695278900124e+000
 3.453399718342399e-002	 3.899847099956226e+000	 8.829659993872157e+000
 0.000000000000000e+000	 3.900000000000000e+000	 8.714981527370551e+000
 3.526786687436464e-001	 3.909123016289539e+000	 8.871092514229964e+000
 3.169437492933597e-001	 3.912182467584696e+000	 8.761764059045767e+000
 2.813021322867946e-001	 3.914906654095911e+000	 8.709711563337176e+000
 2.457578951142786e-001	 3.917298566221521e+000	 8.702661084902973e+000
 2.103150329477018e-001	 3.919361247303594e+000	 8.727791955648954e+000
 1.749774582677353e-001	 3.921097791315832e+000	 8.771742204611286e+000
 1.397490004582506e-001	 3.922511340563233e+000	 8.820615602768411e+000
 1.046334054667350e-001	 3.923605083395469e+000	 8.859990269934899e+000
 6.963433552944484e-002	 3.924382251935859e+000	 8.874928781189235e+000
 3.475536895999044e-002	 3.924846119827740e+000	 8.849989707758095e+000
 0.000000000000000e+000	 3.924999999999999e+000	 8.769240525063742e+000
 3.549250296882090e-001	 3.934021889005239e+000	 8.864668339586824e+000
 3.189624992863263e-001	 3.937100827251227e+000	 8.735240784517023e+000
 2.830938656112391e-001	 3.939842365268800e+000	 8.667233915280628e+000
 2.473232320239140e-001	 3.942249512503420e+000	 8.648967190215572e+000
 2.116546191431958e-001	 3.944325331681494e+000	 8.668186205661751e+000
 1.760919643700147e-001	 3.946072936483567e+000	 8.712067803886498e+000
 1.406391214792221e-001	 3.947495489229317e+000	 8.767226864138838e+000
 1.052998602778437e-001	 3.948596198576375e+000	 8.819724715709016e+000
 7.007786632848148e-002	 3.949378317234833e+000	 8.855079108924583e+000
 3.497674073655212e-002	 3.949845139699259e+000	 8.858275677396399e+000
 0.000000000000000e+000	 3.949999999999999e+000	 8.813780822525551e+000
 3.571713906322799e-001	 3.958920761721430e+000	 8.839405909857137e+000
 3.209812492788959e-001	 3.962019186918155e+000	 8.689430396862258e+000
 2.848855989353711e-001	 3.964778076442002e+000	 8.605270309783744e+000
 2.488885689333109e-001	 3.967200458785556e+000	 8.575844887910067e+000
 2.129942053385151e-001	 3.969289416059569e+000	 8.589471935657983e+000
 1.772064704721731e-001	 3.971048081651422e+000	 8.633872614041369e+000
 1.415292425001165e-001	 3.972479637895476e+000	 8.696177977424483e+000
 1.059663150889093e-001	 3.973587313757323e+000	 8.762937192993057e+000
 7.052139712749901e-002	 3.974374382533824e+000	 8.820127377334439e+000
 3.519811251310904e-002	 3.974844159570782e+000	 8.853164981801658e+000
 0.000000000000000e+000	 3.974999999999999e+000	 8.846918655954413e+000
 3.594177515758589e-001	 3.983819634438112e+000	 8.797061148836169e+000
 3.229999992710687e-001	 3.986937546585482e+000	 8.625738260048706e+000
 2.866773322591905e-001	 3.989713787615519e+000	 8.524877518142473e+000
 2.504539058424694e-001	 3.992151405067931e+000	 8.484004495145085e+000
 2.143337915336599e-001	 3.994253500437820e+000	 8.492015313480582e+000
 1.783209765742107e-001	 3.996023226819399e+000	 8.537181119561529e+000
 1.424193635209339e-001	 3.997463786561715e+000	 8.607154365643645e+000
 1.066327698999317e-001	 3.998578428938315e+000	 8.688976835911820e+000
 7.096492792649740e-002	 3.999370447832836e+000	 8.769089349622183e+000
 3.541948428966121e-002	 3.999843179442312e+000	 8.833343071315014e+000
 0.000000000000000e+000	 4.000000000000000e+000	 8.867012355643842e+000
 4.000000000000000e+000	 0.000000000000000e+000	 1.071504176560108e+001
 3.999843179442312e+000	 3.541948428966008e-002	 1.060617394604111e+001
 3.999370447832837e+000	 7.096492792649639e-002	 1.054164461929866e+001
 3.998578428938315e+000	 1.066327698999308e-001	 1.051208982977088e+001
 3.997463786561714e+000	 1.424193635209331e-001	 1.050807875872990e+001
 3.996023226819399e+000	 1.783209765742101e-001	 1.052010056624840e+001
 3.994253500437819e+000	 2.143337915336594e-001	 1.053855032651504e+001
 3.992151405067931e+000	 2.504539058424689e-001	 1.055371406291966e+001
 3.989713787615519e+000	 2.866773322591902e-001	 1.055575289277697e+001
 3.986937546585482e+000	 3.229999992710685e-001	 1.053468629518143e+001
 3.983819634438112e+000	 3.594177515758590e-001	 1.048037451922830e+001
 4.025000000000000e+000	 0.000000000000000e+000	 1.076079042835976e+001
 4.024842199313842e+000	 3.564085606630336e-002	 1.064502917864351e+001
 4.024366513131858e+000	 7.140845872566287e-002	 1.057101515220336e+001
 4.023569544119328e+000	 1.072992247111839e-001	 1.052999608994672e+001
 4.022447935227989e+000	 1.433094845420293e-001	 1.051316901471102e+001
 4.020998371987436e+000	 1.794354826765600e-001	 1.051166646956391e+001
 4.019217584816155e+000	 2.156733777291350e-001	 1.051654180287639e+001
 4.017102351350426e+000	 2.520192427519619e-001	 1.051875350635718e+001
 4.014649498789190e+000	 2.884690655833327e-001	 1.050914861584141e+001
 4.011855906253005e+000	 3.250187492635375e-001	 1.047844518836123e+001
 4.008718507155041e+000	 3.616641125196922e-001	 1.041721387289173e+001
 4.050000000000000e+000	 0.000000000000000e+000	 1.078915022938299e+001
 4.049841219185373e+000	 3.586222784313369e-002	 1.066920339234293e+001
 4.049362578430878e+000	 7.185198952518471e-002	 1.058836069698953e+001
 4.048560659300342e+000	 1.079656795229416e-001	 1.053848648677208e+001
 4.047432083894266e+000	 1.441996055637604e-001	 1.051141069407909e+001
 4.045973517155472e+000	 1.805499887796554e-001	 1.049891446883789e+001
 4.044181669194492e+000	 2.170129639254472e-001	 1.049271480676759e+001
 4.042053297632920e+000	 2.535845796623626e-001	 1.048444818328426e+001
 4.039585209962861e+000	 2.902607989084340e-001	 1.046565320277055e+001
 4.036774265920530e+000	 3.270374992569962e-001	 1.042775227677498e+001
 4.033617379871969e+000	 3.639104734645255e-001	 1.036203234869401e+001
 4.074999999999999e+000	 0.000000000000000e+000	 1.080223469554725e+001
 4.074840239056903e+000	 3.608359962015106e-002	 1.068045924552699e+001
 4.074358643729899e+000	 7.229552032506183e-002	 1.059509163741165e+001
 4.073551774481353e+000	 1.086321343352040e-001	 1.053861788091227e+001
 4.072416232560541e+000	 1.450897265861261e-001	 1.050350604730474e+001
 4.070948662323509e+000	 1.816644948834962e-001	 1.048219128217133e+001
 4.069145753572830e+000	 2.183525501225959e-001	 1.046705977016836e+001
 4.067004243915415e+000	 2.551499165736712e-001	 1.045043165762665e+001
 4.064520921136532e+000	 2.920525322344942e-001	 1.042454294261525e+001
 4.061692625588053e+000	 3.290562492514447e-001	 1.038152634607312e+001
 4.058516252588897e+000	 3.661568344103587e-001	 1.031339118172116e+001
 4.100000000000000e+000	 0.000000000000000e+000	 1.080210580429647e+001
 4.099839258928435e+000	 3.630497139735547e-002	 1.068051232616190e+001
 4.099354709028920e+000	 7.273905112529436e-002	 1.059257577708865e+001
 4.098542889662367e+000	 1.092985891479710e-001	 1.053140905288724e+001
 4.097400381226816e+000	 1.459798476091267e-001	 1.049012375280638e+001
 4.095923807491546e+000	 1.827790009880826e-001	 1.046181457017679e+001
 4.094109837951166e+000	 2.196921363205812e-001	 1.043954258694085e+001
 4.091955190197909e+000	 2.567152534858873e-001	 1.041631747767705e+001
 4.089456632310204e+000	 2.938442655615133e-001	 1.038507863267003e+001
 4.086610985255576e+000	 3.310749992468828e-001	 1.033867521366794e+001
 4.083415125305826e+000	 3.684031953571920e-001	 1.026984516020277e+001
 4.125000000000000e+000	 0.000000000000000e+000	 1.079077554574630e+001
 4.124838278799966e+000	 3.652634317474693e-002	 1.067103257816887e+001
 4.124350774327941e+000	 7.318258192588219e-002	 1.058213962981087e+001
 4.123534004843379e+000	 1.099650439612427e-001	 1.051784185701559e+001
 4.122384529893092e+000	 1.468699686327621e-001	 1.047189993428539e+001
 4.120898952659582e+000	 1.838935070934145e-001	 1.043807381650850e+001
 4.119073922329502e+000	 2.210317225194031e-001	 1.041010535640870e+001
 4.116906136480403e+000	 2.582805903990113e-001	 1.038169978262947e+001
 4.114392343483876e+000	 2.956359988894912e-001	 1.034650604792007e+001
 4.111529344923100e+000	 3.330937492433104e-001	 1.029809606110431e+001
 4.108313998022755e+000	 3.706495563050253e-001	 1.022994282087135e+001
 4.150000000000000e+000	 0.000000000000000e+000	 1.077020742832613e+001
 4.149837298671496e+000	 3.674771495232542e-002	 1.065364567624470e+001
 4.149346839626961e+000	 7.362611272682534e-002	 1.056506966320952e+001
 4.148525120024392e+000	 1.106314987750191e-001	 1.049886233364914e+001
 4.147368678559367e+000	 1.477600896570321e-001	 1.044943914128993e+001
 4.145874097827618e+000	 1.850080131994918e-001	 1.041123117656572e+001
 4.144038006707839e+000	 2.223713087190614e-001	 1.037866710006005e+001
 4.141857082762897e+000	 2.598459273130429e-001	 1.034615388719055e+001
 4.139328054657548e+000	 2.974277322184279e-001	 1.030805639352059e+001
 4.136447704590624e+000	 3.351124992407278e-001	 1.025867575441719e+001
 4.133212870739683e+000	 3.728959172538585e-001	 1.019222663726027e+001
 4.175000000000000e+000	 0.000000000000000e+000	 1.074231793032653e+001
 4.174836318543028e+000	 3.696908673009096e-002	 1.062993435128721e+001
 4.174342904925982e+000	 7.406964352812387e-002	 1.054261349774328e+001
 4.173516235205405e+000	 1.112979535893001e-001	 1.047538178144751e+001
 4.172352827225644e+000	 1.486502106819371e-001	 1.042331529454844e+001
 4.170849242995654e+000	 1.861225193063146e-001	 1.038152229570398e+001
 4.169002091086175e+000	 2.237108949195564e-001	 1.034512445250068e+001
 4.166808029045392e+000	 2.614112642279824e-001	 1.030923684518693e+001
 4.164263765831218e+000	 2.992194655483235e-001	 1.026894674101905e+001
 4.161366064258147e+000	 3.371312492391350e-001	 1.021929115297909e+001
 4.158111743456611e+000	 3.751422782036917e-001	 1.015523320123663e+001
 4.199999999999999e+000	 0.000000000000000e+000	 1.070897789960585e+001
 4.199835338414558e+000	 3.719045850804355e-002	 1.060143966848492e+001
 4.199338970225004e+000	 7.451317432977773e-002	 1.051598106286430e+001
 4.198507350386417e+000	 1.119644084040858e-001	 1.044827779135684e+001
 4.197336975891918e+000	 1.495403317074767e-001	 1.039407259754200e+001
 4.195824388163692e+000	 1.872370254138830e-001	 1.034915709822433e+001
 4.193966175464511e+000	 2.250504811208879e-001	 1.030935232773016e+001
 4.191758975327885e+000	 2.629766011438295e-001	 1.027048799304377e+001
 4.189199477004890e+000	 3.010111988791779e-001	 1.022838044899825e+001
 4.186284423925671e+000	 3.391499992385317e-001	 1.017880940731745e+001
 4.183010616173539e+000	 3.773886391545250e-001	 1.011749339805087e+001
 4.224999999999999e+000	 0.000000000000000e+000	 1.067201390360268e+001
 4.224834358286089e+000	 3.741183028618317e-002	 1.056966226002988e+001
 4.224335035524025e+000	 7.495670513178691e-002	 1.048634571213648e+001
 4.223498465567432e+000	 1.126308632193762e-001	 1.041839524387943e+001
 4.222321124558194e+000	 1.504304527336512e-001	 1.036222641571236e+001
 4.220799533331728e+000	 1.883515315221968e-001	 1.031432054835142e+001
 4.218930259842849e+000	 2.263900673230559e-001	 1.027120456176330e+001
 4.216709921610381e+000	 2.645419380605845e-001	 1.022942947396818e+001
 4.214135188178561e+000	 3.028029322109913e-001	 1.018554756878537e+001
 4.211202783593195e+000	 3.411687492389182e-001	 1.013608824635843e+001
 4.207909488890469e+000	 3.796350001063583e-001	 1.007753257517144e+001
 4.250000000000000e+000	 0.000000000000000e+000	 1.063320953170116e+001
 4.249833378157620e+000	 3.763320206450985e-002	 1.053606351432354e+001
 4.249331100823047e+000	 7.540023593415146e-002	 1.045484529899690e+001
 4.248489580748444e+000	 1.132973180351712e-001	 1.038654727114568e+001
 4.247305273224471e+000	 1.513205737604605e-001	 1.032826412463981e+001
 4.245774678499766e+000	 1.894660376312561e-001	 1.027717338435300e+001
 4.243894344221186e+000	 2.277296535260605e-001	 1.023051453257085e+001
 4.241660867892875e+000	 2.661072749782472e-001	 1.018556674363205e+001
 4.239070899352234e+000	 3.045946655437635e-001	 1.013962523584169e+001
 4.236121143260720e+000	 3.431874992402945e-001	 1.008997625453284e+001
 4.232808361607396e+000	 3.818813610591916e-001	 1.003387070516083e+001
 3.983819634438112e+000	 3.594177515758590e-001	 1.048037451922830e+001
 3.980357059955668e+000	 3.959263506328409e-001	 1.062237316232980e+001
 3.976546890615960e+000	 4.325214752855102e-001	 1.072356850665539e+001
 3.972386254971538e+000	 4.691987224560951e-001	 1.077385865453405e+001
 3.967872345032923e+000	 5.059536079119449e-001	 1.076290531329616e+001
 3.963002418652466e+000	 5.427815671060726e-001	 1.068011171476955e+001
 3.957773801906782e+000	 5.796779560922218e-001	 1.051459984726903e+001
 3.952183891475304e+000	 6.166380525152102e-001	 1.025518704658307e+001
 3.946230157012451e+000	 6.536570566772164e-001	 1.047593297297373e+001
 3.939910143510855e+000	 6.907300926805887e-001	 1.080401539965774e+001
 3.933221473652993e+000	 7.278522096476667e-001	 1.107143020421485e+001
 4.008718507155041e+000	 3.616641125196922e-001	 1.041721387289173e+001
 4.005234291582396e+000	 3.984008903202551e-001	 1.056781264004788e+001
 4.001400308684580e+000	 4.352247345015536e-001	 1.068121464243107e+001
 3.997213669067587e+000	 4.721312144665803e-001	 1.074797794809225e+001
 3.992671547192009e+000	 5.091158179562315e-001	 1.075843118703113e+001
 3.987771183771772e+000	 5.461739518951023e-001	 1.070265046114914e+001
 3.982509888171469e+000	 5.833009433122729e-001	 1.057043552622621e+001
 3.976885040799776e+000	 6.204920403378416e-001	 1.035128529350854e+001
 3.970894095496459e+000	 6.577424132758770e-001	 1.054412458364642e+001
 3.964534581910347e+000	 6.950471557543673e-001	 1.075142596818024e+001
 3.957804107865683e+000	 7.324012859526673e-001	 1.090310007989812e+001
 4.033617379871969e+000	 3.639104734645255e-001	 1.036203234869401e+001
 4.030111523209127e+000	 4.008754300086695e-001	 1.052181143611240e+001
 4.026253726753200e+000	 4.379279937185970e-001	 1.064800508011074e+001
 4.022041083163638e+000	 4.750637064780655e-001	 1.073183825342560e+001
 4.017470749351095e+000	 5.122780280015182e-001	 1.076431353665553e+001
 4.012539948891079e+000	 5.495663366851322e-001	 1.073618700724064e+001
 4.007245974436155e+000	 5.869239305333238e-001	 1.063794335951539e+001
 4.001586190124251e+000	 6.243460281614733e-001	 1.045977030451911e+001
 3.995558033980466e+000	 6.618277698755377e-001	 1.059907983847847e+001
 3.989159020309839e+000	 6.993642188291458e-001	 1.069727351020591e+001
 3.982386742078373e+000	 7.369503622586678e-001	 1.074480264872370e+001
 4.058516252588897e+000	 3.661568344103587e-001	 1.031339118172116e+001
 4.054988754835856e+000	 4.033499696980837e-001	 1.048260739052172e+001
 4.051107144821819e+000	 4.406312529366405e-001	 1.062185456887779e+001
 4.046868497259688e+000	 4.779961984905508e-001	 1.072303170921367e+001
 4.042269951510182e+000	 5.154402380478049e-001	 1.077782254903289e+001
 4.037308714010385e+000	 5.529587214761618e-001	 1.077767042734949e+001
 4.031982060700843e+000	 5.905469177553750e-001	 1.071375233075467e+001
 4.026287339448724e+000	 6.282000159861046e-001	 1.059727803006894e+001
 4.020221972464474e+000	 6.659131264761982e-001	 1.064123976049617e+001
 4.013783458709331e+000	 7.036812819049241e-001	 1.064192607091414e+001
 4.006969376291065e+000	 7.414994385656684e-001	 1.059683317488364e+001
 4.083415125305826e+000	 3.684031953571920e-001	 1.026984516020277e+001
 4.079865986462586e+000	 4.058245093884980e-001	 1.044843558414301e+001
 4.075960562890437e+000	 4.433345121556837e-001	 1.060067878122546e+001
 4.071695911355738e+000	 4.809286905040361e-001	 1.071915505308292e+001
 4.067069153669269e+000	 5.186024480950916e-001	 1.079623667726767e+001
 4.062077479129690e+000	 5.563511062681914e-001	 1.082406171941554e+001
 4.056718146965530e+000	 5.941699049784260e-001	 1.079450699311460e+001
 4.050988488773199e+000	 6.320540038117364e-001	 1.071768294948235e+001
 4.044885910948482e+000	 6.699984830778586e-001	 1.067106819330994e+001
 4.038407897108823e+000	 7.079983449817027e-001	 1.058577811795166e+001
 4.031552010503756e+000	 7.460485148736690e-001	 1.045951692899071e+001
 4.108313998022755e+000	 3.706495563050253e-001	 1.022994282087135e+001
 4.104743218089316e+000	 4.082990490799123e-001	 1.041752842232219e+001
 4.100813980959057e+000	 4.460377713757271e-001	 1.058239428497768e+001
 4.096523325451788e+000	 4.838611825185214e-001	 1.071780948224462e+001
 4.091868355828355e+000	 5.217646581433784e-001	 1.081684239021293e+001
 4.086846244248997e+000	 5.597434910612212e-001	 1.087233344369079e+001
 4.081454233230216e+000	 5.977928922024770e-001	 1.087686699751363e+001
 4.075689638097672e+000	 6.359079916383679e-001	 1.081470871521532e+001
 4.069549849432490e+000	 6.740838396805190e-001	 1.068905110958158e+001
 4.063032335508314e+000	 7.123154080594810e-001	 1.052924974075170e+001
 4.056134644716447e+000	 7.505975911826697e-001	 1.033320827879310e+001
 4.133212870739683e+000	 3.728959172538585e-001	 1.019222663726027e+001
 4.129620449716046e+000	 4.107735887723266e-001	 1.038811571547194e+001
 4.125667399027678e+000	 4.487410305967705e-001	 1.056491851632129e+001
 4.121350739547838e+000	 4.867936745340066e-001	 1.071660051917002e+001
 4.116667557987442e+000	 5.249268681926650e-001	 1.083693393103219e+001
 4.111615009368303e+000	 5.631358758552508e-001	 1.091946937447662e+001
 4.106190319494901e+000	 6.014158794275281e-001	 1.095750663786653e+001
 4.100390787422147e+000	 6.397619794659994e-001	 1.088892539512073e+001
 4.094213787916498e+000	 6.781691962841796e-001	 1.069569594448655e+001
 4.087656773907807e+000	 7.166324711382596e-001	 1.047278587879348e+001
 4.080717278929137e+000	 7.551466674926702e-001	 1.021828981275447e+001
 4.158111743456611e+000	 3.751422782036917e-001	 1.015523320123663e+001
 4.154497681342774e+000	 4.132481284657408e-001	 1.035842475676419e+001
 4.150520817096297e+000	 4.514442898188139e-001	 1.054616975380708e+001
 4.146178153643888e+000	 4.897261665504919e-001	 1.071313788209145e+001
 4.141466760146528e+000	 5.280890782429516e-001	 1.085381308443551e+001
 4.136383774487609e+000	 5.665282606502806e-001	 1.096246416437410e+001
 4.130926405759588e+000	 6.050388666535790e-001	 1.103311441267133e+001
 4.125091936746620e+000	 6.436159672946309e-001	 1.094092057599929e+001
 4.118877726400505e+000	 6.822545528888402e-001	 1.069153095312373e+001
 4.112281212307298e+000	 7.209495342180379e-001	 1.041685557758869e+001
 4.105299913141828e+000	 7.596957438036709e-001	 1.011517149512260e+001
 4.183010616173539e+000	 3.773886391545250e-001	 1.011749339805087e+001
 4.179374912969506e+000	 4.157226681601551e-001	 1.032668039704806e+001
 4.175374235164916e+000	 4.541475490418573e-001	 1.052406709327937e+001
 4.171005567739938e+000	 4.926586585679772e-001	 1.070503536012843e+001
 4.166265962305615e+000	 5.312512882942383e-001	 1.086478895222875e+001
 4.161152539606915e+000	 5.699206454463103e-001	 1.099832302052492e+001
 4.155662492024275e+000	 6.086618538806301e-001	 1.110039260225370e+001
 4.149793086071094e+000	 6.474699551242624e-001	 1.097129884220259e+001
 4.143541664884513e+000	 6.863399094945006e-001	 1.067710459087494e+001
 4.136905650706790e+000	 7.252665972988163e-001	 1.036195127124036e+001
 4.129882547354518e+000	 7.642448201156715e-001	 1.002428985117370e+001
 4.207909488890469e+000	 3.796350001063583e-001	 1.007753257517144e+001
 4.204252144596236e+000	 4.181972078555695e-001	 1.029110511710780e+001
 4.200227653233536e+000	 4.568508082659007e-001	 1.049653042369573e+001
 4.195832981835988e+000	 4.955911505864625e-001	 1.068991069284720e+001
 4.191065164464702e+000	 5.344134983465250e-001	 1.086717773683134e+001
 4.185921304726221e+000	 5.733130302433401e-001	 1.102406139234673e+001
 4.180398578288961e+000	 6.122848411086812e-001	 1.115605686102068e+001
 4.174494235395568e+000	 6.513239429548940e-001	 1.098068127274686e+001
 4.168205603368522e+000	 6.904252661011612e-001	 1.065298491576349e+001
 4.161530089106282e+000	 7.295836603805948e-001	 1.030858809047250e+001
 4.154465181567210e+000	 7.687938964286721e-001	 9.946107181383363e+000
 4.232808361607396e+000	 3.818813610591916e-001	 1.003387070516083e+001
 4.229129376222968e+000	 4.206717475519838e-001	 1.024991909737056e+001
 4.225081071302157e+000	 4.595540674909442e-001	 1.046148040380003e+001
 4.220660395932038e+000	 4.985236426059478e-001	 1.066538545407107e+001
 4.215864366623790e+000	 5.375757083998118e-001	 1.085830253243462e+001
 4.210690069845527e+000	 5.767054150413700e-001	 1.103670467028979e+001
 4.205134664553647e+000	 6.159078283377324e-001	 1.119683582410526e+001
 4.199195384720043e+000	 6.551779307865258e-001	 1.096970495617579e+001
 4.192869541852530e+000	 6.945106227088218e-001	 1.061975901190564e+001
 4.186154527505775e+000	 7.339007234633734e-001	 1.025730319508248e+001
 4.179047815779902e+000	 7.733429727426728e-001	 9.881110803332378e+000
 3.933221473652993e+000	 7.278522096476667e-001	 1.107143020421485e+001
 3.926161850148238e+000	 7.650183830181283e-001	 1.093173541366803e+001
 3.918729058053593e+000	 8.022235159239719e-001	 1.080981649078447e+001
 3.910920967074734e+000	 8.394624406421655e-001	 1.071024330035356e+001
 3.902735533843881e+000	 8.767299201255315e-001	 1.063777835038025e+001
 3.894170804172645e+000	 9.140206496115851e-001	 1.059738896765932e+001
 3.885224915276651e+000	 9.513292583092480e-001	 1.059425950453696e+001
 3.875896097969084e+000	 9.886503111632026e-001	 1.063380353721844e+001
 3.866182678820226e+000	 1.025978310695547e+000	 1.072167601439588e+001
 3.856083082280073e+000	 1.063307698924287e+000	 1.086378531348064e+001
 3.845595832761096e+000	 1.100632859358089e+000	 1.106630516033463e+001
 3.957804107865683e+000	 7.324012859526673e-001	 1.090310007989812e+001
 3.950700361713788e+000	 7.697997479069519e-001	 1.079696585271716e+001
 3.943221114668281e+000	 8.072374128937929e-001	 1.070662562013496e+001
 3.935364223120499e+000	 8.447090808918899e-001	 1.063626463409598e+001
 3.927127630931612e+000	 8.822094821225213e-001	 1.059026048067623e+001
 3.918509371699555e+000	 9.197332786684372e-001	 1.057319589562793e+001
 3.909507570997549e+000	 9.572750661711157e-001	 1.058987162460707e+001
 3.900120448581363e+000	 9.948293756061439e-001	 1.064531928732331e+001
 3.890346320562341e+000	 1.032390675136384e+000	 1.074481420320426e+001
 3.880183601543291e+000	 1.069953372042454e+000	 1.089388813461484e+001
 3.869630806714263e+000	 1.107511814729950e+000	 1.109834190221995e+001
 3.982386742078373e+000	 7.369503622586678e-001	 1.074480264872370e+001
 3.975238873279343e+000	 7.745811127967659e-001	 1.067041308593193e+001
 3.967713171282988e+000	 8.122513098645752e-001	 1.060979786931836e+001
 3.959807479166306e+000	 8.499557211425273e-001	 1.056675504883322e+001
 3.951519728019421e+000	 8.876890441203555e-001	 1.054527473685183e+001
 3.942847939226587e+000	 9.254459077260459e-001	 1.054955257033400e+001
 3.933790226718624e+000	 9.632208740336316e-001	 1.058400323125446e+001
 3.924344799193880e+000	 1.001008440049605e+000	 1.065327398341145e+001
 3.914509962304768e+000	 1.038803039577591e+000	 1.076225818200975e+001
 3.904284120806907e+000	 1.076599045160822e+000	 1.091610871079875e+001
 3.893665780667924e+000	 1.114390770101823e+000	 1.112025130003408e+001
 4.006969376291065e+000	 7.414994385656684e-001	 1.059683317488364e+001
 3.999777384844903e+000	 7.793624776875702e-001	 1.055254505908367e+001
 3.992205227897715e+000	 8.172652068363189e-001	 1.051997303819301e+001
 3.984250735212159e+000	 8.552023613940774e-001	 1.050252527297265e+001
 3.975911825107309e+000	 8.931686061190346e-001	 1.050380175181350e+001
 3.967186506753740e+000	 9.311585367844107e-001	 1.052760840625245e+001
 3.958072882439873e+000	 9.691666818967957e-001	 1.057797129844238e+001
 3.948569149806638e+000	 1.007187504493586e+000	 1.065915083753846e+001
 3.938673604047511e+000	 1.045215404019170e+000	 1.077565598018615e+001
 3.928384640070924e+000	 1.083244718279394e+000	 1.093225836861691e+001
 3.917700754622081e+000	 1.121269725473710e+000	 1.113400635828461e+001
 4.031552010503756e+000	 7.460485148736690e-001	 1.045951692899071e+001
 4.024315896410468e+000	 7.841438425793651e-001	 1.044385730696171e+001
 4.016697284512461e+000	 8.222791038090240e-001	 1.043781610261031e+001
 4.008693991258054e+000	 8.604490016465402e-001	 1.044440880331685e+001
 4.000303922195272e+000	 8.986481681185581e-001	 1.046684252575199e+001
 3.991525074281016e+000	 9.368711658435323e-001	 1.050853079158812e+001
 3.982355538161300e+000	 9.751124897606082e-001	 1.057310838894552e+001
 3.972793500419636e+000	 1.013366568938087e+000	 1.066444627537667e+001
 3.962837245790567e+000	 1.051627768461121e+000	 1.078666647634940e+001
 3.952485159335339e+000	 1.089890391398167e+000	 1.094415693144450e+001
 3.941735728576730e+000	 1.128148680845609e+000	 1.114158623885012e+001
 4.056134644716447e+000	 7.505975911826697e-001	 1.033320827879310e+001
 4.048854407976037e+000	 7.889252074721501e-001	 1.034487211734250e+001
 4.041189341127226e+000	 8.272930007826903e-001	 1.036401645150610e+001
 4.033137247303993e+000	 8.656956418999160e-001	 1.039326121511254e+001
 4.024696019283316e+000	 9.041277301189261e-001	 1.043541780895193e+001
 4.015863641808412e+000	 9.425837949034094e-001	 1.049350454361716e+001
 4.006638193882901e+000	 9.810582976250682e-001	 1.057076218196163e+001
 3.997017851032876e+000	 1.019545633383108e+000	 1.067066953580280e+001
 3.987000887533941e+000	 1.058040132903442e+000	 1.079695906959295e+001
 3.976585678600152e+000	 1.096536064517142e+000	 1.095363246196876e+001
 3.965770702531872e+000	 1.135027636217520e+000	 1.114497607439336e+001
 4.080717278929137e+000	 7.551466674926702e-001	 1.021828981275447e+001
 4.073392919541611e+000	 7.937065723659253e-001	 1.025613772517691e+001
 4.065681397742011e+000	 8.323068977573183e-001	 1.029928715156669e+001
 4.057580503349976e+000	 8.709422821542042e-001	 1.034995949703707e+001
 4.049088116371435e+000	 9.096072921201384e-001	 1.041056750690935e+001
 4.040202209335932e+000	 9.482964239640435e-001	 1.048373138371509e+001
 4.030920849604679e+000	 9.870041054901770e-001	 1.057229501779785e+001
 4.021242201646354e+000	 1.025724697828648e+000	 1.067934228495782e+001
 4.011164529277626e+000	 1.064452497346135e+000	 1.080821336260570e+001
 4.000686197865364e+000	 1.103181737636320e+000	 1.096252101401711e+001
 3.989805676487509e+000	 1.141906591589444e+000	 1.114616678851839e+001
 4.105299913141828e+000	 7.596957438036709e-001	 1.011517149512260e+001
 4.097931431107191e+000	 7.984879372606913e-001	 1.017822753572854e+001
 4.090173454356815e+000	 8.373207947329071e-001	 1.024436423831417e+001
 4.082023759396003e+000	 8.761889224094055e-001	 1.031540141007774e+001
 4.073480213459632e+000	 9.150868541221949e-001	 1.039335010682267e+001
 4.064540776863572e+000	 9.540090530254336e-001	 1.048042943124602e+001
 4.055203505326633e+000	 9.929499133559340e-001	 1.057908345891502e+001
 4.045466552260073e+000	 1.031903762274709e+000	 1.069199824417342e+001
 4.035328171021625e+000	 1.070864861789199e+000	 1.082211885617528e+001
 4.024786717130976e+000	 1.109827410755700e+000	 1.097266639330124e+001
 4.013840650443639e+000	 1.148785546961380e+000	 1.114715492238897e+001
 4.129882547354518e+000	 7.642448201156715e-001	 1.002428985117370e+001
 4.122469942672774e+000	 8.032693021564474e-001	 1.011173937545740e+001
 4.114665510971639e+000	 8.423346917094579e-001	 1.020000603251015e+001
 4.106467015442072e+000	 8.814355626655194e-001	 1.029050486930829e+001
 4.097872310547908e+000	 9.205664161250965e-001	 1.038484212456546e+001
 4.088879344391335e+000	 9.597216820875805e-001	 1.048483271552724e+001
 4.079486161048762e+000	 9.988957212223391e-001	 1.059251786664947e+001
 4.069690902874032e+000	 1.038082826721289e+000	 1.071018283118648e+001
 4.059491812765941e+000	 1.077277226232635e+000	 1.084037465460176e+001
 4.048887236396987e+000	 1.116473083875282e+000	 1.098591992670637e+001
 4.037875624400262e+000	 1.155664502333329e+000	 1.114994246753932e+001
 4.154465181567210e+000	 7.687938964286721e-001	 9.946107181383363e+000
 4.147008454238363e+000	 8.080506670531940e-001	 1.005729476949933e+001
 4.139157567586481e+000	 8.473485886869693e-001	 1.016699248082915e+001
 4.130910271488186e+000	 8.866822029225462e-001	 1.027620734761424e+001
 4.122264407636262e+000	 9.260459781288424e-001	 1.038613757129398e+001
 4.113217911919219e+000	 9.654343111504833e-001	 1.049819070512054e+001
 4.103768816771066e+000	 1.004841529089392e+000	 1.061400199296226e+001
 4.093915253488230e+000	 1.044261891168389e+000	 1.073545281409136e+001
 4.083655454510569e+000	 1.083689590676441e+000	 1.086468918156981e+001
 4.072987755663395e+000	 1.123118756995066e+000	 1.100414023977126e+001
 4.061910598357380e+000	 1.162543457705291e+000	 1.115653670462059e+001
 4.179047815779902e+000	 7.733429727426728e-001	 9.881110803332378e+000
 4.171546965803959e+000	 8.128320319509310e-001	 1.001553824464600e+001
 4.163649624201344e+000	 8.523624856654427e-001	 1.014612451980235e+001
 4.155353527534344e+000	 8.919288431804858e-001	 1.027346530046306e+001
 4.146656504724693e+000	 9.315255401334329e-001	 1.039834743887986e+001
 4.137556479447226e+000	 9.711469402141431e-001	 1.052176785373687e+001
 4.128051472493548e+000	 1.010787336957094e+000	 1.064495258659722e+001
 4.118139604102669e+000	 1.050440955616010e+000	 1.076937597750617e+001
 4.107819096255514e+000	 1.090101955120620e+000	 1.089677990604954e+001
 4.097088274930204e+000	 1.129764430115053e+000	 1.102919304202198e+001
 4.085945572314992e+000	 1.169422413077266e+000	 1.116895004783849e+001
 3.845595832761096e+000	 1.100632859358089e+000	 1.106630516033463e+001
 3.834719556678107e+000	 1.137948119066728e+000	 1.086471041308064e+001
 3.823452984442649e+000	 1.175247750825766e+000	 1.071275111573874e+001
 3.811794952408592e+000	 1.212525975335377e+000	 1.061658366022994e+001
 3.799744404765942e+000	 1.249776963512203e+000	 1.058268526201616e+001
 3.787300395380251e+000	 1.286994838852475e+000	 1.056121427807593e+001
 3.774462089574614e+000	 1.324173679865362e+000	 1.055313995716421e+001
 3.761228765851377e+000	 1.361307522575099e+000	 1.056077618359556e+001
 3.747599817550745e+000	 1.398390363090334e+000	 1.059329428767636e+001
 3.733574754443465e+000	 1.435416160238980e+000	 1.067707942365943e+001
 3.719153204254849e+000	 1.472378838266780e+000	 1.077826683803840e+001
 3.869630806714263e+000	 1.107511814729950e+000	 1.109834190221995e+001
 3.858686553905200e+000	 1.145060294812716e+000	 1.087747107630584e+001
 3.847349565592751e+000	 1.182593049271040e+000	 1.070266011492058e+001
 3.835618670858000e+000	 1.220104262684471e+000	 1.057977671803018e+001
 3.823492807292140e+000	 1.257588069537881e+000	 1.052390980283190e+001
 3.810971022847385e+000	 1.295038556599349e+000	 1.053364476836439e+001
 3.798052477630096e+000	 1.332449765368725e+000	 1.055457615060332e+001
 3.784736445633262e+000	 1.369815694595396e+000	 1.058870528944369e+001
 3.771022316405465e+000	 1.407130302863686e+000	 1.063806331838673e+001
 3.756909596653516e+000	 1.444387511244183e+000	 1.070470648516067e+001
 3.742397911776015e+000	 1.481581206009164e+000	 1.081091827692600e+001
 3.893665780667924e+000	 1.114390770101823e+000	 1.112025130003408e+001
 3.882653551132883e+000	 1.152172470558531e+000	 1.087902102505142e+001
 3.871246146743528e+000	 1.189938347715985e+000	 1.068018958331769e+001
 3.859442389308159e+000	 1.227682550033110e+000	 1.052933337227254e+001
 3.847241209819154e+000	 1.265399175563005e+000	 1.047785578883411e+001
 3.834641650315390e+000	 1.303082274345601e+000	 1.051438648687055e+001
 3.821642865686497e+000	 1.340725850871429e+000	 1.055976797247597e+001
 3.808244125416102e+000	 1.378323866615026e+000	 1.061585590045305e+001
 3.794444815261164e+000	 1.415870242636395e+000	 1.068453570939609e+001
 3.780244438864562e+000	 1.453358862248797e+000	 1.076771802861063e+001
 3.765642619298180e+000	 1.490783573751044e+000	 1.086733394910013e+001
 3.917700754622081e+000	 1.121269725473710e+000	 1.113400635828461e+001
 3.906620548361152e+000	 1.159284646304173e+000	 1.087147075312365e+001
 3.895142727894979e+000	 1.197283646160600e+000	 1.064758613405199e+001
 3.883266107759068e+000	 1.235260837381292e+000	 1.046763490028104e+001
 3.870989612346985e+000	 1.273210281587576e+000	 1.044427798689724e+001
 3.858312277784268e+000	 1.311125992091232e+000	 1.050308838620983e+001
 3.845233253743815e+000	 1.349001936373475e+000	 1.056842219956838e+001
 3.831751805199895e+000	 1.386832038633990e+000	 1.064199236697310e+001
 3.817867314117841e+000	 1.424610182408460e+000	 1.072554161767596e+001
 3.803579281076603e+000	 1.462330213252820e+000	 1.082083796014189e+001
 3.788887326821345e+000	 1.499985941492418e+000	 1.092967003694280e+001
 3.941735728576730e+000	 1.128148680845609e+000	 1.114158623885012e+001
 3.930587545590011e+000	 1.166396822049642e+000	 1.085693513448660e+001
 3.919039309047104e+000	 1.204628944604886e+000	 1.060709898755921e+001
 3.907089826210725e+000	 1.242839124729018e+000	 1.039706341902758e+001
 3.894738014875633e+000	 1.281021387611593e+000	 1.042276637485032e+001
 3.881982905254016e+000	 1.319169709836241e+000	 1.049939674210757e+001
 3.868823641802051e+000	 1.357278021874860e+000	 1.058024118454828e+001
 3.855259484984642e+000	 1.395340210652288e+000	 1.066687287646951e+001
 3.841289812975499e+000	 1.433350122179882e+000	 1.076089480206265e+001
 3.826914123289639e+000	 1.471301564256254e+000	 1.086393532516873e+001
 3.812132034345510e+000	 1.509188309233287e+000	 1.097764362476321e+001
 3.965770702531872e+000	 1.135027636217520e+000	 1.114497607439336e+001
 3.954554542819460e+000	 1.173508997794938e+000	 1.083753329052978e+001
 3.942935890199904e+000	 1.211974243048843e+000	 1.056097989257963e+001
 3.930913544663135e+000	 1.250417412076288e+000	 1.032338511479723e+001
 3.918486417405096e+000	 1.288832493635056e+000	 1.041291003643606e+001
 3.905653532724638e+000	 1.327213427580630e+000	 1.050295523451689e+001
 3.892414029861205e+000	 1.365554107375588e+000	 1.059492299002890e+001
 3.878767164770342e+000	 1.403848382669918e+000	 1.069024964027856e+001
 3.864712311834137e+000	 1.442090061950661e+000	 1.079040136820134e+001
 3.850248965503669e+000	 1.480272915259099e+000	 1.089686984867581e+001
 3.835376741870674e+000	 1.518390676973651e+000	 1.101116776129243e+001
 3.989805676487509e+000	 1.141906591589444e+000	 1.114616678851839e+001
 3.978521540049498e+000	 1.180621173540061e+000	 1.081538846213390e+001
 3.966832471353379e+000	 1.219319541492470e+000	 1.051148305000406e+001
 3.954737263116293e+000	 1.257995699423101e+000	 1.031356963006707e+001
 3.942234819935373e+000	 1.296643599657964e+000	 1.041429718824104e+001
 3.929324160196131e+000	 1.335257145324396e+000	 1.051340502580458e+001
 3.916004417921275e+000	 1.373830192875655e+000	 1.061216151778773e+001
 3.902274844556996e+000	 1.412356554686883e+000	 1.071186907361077e+001
 3.888134810693752e+000	 1.450830001720796e+000	 1.081385999906387e+001
 3.873583807718695e+000	 1.489244266261354e+000	 1.091949221595405e+001
 3.858621449396840e+000	 1.527593044713509e+000	 1.103014484886176e+001
 4.013840650443639e+000	 1.148785546961380e+000	 1.114715492238897e+001
 4.002488537280124e+000	 1.187733349285011e+000	 1.079262788633260e+001
 3.990729052507526e+000	 1.226664839935768e+000	 1.046086503945636e+001
 3.978560981570202e+000	 1.265573986769458e+000	 1.031890040067575e+001
 3.965983222466468e+000	 1.304454705680320e+000	 1.042651520565860e+001
 3.952994787668497e+000	 1.343300863067542e+000	 1.053038483612797e+001
 3.939594805982265e+000	 1.382106278375064e+000	 1.063164663334227e+001
 3.925782524344604e+000	 1.420864726703181e+000	 1.073147196908779e+001
 3.911557309554348e+000	 1.459569941490288e+000	 1.083106217718461e+001
 3.896918649934715e+000	 1.498215617263019e+000	 1.093164434325015e+001
 3.881866156924004e+000	 1.536795412452863e+000	 1.103446696215711e+001
 4.037875624400262e+000	 1.155664502333329e+000	 1.114994246753932e+001
 4.026455534511339e+000	 1.194845525029789e+000	 1.077138267737942e+001
 4.014625633662350e+000	 1.234010138378737e+000	 1.041138474849774e+001
 4.002384700024861e+000	 1.273152274115358e+000	 1.033891401984667e+001
 3.989731624998379e+000	 1.312265811702122e+000	 1.044915064792431e+001
 3.976665415141733e+000	 1.351344580810066e+000	 1.055353101611973e+001
 3.963185194044174e+000	 1.390382363873814e+000	 1.065306428607691e+001
 3.949290204133165e+000	 1.429372898718813e+000	 1.074879366408115e+001
 3.934979808415922e+000	 1.468309881259137e+000	 1.084179239895896e+001
 3.920253492151730e+000	 1.507186968264094e+000	 1.093315963874999e+001
 3.905110864452169e+000	 1.545997780191711e+000	 1.102401615558943e+001
 4.061910598357380e+000	 1.162543457705291e+000	 1.115653670462059e+001
 4.050422531743143e+000	 1.201957700774393e+000	 1.075378771203720e+001
 4.038522214817848e+000	 1.241355436821377e+000	 1.036530330434453e+001
 4.026208418480270e+000	 1.280730561460802e+000	 1.037314780205194e+001
 4.013480027531105e+000	 1.320076917723369e+000	 1.048178928226262e+001
 4.000336042615841e+000	 1.359388298551968e+000	 1.058247761699213e+001
 3.986775582106998e+000	 1.398658449371905e+000	 1.067609662510470e+001
 3.972797883922680e+000	 1.437881070733778e+000	 1.076356420211039e+001
 3.958402307278477e+000	 1.477049821027342e+000	 1.084582838133396e+001
 3.943588334369740e+000	 1.516158319264580e+000	 1.092386325429645e+001
 3.928355571981333e+000	 1.555200147930054e+000	 1.099866475975257e+001
 4.085945572314992e+000	 1.169422413077266e+000	 1.116895004783849e+001
 4.074389528975536e+000	 1.209069876518825e+000	 1.074198151891589e+001
 4.062418795974019e+000	 1.248700735263687e+000	 1.032488400799604e+001
 4.050032136936431e+000	 1.288308848805791e+000	 1.042113976179918e+001
 4.037228430064649e+000	 1.327888023744064e+000	 1.052401610718135e+001
 4.024006670090824e+000	 1.367432016293249e+000	 1.061685645816713e+001
 4.010365970170742e+000	 1.406934534869337e+000	 1.070042211104030e+001
 3.996305563713150e+000	 1.446389242748077e+000	 1.077550848854449e+001
 3.981824806142011e+000	 1.485789760794904e+000	 1.084294126120390e+001
 3.966923176588746e+000	 1.525129670264477e+000	 1.090357232822300e+001
 3.951600279511499e+000	 1.564402515667893e+000	 1.095827566741779e+001
 3.719153204254849e+000	 1.472378838266780e+000	 1.077826683803840e+001
 3.704334914117635e+000	 1.509272289597060e+000	 1.083252310515931e+001
 3.689119751950341e+000	 1.546090377651534e+000	 1.087977059514136e+001
 3.673507707759193e+000	 1.582826939728250e+000	 1.091822033994143e+001
 3.657498894861323e+000	 1.619475789933606e+000	 1.094601643648090e+001
 3.641093551026176e+000	 1.656030722167824e+000	 1.096123692885269e+001
 3.624292039533033e+000	 1.692485513160644e+000	 1.096189486022620e+001
 3.607094850142330e+000	 1.728833925554607e+000	 1.094593949677236e+001
 3.589502599978650e+000	 1.765069711033147e+000	 1.091125772549651e+001
 3.571516034323234e+000	 1.801186613490625e+000	 1.085567562740943e+001
 3.553136027314097e+000	 1.837178372241353e+000	 1.077696022699458e+001
 3.742397911776015e+000	 1.481581206009164e+000	 1.081091827692600e+001
 3.727487007325320e+000	 1.518705241409741e+000	 1.085760681268599e+001
 3.712176750394490e+000	 1.555753442514154e+000	 1.089865549623299e+001
 3.696467130927288e+000	 1.592719608103563e+000	 1.093234574475082e+001
 3.680358262949078e+000	 1.629597513622534e+000	 1.095689026663012e+001
 3.663850385715369e+000	 1.666380914183164e+000	 1.097043384485643e+001
 3.646943864775933e+000	 1.703063547619756e+000	 1.097105429249272e+001
 3.629639192952213e+000	 1.739639137591368e+000	 1.095676358280323e+001
 3.611936991225819e+000	 1.776101396729453e+000	 1.092550915612382e+001
 3.593838009536003e+000	 1.812444029827716e+000	 1.087517540512502e+001
 3.575343127484140e+000	 1.848660737071182e+000	 1.080358533963494e+001
 3.765642619298180e+000	 1.490783573751044e+000	 1.086733394910013e+001
 3.750639100533996e+000	 1.528138193222007e+000	 1.086651108317000e+001
 3.735233748839598e+000	 1.565416507376429e+000	 1.090157507309193e+001
 3.719426554096293e+000	 1.602612276478584e+000	 1.093231471568280e+001
 3.703217631037676e+000	 1.639719237311200e+000	 1.095542079283433e+001
 3.686607220405314e+000	 1.676731106198253e+000	 1.096910384121175e+001
 3.669595690019477e+000	 1.713641582078609e+000	 1.097150543058204e+001
 3.652183535762611e+000	 1.750444349627840e+000	 1.096069920068348e+001
 3.634371382473355e+000	 1.787133082425422e+000	 1.093469207774156e+001
 3.616159984748968e+000	 1.823701446164399e+000	 1.089142567249127e+001
 3.597550227654190e+000	 1.860143101900514e+000	 1.082877786108338e+001
 3.788887326821345e+000	 1.499985941492418e+000	 1.092967003694280e+001
 3.773791193743661e+000	 1.537571145033858e+000	 1.091602617781718e+001
 3.758290747285668e+000	 1.575079572238360e+000	 1.090724127653283e+001
 3.742385977266211e+000	 1.612504944853310e+000	 1.091827604551510e+001
 3.726076999127117e+000	 1.649840960999604e+000	 1.094172390448338e+001
 3.709364055096014e+000	 1.687081298213092e+000	 1.095733036752826e+001
 3.692247515263667e+000	 1.724219616537203e+000	 1.096329976411061e+001
 3.674727878573528e+000	 1.761249561664024e+000	 1.095776637573432e+001
 3.656805773721259e+000	 1.798164768121054e+000	 1.093879556269825e+001
 3.638481959962133e+000	 1.834958862500678e+000	 1.090438507552920e+001
 3.619757327824249e+000	 1.871625466729350e+000	 1.085246655268251e+001
 3.812132034345510e+000	 1.509188309233287e+000	 1.097764362476321e+001
 3.796943286954317e+000	 1.547004096845295e+000	 1.095219522810616e+001
 3.781347745732699e+000	 1.584742637099947e+000	 1.093247924352649e+001
 3.765345400437040e+000	 1.622397613227744e+000	 1.091952499287278e+001
 3.748936367217401e+000	 1.659962684687746e+000	 1.091590727162274e+001
 3.732120889787468e+000	 1.697431490227681e+000	 1.093518941440710e+001
 3.714899340508502e+000	 1.734797650995537e+000	 1.094648207731791e+001
 3.697272221384957e+000	 1.772054773699920e+000	 1.094797917444461e+001
 3.679240164969529e+000	 1.809196453816350e+000	 1.093780346358706e+001
 3.660803935175493e+000	 1.846216278836549e+000	 1.091400777173407e+001
 3.641964427994314e+000	 1.883107831557690e+000	 1.086720735633328e+001
 3.835376741870674e+000	 1.518390676973651e+000	 1.101116776129243e+001
 3.820095380165963e+000	 1.556437048656317e+000	 1.097488749951397e+001
 3.804404744180690e+000	 1.594405701961191e+000	 1.094521111111982e+001
 3.788304823608782e+000	 1.632290281601885e+000	 1.092330629728454e+001
 3.771795735308528e+000	 1.670084408375626e+000	 1.091034210497641e+001
 3.754877724479677e+000	 1.707781682242019e+000	 1.090748433320912e+001
 3.737551165753982e+000	 1.745375685453612e+000	 1.092109065225983e+001
 3.719816564196905e+000	 1.782859985735528e+000	 1.093134588504162e+001
 3.701674556218167e+000	 1.820228139511308e+000	 1.093169457141999e+001
 3.683125910389052e+000	 1.857473695172015e+000	 1.092024356609137e+001
 3.664171528164389e+000	 1.894590196385535e+000	 1.087217468293569e+001
 3.858621449396840e+000	 1.527593044713509e+000	 1.103014484886176e+001
 3.843247473378598e+000	 1.565870000466923e+000	 1.098396234782111e+001
 3.827461742629643e+000	 1.604068766822089e+000	 1.094525354199424e+001
 3.811264246781434e+000	 1.642182949975732e+000	 1.091532492985902e+001
 3.794655103400498e+000	 1.680206132063244e+000	 1.089548423811575e+001
 3.777634559172638e+000	 1.718131874256107e+000	 1.088703561609659e+001
 3.760202991000108e+000	 1.755953719911429e+000	 1.089127476937228e+001
 3.742360907009369e+000	 1.793665197770848e+000	 1.090786919153495e+001
 3.724108947467171e+000	 1.831259825205929e+000	 1.092044276808525e+001
 3.705447885602808e+000	 1.868731111507073e+000	 1.092303804217643e+001
 3.686378628334472e+000	 1.906072561212882e+000	 1.086936473919370e+001
 3.881866156924004e+000	 1.536795412452863e+000	 1.103446696215711e+001
 3.866399566592226e+000	 1.575302952277115e+000	 1.097926951580905e+001
 3.850518741079555e+000	 1.613731831682643e+000	 1.093241429576164e+001
 3.834223669954999e+000	 1.652075618349287e+000	 1.089534704204354e+001
 3.817514471493310e+000	 1.690327855750601e+000	 1.086951460111897e+001
 3.800391393866355e+000	 1.728482066269944e+000	 1.085635990705888e+001
 3.782854816246880e+000	 1.766531754368986e+000	 1.085731689948335e+001
 3.764905249822349e+000	 1.804470409805881e+000	 1.087380539182654e+001
 3.746543338716543e+000	 1.842291510900213e+000	 1.090401717332698e+001
 3.727769860816763e+000	 1.879988527841726e+000	 1.091441555611497e+001
 3.708585728504561e+000	 1.917554926039734e+000	 1.085856004187238e+001
 3.905110864452169e+000	 1.545997780191711e+000	 1.102401615558943e+001
 3.889551659806843e+000	 1.584735904086892e+000	 1.096064941936125e+001
 3.873575739530430e+000	 1.623394896542854e+000	 1.090649249393669e+001
 3.857183093129476e+000	 1.661968286722549e+000	 1.086313083107269e+001
 3.840373839586965e+000	 1.700449579437696e+000	 1.083215086291572e+001
 3.823148228560824e+000	 1.738832258283531e+000	 1.081513476850954e+001
 3.805506641494296e+000	 1.777109788826284e+000	 1.081365517463758e+001
 3.787449592635845e+000	 1.815275621840625e+000	 1.082926980498380e+001
 3.768977729966283e+000	 1.853323196594161e+000	 1.086351609202917e+001
 3.750091836030915e+000	 1.891245944175972e+000	 1.088799885071379e+001
 3.730792828674659e+000	 1.929037290866090e+000	 1.083953977458030e+001
 3.928355571981333e+000	 1.555200147930054e+000	 1.099866475975257e+001
 3.912703753022449e+000	 1.594168855896254e+000	 1.092793342340703e+001
 3.896632737982265e+000	 1.633057961402721e+000	 1.086727887550175e+001
 3.880142516304863e+000	 1.671860955095517e+000	 1.081842677530009e+001
 3.863233207681464e+000	 1.710571303124529e+000	 1.078310363210546e+001
 3.845905063256049e+000	 1.749182450296867e+000	 1.076303135565261e+001
 3.828158466742357e+000	 1.787687823283322e+000	 1.075992173838518e+001
 3.809993935449857e+000	 1.826080833875081e+000	 1.077547088404057e+001
 3.791412121216387e+000	 1.864354882287771e+000	 1.081135359740959e+001
 3.772413811245264e+000	 1.902503360509812e+000	 1.081212220900713e+001
 3.752999928844765e+000	 1.940519655691950e+000	 1.080460721781581e+001
 3.951600279511499e+000	 1.564402515667893e+000	 1.095827566741779e+001
 3.935855846239047e+000	 1.603601807705202e+000	 1.088094410812605e+001
 3.919689736435062e+000	 1.642721026262243e+000	 1.081455604345211e+001
 3.903101939481164e+000	 1.681753623468193e+000	 1.076097786122425e+001
 3.886092575776805e+000	 1.720693026811100e+000	 1.072207666461405e+001
 3.868661897952027e+000	 1.759532642309953e+000	 1.069971460492973e+001
 3.850810291991065e+000	 1.798265857740103e+000	 1.069574314383560e+001
 3.832538278264387e+000	 1.836886045909251e+000	 1.071199725986022e+001
 3.813846512466861e+000	 1.875386567981045e+000	 1.074945808866907e+001
 3.794735786459812e+000	 1.913760776843247e+000	 1.072351920115459e+001
 3.775207029014879e+000	 1.952002020517314e+000	 1.071167939589427e+001
 3.553136027314097e+000	 1.837178372241353e+000	 1.077696022699458e+001
 3.534363582552064e+000	 1.873038725264742e+000	 1.078496482478464e+001
 3.515199833610371e+000	 1.908761412482587e+000	 1.079629742144583e+001
 3.495646044446416e+000	 1.944340179066090e+000	 1.080929900364577e+001
 3.475703609714792e+000	 1.979768778769483e+000	 1.082462697592108e+001
 3.455374054979497e+000	 2.015040977286106e+000	 1.084315960324591e+001
 3.434659036824272e+000	 2.050150555623709e+000	 1.086577736045285e+001
 3.413560342859975e+000	 2.085091313495474e+000	 1.089335936538078e+001
 3.392079891627955e+000	 2.119857072723085e+000	 1.092677978055878e+001
 3.370219732398644e+000	 2.154441680648208e+000	 1.096690419367822e+001
 3.347982044864625e+000	 2.188839013548634e+000	 1.101458598730567e+001
 3.575343127484140e+000	 1.848660737071182e+000	 1.080358533963494e+001
 3.556453354943440e+000	 1.884745217301496e+000	 1.081507569699325e+001
 3.537169832571847e+000	 1.920691171314830e+000	 1.082209854890052e+001
 3.517493832226492e+000	 1.956492305189702e+000	 1.082978182933960e+001
 3.497426757278562e+000	 1.992142333641310e+000	 1.083908475357207e+001
 3.476970142826823e+000	 2.027634983398575e+000	 1.085097328823199e+001
 3.456125655808670e+000	 2.062963996600546e+000	 1.086641649138508e+001
 3.434895095007523e+000	 2.098123134208610e+000	 1.088638280860800e+001
 3.413280390955621e+000	 2.133106179430838e+000	 1.091183633539195e+001
 3.391283605731327e+000	 2.167906941154781e+000	 1.094373305641748e+001
 3.368906932650309e+000	 2.202519257384963e+000	 1.098301707245800e+001
 3.597550227654190e+000	 1.860143101900514e+000	 1.082877786108338e+001
 3.578543127334634e+000	 1.896451709337664e+000	 1.083898159106995e+001
 3.559139831532969e+000	 1.932620930146416e+000	 1.084201095220897e+001
 3.539341620006065e+000	 1.968644431312607e+000	 1.084491659862076e+001
 3.519149904841695e+000	 2.004515888512400e+000	 1.084874500447086e+001
 3.498566230673402e+000	 2.040228989510295e+000	 1.085455040584120e+001
 3.477592274792230e+000	 2.075777437576643e+000	 1.086339100489240e+001
 3.456229847154165e+000	 2.111154954921036e+000	 1.087632512754088e+001
 3.434480890282327e+000	 2.146355286137930e+000	 1.089440734524596e+001
 3.412347479063021e+000	 2.181372201660761e+000	 1.091868457175332e+001
 3.389831820434993e+000	 2.216199501220790e+000	 1.095019214585958e+001
 3.619757327824249e+000	 1.871625466729350e+000	 1.085246655268251e+001
 3.600632899725644e+000	 1.908158201373246e+000	 1.085623954957206e+001
 3.581109830493738e+000	 1.944550688977346e+000	 1.085578200076976e+001
 3.561189407785133e+000	 1.980796557434805e+000	 1.085442584313065e+001
 3.540873052404194e+000	 2.016889443382750e+000	 1.085330539943494e+001
 3.520162318519236e+000	 2.052822995621266e+000	 1.085356375942960e+001
 3.499058893774951e+000	 2.088590878551999e+000	 1.085634884674587e+001
 3.477564599299897e+000	 2.124186775632750e+000	 1.086280943682178e+001
 3.455681389608072e+000	 2.159604392844360e+000	 1.087409113671770e+001
 3.433411352393724e+000	 2.194837462166148e+000	 1.089133233797479e+001
 3.410756708218677e+000	 2.229879745056114e+000	 1.091566015389236e+001
 3.641964427994314e+000	 1.883107831557690e+000	 1.086720735633328e+001
 3.622722672116472e+000	 1.919864693408242e+000	 1.086661836672469e+001
 3.603079829454155e+000	 1.956480447807618e+000	 1.086315608562468e+001
 3.583037195563700e+000	 1.992948683556295e+000	 1.085802951436462e+001
 3.562596199966057e+000	 2.029262998252362e+000	 1.085246143020323e+001
 3.541758406364323e+000	 2.065417001731487e+000	 1.084768437702262e+001
 3.520525512756837e+000	 2.101404319526615e+000	 1.084493659363557e+001
 3.498899351444721e+000	 2.137218596343753e+000	 1.084545789058170e+001
 3.476881888932859e+000	 2.172853499550127e+000	 1.085048548659799e+001
 3.454475225723439e+000	 2.208302722670943e+000	 1.086124981621991e+001
 3.431681596001361e+000	 2.243559988890935e+000	 1.087897032020287e+001
 3.664171528164389e+000	 1.894590196385535e+000	 1.087217468293569e+001
 3.644812444507119e+000	 1.931571185442651e+000	 1.086988356544291e+001
 3.625049828414220e+000	 1.968410206637234e+000	 1.086387470971174e+001
 3.604884983341759e+000	 2.005100809677077e+000	 1.085544506185844e+001
 3.584319347527285e+000	 2.041636553121235e+000	 1.084590647546899e+001
 3.563354494208664e+000	 2.078011007840958e+000	 1.083658156511324e+001
 3.541992131737884e+000	 2.114217760500490e+000	 1.082879949465782e+001
 3.520234103588635e+000	 2.150250417054044e+000	 1.082389171154633e+001
 3.498082388256687e+000	 2.186102606255232e+000	 1.082318763853243e+001
 3.475539099052163e+000	 2.221767983175145e+000	 1.082801033463163e+001
 3.452606483783046e+000	 2.257240232725254e+000	 1.083967213730042e+001
 3.686378628334472e+000	 1.906072561212882e+000	 1.086936473919370e+001
 3.666902216897582e+000	 1.943277677476475e+000	 1.086579749586515e+001
 3.647019827373930e+000	 1.980339965466193e+000	 1.085767657485640e+001
 3.626732771119316e+000	 2.017252935797153e+000	 1.084638750854853e+001
 3.606042495087878e+000	 2.054010107989370e+000	 1.083333186452578e+001
 3.584950582052259e+000	 2.090605013949680e+000	 1.081992296051507e+001
 3.563458750718096e+000	 2.127031201473625e+000	 1.080758151130292e+001
 3.541568855731643e+000	 2.163282237763625e+000	 1.079773121909076e+001
 3.519282887579554e+000	 2.199351712959675e+000	 1.079179431907985e+001
 3.496602972379898e+000	 2.235233243678755e+000	 1.079118709236384e+001
 3.473531371563731e+000	 2.270920476559069e+000	 1.079731535845872e+001
 3.708585728504561e+000	 1.917554926039734e+000	 1.085856004187238e+001
 3.688991989287863e+000	 1.954984169509711e+000	 1.085411943034666e+001
 3.668989826333287e+000	 1.992269724294494e+000	 1.084429766563715e+001
 3.648580558896369e+000	 2.029405061916519e+000	 1.083056952342451e+001
 3.627765642647837e+000	 2.066383662856766e+000	 1.081442693862646e+001
 3.606546669895108e+000	 2.103199020057653e+000	 1.079737458035298e+001
 3.584925369697467e+000	 2.139844642446019e+000	 1.078092535600622e+001
 3.562903607873741e+000	 2.176314058472493e+000	 1.076659585628555e+001
 3.540483386901463e+000	 2.212600819663457e+000	 1.075590175319414e+001
 3.517666845706642e+000	 2.248698504181773e+000	 1.075035316344317e+001
 3.494456259343415e+000	 2.284600720392382e+000	 1.075144998990857e+001
 3.730792828674659e+000	 1.929037290866090e+000	 1.083953977458030e+001
 3.711081761677962e+000	 1.966690661542362e+000	 1.083460565506008e+001
 3.690959825292292e+000	 2.004199483122139e+000	 1.082347133025603e+001
 3.670428346672918e+000	 2.041557188035179e+000	 1.080770149158720e+001
 3.649488790207159e+000	 2.078757217723425e+000	 1.078887911015147e+001
 3.628142757737212e+000	 2.115793026164876e+000	 1.076860087026793e+001
 3.606391988676003e+000	 2.152658083417673e+000	 1.074847252932251e+001
 3.584238360014931e+000	 2.189345879180650e+000	 1.073010421597758e+001
 3.561683886222414e+000	 2.225849926366577e+000	 1.071510567915272e+001
 3.538730719032397e+000	 2.262163764684197e+000	 1.070508150049322e+001
 3.515381147122099e+000	 2.298280964225193e+000	 1.070162628330940e+001
 3.752999928844765e+000	 1.940519655691950e+000	 1.080460721781581e+001
 3.733171534067878e+000	 1.978397153574426e+000	 1.080700955834413e+001
 3.712929824250944e+000	 2.016129241949128e+000	 1.079492835853783e+001
 3.692276134448963e+000	 2.053709314153131e+000	 1.077749158181940e+001
 3.671211937765849e+000	 2.091130772589344e+000	 1.075637391967581e+001
 3.649738845578568e+000	 2.128387032271350e+000	 1.073326475091078e+001
 3.627858607653701e+000	 2.165471524388586e+000	 1.070986335578028e+001
 3.605573112155213e+000	 2.202377699888097e+000	 1.068787406594434e+001
 3.582884385542403e+000	 2.239099033069033e+000	 1.066900136295551e+001
 3.559794592357163e+000	 2.275629025186031e+000	 1.065494493832618e+001
 3.536306034899783e+000	 2.311961208057501e+000	 1.064739472848809e+001
 3.775207029014879e+000	 1.952002020517314e+000	 1.071167939589427e+001
 3.755261306457614e+000	 1.990103645605905e+000	 1.075430958267472e+001
 3.734899823209243e+000	 2.028059000775460e+000	 1.075839705717655e+001
 3.714123922224505e+000	 2.065861440270376e+000	 1.073964581177152e+001
 3.692935085323902e+000	 2.103504327454524e+000	 1.071659509102213e+001
 3.671334933419179e+000	 2.140981038377074e+000	 1.069102766279475e+001
 3.649325226630563e+000	 2.178284965358760e+000	 1.066473701847100e+001
 3.626907864294588e+000	 2.215409520594832e+000	 1.063952237316079e+001
 3.604084884861436e+000	 2.252348139770829e+000	 1.061718361221532e+001
 3.580858465680939e+000	 2.289094285687271e+000	 1.059951619740795e+001
 3.557230922676468e+000	 2.325641451889307e+000	 1.058830604643404e+001
 3.347982044864625e+000	 2.188839013548634e+000	 1.101458598730567e+001
 3.325369138727341e+000	 2.223042980055294e+000	 1.118539093402717e+001
 3.302383453178052e+000	 2.257047524566414e+000	 1.130609789202822e+001
 3.279027556272166e+000	 2.290846630654906e+000	 1.137702138428224e+001
 3.255304144196107e+000	 2.324434324465134e+000	 1.139850258630587e+001
 3.231216040427901e+000	 2.357804678095200e+000	 1.137090658663608e+001
 3.206766194791350e+000	 2.390951812960878e+000	 1.129461963499993e+001
 3.181957682404209e+000	 2.423869903137295e+000	 1.117004638728728e+001
 3.156793702520921e+000	 2.456553178674486e+000	 1.099760715645784e+001
 3.131277577270649e+000	 2.488995928882964e+000	 1.077773517849829e+001
 3.105412750291483e+000	 2.521192505585459e+000	 1.074118315541839e+001
 3.368906932650309e+000	 2.202519257384963e+000	 1.098301707245800e+001
 3.346152695849630e+000	 2.236936998681402e+000	 1.114074571571291e+001
 3.323023349765487e+000	 2.271154071594951e+000	 1.125303501135361e+001
 3.299521478503630e+000	 2.305164422095855e+000	 1.132029825855962e+001
 3.275649795101650e+000	 2.338962038991881e+000	 1.134297094752858e+001
 3.251411140684311e+000	 2.372540957331742e+000	 1.132150784399183e+001
 3.226808483511813e+000	 2.405895261790064e+000	 1.125638006713847e+001
 3.201844917921395e+000	 2.439019090029942e+000	 1.114807217047344e+001
 3.176523663162845e+000	 2.471906636039225e+000	 1.099707923514447e+001
 3.150848062128627e+000	 2.504552153436616e+000	 1.080094393182838e+001
 3.124821579979573e+000	 2.536949958743739e+000	 1.054638121083642e+001
 3.389831820434993e+000	 2.216199501220790e+000	 1.095019214585958e+001
 3.366936252970930e+000	 2.250831017307106e+000	 1.109546112994323e+001
 3.343663246351960e+000	 2.285260618623185e+000	 1.119990607333870e+001
 3.320015400734184e+000	 2.319482213536602e+000	 1.126403939298022e+001
 3.295995446006354e+000	 2.353489753518525e+000	 1.128839125400338e+001
 3.271606240939970e+000	 2.387277236568283e+000	 1.127350647732955e+001
 3.246850772231635e+000	 2.420838710619349e+000	 1.121994144635762e+001
 3.221732153438071e+000	 2.454168276922787e+000	 1.112826102270609e+001
 3.196253623804405e+000	 2.487260093404262e+000	 1.099903548094839e+001
 3.170418546986412e+000	 2.520108377990667e+000	 1.081485567249058e+001
 3.144230409667659e+000	 2.552707411902517e+000	 1.058182452105688e+001
 3.410756708218677e+000	 2.229879745056114e+000	 1.091566015389236e+001
 3.387719810091239e+000	 2.264725035932409e+000	 1.104906190171153e+001
 3.364303142937475e+000	 2.299367165651117e+000	 1.114621274898919e+001
 3.340509322963827e+000	 2.333800004977146e+000	 1.120772459099207e+001
 3.316341096910214e+000	 2.368017468045066e+000	 1.123422264634488e+001
 3.291801341194877e+000	 2.402013515804820e+000	 1.122634218668790e+001
 3.266893060950814e+000	 2.435782159448730e+000	 1.118472527112542e+001
 3.241619388954234e+000	 2.469317463815831e+000	 1.111001749582817e+001
 3.215983584445603e+000	 2.502613550769599e+000	 1.099997781380659e+001
 3.189989031844004e+000	 2.535664602545117e+000	 1.082375884041580e+001
 3.163639239355744e+000	 2.568464865061795e+000	 1.061475022828992e+001
 3.431681596001361e+000	 2.243559988890935e+000	 1.087897032020287e+001
 3.408503367210559e+000	 2.278619054557308e+000	 1.100107344103078e+001
 3.384943039522027e+000	 2.313473712678746e+000	 1.109145777766385e+001
 3.361003245192558e+000	 2.348117796417488e+000	 1.115083508305467e+001
 3.336686747813235e+000	 2.382545182571506e+000	 1.117992602592190e+001
 3.311996441449034e+000	 2.416749795041357e+000	 1.117945674146165e+001
 3.286935349669351e+000	 2.450725608278211e+000	 1.115015539251765e+001
 3.261506624469885e+000	 2.484466650709074e+000	 1.109274875199724e+001
 3.235713545086439e+000	 2.517967008135233e+000	 1.098424840824542e+001
 3.209559516701405e+000	 2.551220827099966e+000	 1.082761119236281e+001
 3.183048069043826e+000	 2.584222318221571e+000	 1.064301498531704e+001
 3.452606483783046e+000	 2.257240232725254e+000	 1.083967213730042e+001
 3.429286924328888e+000	 2.292513073181805e+000	 1.095102182217521e+001
 3.405582936105621e+000	 2.327580259706072e+000	 1.103514493470045e+001
 3.381497167420379e+000	 2.362435587857627e+000	 1.109285348339603e+001
 3.357032398715415e+000	 2.397072897097843e+000	 1.112496400150093e+001
 3.332191541702438e+000	 2.431486074277890e+000	 1.113229391769375e+001
 3.306977638387247e+000	 2.465669057107789e+000	 1.111565794292657e+001
 3.281393859985024e+000	 2.499615837602514e+000	 1.107586448458499e+001
 3.255443505726912e+000	 2.533320465501167e+000	 1.096299048223293e+001
 3.229130001558612e+000	 2.566777051655213e+000	 1.082637344110933e+001
 3.202456898731904e+000	 2.599979771381846e+000	 1.066657183116819e+001
 3.473531371563731e+000	 2.270920476559069e+000	 1.079731535845872e+001
 3.450070481446228e+000	 2.306407091805899e+000	 1.089843376367259e+001
 3.426222832688254e+000	 2.341686806733097e+000	 1.097677900021141e+001
 3.401991089647289e+000	 2.376753379297564e+000	 1.103326374833308e+001
 3.377378049616753e+000	 2.411600611624078e+000	 1.106880083781871e+001
 3.352386641955090e+000	 2.446222353514423e+000	 1.108429943763433e+001
 3.327019927104501e+000	 2.480612505937466e+000	 1.108066126734694e+001
 3.301281095499650e+000	 2.514765024496154e+000	 1.103386134302405e+001
 3.275173466367023e+000	 2.548673922867398e+000	 1.093617605914356e+001
 3.248700486415628e+000	 2.582333276210859e+000	 1.082000916641581e+001
 3.221865728419981e+000	 2.615737224542619e+000	 1.068537684120383e+001
 3.494456259343415e+000	 2.284600720392382e+000	 1.075144998990857e+001
 3.470854038562576e+000	 2.320301110429591e+000	 1.084283660901494e+001
 3.446862729269924e+000	 2.355793353759818e+000	 1.091586572900078e+001
 3.422485011873289e+000	 2.391071170737298e+000	 1.097155113608925e+001
 3.397723700517250e+000	 2.426128326150211e+000	 1.101090240600219e+001
 3.372581742206993e+000	 2.460958632750953e+000	 1.103492091147102e+001
 3.347062215821113e+000	 2.495555954767241e+000	 1.104459585712987e+001
 3.321168331013764e+000	 2.529914211389991e+000	 1.098522369376093e+001
 3.294903427006772e+000	 2.564027380233929e+000	 1.090377975546782e+001
 3.268270971272450e+000	 2.597889500766903e+000	 1.080848472918722e+001
 3.241274558108055e+000	 2.631494677703892e+000	 1.069938903620698e+001
 3.515381147122099e+000	 2.298280964225193e+000	 1.070162628330940e+001
 3.491637595677935e+000	 2.334195129052880e+000	 1.078375830805867e+001
 3.467502625850637e+000	 2.369899900786238e+000	 1.085191182155562e+001
 3.442978934098379e+000	 2.405388962176831e+000	 1.090720216804734e+001
 3.418069351416905e+000	 2.440656040676242e+000	 1.095073613575940e+001
 3.392776842458142e+000	 2.475694911987481e+000	 1.098360778114018e+001
 3.367104504537082e+000	 2.510499403597114e+000	 1.098590210360465e+001
 3.341055566527367e+000	 2.545063398284027e+000	 1.093051433248255e+001
 3.314633387646158e+000	 2.579380837600758e+000	 1.086577870363622e+001
 3.287841456129080e+000	 2.613445725323346e+000	 1.079176918870112e+001
 3.260683387796125e+000	 2.647252130865662e+000	 1.070857029472185e+001
 3.536306034899783e+000	 2.311961208057501e+000	 1.064739472848809e+001
 3.512421152792304e+000	 2.348089147675766e+000	 1.072072739908473e+001
 3.488142522430388e+000	 2.384006447812355e+000	 1.078442489606705e+001
 3.463472856322557e+000	 2.419706753616161e+000	 1.083970459137784e+001
 3.438415002315721e+000	 2.455183755202171e+000	 1.088777096926751e+001
 3.412971942708542e+000	 2.490431191224007e+000	 1.092981126613331e+001
 3.387146793252411e+000	 2.525442852427086e+000	 1.091242987070970e+001
 3.360942802040456e+000	 2.560212585178260e+000	 1.086972159308883e+001
 3.334363348285182e+000	 2.594734294967884e+000	 1.082215247758313e+001
 3.307411940985517e+000	 2.629001949880188e+000	 1.076983422277415e+001
 3.280092217484194e+000	 2.663009584027932e+000	 1.071288526850458e+001
 3.557230922676468e+000	 2.325641451889307e+000	 1.058830604643404e+001
 3.533204709905683e+000	 2.361983166298250e+000	 1.065327299149181e+001
 3.508782419009181e+000	 2.398112994838169e+000	 1.071291346143920e+001
 3.483966778545826e+000	 2.434024545055288e+000	 1.076854734298644e+001
 3.458760653213695e+000	 2.469711469727997e+000	 1.082147731668838e+001
 3.433167042958189e+000	 2.505167470460531e+000	 1.086132047583474e+001
 3.407189081967097e+000	 2.540386301257156e+000	 1.083236370358359e+001
 3.380830037553035e+000	 2.575361772072694e+000	 1.080283598576459e+001
 3.354093308923844e+000	 2.610087752335311e+000	 1.077288302093803e+001
 3.326982425841762e+000	 2.644558174437429e+000	 1.074265405074606e+001
 3.299501047172259e+000	 2.678767037190700e+000	 1.071230130095828e+001
 3.105412750291483e+000	 2.521192505585459e+000	 1.074118315541839e+001
 3.079202785261663e+000	 2.553137326331711e+000	 1.083344954756232e+001
 3.052651364329598e+000	 2.584824877570536e+000	 1.090798571858990e+001
 3.025762286443788e+000	 2.616249717776629e+000	 1.096518507413902e+001
 2.998539465583634e+000	 2.647406480529932e+000	 1.100542671644520e+001
 2.970986928893433e+000	 2.678289877541902e+000	 1.102907460767027e+001
 2.943108814721196e+000	 2.708894701625782e+000	 1.103647680664476e+001
 2.914909370564268e+000	 2.739215829607388e+000	 1.102796478127600e+001
 2.886392950923881e+000	 2.769248225173028e+000	 1.100385279860223e+001
 2.857564015070873e+000	 2.798986941651219e+000	 1.096443739419315e+001
 2.828427124725000e+000	 2.828427124725000e+000	 1.090999692231049e+001
 3.124821579979573e+000	 2.536949958743739e+000	 1.054638121083642e+001
 3.098447802667084e+000	 2.569094434619900e+000	 1.066971025467848e+001
 3.071730435353172e+000	 2.600980033054107e+000	 1.077232025362543e+001
 3.044673300729766e+000	 2.632601278511519e+000	 1.085454711474465e+001
 3.017280337238637e+000	 2.663952771031953e+000	 1.091671452146244e+001
 2.989555597193736e+000	 2.695029189275061e+000	 1.095913315226077e+001
 2.961503244807747e+000	 2.725825293509171e+000	 1.098209997115810e+001
 2.933127554124877e+000	 2.756335928540260e+000	 1.098589759214602e+001
 2.904432906861987e+000	 2.786556026577674e+000	 1.097079371948270e+001
 2.875423790160359e+000	 2.816480610033235e+000	 1.093704066546642e+001
 2.846104794250500e+000	 2.846104794250500e+000	 1.088487494702475e+001
 3.144230409667659e+000	 2.552707411902517e+000	 1.058182452105688e+001
 3.117692820072692e+000	 2.585051542908685e+000	 1.051823114178872e+001
 3.090809506377103e+000	 2.617135188538357e+000	 1.064770308813449e+001
 3.063584315016251e+000	 2.648952839247163e+000	 1.075379513300378e+001
 3.036021208894279e+000	 2.680499061534792e+000	 1.083677624752501e+001
 3.008124265494787e+000	 2.711768501009095e+000	 1.089690448969534e+001
 2.979897674895137e+000	 2.742755885393480e+000	 1.093442634781802e+001
 2.951345737686393e+000	 2.773456027474086e+000	 1.094957615625350e+001
 2.922472862801052e+000	 2.803863827983300e+000	 1.094257558530776e+001
 2.893283565250835e+000	 2.833974278416245e+000	 1.091363320680309e+001
 2.863782463777000e+000	 2.863782463776999e+000	 1.086294413659356e+001
 3.163639239355744e+000	 2.568464865061795e+000	 1.061475022828992e+001
 3.136937837478489e+000	 2.601008651198063e+000	 1.050383990368137e+001
 3.109888577401393e+000	 2.633290344023287e+000	 1.053372397865598e+001
 3.082495329303244e+000	 2.665304399983560e+000	 1.066253727512376e+001
 3.054762080550557e+000	 2.697045352038451e+000	 1.076523787144948e+001
 3.026692933796586e+000	 2.728507812744002e+000	 1.084203185962949e+001
 2.998292104983366e+000	 2.759686477278708e+000	 1.089311586291311e+001
 2.969563921248821e+000	 2.790576126408868e+000	 1.091867650216195e+001
 2.940512818741077e+000	 2.821171629389906e+000	 1.091888993469456e+001
 2.911143340342302e+000	 2.851467946800251e+000	 1.089392146708770e+001
 2.881460133304500e+000	 2.881460133304500e+000	 1.084392524312109e+001
 3.183048069043826e+000	 2.584222318221571e+000	 1.064301498531704e+001
 3.156182854884472e+000	 2.616965759488034e+000	 1.056365645506295e+001
 3.128967648426041e+000	 2.649445499508894e+000	 1.046859191894719e+001
 3.101406343590746e+000	 2.681655960720713e+000	 1.058038342627104e+001
 3.073502952207476e+000	 2.713591642542929e+000	 1.070172664772456e+001
 3.045261602099134e+000	 2.745247124479786e+000	 1.079415933612083e+001
 3.016686535072434e+000	 2.776617069164856e+000	 1.085782885211090e+001
 2.987782104812156e+000	 2.807696225344604e+000	 1.089287466125492e+001
 2.958552774682061e+000	 2.838479430797493e+000	 1.089942792119319e+001
 2.929003115434758e+000	 2.868961615185252e+000	 1.087761114111652e+001
 2.899137802833000e+000	 2.899137802833000e+000	 1.082753791465021e+001
 3.202456898731904e+000	 2.599979771381846e+000	 1.066657183116819e+001
 3.175427872290643e+000	 2.632922867778599e+000	 1.061768355018984e+001
 3.148046719451045e+000	 2.665600654995181e+000	 1.055036418556288e+001
 3.120317357878755e+000	 2.698007521458618e+000	 1.050694515787532e+001
 3.092243823865032e+000	 2.730137933048225e+000	 1.064587106979360e+001
 3.063830270402431e+000	 2.761986436216442e+000	 1.075293180234423e+001
 3.035080965162342e+000	 2.793547661051924e+000	 1.082822604805210e+001
 3.006000288376403e+000	 2.824816324281295e+000	 1.087184666765078e+001
 2.976592730624006e+000	 2.855787232206058e+000	 1.088388032495538e+001
 2.946862890528205e+000	 2.886455283571248e+000	 1.086440719244832e+001
 2.916815472362500e+000	 2.916815472362500e+000	 1.081350072861889e+001
 3.221865728419981e+000	 2.615737224542619e+000	 1.068537684120383e+001
 3.194672889697001e+000	 2.648879976069759e+000	 1.066589613973197e+001
 3.167125790476407e+000	 2.681755810482146e+000	 1.062529387108454e+001
 3.139228372167273e+000	 2.714359082197278e+000	 1.056374581483091e+001
 3.110984695523227e+000	 2.746684223554341e+000	 1.059730083273686e+001
 3.082398938706478e+000	 2.778725747953974e+000	 1.071799492622073e+001
 3.053475395253089e+000	 2.810478252939911e+000	 1.080396856839393e+001
 3.024218471941558e+000	 2.841936423218940e+000	 1.085526855812020e+001
 2.994632686566910e+000	 2.873095033615604e+000	 1.087193756398137e+001
 2.964722665622641e+000	 2.903948951958238e+000	 1.085401387542987e+001
 2.934493141892999e+000	 2.934493141893000e+000	 1.080153122410740e+001
 3.241274558108055e+000	 2.631494677703892e+000	 1.069938903620698e+001
 3.213917907103547e+000	 2.664837084361511e+000	 1.070827165098139e+001
 3.186204861502127e+000	 2.697910965969791e+000	 1.069337611739247e+001
 3.158139386456297e+000	 2.730710642936692e+000	 1.065482539071402e+001
 3.129725567182059e+000	 2.763230514061277e+000	 1.059276248925694e+001
 3.100967607011273e+000	 2.795465059692379e+000	 1.068899513692222e+001
 3.071869825344675e+000	 2.827408844828818e+000	 1.078471790428233e+001
 3.042436655507623e+000	 2.859056522157541e+000	 1.084281637200688e+001
 3.012672642510775e+000	 2.890402835026130e+000	 1.086328970496270e+001
 2.982582440718067e+000	 2.921442620346225e+000	 1.084613475642979e+001
 2.952170811424500e+000	 2.952170811424500e+000	 1.079134593292679e+001
 3.260683387796125e+000	 2.647252130865662e+000	 1.070857029472185e+001
 3.233162924510279e+000	 2.680794192653857e+000	 1.074478991414324e+001
 3.205283932528204e+000	 2.714066121458114e+000	 1.075460802971191e+001
 3.177050400745831e+000	 2.747062203676860e+000	 1.073809544644974e+001
 3.148466438841531e+000	 2.779776804569032e+000	 1.069534590328511e+001
 3.119536275316817e+000	 2.812204371431659e+000	 1.066557960221504e+001
 3.090264255437100e+000	 2.844339436718644e+000	 1.077013590923647e+001
 3.060654839074597e+000	 2.876176621097097e+000	 1.083416615115080e+001
 3.030712598455599e+000	 2.907710636437635e+000	 1.085762647373811e+001
 3.000442215814484e+000	 2.938936288735205e+000	 1.084047273431395e+001
 2.969848480956999e+000	 2.969848480956999e+000	 1.078266040959712e+001
 3.280092217484194e+000	 2.663009584027932e+000	 1.071288526850458e+001
 3.252407941917199e+000	 2.696751300946797e+000	 1.077543309124379e+001
 3.224363003554640e+000	 2.730221276947116e+000	 1.080898861852560e+001
 3.195961415035872e+000	 2.763413764417781e+000	 1.081357117105433e+001
 3.167207310501641e+000	 2.796323095077605e+000	 1.078922585827697e+001
 3.138104943623109e+000	 2.828943683171814e+000	 1.073602308679617e+001
 3.108658685530366e+000	 2.861270028609391e+000	 1.075988478842758e+001
 3.078873022642481e+000	 2.893296720037606e+000	 1.082899393981447e+001
 3.048752554401382e+000	 2.925018437850121e+000	 1.085463726537755e+001
 3.018301990911890e+000	 2.956429957125181e+000	 1.083673006019433e+001
 2.987526150490500e+000	 2.987526150490500e+000	 1.077518926026149e+001
 3.299501047172259e+000	 2.678767037190700e+000	 1.071230130095828e+001
 3.271652959324307e+000	 2.712708409240331e+000	 1.080018560754714e+001
 3.243442074581433e+000	 2.746376432436797e+000	 1.085651874353717e+001
 3.214872429326423e+000	 2.779765325159458e+000	 1.088126920335785e+001
 3.185948182162390e+000	 2.812869385586999e+000	 1.087443410941457e+001
 3.156673611930152e+000	 2.845682994912843e+000	 1.083603876932118e+001
 3.127053115624469e+000	 2.878200620501056e+000	 1.076613617670446e+001
 3.097091206211275e+000	 2.910416818979071e+000	 1.082697578461173e+001
 3.066792510348126e+000	 2.942326239263587e+000	 1.085401115391099e+001
 3.036161766010287e+000	 2.973923625516153e+000	 1.083460835648022e+001
 3.005203820025000e+000	 3.005203820025000e+000	 1.076864617057936e+001
 2.828427124725000e+000	 2.828427124725000e+000	 1.090999692231049e+001
 2.798986941651219e+000	 2.857564015070872e+000	 1.093418870775695e+001
 2.769248225173028e+000	 2.886392950923880e+000	 1.094048473221938e+001
 2.739215829607389e+000	 2.914909370564268e+000	 1.092862520076160e+001
 2.708894701625782e+000	 2.943108814721194e+000	 1.089833606248218e+001
 2.678289877541904e+000	 2.970986928893432e+000	 1.084932947406251e+001
 2.647406480529933e+000	 2.998539465583634e+000	 1.078130433829347e+001
 2.616249717776630e+000	 3.025762286443787e+000	 1.069394691609762e+001
 2.584824877570537e+000	 3.052651364329597e+000	 1.058693151028877e+001
 2.553137326331712e+000	 3.079202785261663e+000	 1.045992121904679e+001
 2.521192505585459e+000	 3.105412750291483e+000	 1.031256875682508e+001
 2.846104794250500e+000	 2.846104794250500e+000	 1.088487494702475e+001
 2.816480610033235e+000	 2.875423790160357e+000	 1.090121286307367e+001
 2.786556026577674e+000	 2.904432906861986e+000	 1.090021179316454e+001
 2.756335928540261e+000	 2.933127554124876e+000	 1.088162091630323e+001
 2.725825293509172e+000	 2.961503244807746e+000	 1.084517378891125e+001
 2.695029189275062e+000	 2.989555597193734e+000	 1.079058880506396e+001
 2.663952771031953e+000	 3.017280337238636e+000	 1.071756973467806e+001
 2.632601278511520e+000	 3.044673300729764e+000	 1.062580633815129e+001
 2.600980033054109e+000	 3.071730435353171e+000	 1.051497505567625e+001
 2.569094434619902e+000	 3.098447802667084e+000	 1.038473976917424e+001
 2.536949958743739e+000	 3.124821579979572e+000	 1.023475263452958e+001
 2.863782463777000e+000	 2.863782463776999e+000	 1.086294413659356e+001
 2.833974278416246e+000	 2.893283565250835e+000	 1.087163020790435e+001
 2.803863827983302e+000	 2.922472862801051e+000	 1.086353886047983e+001
 2.773456027474088e+000	 2.951345737686393e+000	 1.083842812102445e+001
 2.742755885393481e+000	 2.979897674895137e+000	 1.079603901153978e+001
 2.711768501009096e+000	 3.008124265494785e+000	 1.073609600643852e+001
 2.680499061534793e+000	 3.036021208894278e+000	 1.065830757061308e+001
 2.648952839247163e+000	 3.063584315016249e+000	 1.056236677694842e+001
 2.617135188538358e+000	 3.090809506377103e+000	 1.044795200147772e+001
 2.585051542908686e+000	 3.117692820072692e+000	 1.031472769409684e+001
 2.552707411902518e+000	 3.144230409667660e+000	 1.030461747035352e+001
 2.881460133304500e+000	 2.881460133304500e+000	 1.084392524312109e+001
 2.851467946800252e+000	 2.911143340342301e+000	 1.084515776938554e+001
 2.821171629389907e+000	 2.940512818741075e+000	 1.083017952690451e+001
 2.790576126408868e+000	 2.969563921248819e+000	 1.079875726526728e+001
 2.759686477278710e+000	 2.998292104983365e+000	 1.075063933147519e+001
 2.728507812744004e+000	 3.026692933796586e+000	 1.068555612411737e+001
 2.697045352038451e+000	 3.054762080550557e+000	 1.060322063154090e+001
 2.665304399983561e+000	 3.082495329303243e+000	 1.050332905249147e+001
 2.633290344023287e+000	 3.109888577401392e+000	 1.038556149740042e+001
 2.601008651198064e+000	 3.136937837478488e+000	 1.032949799972194e+001
 2.568464865061795e+000	 3.163639239355744e+000	 1.037114916960909e+001
 2.899137802833000e+000	 2.899137802833000e+000	 1.082753791465021e+001
 2.868961615185253e+000	 2.929003115434757e+000	 1.082151156457490e+001
 2.838479430797494e+000	 2.958552774682060e+000	 1.079984646623401e+001
 2.807696225344604e+000	 2.987782104812156e+000	 1.076231796867374e+001
 2.776617069164857e+000	 3.016686535072434e+000	 1.070868160443680e+001
 2.745247124479786e+000	 3.045261602099133e+000	 1.063867354098407e+001
 2.713591642542930e+000	 3.073502952207474e+000	 1.055201111918720e+001
 2.681655960720714e+000	 3.101406343590744e+000	 1.044839347735263e+001
 2.649445499508895e+000	 3.128967648426038e+000	 1.035143066513238e+001
 2.616965759488035e+000	 3.156182854884471e+000	 1.039013490608999e+001
 2.584222318221571e+000	 3.183048069043826e+000	 1.043283876840426e+001
 2.916815472362500e+000	 2.916815472362500e+000	 1.081350072861889e+001
 2.886455283571249e+000	 2.946862890528204e+000	 1.080040663105966e+001
 2.855787232206061e+000	 2.976592730624005e+000	 1.077225146116647e+001
 2.824816324281296e+000	 3.006000288376402e+000	 1.072881904535888e+001
 2.793547661051925e+000	 3.035080965162341e+000	 1.066987196334358e+001
 2.761986436216443e+000	 3.063830270402431e+000	 1.059515199696686e+001
 2.730137933048226e+000	 3.092243823865031e+000	 1.050438066924961e+001
 2.698007521458619e+000	 3.120317357878753e+000	 1.039725987205057e+001
 2.665600654995183e+000	 3.148046719451044e+000	 1.040704054909772e+001
 2.632922867778601e+000	 3.175427872290642e+000	 1.044577878290846e+001
 2.599979771381846e+000	 3.202456898731905e+000	 1.048954257046901e+001
 2.934493141892999e+000	 2.934493141893000e+000	 1.080153122410740e+001
 2.903948951958240e+000	 2.964722665622640e+000	 1.078155705645874e+001
 2.873095033615605e+000	 2.994632686566909e+000	 1.074710543014316e+001
 2.841936423218942e+000	 3.024218471941557e+000	 1.069796852817339e+001
 2.810478252939912e+000	 3.053475395253088e+000	 1.063391584008529e+001
 2.778725747953975e+000	 3.082398938706477e+000	 1.055469460840490e+001
 2.746684223554343e+000	 3.110984695523225e+000	 1.046003036844653e+001
 2.714359082197279e+000	 3.139228372167270e+000	 1.042336973354629e+001
 2.681755810482148e+000	 3.167125790476406e+000	 1.045752200440667e+001
 2.648879976069759e+000	 3.194672889697000e+000	 1.049629109727184e+001
 2.615737224542619e+000	 3.221865728419981e+000	 1.054111660005295e+001
 2.952170811424500e+000	 2.952170811424500e+000	 1.079134593292679e+001
 2.921442620346225e+000	 2.982582440718066e+000	 1.076467600686490e+001
 2.890402835026131e+000	 3.012672642510772e+000	 1.072411845322434e+001
 2.859056522157542e+000	 3.042436655507621e+000	 1.066947369209478e+001
 2.827408844828819e+000	 3.071869825344675e+000	 1.060051798651104e+001
 2.795465059692381e+000	 3.100967607011273e+000	 1.051700388671837e+001
 2.763230514061279e+000	 3.129725567182059e+000	 1.044045724491935e+001
 2.730710642936693e+000	 3.158139386456297e+000	 1.046955880005840e+001
 2.697910965969792e+000	 3.186204861502125e+000	 1.050274177477112e+001
 2.664837084361511e+000	 3.213917907103544e+000	 1.054153298407312e+001
 2.631494677703891e+000	 3.241274558108055e+000	 1.058741661029312e+001
 2.969848480956999e+000	 2.969848480956999e+000	 1.078266040959712e+001
 2.938936288735207e+000	 3.000442215814482e+000	 1.074947575427116e+001
 2.907710636437637e+000	 3.030712598455597e+000	 1.070299979704117e+001
 2.876176621097097e+000	 3.060654839074596e+000	 1.064304107678327e+001
 2.844339436718646e+000	 3.090264255437099e+000	 1.056938249466904e+001
 2.812204371431661e+000	 3.119536275316816e+000	 1.048178175641220e+001
 2.779776804569033e+000	 3.148466438841529e+000	 1.048320802681656e+001
 2.747062203676862e+000	 3.177050400745830e+000	 1.051037166420883e+001
 2.714066121458115e+000	 3.205283932528205e+000	 1.054256621953911e+001
 2.680794192653858e+000	 3.233162924510277e+000	 1.058136525589075e+001
 2.647252130865662e+000	 3.260683387796125e+000	 1.062829809128263e+001
 2.987526150490500e+000	 2.987526150490500e+000	 1.077518926026149e+001
 2.956429957125182e+000	 3.018301990911889e+000	 1.073566770302335e+001
 2.925018437850121e+000	 3.048752554401380e+000	 1.068345793886155e+001
 2.893296720037607e+000	 3.078873022642480e+000	 1.061837650833658e+001
 2.861270028609392e+000	 3.108658685530364e+000	 1.054021281632696e+001
 2.828943683171815e+000	 3.138104943623108e+000	 1.049960879093690e+001
 2.796323095077607e+000	 3.167207310501640e+000	 1.052048361072734e+001
 2.763413764417782e+000	 3.195961415035871e+000	 1.054568001491479e+001
 2.730221276947117e+000	 3.224363003554639e+000	 1.057686132506631e+001
 2.696751300946798e+000	 3.252407941917198e+000	 1.061564841252469e+001
 2.663009584027932e+000	 3.280092217484194e+000	 1.066361627785320e+001
 3.005203820025000e+000	 3.005203820025000e+000	 1.076864617057936e+001
 2.973923625516154e+000	 3.036161766010285e+000	 1.072296241533928e+001
 2.942326239263588e+000	 3.066792510348125e+000	 1.066520058980681e+001
 2.910416818979072e+000	 3.097091206211275e+000	 1.059518512027710e+001
 2.878200620501058e+000	 3.127053115624468e+000	 1.051971245725452e+001
 2.845682994912844e+000	 3.156673611930151e+000	 1.053419794074327e+001
 2.812869385587000e+000	 3.185948182162389e+000	 1.055216111169136e+001
 2.779765325159459e+000	 3.214872429326422e+000	 1.057535511803625e+001
 2.746376432436799e+000	 3.243442074581432e+000	 1.060549271568670e+001
 2.712708409240333e+000	 3.271652959324308e+000	 1.064424265019571e+001
 2.678767037190700e+000	 3.299501047172260e+000	 1.069322615708271e+001
 2.521192505585459e+000	 3.105412750291483e+000	 1.031256875682508e+001
 2.488995928882964e+000	 3.131277577270647e+000	 1.018490842450363e+001
 2.456553178674486e+000	 3.156793702520920e+000	 1.031808895115471e+001
 2.423869903137296e+000	 3.181957682404208e+000	 1.043437925345010e+001
 2.390951812960879e+000	 3.206766194791349e+000	 1.053454837946524e+001
 2.357804678095202e+000	 3.231216040427900e+000	 1.061929038951388e+001
 2.324434324465136e+000	 3.255304144196106e+000	 1.068922475609866e+001
 2.290846630654908e+000	 3.279027556272165e+000	 1.074489702317040e+001
 2.257047524566415e+000	 3.302383453178051e+000	 1.078677971912538e+001
 2.223042980055296e+000	 3.325369138727340e+000	 1.081527351715756e+001
 2.188839013548634e+000	 3.347982044864625e+000	 1.083070863580553e+001
 2.536949958743739e+000	 3.124821579979572e+000	 1.023475263452958e+001
 2.504552153436617e+000	 3.150848062128625e+000	 1.019621302158549e+001
 2.471906636039226e+000	 3.176523663162843e+000	 1.029385364590427e+001
 2.439019090029944e+000	 3.201844917921395e+000	 1.039996203578014e+001
 2.405895261790065e+000	 3.226808483511812e+000	 1.049076953405430e+001
 2.372540957331743e+000	 3.251411140684310e+000	 1.056696302641819e+001
 2.338962038991882e+000	 3.275649795101649e+000	 1.062915189752770e+001
 2.305164422095857e+000	 3.299521478503630e+000	 1.067786873585038e+001
 2.271154071594952e+000	 3.323023349765486e+000	 1.071357029893130e+001
 2.236936998681403e+000	 3.346152695849630e+000	 1.073663873250141e+001
 2.202519257384963e+000	 3.368906932650309e+000	 1.074738303605545e+001
 2.552707411902518e+000	 3.144230409667660e+000	 1.030461747035352e+001
 2.520108377990668e+000	 3.170418546986411e+000	 1.026624190488568e+001
 2.487260093404263e+000	 3.196253623804405e+000	 1.027639767187385e+001
 2.454168276922789e+000	 3.221732153438070e+000	 1.037221825514969e+001
 2.420838710619349e+000	 3.246850772231634e+000	 1.045359893826932e+001
 2.387277236568284e+000	 3.271606240939969e+000	 1.052121932466224e+001
 2.353489753518526e+000	 3.295995446006352e+000	 1.057567854046931e+001
 2.319482213536603e+000	 3.320015400734182e+000	 1.061749598571808e+001
 2.285260618623186e+000	 3.343663246351960e+000	 1.064711235271529e+001
 2.250831017307108e+000	 3.366936252970929e+000	 1.066489090488308e+001
 2.216199501220790e+000	 3.389831820434993e+000	 1.067111900845052e+001
 2.568464865061795e+000	 3.163639239355744e+000	 1.037114916960909e+001
 2.535664602545119e+000	 3.189989031844004e+000	 1.033125223603975e+001
 2.502613550769600e+000	 3.215983584445602e+000	 1.027689369538804e+001
 2.469317463815833e+000	 3.241619388954234e+000	 1.035022730553142e+001
 2.435782159448731e+000	 3.266893060950813e+000	 1.042212375481675e+001
 2.402013515804822e+000	 3.291801341194877e+000	 1.048115469673325e+001
 2.368017468045068e+000	 3.316341096910215e+000	 1.052790882263624e+001
 2.333800004977147e+000	 3.340509322963826e+000	 1.056289210504149e+001
 2.299367165651118e+000	 3.364303142937473e+000	 1.058652887001242e+001
 2.264725035932410e+000	 3.387719810091239e+000	 1.059916313670653e+001
 2.229879745056114e+000	 3.410756708218677e+000	 1.060106021627480e+001
 2.584222318221571e+000	 3.183048069043826e+000	 1.043283876840426e+001
 2.551220827099967e+000	 3.209559516701404e+000	 1.039110155006401e+001
 2.517967008135234e+000	 3.235713545086438e+000	 1.033534611958080e+001
 2.484466650709075e+000	 3.261506624469885e+000	 1.033306800671624e+001
 2.450725608278212e+000	 3.286935349669351e+000	 1.039543048132816e+001
 2.416749795041358e+000	 3.311996441449033e+000	 1.044586379994318e+001
 2.382545182571507e+000	 3.336686747813233e+000	 1.048494603729976e+001
 2.348117796417489e+000	 3.361003245192557e+000	 1.051316949325583e+001
 2.313473712678747e+000	 3.384943039522026e+000	 1.053094182004810e+001
 2.278619054557309e+000	 3.408503367210558e+000	 1.053858742354261e+001
 2.243559988890935e+000	 3.431681596001361e+000	 1.053634913044773e+001
 2.599979771381846e+000	 3.202456898731905e+000	 1.048954257046901e+001
 2.566777051655214e+000	 3.229130001558612e+000	 1.044564700361461e+001
 2.533320465501168e+000	 3.255443505726912e+000	 1.038819045154706e+001
 2.499615837602516e+000	 3.281393859985023e+000	 1.031981862171295e+001
 2.465669057107791e+000	 3.306977638387247e+000	 1.037260497051389e+001
 2.431486074277892e+000	 3.332191541702438e+000	 1.041444055931281e+001
 2.397072897097844e+000	 3.357032398715413e+000	 1.044589265887909e+001
 2.362435587857628e+000	 3.381497167420378e+000	 1.046743964523133e+001
 2.327580259706074e+000	 3.405582936105620e+000	 1.047947218265666e+001
 2.292513073181806e+000	 3.429286924328887e+000	 1.048229468766953e+001
 2.257240232725254e+000	 3.452606483783046e+000	 1.047612706565631e+001
 2.615737224542619e+000	 3.221865728419981e+000	 1.054111660005295e+001
 2.582333276210860e+000	 3.248700486415626e+000	 1.049474538638412e+001
 2.548673922867399e+000	 3.275173466367023e+000	 1.043528434007867e+001
 2.514765024496154e+000	 3.301281095499649e+000	 1.036387785420208e+001
 2.480612505937468e+000	 3.327019927104501e+000	 1.035273244958855e+001
 2.446222353514424e+000	 3.352386641955090e+000	 1.038597818962874e+001
 2.411600611624079e+000	 3.377378049616751e+000	 1.040985036760538e+001
 2.376753379297566e+000	 3.401991089647289e+000	 1.042481317851902e+001
 2.341686806733098e+000	 3.426222832688252e+000	 1.043123997808204e+001
 2.306407091805900e+000	 3.450070481446226e+000	 1.042941481040099e+001
 2.270920476559069e+000	 3.473531371563730e+000	 1.041953421518141e+001
 2.631494677703891e+000	 3.241274558108055e+000	 1.058741661029312e+001
 2.597889500766904e+000	 3.268270971272449e+000	 1.053825313208827e+001
 2.564027380233929e+000	 3.294903427006771e+000	 1.047648499373403e+001
 2.529914211389992e+000	 3.321168331013763e+000	 1.040328031626595e+001
 2.495555954767242e+000	 3.347062215821113e+000	 1.033489753899830e+001
 2.460958632750954e+000	 3.372581742206991e+000	 1.035956921670798e+001
 2.426128326150212e+000	 3.397723700517248e+000	 1.037592007329995e+001
 2.391071170737300e+000	 3.422485011873289e+000	 1.038439985961791e+001
 2.355793353759820e+000	 3.446862729269923e+000	 1.038536429570840e+001
 2.320301110429591e+000	 3.470854038562576e+000	 1.037907666325274e+001
 2.284600720392382e+000	 3.494456259343415e+000	 1.036570968447277e+001
 2.647252130865662e+000	 3.260683387796125e+000	 1.062829809128263e+001
 2.613445725323347e+000	 3.287841456129079e+000	 1.057602632906057e+001
 2.579380837600759e+000	 3.314633387646157e+000	 1.051164919394024e+001
 2.545063398284028e+000	 3.341055566527365e+000	 1.043635916366192e+001
 2.510499403597116e+000	 3.367104504537082e+000	 1.035131647084736e+001
 2.475694911987482e+000	 3.392776842458141e+000	 1.033430549790281e+001
 2.440656040676243e+000	 3.418069351416905e+000	 1.034320193830310e+001
 2.405388962176832e+000	 3.442978934098378e+000	 1.034530862930382e+001
 2.369899900786240e+000	 3.467502625850636e+000	 1.034096332176403e+001
 2.334195129052881e+000	 3.491637595677934e+000	 1.033040813799609e+001
 2.298280964225193e+000	 3.515381147122099e+000	 1.031379152352504e+001
 2.663009584027932e+000	 3.280092217484194e+000	 1.066361627785320e+001
 2.629001949880189e+000	 3.307411940985516e+000	 1.060792073047080e+001
 2.594734294967886e+000	 3.334363348285180e+000	 1.054063330763007e+001
 2.560212585178262e+000	 3.360942802040455e+000	 1.046297147509509e+001
 2.525442852427087e+000	 3.387146793252410e+000	 1.037611930939606e+001
 2.490431191224008e+000	 3.412971942708540e+000	 1.030927824187805e+001
 2.455183755202171e+000	 3.438415002315720e+000	 1.031079539958889e+001
 2.419706753616162e+000	 3.463472856322556e+000	 1.030664762705915e+001
 2.384006447812356e+000	 3.488142522430388e+000	 1.029715436604197e+001
 2.348089147675767e+000	 3.512421152792304e+000	 1.028253617564449e+001
 2.311961208057501e+000	 3.536306034899784e+000	 1.026291675810417e+001
 2.678767037190700e+000	 3.299501047172260e+000	 1.069322615708271e+001
 2.644558174437429e+000	 3.326982425841761e+000	 1.063379176418265e+001
 2.610087752335312e+000	 3.354093308923843e+000	 1.056329329943299e+001
 2.575361772072695e+000	 3.380830037553033e+000	 1.048297385056092e+001
 2.540386301257157e+000	 3.407189081967097e+000	 1.039404194974281e+001
 2.505167470460533e+000	 3.433167042958188e+000	 1.029766888540330e+001
 2.469711469727998e+000	 3.458760653213694e+000	 1.027779919009956e+001
 2.434024545055290e+000	 3.483966778545825e+000	 1.026752421464026e+001
 2.398112994838170e+000	 3.508782419009180e+000	 1.025305388767766e+001
 2.361983166298252e+000	 3.533204709905684e+000	 1.023458679441697e+001
 2.325641451889307e+000	 3.557230922676468e+000	 1.021222141987174e+001
 2.188839013548634e+000	 3.347982044864625e+000	 1.083070863580553e+001
 2.154441680648210e+000	 3.370219732398643e+000	 1.062821201373163e+001
 2.119857072723086e+000	 3.392079891627955e+000	 1.044050725773129e+001
 2.085091313495476e+000	 3.413560342859975e+000	 1.026748596253479e+001
 2.050150555623710e+000	 3.434659036824271e+000	 1.010895541949659e+001
 2.015040977286107e+000	 3.455374054979496e+000	 9.964641534119711e+000
 1.979768778769484e+000	 3.475703609714792e+000	 9.834191949941165e+000
 1.944340179066091e+000	 3.495646044446416e+000	 9.717179366322181e+000
 1.908761412482589e+000	 3.515199833610370e+000	 9.613105037232986e+000
 1.873038725264743e+000	 3.534363582552064e+000	 9.538977724683996e+000
 1.837178372241353e+000	 3.553136027314097e+000	 9.775354030524564e+000
 2.202519257384963e+000	 3.368906932650309e+000	 1.074738303605545e+001
 2.167906941154782e+000	 3.391283605731326e+000	 1.053998283661516e+001
 2.133106179430840e+000	 3.413280390955621e+000	 1.035094533415971e+001
 2.098123134208612e+000	 3.434895095007523e+000	 1.018018571311346e+001
 2.062963996600548e+000	 3.456125655808669e+000	 1.002752925122331e+001
 2.027634983398576e+000	 3.476970142826822e+000	 9.892714303299282e+000
 1.992142333641312e+000	 3.497426757278561e+000	 9.775395500539101e+000
 1.956492305189703e+000	 3.517493832226492e+000	 9.675147152660124e+000
 1.920691171314832e+000	 3.537169832571846e+000	 9.591466839590632e+000
 1.884745217301498e+000	 3.556453354943440e+000	 9.523779179055774e+000
 1.848660737071182e+000	 3.575343127484140e+000	 9.703249155130708e+000
 2.216199501220790e+000	 3.389831820434993e+000	 1.067111900845052e+001
 2.181372201660762e+000	 3.412347479063020e+000	 1.046031577800337e+001
 2.146355286137931e+000	 3.434480890282324e+000	 1.027144741084226e+001
 2.111154954921037e+000	 3.456229847154163e+000	 1.010445163163903e+001
 2.075777437576644e+000	 3.477592274792228e+000	 9.959170627136599e+000
 2.040228989510297e+000	 3.498566230673402e+000	 9.835354097888761e+000
 2.004515888512401e+000	 3.519149904841694e+000	 9.732662534859532e+000
 1.968644431312609e+000	 3.539341620006065e+000	 9.650670707781076e+000
 1.932620930146417e+000	 3.559139831532968e+000	 9.588871351678675e+000
 1.896451709337666e+000	 3.578543127334633e+000	 9.546679037538288e+000
 1.860143101900514e+000	 3.597550227654190e+000	 9.653627148903603e+000
 2.229879745056114e+000	 3.410756708218677e+000	 1.060106021627480e+001
 2.194837462166150e+000	 3.433411352393724e+000	 1.038834180989798e+001
 2.159604392844361e+000	 3.455681389608071e+000	 1.020113287714593e+001
 2.124186775632751e+000	 3.477564599299896e+000	 1.003939263308903e+001
 2.088590878552000e+000	 3.499058893774950e+000	 9.902979094761758e+000
 2.052822995621267e+000	 3.520162318519235e+000	 9.791652202695685e+000
 2.016889443382751e+000	 3.540873052404193e+000	 9.705077176641964e+000
 1.980796557434806e+000	 3.561189407785133e+000	 9.642828092053245e+000
 1.944550688977347e+000	 3.581109830493738e+000	 9.604391663384812e+000
 1.908158201373247e+000	 3.600632899725643e+000	 9.589171219825035e+000
 1.871625466729350e+000	 3.619757327824249e+000	 9.625900912536231e+000
 2.243559988890935e+000	 3.431681596001361e+000	 1.053634913044773e+001
 2.208302722670944e+000	 3.454475225723438e+000	 1.032319120529010e+001
 2.172853499550128e+000	 3.476881888932858e+000	 1.013912090132954e+001
 2.137218596343754e+000	 3.498899351444720e+000	 9.984117873611103e+000
 2.101404319526616e+000	 3.520525512756836e+000	 9.858054889286180e+000
 2.065417001731488e+000	 3.541758406364323e+000	 9.760701020744088e+000
 2.029262998252363e+000	 3.562596199966056e+000	 9.691725082319168e+000
 1.992948683556296e+000	 3.583037195563698e+000	 9.650699296808091e+000
 1.956480447807619e+000	 3.603079829454155e+000	 9.637103177504491e+000
 1.919864693408243e+000	 3.622722672116472e+000	 9.650327610990026e+000
 1.883107831557690e+000	 3.641964427994314e+000	 9.689679125514946e+000
 2.257240232725254e+000	 3.452606483783046e+000	 1.047612706565631e+001
 2.221767983175147e+000	 3.475539099052162e+000	 1.026399355934226e+001
 2.186102606255234e+000	 3.498082388256686e+000	 1.008453043724400e+001
 2.150250417054046e+000	 3.520234103588635e+000	 9.937736743214870e+000
 2.114217760500491e+000	 3.541992131737883e+000	 9.823498912721028e+000
 2.078011007840960e+000	 3.563354494208663e+000	 9.741594039389232e+000
 2.041636553121236e+000	 3.584319347527284e+000	 9.691693394572072e+000
 2.005100809677078e+000	 3.604884983341758e+000	 9.673366185826232e+000
 1.968410206637235e+000	 3.625049828414218e+000	 9.686083539652881e+000
 1.931571185442653e+000	 3.644812444507118e+000	 9.729222693363040e+000
 1.894590196385535e+000	 3.664171528164389e+000	 9.802071380510016e+000
 2.270920476559069e+000	 3.473531371563730e+000	 1.041953421518141e+001
 2.235233243678757e+000	 3.496602972379897e+000	 1.020987780980500e+001
 2.199351712959677e+000	 3.519282887579554e+000	 1.003648023079052e+001
 2.163282237763625e+000	 3.541568855731641e+000	 9.899358858727871e+000
 2.127031201473626e+000	 3.563458750718093e+000	 9.798412713816354e+000
 2.090605013949682e+000	 3.584950582052258e+000	 9.733425797657072e+000
 2.054010107989372e+000	 3.606042495087878e+000	 9.704070697563143e+000
 2.017252935797153e+000	 3.626732771119315e+000	 9.709912438938339e+000
 1.980339965466194e+000	 3.647019827373929e+000	 9.750412570710084e+000
 1.943277677476476e+000	 3.666902216897582e+000	 9.824933468299097e+000
 1.906072561212882e+000	 3.686378628334472e+000	 9.932742838170512e+000
 2.284600720392382e+000	 3.494456259343415e+000	 1.036570968447277e+001
 2.248698504181774e+000	 3.517666845706641e+000	 1.015997225669986e+001
 2.212600819663458e+000	 3.540483386901463e+000	 9.994088826146481e+000
 2.176314058472495e+000	 3.562903607873740e+000	 9.868094057004685e+000
 2.139844642446020e+000	 3.584925369697466e+000	 9.781898468697531e+000
 2.103199020057654e+000	 3.606546669895108e+000	 9.735291854757017e+000
 2.066383662856768e+000	 3.627765642647836e+000	 9.727946973778314e+000
 2.029405061916521e+000	 3.648580558896367e+000	 9.759423497652358e+000
 1.992269724294495e+000	 3.668989826333287e+000	 9.829172201693449e+000
 1.954984169509713e+000	 3.688991989287863e+000	 9.936539380758529e+000
 1.917554926039734e+000	 3.708585728504561e+000	 1.008077147500156e+001
 2.298280964225193e+000	 3.515381147122099e+000	 1.031379152352504e+001
 2.262163764684199e+000	 3.538730719032396e+000	 1.011340458129944e+001
 2.225849926366577e+000	 3.561683886222412e+000	 9.956474571769292e+000
 2.189345879180652e+000	 3.584238360014931e+000	 9.843052388378421e+000
 2.152658083417674e+000	 3.606391988676002e+000	 9.773058962193414e+000
 2.115793026164877e+000	 3.628142757737210e+000	 9.746288759719295e+000
 2.078757217723426e+000	 3.649488790207160e+000	 9.762413562410208e+000
 2.041557188035180e+000	 3.670428346672916e+000	 9.820986512722760e+000
 2.004199483122141e+000	 3.690959825292291e+000	 9.921446410955690e+000
 1.966690661542363e+000	 3.711081761677962e+000	 1.006312224658061e+001
 1.929037290866090e+000	 3.730792828674659e+000	 1.024523794729994e+001
 2.311961208057501e+000	 3.536306034899784e+000	 1.026291675810417e+001
 2.275629025186031e+000	 3.559794592357162e+000	 1.006930186443358e+001
 2.239099033069035e+000	 3.582884385542403e+000	 9.922755626186810e+000
 2.202377699888098e+000	 3.605573112155212e+000	 9.823344110344817e+000
 2.165471524388587e+000	 3.627858607653700e+000	 9.770997569827395e+000
 2.128387032271351e+000	 3.649738845578567e+000	 9.765514022110583e+000
 2.091130772589345e+000	 3.671211937765847e+000	 9.806563119218893e+000
 2.053709314153132e+000	 3.692276134448962e+000	 9.893690293581011e+000
 2.016129241949130e+000	 3.712929824250943e+000	 1.002632116361316e+001
 1.978397153574427e+000	 3.733171534067878e+000	 1.020376618233927e+001
 1.940519655691950e+000	 3.752999928844765e+000	 1.036374227525190e+001
 2.325641451889307e+000	 3.557230922676468e+000	 1.021222141987174e+001
 2.289094285687273e+000	 3.580858465680938e+000	 1.002679060414939e+001
 2.252348139770831e+000	 3.604084884861436e+000	 9.892049963583586e+000
 2.215409520594834e+000	 3.626907864294587e+000	 9.808079681469311e+000
 2.178284965358761e+000	 3.649325226630562e+000	 9.774818240444029e+000
 2.140981038377075e+000	 3.671334933419178e+000	 9.792066083782611e+000
 2.103504327454526e+000	 3.692935085323902e+000	 9.859489577809352e+000
 2.065861440270377e+000	 3.714123922224504e+000	 9.976625259551019e+000
 2.028059000775461e+000	 3.734899823209242e+000	 1.014288435311144e+001
 1.990103645605906e+000	 3.755261306457614e+000	 1.025289125835800e+001
 1.952002020517314e+000	 3.775207029014879e+000	 1.009713655733712e+001
 1.837178372241353e+000	 3.553136027314097e+000	 9.775354030524564e+000
 1.801186613490626e+000	 3.571516034323234e+000	 9.721723587014051e+000
 1.765069711033149e+000	 3.589502599978649e+000	 9.691735267764875e+000
 1.728833925554609e+000	 3.607094850142330e+000	 9.679544888101352e+000
 1.692485513160645e+000	 3.624292039533032e+000	 9.679502059960401e+000
 1.656030722167825e+000	 3.641093551026176e+000	 9.686160145352822e+000
 1.619475789933608e+000	 3.657498894861322e+000	 9.694285606088799e+000
 1.582826939728251e+000	 3.673507707759193e+000	 9.698866736045138e+000
 1.546090377651535e+000	 3.689119751950340e+000	 9.695121764270077e+000
 1.509272289597061e+000	 3.704334914117635e+000	 9.678506319239494e+000
 1.472378838266780e+000	 3.719153204254850e+000	 9.644720246586763e+000
 1.848660737071182e+000	 3.575343127484140e+000	 9.703249155130708e+000
 1.812444029827717e+000	 3.593838009536003e+000	 9.692079401513443e+000
 1.776101396729454e+000	 3.611936991225818e+000	 9.700101549603085e+000
 1.739639137591369e+000	 3.629639192952212e+000	 9.721465989068079e+000
 1.703063547619757e+000	 3.646943864775933e+000	 9.750522941600464e+000
 1.666380914183165e+000	 3.663850385715368e+000	 9.781832467426325e+000
 1.629597513622535e+000	 3.680358262949078e+000	 9.810173855752488e+000
 1.592719608103564e+000	 3.696467130927287e+000	 9.830554385398829e+000
 1.555753442514155e+000	 3.712176750394490e+000	 9.838217443918779e+000
 1.518705241409742e+000	 3.727487007325320e+000	 9.828649995563444e+000
 1.481581206009164e+000	 3.742397911776015e+000	 9.797589390488641e+000
 1.860143101900514e+000	 3.597550227654190e+000	 9.653627148903603e+000
 1.823701446164401e+000	 3.616159984748968e+000	 9.688965886373769e+000
 1.787133082425423e+000	 3.634371382473355e+000	 9.739042122965275e+000
 1.750444349627841e+000	 3.652183535762613e+000	 9.797996599142294e+000
 1.713641582078610e+000	 3.669595690019477e+000	 9.860175993607522e+000
 1.676731106198255e+000	 3.686607220405313e+000	 9.920142987610575e+000
 1.639719237311201e+000	 3.703217631037676e+000	 9.972685700662156e+000
 1.602612276478584e+000	 3.719426554096292e+000	 1.001282648386862e+001
 1.565416507376430e+000	 3.735233748839598e+000	 1.003583005919117e+001
 1.528138193222008e+000	 3.750639100533996e+000	 1.002510916086199e+001
 1.490783573751044e+000	 3.765642619298180e+000	 9.728307147167948e+000
 1.871625466729350e+000	 3.619757327824249e+000	 9.625900912536231e+000
 1.834958862500679e+000	 3.638481959962132e+000	 9.711764133829963e+000
 1.798164768121055e+000	 3.656805773721259e+000	 9.807905498266292e+000
 1.761249561664025e+000	 3.674727878573525e+000	 9.908451877586789e+000
 1.724219616537204e+000	 3.692247515263667e+000	 1.000774225944099e+001
 1.687081298213094e+000	 3.709364055096013e+000	 1.010033787424225e+001
 1.649840960999605e+000	 3.726076999127117e+000	 1.018103168069599e+001
 1.612504944853312e+000	 3.742385977266210e+000	 1.024485719617256e+001
 1.575079572238362e+000	 3.758290747285667e+000	 1.012014601034664e+001
 1.537571145033860e+000	 3.773791193743660e+000	 9.837491563259190e+000
 1.499985941492418e+000	 3.788887326821345e+000	 9.555999338082449e+000
 1.883107831557690e+000	 3.641964427994314e+000	 9.689679125514946e+000
 1.846216278836551e+000	 3.660803935175493e+000	 9.759859546799214e+000
 1.809196453816351e+000	 3.679240164969528e+000	 9.906045793159885e+000
 1.772054773699922e+000	 3.697272221384957e+000	 1.005215390007545e+001
 1.734797650995538e+000	 3.714899340508502e+000	 1.019251102009315e+001
 1.697431490227682e+000	 3.732120889787467e+000	 1.032167286559508e+001
 1.659962684687748e+000	 3.748936367217400e+000	 1.043443324868679e+001
 1.622397613227745e+000	 3.765345400437039e+000	 1.020202288814760e+001
 1.584742637099949e+000	 3.781347745732698e+000	 9.940994469843981e+000
 1.547004096845296e+000	 3.796943286954316e+000	 9.677090087411957e+000
 1.509188309233287e+000	 3.812132034345510e+000	 9.413301851843423e+000
 1.894590196385535e+000	 3.664171528164389e+000	 9.802071380510016e+000
 1.857473695172016e+000	 3.683125910389052e+000	 9.832641708254192e+000
 1.820228139511309e+000	 3.701674556218166e+000	 1.003282256262242e+001
 1.782859985735530e+000	 3.719816564196905e+000	 1.022843144910465e+001
 1.745375685453614e+000	 3.737551165753983e+000	 1.041377954446680e+001
 1.707781682242020e+000	 3.754877724479675e+000	 1.047700003259594e+001
 1.670084408375628e+000	 3.771795735308527e+000	 1.025647793729246e+001
 1.632290281601886e+000	 3.788304823608781e+000	 1.002514563998519e+001
 1.594405701961192e+000	 3.804404744180690e+000	 9.786402312271161e+000
 1.556437048656318e+000	 3.820095380165963e+000	 9.543552060306995e+000
 1.518390676973651e+000	 3.835376741870674e+000	 9.299799173850749e+000
 1.906072561212882e+000	 3.686378628334472e+000	 9.932742838170512e+000
 1.868731111507075e+000	 3.705447885602808e+000	 9.929504255317774e+000
 1.831259825205930e+000	 3.724108947467171e+000	 1.018760063517806e+001
 1.793665197770850e+000	 3.742360907009369e+000	 1.043661981198091e+001
 1.755953719911430e+000	 3.760202991000108e+000	 1.044554240766992e+001
 1.718131874256108e+000	 3.777634559172638e+000	 1.026872071952853e+001
 1.680206132063246e+000	 3.794655103400496e+000	 1.007574954997313e+001
 1.642182949975734e+000	 3.811264246781434e+000	 9.870335157791832e+000
 1.604068766822090e+000	 3.827461742629642e+000	 9.656092292991703e+000
 1.565870000466925e+000	 3.843247473378598e+000	 9.436538915316342e+000
 1.527593044713509e+000	 3.858621449396840e+000	 9.215091192608929e+000
 1.917554926039734e+000	 3.708585728504561e+000	 1.008077147500156e+001
 1.879988527841727e+000	 3.727769860816763e+000	 1.008953628009043e+001
 1.842291510900214e+000	 3.746543338716541e+000	 1.036974995500800e+001
 1.804470409805882e+000	 3.764905249822349e+000	 1.034678803610279e+001
 1.766531754368987e+000	 3.782854816246878e+000	 1.022342224786527e+001
 1.728482066269945e+000	 3.800391393866354e+000	 1.007807438827235e+001
 1.690327855750603e+000	 3.817514471493309e+000	 9.914754752079565e+000
 1.652075618349288e+000	 3.834223669954998e+000	 9.737386452150096e+000
 1.613731831682645e+000	 3.850518741079556e+000	 9.549799600750626e+000
 1.575302952277116e+000	 3.866399566592224e+000	 9.355725769850691e+000
 1.536795412452863e+000	 3.881866156924004e+000	 9.158792738556310e+000
 1.929037290866090e+000	 3.730792828674659e+000	 1.024523794729994e+001
 1.891245944175973e+000	 3.750091836030914e+000	 1.031811961207632e+001
 1.853323196594162e+000	 3.768977729966281e+000	 1.016426495232888e+001
 1.815275621840627e+000	 3.787449592635845e+000	 1.010470615821217e+001
 1.777109788826285e+000	 3.805506641494295e+000	 1.001684216205152e+001
 1.738832258283532e+000	 3.823148228560824e+000	 9.904983279169878e+000
 1.700449579437698e+000	 3.840373839586965e+000	 9.773357752361168e+000
 1.661968286722550e+000	 3.857183093129475e+000	 9.626105391163073e+000
 1.623394896542856e+000	 3.873575739530430e+000	 9.467271487633470e+000
 1.584735904086894e+000	 3.889551659806841e+000	 9.300801018096122e+000
 1.545997780191711e+000	 3.905110864452169e+000	 9.130533139364703e+000
 1.940519655691950e+000	 3.752999928844765e+000	 1.036374227525190e+001
 1.902503360509814e+000	 3.772413811245263e+000	 1.009138076610677e+001
 1.864354882287772e+000	 3.791412121216387e+000	 9.896141065897472e+000
 1.826080833875083e+000	 3.809993935449857e+000	 9.876219948726222e+000
 1.787687823283324e+000	 3.828158466742356e+000	 9.825789155223069e+000
 1.749182450296869e+000	 3.845905063256049e+000	 9.749377853038810e+000
 1.710571303124530e+000	 3.863233207681463e+000	 9.651432133680354e+000
 1.671860955095518e+000	 3.880142516304862e+000	 9.536308379226195e+000
 1.633057961402722e+000	 3.896632737982265e+000	 9.408266912162610e+000
 1.594168855896256e+000	 3.912703753022449e+000	 9.271465938210303e+000
 1.555200147930054e+000	 3.928355571981333e+000	 9.129955791027223e+000
 1.952002020517314e+000	 3.775207029014879e+000	 1.009713655733712e+001
 1.913760776843248e+000	 3.794735786459811e+000	 9.870675292897580e+000
 1.875386567981046e+000	 3.813846512466861e+000	 9.642507553455653e+000
 1.836886045909252e+000	 3.832538278264387e+000	 9.661378356027390e+000
 1.798265857740104e+000	 3.850810291991064e+000	 9.650257100211821e+000
 1.759532642309955e+000	 3.868661897952027e+000	 9.611196549393076e+000
 1.720693026811102e+000	 3.886092575776805e+000	 9.548860577303387e+000
 1.681753623468194e+000	 3.903101939481164e+000	 9.467822047136053e+000
 1.642721026262245e+000	 3.919689736435061e+000	 9.372556194990409e+000
 1.603601807705203e+000	 3.935855846239046e+000	 9.267434313382090e+000
 1.564402515667893e+000	 3.951600279511499e+000	 9.156717744084048e+000
 1.472378838266780e+000	 3.719153204254850e+000	 9.644720246586763e+000
 1.435416160238980e+000	 3.733574754443465e+000	 9.741659337205759e+000
 1.398390363090334e+000	 3.747599817550745e+000	 9.795787156186867e+000
 1.361307522575100e+000	 3.761228765851377e+000	 9.655388731136013e+000
 1.324173679865362e+000	 3.774462089574614e+000	 9.479136707273160e+000
 1.286994838852476e+000	 3.787300395380251e+000	 9.306577975132081e+000
 1.249776963512204e+000	 3.799744404765942e+000	 9.142861639517028e+000
 1.212525975335377e+000	 3.811794952408591e+000	 9.145943954660790e+000
 1.175247750825766e+000	 3.823452984442648e+000	 9.124634252867352e+000
 1.137948119066730e+000	 3.834719556678107e+000	 9.085083792565746e+000
 1.100632859358089e+000	 3.845595832761096e+000	 9.033165100439579e+000
 1.481581206009164e+000	 3.742397911776015e+000	 9.797589390488641e+000
 1.444387511244183e+000	 3.756909596653516e+000	 9.827234164480283e+000
 1.407130302863686e+000	 3.771022316405464e+000	 9.713029500435216e+000
 1.369815694595396e+000	 3.784736445633262e+000	 9.592284846130271e+000
 1.332449765368725e+000	 3.798052477630096e+000	 9.469124833831714e+000
 1.295038556599349e+000	 3.810971022847385e+000	 9.347552060987189e+000
 1.257588069537882e+000	 3.823492807292140e+000	 9.231442901356502e+000
 1.220104262684472e+000	 3.835618670858001e+000	 9.188690628242240e+000
 1.182593049271041e+000	 3.847349565592751e+000	 9.140157240126428e+000
 1.145060294812717e+000	 3.858686553905199e+000	 9.071222253455995e+000
 1.107511814729950e+000	 3.869630806714263e+000	 8.987368955875414e+000
 1.490783573751044e+000	 3.765642619298180e+000	 9.728307147167948e+000
 1.453358862248797e+000	 3.780244438864562e+000	 9.676203690458312e+000
 1.415870242636395e+000	 3.794444815261164e+000	 9.611923523735600e+000
 1.378323866615027e+000	 3.808244125416102e+000	 9.539489065294349e+000
 1.340725850871430e+000	 3.821642865686497e+000	 9.462808735033509e+000
 1.303082274345602e+000	 3.834641650315390e+000	 9.385672573970121e+000
 1.265399175563006e+000	 3.847241209819156e+000	 9.311748173801762e+000
 1.227682550033111e+000	 3.859442389308157e+000	 9.249733333720652e+000
 1.189938347715986e+000	 3.871246146743528e+000	 9.171478889064540e+000
 1.152172470558532e+000	 3.882653551132882e+000	 9.070804978666903e+000
 1.114390770101823e+000	 3.893665780667925e+000	 8.952801982112341e+000
 1.499985941492418e+000	 3.788887326821345e+000	 9.555999338082449e+000
 1.462330213252820e+000	 3.803579281076603e+000	 9.548539836490850e+000
 1.424610182408461e+000	 3.817867314117842e+000	 9.527561229688113e+000
 1.386832038633990e+000	 3.831751805199894e+000	 9.496869626900134e+000
 1.349001936373475e+000	 3.845233253743814e+000	 9.460160590145472e+000
 1.311125992091233e+000	 3.858312277784267e+000	 9.421014874830890e+000
 1.273210281587577e+000	 3.870989612346985e+000	 9.382894475487134e+000
 1.235260837381293e+000	 3.883266107759067e+000	 9.326301487188706e+000
 1.197283646160601e+000	 3.895142727894979e+000	 9.216016910353758e+000
 1.159284646304174e+000	 3.906620548361151e+000	 9.081438097840243e+000
 1.121269725473710e+000	 3.917700754622081e+000	 8.927258746755870e+000
 1.509188309233287e+000	 3.812132034345510e+000	 9.413301851843423e+000
 1.471301564256254e+000	 3.826914123289639e+000	 9.443914401187776e+000
 1.433350122179882e+000	 3.841289812975499e+000	 9.459716981697403e+000
 1.395340210652287e+000	 3.855259484984642e+000	 9.464302792522847e+000
 1.357278021874861e+000	 3.868823641802051e+000	 9.461157856230162e+000
 1.319169709836242e+000	 3.881982905254017e+000	 9.453656878083189e+000
 1.281021387611593e+000	 3.894738014875632e+000	 9.445059405711911e+000
 1.242839124729019e+000	 3.907089826210726e+000	 9.415621679069240e+000
 1.204628944604887e+000	 3.919039309047104e+000	 9.271183535632504e+000
 1.166396822049644e+000	 3.930587545590012e+000	 9.100719633772206e+000
 1.128148680845609e+000	 3.941735728576730e+000	 8.908523109260477e+000
 1.518390676973651e+000	 3.835376741870674e+000	 9.299799173850749e+000
 1.480272915259099e+000	 3.850248965503670e+000	 9.362012346213747e+000
 1.442090061950661e+000	 3.864712311834137e+000	 9.408175605428925e+000
 1.403848382669918e+000	 3.878767164770342e+000	 9.441672603910753e+000
 1.365554107375588e+000	 3.892414029861205e+000	 9.465783108212555e+000
 1.327213427580630e+000	 3.905653532724637e+000	 9.483678974617902e+000
 1.288832493635056e+000	 3.918486417405095e+000	 9.498420420516963e+000
 1.250417412076288e+000	 3.930913544663134e+000	 9.512952593982460e+000
 1.211974243048844e+000	 3.942935890199903e+000	 9.334385683536839e+000
 1.173508997794939e+000	 3.954554542819459e+000	 9.126239748075561e+000
 1.135027636217520e+000	 3.965770702531872e+000	 8.894368545419262e+000
 1.527593044713509e+000	 3.858621449396840e+000	 9.215091192608929e+000
 1.489244266261353e+000	 3.873583807718694e+000	 9.302531399810579e+000
 1.450830001720796e+000	 3.888134810693752e+000	 9.372732073680540e+000
 1.412356554686883e+000	 3.902274844556996e+000	 9.428870648642530e+000
 1.373830192875656e+000	 3.916004417921276e+000	 9.474023884727547e+000
 1.335257145324397e+000	 3.929324160196131e+000	 9.511163957113192e+000
 1.296643599657965e+000	 3.942234819935373e+000	 9.543154836999648e+000
 1.257995699423102e+000	 3.954737263116293e+000	 9.572748966183811e+000
 1.219319541492471e+000	 3.966832471353377e+000	 9.403025119730657e+000
 1.180621173540062e+000	 3.978521540049497e+000	 9.155580977962178e+000
 1.141906591589444e+000	 3.989805676487508e+000	 8.882558460124736e+000
 1.536795412452863e+000	 3.881866156924004e+000	 9.158792738556310e+000
 1.498215617263019e+000	 3.896918649934715e+000	 9.265181674564550e+000
 1.459569941490289e+000	 3.911557309554347e+000	 9.353191202576124e+000
 1.420864726703181e+000	 3.925782524344604e+000	 9.425795834204228e+000
 1.382106278375064e+000	 3.939594805982265e+000	 9.485872539505909e+000
 1.343300863067542e+000	 3.952994787668496e+000	 9.536196948124804e+000
 1.304454705680321e+000	 3.965983222466468e+000	 9.579439837473778e+000
 1.265573986769459e+000	 3.978560981570201e+000	 9.618163910266608e+000
 1.226664839935769e+000	 3.990729052507526e+000	 9.474498611186380e+000
 1.187733349285012e+000	 4.002488537280124e+000	 9.186318464518621e+000
 1.148785546961380e+000	 4.013840650443639e+000	 8.870846488892793e+000
 1.545997780191711e+000	 3.905110864452169e+000	 9.130533139364703e+000
 1.507186968264094e+000	 3.920253492151730e+000	 9.249685298824558e+000
 1.468309881259137e+000	 3.934979808415923e+000	 9.349367358609479e+000
 1.429372898718813e+000	 3.949290204133165e+000	 9.432354170134815e+000
 1.390382363873814e+000	 3.963185194044173e+000	 9.501326098067711e+000
 1.351344580810066e+000	 3.976665415141733e+000	 9.558865330744425e+000
 1.312265811702122e+000	 3.989731624998377e+000	 9.607452473481047e+000
 1.273152274115359e+000	 4.002384700024860e+000	 9.649463427036809e+000
 1.234010138378738e+000	 4.014625633662349e+000	 9.546198074955472e+000
 1.194845525029790e+000	 4.026455534511339e+000	 9.216020172828831e+000
 1.155664502333329e+000	 4.037875624400262e+000	 8.856976788618081e+000
 1.555200147930054e+000	 3.928355571981333e+000	 9.129955791027223e+000
 1.516158319264580e+000	 3.943588334369741e+000	 9.255776061206301e+000
 1.477049821027342e+000	 3.958402307278478e+000	 9.361084176089022e+000
 1.437881070733778e+000	 3.972797883922680e+000	 9.448458557906395e+000
 1.398658449371906e+000	 3.986775582106999e+000	 9.520386119503984e+000
 1.359388298551968e+000	 4.000336042615841e+000	 9.579258681719951e+000
 1.320076917723370e+000	 4.013480027531105e+000	 9.627369669660068e+000
 1.280730561460803e+000	 4.026208418480270e+000	 9.666911090079658e+000
 1.241355436821378e+000	 4.038522214817848e+000	 9.615510721657227e+000
 1.201957700774394e+000	 4.050422531743143e+000	 9.242247104281907e+000
 1.162543457705291e+000	 4.061910598357380e+000	 8.838684318006489e+000
 1.564402515667893e+000	 3.951600279511499e+000	 9.156717744084048e+000
 1.525129670264477e+000	 3.966923176588746e+000	 9.283199067643277e+000
 1.485789760794904e+000	 3.981824806142011e+000	 9.388174284554998e+000
 1.446389242748077e+000	 3.996305563713150e+000	 9.474028588220126e+000
 1.406934534869337e+000	 4.010365970170742e+000	 9.543058563136123e+000
 1.367432016293249e+000	 4.024006670090824e+000	 9.597468706936178e+000
 1.327888023744064e+000	 4.037228430064648e+000	 9.639368227478768e+000
 1.288308848805791e+000	 4.050032136936429e+000	 9.670768117148448e+000
 1.248700735263688e+000	 4.062418795974019e+000	 9.679819193903335e+000
 1.209069876518826e+000	 4.074389528975536e+000	 9.262553501386844e+000
 1.169422413077266e+000	 4.085945572314992e+000	 8.813695108110203e+000
 1.100632859358089e+000	 3.845595832761096e+000	 9.033165100439579e+000
 1.063307698924287e+000	 3.856083082280073e+000	 9.325370293333556e+000
 1.025978310695547e+000	 3.866182678820226e+000	 9.523222979303334e+000
 9.886503111632028e-001	 3.875896097969085e+000	 9.632612694018148e+000
 9.513292583092484e-001	 3.885224915276652e+000	 9.659282641293165e+000
 9.140206496115856e-001	 3.894170804172645e+000	 9.608842588772768e+000
 8.767299201255320e-001	 3.902735533843881e+000	 9.486781615847585e+000
 8.394624406421662e-001	 3.910920967074734e+000	 9.298480672718718e+000
 8.022235159239728e-001	 3.918729058053592e+000	 9.049224911657367e+000
 7.650183830181295e-001	 3.926161850148238e+000	 8.744215753709149e+000
 7.278522096476668e-001	 3.933221473652993e+000	 8.388582656355975e+000
 1.107511814729950e+000	 3.869630806714263e+000	 8.987368955875414e+000
 1.069953372042454e+000	 3.880183601543291e+000	 9.252824472532799e+000
 1.032390675136383e+000	 3.890346320562340e+000	 9.435306868279227e+000
 9.948293756061443e-001	 3.900120448581363e+000	 9.540254414792022e+000
 9.572750661711160e-001	 3.909507570997548e+000	 9.572951945598085e+000
 9.197332786684378e-001	 3.918509371699555e+000	 9.538544647834906e+000
 8.822094821225219e-001	 3.927127630931612e+000	 9.442051695479945e+000
 8.447090808918907e-001	 3.935364223120498e+000	 9.288379681348655e+000
 8.072374128937938e-001	 3.943221114668281e+000	 9.082335807377559e+000
 7.697997479069533e-001	 3.950700361713788e+000	 8.828640794987908e+000
 7.324012859526674e-001	 3.957804107865683e+000	 8.531941479669198e+000
 1.114390770101823e+000	 3.893665780667925e+000	 8.952801982112341e+000
 1.076599045160822e+000	 3.904284120806908e+000	 9.190586616091311e+000
 1.038803039577591e+000	 3.914509962304769e+000	 9.356724674483042e+000
 1.001008440049605e+000	 3.924344799193880e+000	 9.456200191188573e+000
 9.632208740336319e-001	 3.933790226718624e+000	 9.493836668027507e+000
 9.254459077260465e-001	 3.942847939226587e+000	 9.474311769610022e+000
 8.876890441203563e-001	 3.951519728019421e+000	 9.402171848739807e+000
 8.499557211425282e-001	 3.959807479166306e+000	 9.281846258027658e+000
 8.122513098645763e-001	 3.967713171282988e+000	 9.117661405683192e+000
 7.745811127967671e-001	 3.975238873279343e+000	 8.913854515816849e+000
 7.369503622586678e-001	 3.982386742078373e+000	 8.674587056009482e+000
 1.121269725473710e+000	 3.917700754622081e+000	 8.927258746755870e+000
 1.083244718279394e+000	 3.928384640070924e+000	 9.136618324329175e+000
 1.045215404019170e+000	 3.938673604047511e+000	 9.285608236825304e+000
 1.007187504493586e+000	 3.948569149806639e+000	 9.378755185281992e+000
 9.691666818967961e-001	 3.958072882439873e+000	 9.420418256381730e+000
 9.311585367844111e-001	 3.967186506753740e+000	 9.414804527606213e+000
 8.931686061190352e-001	 3.975911825107309e+000	 9.365984491815937e+000
 8.552023613940782e-001	 3.984250735212158e+000	 9.277907255294759e+000
 8.172652068363199e-001	 3.992205227897715e+000	 9.154415465670418e+000
 7.793624776875714e-001	 3.999777384844903e+000	 8.999259928566369e+000
 7.414994385656684e-001	 4.006969376291065e+000	 8.816113874348654e+000
 1.128148680845609e+000	 3.941735728576730e+000	 8.908523109260477e+000
 1.089890391398167e+000	 3.952485159335339e+000	 9.088868435535087e+000
 1.051627768461121e+000	 3.962837245790567e+000	 9.220074523826900e+000
 1.013366568938087e+000	 3.972793500419638e+000	 9.306207527245372e+000
 9.751124897606083e-001	 3.982355538161299e+000	 9.351158913233642e+000
 9.368711658435324e-001	 3.991525074281014e+000	 9.358661986317946e+000
 8.986481681185585e-001	 4.000303922195273e+000	 9.332308219001915e+000
 8.604490016465412e-001	 4.008693991258054e+000	 9.275563343195056e+000
 8.222791038090250e-001	 4.016697284512461e+000	 9.191783157013797e+000
 7.841438425793662e-001	 4.024315896410467e+000	 9.084229004324486e+000
 7.460485148736690e-001	 4.031552010503755e+000	 8.956082886986787e+000
 1.135027636217520e+000	 3.965770702531872e+000	 8.894368545419262e+000
 1.096536064517142e+000	 3.976585678600152e+000	 9.045273412694252e+000
 1.058040132903442e+000	 3.987000887533941e+000	 9.158226084236825e+000
 1.019545633383108e+000	 3.997017851032876e+000	 9.236828831468699e+000
 9.810582976250686e-001	 4.006638193882901e+000	 9.284502179117970e+000
 9.425837949034102e-001	 4.015863641808413e+000	 9.304502353014030e+000
 9.041277301189266e-001	 4.024696019283315e+000	 9.299938524571823e+000
 8.656956418999169e-001	 4.033137247303993e+000	 9.273789802688965e+000
 8.272930007826913e-001	 4.041189341127226e+000	 9.228921926312426e+000
 7.889252074721512e-001	 4.048854407976037e+000	 9.168103613541611e+000
 7.505975911826697e-001	 4.056134644716447e+000	 9.094022525814355e+000
 1.141906591589444e+000	 3.989805676487508e+000	 8.882558460124736e+000
 1.103181737636320e+000	 4.000686197865364e+000	 9.003757716238781e+000
 1.064452497346135e+000	 4.011164529277626e+000	 9.098151481362972e+000
 1.025724697828648e+000	 4.021242201646355e+000	 9.168874694022277e+000
 9.870041054901774e-001	 4.030920849604679e+000	 9.218873494640448e+000
 9.482964239640440e-001	 4.040202209335932e+000	 9.250923605967632e+000
 9.096072921201390e-001	 4.049088116371435e+000	 9.267648498563776e+000
 8.709422821542051e-001	 4.057580503349975e+000	 9.271537290383646e+000
 8.323068977573193e-001	 4.065681397742011e+000	 9.264962332122099e+000
 7.937065723659268e-001	 4.073392919541611e+000	 9.250196432676157e+000
 7.551466674926702e-001	 4.080717278929137e+000	 9.229429681843010e+000
 1.148785546961380e+000	 4.013840650443639e+000	 8.870846488892793e+000
 1.109827410755699e+000	 4.024786717130976e+000	 8.962234163405409e+000
 1.070864861789199e+000	 4.035328171021625e+000	 9.037925711797652e+000
 1.031903762274709e+000	 4.045466552260072e+000	 9.100585172247145e+000
 9.929499133559342e-001	 4.055203505326632e+000	 9.152680742392214e+000
 9.540090530254344e-001	 4.064540776863573e+000	 9.196504100114535e+000
 9.150868541221959e-001	 4.073480213459632e+000	 9.234189497565625e+000
 8.761889224094063e-001	 4.082023759396003e+000	 9.267732575788683e+000
 8.373207947329083e-001	 4.090173454356815e+000	 9.299008849986732e+000
 7.984879372606925e-001	 4.097931431107190e+000	 9.329791818266417e+000
 7.596957438036709e-001	 4.105299913141828e+000	 9.361770649542985e+000
 1.155664502333329e+000	 4.037875624400262e+000	 8.856976788618081e+000
 1.116473083875282e+000	 4.048887236396987e+000	 8.918604274759307e+000
 1.077277226232635e+000	 4.059491812765941e+000	 8.975610609188944e+000
 1.038082826721289e+000	 4.069690902874031e+000	 9.030185247217261e+000
 9.988957212223394e-001	 4.079486161048761e+000	 9.084314769509463e+000
 9.597216820875809e-001	 4.088879344391335e+000	 9.139803151081299e+000
 9.205664161250972e-001	 4.097872310547907e+000	 9.198291791543729e+000
 8.814355626655205e-001	 4.106467015442072e+000	 9.261279252242408e+000
 8.423346917094587e-001	 4.114665510971639e+000	 9.330140648718420e+000
 8.032693021564485e-001	 4.122469942672775e+000	 9.406146649784970e+000
 7.642448201156715e-001	 4.129882547354518e+000	 9.490482037454642e+000
 1.162543457705291e+000	 4.061910598357380e+000	 8.838684318006489e+000
 1.123118756995066e+000	 4.072987755663395e+000	 8.870758608415029e+000
 1.083689590676441e+000	 4.083655454510569e+000	 8.909255233677140e+000
 1.044261891168390e+000	 4.093915253488230e+000	 8.955885269782899e+000
 1.004841529089393e+000	 4.103768816771067e+000	 9.012149891681206e+000
 9.654343111504837e-001	 4.113217911919220e+000	 9.079361598478183e+000
 9.260459781288432e-001	 4.122264407636261e+000	 9.158665187707548e+000
 8.866822029225470e-001	 4.130910271488185e+000	 9.251058422596501e+000
 8.473485886869706e-001	 4.139157567586482e+000	 9.357412339117342e+000
 8.080506670531952e-001	 4.147008454238363e+000	 9.478491142569929e+000
 7.687938964286722e-001	 4.154465181567210e+000	 9.614971646470153e+000
 1.169422413077266e+000	 4.085945572314992e+000	 8.813695108110203e+000
 1.129764430115052e+000	 4.097088274930204e+000	 8.816577082461691e+000
 1.090101955120620e+000	 4.107819096255514e+000	 8.836896247585841e+000
 1.050440955616010e+000	 4.118139604102669e+000	 8.875881390871429e+000
 1.010787336957094e+000	 4.128051472493549e+000	 8.934544379368274e+000
 9.711469402141435e-001	 4.137556479447227e+000	 9.013702349311622e+000
 9.315255401334336e-001	 4.146656504724692e+000	 9.113999632355405e+000
 8.919288431804867e-001	 4.155353527534343e+000	 9.235929360701572e+000
 8.523624856654437e-001	 4.163649624201344e+000	 9.379854696266024e+000
 8.128320319509323e-001	 4.171546965803957e+000	 9.546029632063902e+000
 7.733429727426728e-001	 4.179047815779902e+000	 9.734619317117559e+000
 7.278522096476668e-001	 3.933221473652993e+000	 8.388582656355975e+000
 6.907300926805886e-001	 3.939910143510855e+000	 8.552446842453881e+000
 6.536570566772164e-001	 3.946230157012450e+000	 8.884872173980845e+000
 6.166380525152104e-001	 3.952183891475303e+000	 9.192941803927321e+000
 5.796779560922222e-001	 3.957773801906782e+000	 8.960090235147668e+000
 5.427815671060731e-001	 3.963002418652466e+000	 8.795946898298107e+000
 5.059536079119456e-001	 3.967872345032922e+000	 8.695124970120371e+000
 4.691987224560958e-001	 3.972386254971537e+000	 8.651665159520656e+000
 4.325214752855112e-001	 3.976546890615961e+000	 8.659024646661781e+000
 3.959263506328420e-001	 3.980357059955668e+000	 8.710068158265276e+000
 3.594177515758589e-001	 3.983819634438112e+000	 8.797061148836169e+000
 7.324012859526674e-001	 3.957804107865683e+000	 8.531941479669198e+000
 6.950471557543670e-001	 3.964534581910347e+000	 8.602446717534026e+000
 6.577424132758770e-001	 3.970894095496459e+000	 8.823162155488550e+000
 6.204920403378419e-001	 3.976885040799777e+000	 9.113698793863600e+000
 5.833009433122732e-001	 3.982509888171469e+000	 8.942314799613131e+000
 5.461739518951028e-001	 3.987771183771772e+000	 8.828337407550643e+000
 5.091158179562323e-001	 3.992671547192009e+000	 8.767301511952349e+000
 4.721312144665811e-001	 3.997213669067587e+000	 8.754152258865602e+000
 4.352247345015545e-001	 4.001400308684580e+000	 8.783232912411105e+000
 3.984008903202563e-001	 4.005234291582396e+000	 8.848274926386234e+000
 3.616641125196922e-001	 4.008718507155041e+000	 8.942390190813036e+000
 7.369503622586678e-001	 3.982386742078373e+000	 8.674587056009482e+000
 6.993642188291456e-001	 3.989159020309839e+000	 8.662852556762680e+000
 6.618277698755376e-001	 3.995558033980466e+000	 8.783174847596689e+000
 6.243460281614734e-001	 4.001586190124250e+000	 9.024667199943005e+000
 5.869239305333242e-001	 4.007245974436155e+000	 8.912312258217179e+000
 5.495663366851327e-001	 4.012539948891079e+000	 8.846387536390665e+000
 5.122780280015188e-001	 4.017470749351095e+000	 8.823358076412667e+000
 4.750637064780663e-001	 4.022041083163637e+000	 8.839081424998328e+000
 4.379279937185980e-001	 4.026253726753200e+000	 8.888794421343716e+000
 4.008754300086707e-001	 4.030111523209127e+000	 8.967102260193876e+000
 3.639104734645255e-001	 4.033617379871969e+000	 9.067969799827901e+000
 7.414994385656684e-001	 4.006969376291065e+000	 8.816113874348654e+000
 7.036812819049239e-001	 4.013783458709330e+000	 8.733218688524994e+000
 6.659131264761982e-001	 4.020221972464474e+000	 8.764421265044796e+000
 6.282000159861050e-001	 4.026287339448724e+000	 8.906931760375199e+000
 5.905469177553754e-001	 4.031982060700842e+000	 8.874156734264160e+000
 5.529587214761623e-001	 4.037308714010385e+000	 8.853809324178659e+000
 5.154402380478056e-001	 4.042269951510182e+000	 8.866643151660608e+000
 4.779961984905516e-001	 4.046868497259686e+000	 8.909436351752079e+000
 4.406312529366414e-001	 4.051107144821819e+000	 8.978327050377352e+000
 4.033499696980849e-001	 4.054988754835856e+000	 9.068801413886762e+000
 3.661568344103588e-001	 4.058516252588897e+000	 9.175684014446031e+000
 7.460485148736690e-001	 4.031552010503755e+000	 8.956082886986787e+000
 7.079983449817026e-001	 4.038407897108823e+000	 8.813069067936848e+000
 6.699984830778585e-001	 4.044885910948482e+000	 8.766385297134947e+000
 6.320540038117365e-001	 4.050988488773199e+000	 8.813492925506960e+000
 5.941699049784264e-001	 4.056718146965530e+000	 8.831901966218892e+000
 5.563511062681921e-001	 4.062077479129690e+000	 8.854297913977955e+000
 5.186024480950923e-001	 4.067069153669269e+000	 8.900491894093003e+000
 4.809286905040369e-001	 4.071695911355737e+000	 8.968191039579342e+000
 4.433345121556847e-001	 4.075960562890438e+000	 9.054442693124349e+000
 4.058245093884992e-001	 4.079865986462586e+000	 9.155621437963303e+000
 3.684031953571920e-001	 4.083415125305826e+000	 9.267418516499644e+000
 7.505975911826697e-001	 4.056134644716447e+000	 9.094022525814355e+000
 7.123154080594807e-001	 4.063032335508314e+000	 8.901898197247014e+000
 6.740838396805190e-001	 4.069549849432490e+000	 8.788524529714456e+000
 6.359079916383679e-001	 4.075689638097672e+000	 8.751603764679320e+000
 5.977928922024773e-001	 4.081454233230216e+000	 8.789581925429049e+000
 5.597434910612218e-001	 4.086846244248997e+000	 8.851532064563859e+000
 5.217646581433789e-001	 4.091868355828354e+000	 8.928226532337035e+000
 4.838611825185223e-001	 4.096523325451788e+000	 9.018310089291266e+000
 4.460377713757281e-001	 4.100813980959058e+000	 9.119747441203845e+000
 4.082990490799135e-001	 4.104743218089316e+000	 9.229809246001041e+000
 3.706495563050253e-001	 4.108313998022754e+000	 9.345060581291962e+000
 7.551466674926702e-001	 4.080717278929137e+000	 9.229429681843010e+000
 7.166324711382593e-001	 4.087656773907806e+000	 8.999172012971281e+000
 6.781691962841796e-001	 4.094213787916498e+000	 8.830271037448947e+000
 6.397619794659996e-001	 4.100390787422146e+000	 8.720659598593343e+000
 6.014158794275284e-001	 4.106190319494901e+000	 8.751211411520137e+000
 5.631358758552515e-001	 4.111615009368302e+000	 8.849174643926732e+000
 5.249268681926655e-001	 4.116667557987442e+000	 8.953156756640885e+000
 4.867936745340075e-001	 4.121350739547839e+000	 9.062748985178883e+000
 4.487410305967716e-001	 4.125667399027677e+000	 9.176841759000862e+000
 4.107735887723278e-001	 4.129620449716045e+000	 9.293609679021424e+000
 3.728959172538585e-001	 4.133212870739683e+000	 9.410499029601111e+000
 7.596957438036709e-001	 4.105299913141828e+000	 9.361770649542985e+000
 7.209495342180375e-001	 4.112281212307298e+000	 9.104328741154321e+000
 6.822545528888403e-001	 4.118877726400506e+000	 8.891032147629824e+000
 6.436159672946310e-001	 4.125091936746620e+000	 8.720034038798916e+000
 6.050388666535795e-001	 4.130926405759588e+000	 8.720786626399306e+000
 5.665282606502812e-001	 4.136383774487609e+000	 8.850873105043537e+000
 5.280890782429523e-001	 4.141466760146528e+000	 8.978580094274513e+000
 4.897261665504928e-001	 4.146178153643888e+000	 9.104454367963259e+000
 4.514442898188151e-001	 4.150520817096297e+000	 9.228320652146232e+000
 4.132481284657421e-001	 4.154497681342776e+000	 9.349265567542547e+000
 3.751422782036917e-001	 4.158111743456611e+000	 9.465624181408442e+000
 7.642448201156715e-001	 4.129882547354518e+000	 9.490482037454642e+000
 7.252665972988160e-001	 4.136905650706790e+000	 9.216779722085859e+000
 6.863399094945006e-001	 4.143541664884513e+000	 8.970191176703500e+000
 6.474699551242626e-001	 4.149793086071094e+000	 8.749079633800186e+000
 6.086618538806304e-001	 4.155662492024275e+000	 8.702285727759124e+000
 5.699206454463109e-001	 4.161152539606915e+000	 8.860259944658468e+000
 5.312512882942390e-001	 4.166265962305615e+000	 9.007782271522963e+000
 4.926586585679781e-001	 4.171005567739937e+000	 9.146364297996774e+000
 4.541475490418583e-001	 4.175374235164916e+000	 9.276773829979703e+000
 4.157226681601563e-001	 4.179374912969506e+000	 9.399017791415682e+000
 3.773886391545250e-001	 4.183010616173539e+000	 9.512327811279574e+000
 7.687938964286722e-001	 4.154465181567210e+000	 9.614971646470153e+000
 7.295836603805946e-001	 4.161530089106282e+000	 9.335910205737310e+000
 6.904252661011612e-001	 4.168205603368522e+000	 9.067108140651031e+000
 6.513239429548943e-001	 4.174494235395568e+000	 8.807128492222571e+000
 6.122848411086815e-001	 4.180398578288960e+000	 8.699669362929834e+000
 5.733130302433406e-001	 4.185921304726221e+000	 8.880953145774814e+000
 5.344134983465257e-001	 4.191065164464702e+000	 9.044037562828082e+000
 4.955911505864634e-001	 4.195832981835987e+000	 9.191408509120405e+000
 4.568508082659017e-001	 4.200227653233537e+000	 9.324785862245008e+000
 4.181972078555706e-001	 4.204252144596235e+000	 9.445105337537406e+000
 3.796350001063584e-001	 4.207909488890468e+000	 9.552503105329228e+000
 7.733429727426728e-001	 4.179047815779902e+000	 9.734619317117559e+000
 7.339007234633732e-001	 4.186154527505775e+000	 9.461080119123851e+000
 6.945106227088217e-001	 4.192869541852530e+000	 9.181120440296411e+000
 6.551779307865256e-001	 4.199195384720042e+000	 8.893492883985767e+000
 6.159078283377327e-001	 4.205134664553649e+000	 8.716881183890189e+000
 5.767054150413704e-001	 4.210690069845527e+000	 8.916556604529927e+000
 5.375757083998125e-001	 4.215864366623789e+000	 9.090609127607436e+000
 4.985236426059487e-001	 4.220660395932038e+000	 9.242508653561096e+000
 4.595540674909452e-001	 4.225081071302156e+000	 9.374936330254398e+000
 4.206717475519851e-001	 4.229129376222967e+000	 9.489765355524579e+000
 3.818813610591916e-001	 4.232808361607396e+000	 9.588044619705356e+000
 3.594177515758589e-001	 3.983819634438112e+000	 8.797061148836169e+000
 3.229999992710687e-001	 3.986937546585482e+000	 8.625738260048706e+000
 2.866773322591905e-001	 3.989713787615519e+000	 8.524877518142473e+000
 2.504539058424694e-001	 3.992151405067931e+000	 8.484004495145085e+000
 2.143337915336599e-001	 3.994253500437820e+000	 8.492015313480582e+000
 1.783209765742107e-001	 3.996023226819399e+000	 8.537181119561529e+000
 1.424193635209339e-001	 3.997463786561715e+000	 8.607154365643645e+000
 1.066327698999317e-001	 3.998578428938315e+000	 8.688976835911820e+000
 7.096492792649740e-002	 3.999370447832836e+000	 8.769089349622183e+000
 3.541948428966121e-002	 3.999843179442312e+000	 8.833343071315014e+000
 0.000000000000000e+000	 4.000000000000000e+000	 8.867012355643842e+000
 3.616641125196922e-001	 4.008718507155041e+000	 8.942390190813036e+000
 3.250187492635377e-001	 4.011855906253005e+000	 8.762122338719925e+000
 2.884690655833330e-001	 4.014649498789190e+000	 8.645321598726286e+000
 2.520192427519624e-001	 4.017102351350427e+000	 8.582386696562217e+000
 2.156733777291356e-001	 4.019217584816156e+000	 8.563062994134965e+000
 1.794354826765607e-001	 4.020998371987436e+000	 8.576446295827969e+000
 1.433094845420301e-001	 4.022447935227989e+000	 8.610988530809124e+000
 1.072992247111848e-001	 4.023569544119328e+000	 8.654505246222358e+000
 7.140845872566388e-002	 4.024366513131858e+000	 8.694184842861032e+000
 3.564085606630450e-002	 4.024842199313842e+000	 8.716599482003581e+000
 0.000000000000000e+000	 4.025000000000000e+000	 8.707717589508444e+000
 3.639104734645255e-001	 4.033617379871969e+000	 9.067969799827901e+000
 3.270374992569964e-001	 4.036774265920530e+000	 8.880628546597810e+000
 2.902607989084344e-001	 4.039585209962862e+000	 8.750149670063589e+000
 2.535845796623630e-001	 4.042053297632920e+000	 8.667809230392940e+000
 2.170129639254478e-001	 4.044181669194492e+000	 8.624205527833139e+000
 1.805499887796560e-001	 4.045973517155472e+000	 8.609262242864647e+000
 1.441996055637612e-001	 4.047432083894266e+000	 8.612233520919800e+000
 1.079656795229425e-001	 4.048560659300342e+000	 8.621710935414082e+000
 7.185198952518571e-002	 4.049362578430878e+000	 8.625632259441113e+000
 3.586222784313484e-002	 4.049841219185374e+000	 8.611291973443860e+000
 0.000000000000000e+000	 4.050000000000000e+000	 8.565353433486465e+000
 3.661568344103588e-001	 4.058516252588897e+000	 9.175684014446031e+000
 3.290562492514448e-001	 4.061692625588052e+000	 8.982738853234929e+000
 2.920525322344945e-001	 4.064520921136532e+000	 8.840441158690240e+000
 2.551499165736715e-001	 4.067004243915415e+000	 8.740948723043692e+000
 2.183525501225966e-001	 4.069145753572830e+000	 8.675716696143043e+000
 1.816644948834969e-001	 4.070948662323509e+000	 8.635500060501119e+000
 1.450897265861269e-001	 4.072416232560541e+000	 8.610358120280258e+000
 1.086321343352048e-001	 4.073551774481353e+000	 8.589660936808416e+000
 7.229552032506288e-002	 4.074358643729899e+000	 8.562097639702975e+000
 3.608359962015221e-002	 4.074840239056904e+000	 8.515686539519040e+000
 0.000000000000000e+000	 4.074999999999999e+000	 8.437786965046573e+000
 3.684031953571920e-001	 4.083415125305826e+000	 9.267418516499644e+000
 3.310749992468829e-001	 4.086610985255576e+000	 9.069941624320338e+000
 2.938442655615136e-001	 4.089456632310205e+000	 8.917286710346073e+000
 2.567152534858878e-001	 4.091955190197909e+000	 8.802497910810418e+000
 2.196921363205818e-001	 4.094109837951165e+000	 8.717891346250507e+000
 1.827790009880833e-001	 4.095923807491546e+000	 8.655056932384891e+000
 1.459798476091275e-001	 4.097400381226817e+000	 8.604862275120901e+000
 1.092985891479719e-001	 4.098542889662367e+000	 8.557458581112735e+000
 7.273905112529538e-002	 4.099354709028920e+000	 8.502288511640840e+000
 3.630497139735663e-002	 4.099839258928434e+000	 8.428095904309743e+000
 0.000000000000000e+000	 4.100000000000000e+000	 8.322937284154804e+000
 3.706495563050253e-001	 4.108313998022754e+000	 9.345060581291962e+000
 3.330937492433106e-001	 4.111529344923100e+000	 9.143731427857338e+000
 2.956359988894915e-001	 4.114392343483876e+000	 8.981787849998959e+000
 2.582805903990116e-001	 4.116906136480402e+000	 8.853165151700466e+000
 2.210317225194036e-001	 4.119073922329503e+000	 8.751044752607692e+000
 1.838935070934152e-001	 4.120898952659582e+000	 8.667855335562884e+000
 1.468699686327628e-001	 4.122384529893092e+000	 8.595276149297135e+000
 1.099650439612437e-001	 4.123534004843380e+000	 8.524242396499233e+000
 7.318258192588324e-002	 4.124350774327941e+000	 8.444952633701222e+000
 3.652634317474809e-002	 4.124838278799965e+000	 8.346878106027109e+000
 0.000000000000000e+000	 4.125000000000000e+000	 8.218773936834770e+000
 3.728959172538585e-001	 4.133212870739683e+000	 9.410499029601111e+000
 3.351124992407280e-001	 4.136447704590624e+000	 9.205608847346980e+000
 2.974277322184281e-001	 4.139328054657547e+000	 9.035056654157300e+000
 2.598459273130434e-001	 4.141857082762898e+000	 8.893673954898985e+000
 2.223713087190620e-001	 4.144038006707840e+000	 8.775512001653572e+000
 1.850080131994925e-001	 4.145874097827619e+000	 8.673842278632117e+000
 1.477600896570330e-001	 4.147368678559366e+000	 8.581159214119987e+000
 1.106314987750200e-001	 4.148525120024392e+000	 8.489185048440897e+000
 7.362611272682640e-002	 4.149346839626961e+000	 8.388876783022194e+000
 3.674771495232660e-002	 4.149837298671496e+000	 8.270435132129300e+000
 0.000000000000000e+000	 4.150000000000000e+000	 8.123315395708675e+000
 3.751422782036917e-001	 4.158111743456611e+000	 9.465624181408442e+000
 3.371312492391351e-001	 4.161366064258147e+000	 9.257080301683253e+000
 2.992194655483239e-001	 4.164263765831219e+000	 9.078215434955718e+000
 2.614112642279828e-001	 4.166808029045392e+000	 8.924762527141018e+000
 2.237108949195569e-001	 4.169002091086175e+000	 8.791647398640992e+000
 1.861225193063153e-001	 4.170849242995655e+000	 8.672988567262182e+000
 1.486502106819379e-001	 4.172352827225643e+000	 8.562099370887529e+000
 1.112979535893010e-001	 4.173516235205405e+000	 8.451492317636502e+000
 7.406964352812494e-002	 4.174342904925983e+000	 8.332885587209505e+000
 3.696908673009215e-002	 4.174836318543028e+000	 8.197211603476122e+000
 0.000000000000000e+000	 4.175000000000000e+000	 8.034627595129170e+000
 3.773886391545250e-001	 4.183010616173539e+000	 9.512327811279574e+000
 3.391499992385319e-001	 4.186284423925672e+000	 9.299657871480807e+000
 3.010111988791782e-001	 4.189199477004890e+000	 9.112396435523300e+000
 2.629766011438300e-001	 4.191758975327886e+000	 8.947183335284452e+000
 2.250504811208884e-001	 4.193966175464512e+000	 8.799823895648290e+000
 1.872370254138836e-001	 4.195824388163691e+000	 8.665288095949096e+000
 1.495403317074776e-001	 4.197336975891918e+000	 8.537712104754188e+000
 1.119644084040868e-001	 4.198507350386418e+000	 8.410402114438503e+000
 7.451317432977879e-002	 4.199338970225004e+000	 8.275840397834097e+000
 3.719045850804473e-002	 4.199835338414558e+000	 8.125693505477663e+000
 0.000000000000000e+000	 4.199999999999999e+000	 7.950822518627507e+000
 3.796350001063584e-001	 4.207909488890468e+000	 9.552503105329228e+000
 3.411687492389183e-001	 4.211202783593194e+000	 9.334859131568464e+000
 3.028029322109916e-001	 4.214135188178561e+000	 9.138741536167366e+000
 2.645419380605849e-001	 4.216709921610381e+000	 8.961702684412915e+000
 2.263900673230564e-001	 4.218930259842848e+000	 8.800432539897880e+000
 1.883515315221974e-001	 4.220799533331728e+000	 8.650757164914106e+000
 1.504304527336521e-001	 4.222321124558195e+000	 8.507639668640632e+000
 1.126308632193772e-001	 4.223498465567431e+000	 8.365183528271546e+000
 7.495670513178798e-002	 4.224335035524025e+000	 8.216638203925047e+000
 3.741183028618436e-002	 4.224834358286088e+000	 8.054406964291381e+000
 0.000000000000000e+000	 4.224999999999999e+000	 7.870056836512510e+000
 3.818813610591916e-001	 4.232808361607396e+000	 9.588044619705356e+000
 3.431874992402947e-001	 4.236121143260720e+000	 9.364206989394686e+000
 3.045946655437639e-001	 4.239070899352234e+000	 9.158401970927056e+000
 2.661072749782476e-001	 4.241660867892877e+000	 8.969100310829257e+000
 2.277296535260610e-001	 4.243894344221187e+000	 8.793881941546431e+000
 1.894660376312568e-001	 4.245774678499766e+000	 8.629433821111643e+000
 1.513205737604614e-001	 4.247305273224471e+000	 8.471550295946352e+000
 1.132973180351722e-001	 4.248489580748445e+000	 8.315135910601104e+000
 7.540023593415254e-002	 4.249331100823046e+000	 8.154210583808448e+000
 3.763320206451105e-002	 4.249833378157620e+000	 7.981917066211819e+000
 0.000000000000000e+000	 4.250000000000000e+000	 7.790530591553260e+000
 4.250000000000000e+000	 0.000000000000000e+000	 1.063320953170116e+001
 4.249833378157620e+000	 3.763320206450985e-002	 1.053606351432354e+001
 4.249331100823047e+000	 7.540023593415146e-002	 1.045484529899690e+001
 4.248489580748444e+000	 1.132973180351712e-001	 1.038654727114568e+001
 4.247305273224471e+000	 1.513205737604605e-001	 1.032826412463981e+001
 4.245774678499766e+000	 1.894660376312561e-001	 1.027717338435300e+001
 4.243894344221186e+000	 2.277296535260605e-001	 1.023051453257085e+001
 4.241660867892875e+000	 2.661072749782472e-001	 1.018556674363205e+001
 4.239070899352234e+000	 3.045946655437635e-001	 1.013962523584169e+001
 4.236121143260720e+000	 3.431874992402945e-001	 1.008997625453284e+001
 4.232808361607396e+000	 3.818813610591916e-001	 1.003387070516083e+001
 4.275000000000000e+000	 0.000000000000000e+000	 1.055385826991175e+001
 4.274832398029148e+000	 3.785457384283890e-002	 1.047338912064475e+001
 4.274327166122059e+000	 7.584376673652557e-002	 1.040598569541764e+001
 4.273480695929435e+000	 1.139637728509879e-001	 1.034920920151892e+001
 4.272289421890707e+000	 1.522106947873083e-001	 1.030073899504365e+001
 4.270749823667742e+000	 1.905805437403758e-001	 1.025835248150423e+001
 4.268858428599435e+000	 2.290692397291523e-001	 1.021990357197182e+001
 4.266611814175251e+000	 2.676726118960291e-001	 1.018329969895279e+001
 4.264006610525748e+000	 3.063863988766920e-001	 1.014647740097812e+001
 4.261039502928045e+000	 3.452062492418691e-001	 1.010737648984464e+001
 4.257707234324079e+000	 3.841277220122707e-001	 1.006391281958287e+001
 4.300000000000000e+000	 0.000000000000000e+000	 1.051310985699089e+001
 4.299831417900671e+000	 3.807594562098566e-002	 1.044626270802208e+001
 4.299323231421049e+000	 7.628729753856345e-002	 1.038954735383613e+001
 4.298471811110385e+000	 1.146302276663430e-001	 1.034110109340771e+001
 4.297273570556867e+000	 1.531008158135985e-001	 1.029919542949357e+001
 4.295724968835597e+000	 1.916950498488709e-001	 1.026221534012022e+001
 4.293822512977509e+000	 2.304088259315823e-001	 1.022863705669012e+001
 4.291562760457388e+000	 2.692379488131417e-001	 1.019700435272751e+001
 4.288942321698952e+000	 3.081781322089742e-001	 1.016590335218024e+001
 4.285957862594973e+000	 3.472249992428509e-001	 1.013393587127819e+001
 4.282606107040270e+000	 3.863740829648416e-001	 1.009969131321529e+001
 4.324999999999999e+000	 0.000000000000000e+000	 1.051198469614346e+001
 4.324830437772191e+000	 3.829731739895016e-002	 1.045543535831101e+001
 4.324319296720021e+000	 7.673082834026511e-002	 1.040601083915624e+001
 4.323462926291289e+000	 1.152966824812367e-001	 1.036243192832095e+001
 4.322257719222950e+000	 1.539909368393308e-001	 1.032356989190302e+001
 4.320700114003333e+000	 1.928095559567414e-001	 1.028842510757461e+001
 4.318786597355409e+000	 2.317484121333504e-001	 1.025610415680624e+001
 4.316513706739286e+000	 2.708032857295852e-001	 1.022579537803276e+001
 4.313878032871841e+000	 3.099698655406102e-001	 1.019674288961342e+001
 4.310876222261504e+000	 3.492437492432402e-001	 1.016821909664910e+001
 4.307504979755969e+000	 3.886204439169040e-001	 1.013949570111676e+001
 4.350000000000000e+000	 0.000000000000000e+000	 1.055147973302739e+001
 4.349829457643704e+000	 3.851868917673237e-002	 1.050163704277143e+001
 4.349315362018976e+000	 7.717435914163061e-002	 1.045583795842398e+001
 4.348454041472150e+000	 1.159631372956689e-001	 1.041339428760980e+001
 4.347241867888955e+000	 1.548810578645055e-001	 1.037378480785005e+001
 4.345675259170945e+000	 1.939240620639871e-001	 1.033663325799333e+001
 4.343750681733135e+000	 2.330879983344565e-001	 1.030168473663345e+001
 4.341464653020945e+000	 2.723686226453594e-001	 1.026878051116268e+001
 4.338813744044418e+000	 3.117615988715999e-001	 1.023783124624659e+001
 4.335794581927638e+000	 3.512624992430367e-001	 1.020878866584550e+001
 4.332403852471177e+000	 3.908668048684583e-001	 1.018161566843793e+001
 4.374999999999999e+000	 0.000000000000000e+000	 1.063256912596951e+001
 4.374828477515215e+000	 3.874006095433233e-002	 1.058557722522749e+001
 4.374311427317912e+000	 7.761788994265988e-002	 1.053947229676632e+001
 4.373445156652968e+000	 1.166295921096397e-001	 1.049416482104376e+001
 4.372226016554886e+000	 1.557711788891225e-001	 1.044974896567275e+001
 4.370650404338438e+000	 1.950385681706083e-001	 1.040647992577603e+001
 4.368714766110685e+000	 2.344275845349007e-001	 1.036474962059674e+001
 4.366415599302367e+000	 2.739339595604644e-001	 1.032506074982281e+001
 4.363749455216683e+000	 3.135533322019432e-001	 1.028799921834360e+001
 4.360712941593377e+000	 3.532812492422403e-001	 1.025420494362608e+001
 4.357302725185893e+000	 3.931131658195044e-001	 1.022434106556162e+001
 4.400000000000000e+000	 0.000000000000000e+000	 1.077835457554826e+001
 4.399827497386720e+000	 3.896143273174999e-002	 1.070987735018412e+001
 4.399307492616827e+000	 7.806142074335290e-002	 1.064202411731265e+001
 4.398436271833743e+000	 1.172960469231490e-001	 1.057571655383929e+001
 4.397210165220736e+000	 1.566612999131817e-001	 1.051190846966188e+001
 4.395625549505810e+000	 1.961530742766048e-001	 1.045158819283908e+001
 4.393678850488062e+000	 2.357671707346830e-001	 1.039578103064509e+001
 4.391366545583549e+000	 2.754992964749001e-001	 1.034555180296880e+001
 4.388685166388635e+000	 3.153450655316404e-001	 1.030200744409704e+001
 4.385631301258717e+000	 3.552999992408514e-001	 1.026629966849636e+001
 4.382201597900116e+000	 3.953595267700419e-001	 1.023962769577675e+001
 4.425000000000000e+000	 0.000000000000000e+000	 1.086870716010878e+001
 4.424826517258218e+000	 3.918280450898538e-002	 1.078510810378494e+001
 4.424303557915724e+000	 7.850495154370979e-002	 1.070189183782416e+001
 4.423427387014476e+000	 1.179625017361969e-001	 1.062018078817830e+001
 4.422194313886512e+000	 1.575514209366833e-001	 1.054113380589268e+001
 4.420600694673061e+000	 1.972675803819767e-001	 1.046594850407036e+001
 4.418642934865264e+000	 2.371067569338034e-001	 1.039586366535981e+001
 4.416317491864494e+000	 2.770646333886667e-001	 1.033216171630566e+001
 4.413620877560276e+000	 3.171367988606912e-001	 1.027617126448711e+001
 4.410549660923660e+000	 3.573187492388696e-001	 1.022926969394738e+001
 4.407100470613848e+000	 3.976058877200713e-001	 1.019288581399009e+001
 4.449999999999999e+000	 0.000000000000000e+000	 1.090453647327323e+001
 4.449825537129715e+000	 3.940417628603850e-002	 1.081178405670880e+001
 4.449299623214602e+000	 7.894848234373043e-002	 1.071918608730548e+001
 4.448418502195165e+000	 1.186289565487833e-001	 1.062806306507306e+001
 4.447178462552209e+000	 1.584415419596270e-001	 1.053977615660196e+001
 4.445575839840191e+000	 1.983820864867240e-001	 1.045572948540634e+001
 4.443607019242291e+000	 2.384463431322619e-001	 1.037737248753133e+001
 4.441268438145198e+000	 2.786299703017640e-001	 1.030620232864572e+001
 4.438556588731602e+000	 3.189285321890958e-001	 1.024376637842972e+001
 4.435468020588207e+000	 3.593374992362952e-001	 1.019166473764968e+001
 4.431999343327089e+000	 3.998522486695924e-001	 1.015155281288790e+001
 4.474999999999999e+000	 0.000000000000000e+000	 1.088673178254771e+001
 4.474824557001205e+000	 3.962554806290932e-002	 1.079071880021730e+001
 4.474295688513459e+000	 7.939201314341488e-002	 1.069464458331540e+001
 4.473409617375811e+000	 1.192954113609082e-001	 1.060002505421050e+001
 4.472162611217829e+000	 1.593316629820132e-001	 1.050842099320990e+001
 4.470550985007201e+000	 1.994965925908466e-001	 1.042144028385962e+001
 4.468571103619143e+000	 2.397859293300585e-001	 1.034074021835220e+001
 4.466219384425665e+000	 2.801953072141921e-001	 1.026802985914555e+001
 4.463492299902616e+000	 3.207202655168541e-001	 1.020507245248756e+001
 4.460386380252357e+000	 3.613562492331280e-001	 1.015368788912637e+001
 4.456898216039838e+000	 4.020986096186052e-001	 1.011575520706653e+001
 4.500000000000000e+000	 0.000000000000000e+000	 1.081616259393660e+001
 4.499823576872690e+000	 3.984691983959790e-002	 1.072270814122828e+001
 4.499291753812299e+000	 7.983554394276311e-002	 1.062898924110158e+001
 4.498400732556415e+000	 1.199618661725717e-001	 1.053671460917976e+001
 4.497146759883374e+000	 1.602217840038416e-001	 1.044764196072488e+001
 4.495526130174089e+000	 2.006110986943446e-001	 1.036358021246790e+001
 4.493535187995821e+000	 2.411255155271932e-001	 1.028639173949271e+001
 4.491170330705895e+000	 2.817606441259510e-001	 1.021799468315958e+001
 4.488428011073320e+000	 3.225119988439663e-001	 1.016036530564773e+001
 4.485304739916110e+000	 3.633749992293682e-001	 1.011554038628453e+001
 4.481797088752097e+000	 4.043449705671097e-001	 1.008561965441325e+001
 4.232808361607396e+000	 3.818813610591916e-001	 1.003387070516083e+001
 4.229129376222968e+000	 4.206717475519838e-001	 1.024991909737056e+001
 4.225081071302157e+000	 4.595540674909442e-001	 1.046148040380003e+001
 4.220660395932038e+000	 4.985236426059478e-001	 1.066538545407107e+001
 4.215864366623790e+000	 5.375757083998118e-001	 1.085830253243462e+001
 4.210690069845527e+000	 5.767054150413700e-001	 1.103670467028979e+001
 4.205134664553647e+000	 6.159078283377324e-001	 1.119683582410526e+001
 4.199195384720043e+000	 6.551779307865258e-001	 1.096970495617579e+001
 4.192869541852530e+000	 6.945106227088218e-001	 1.061975901190564e+001
 4.186154527505775e+000	 7.339007234633734e-001	 1.025730319508248e+001
 4.179047815779902e+000	 7.733429727426728e-001	 9.881110803332378e+000
 4.257707234324079e+000	 3.841277220122707e-001	 1.006391281958287e+001
 4.254006607849405e+000	 4.231462872486892e-001	 1.028947972391827e+001
 4.249934489370448e+000	 4.622573267163143e-001	 1.051239769781796e+001
 4.245487810027735e+000	 5.014561346257856e-001	 1.073007224197534e+001
 4.240663568782507e+000	 5.407379184534670e-001	 1.093975285637049e+001
 4.235458834964457e+000	 5.800977998397745e-001	 1.113849933034759e+001
 4.229870750817963e+000	 6.195308155671544e-001	 1.132314687718250e+001
 4.223896534044159e+000	 6.590319186185141e-001	 1.103850913048711e+001
 4.217533480336205e+000	 6.985959793168153e-001	 1.067050711082798e+001
 4.210778965904968e+000	 7.382177865464503e-001	 1.029112663419883e+001
 4.203630449992338e+000	 7.778920490569271e-001	 9.899119984672760e+000
 4.282606107040270e+000	 3.863740829648416e-001	 1.009969131321529e+001
 4.278883839475262e+000	 4.256208269449768e-001	 1.032900521772151e+001
 4.274787907438089e+000	 4.649605859413376e-001	 1.055752830436100e+001
 4.270315224122728e+000	 5.043886266453286e-001	 1.078325080148064e+001
 4.265462770940488e+000	 5.439001285068598e-001	 1.100401360667818e+001
 4.260227600082641e+000	 5.834901846379286e-001	 1.121747356071437e+001
 4.254606837081536e+000	 6.231538027963179e-001	 1.142106752442583e+001
 4.248597683367563e+000	 6.628859064502166e-001	 1.107809963687656e+001
 4.242197418819215e+000	 7.026813359244744e-001	 1.070004835623562e+001
 4.235403404303565e+000	 7.425348496291240e-001	 1.031170469774341e+001
 4.228213084204269e+000	 7.824411253706887e-001	 9.911792925490818e+000
 4.307504979755969e+000	 3.886204439169040e-001	 1.013949570111676e+001
 4.303761071100537e+000	 4.280953666408464e-001	 1.036655072269070e+001
 4.299641325505075e+000	 4.676638451660143e-001	 1.059469304007431e+001
 4.295142638217016e+000	 5.073211186645766e-001	 1.082250780394440e+001
 4.290261973097732e+000	 5.470623385599893e-001	 1.104843763143078e+001
 4.284996365200073e+000	 5.868825694358322e-001	 1.127074685001802e+001
 4.279342923344370e+000	 6.267767900252239e-001	 1.146158133149245e+001
 4.273298832690251e+000	 6.667398942816331e-001	 1.108933529821902e+001
 4.266861357301558e+000	 7.067666925317994e-001	 1.070925479972648e+001
 4.260027842701565e+000	 7.468519127113946e-001	 1.031992231673347e+001
 4.252795718415691e+000	 7.869902016839576e-001	 9.920027059098258e+000
 4.332403852471177e+000	 3.908668048684583e-001	 1.018161566843793e+001
 4.328638302725228e+000	 4.305699063362981e-001	 1.040017298208774e+001
 4.324494743571406e+000	 4.703671043903443e-001	 1.062171575121959e+001
 4.319970052310598e+000	 5.102536106835297e-001	 1.084543438105089e+001
 4.315061175254239e+000	 5.502245486128563e-001	 1.107038366961501e+001
 4.309765130316755e+000	 5.902749542334852e-001	 1.129544600768570e+001
 4.304079009606459e+000	 6.303997772538716e-001	 1.144036402618318e+001
 4.297999982012227e+000	 6.705938821127638e-001	 1.107308511350503e+001
 4.291525295783235e+000	 7.108520491387895e-001	 1.069901009325144e+001
 4.284652281098968e+000	 7.511689757932623e-001	 1.031667744368741e+001
 4.277378352626607e+000	 7.915392779967340e-001	 9.924734257752064e+000
 4.357302725185893e+000	 3.931131658195044e-001	 1.022434106556162e+001
 4.353515534349339e+000	 4.330444460313320e-001	 1.042793029283024e+001
 4.349348161637088e+000	 4.730703636143276e-001	 1.063642322711455e+001
 4.344797466403475e+000	 5.131861027021879e-001	 1.084962599737344e+001
 4.339860377410007e+000	 5.533867586654605e-001	 1.106721618281945e+001
 4.334533895432688e+000	 5.936673390308880e-001	 1.128870495477808e+001
 4.328815095867808e+000	 6.340227644822610e-001	 1.138444968717492e+001
 4.322701131333488e+000	 6.744478699436080e-001	 1.103022796709455e+001
 4.316189234264249e+000	 7.149374057454460e-001	 1.067020915767576e+001
 4.309276719495773e+000	 7.554860388747267e-001	 1.030288068058199e+001
 4.301960986837014e+000	 7.960883543090176e-001	 9.926840420113068e+000
 4.382201597900116e+000	 3.953595267700419e-001	 1.023962769577675e+001
 4.378392765972867e+000	 4.355189857259480e-001	 1.043486846333576e+001
 4.374201579702113e+000	 4.757736228379644e-001	 1.063664511652354e+001
 4.369624880495647e+000	 5.161185947205511e-001	 1.083268232728101e+001
 4.364659579565039e+000	 5.565489687178021e-001	 1.103630519266060e+001
 4.359302660547873e+000	 5.970597238280402e-001	 1.124766452195440e+001
 4.353551182128413e+000	 6.376457517103922e-001	 1.129470909391310e+001
 4.347402280654035e+000	 6.783018577741664e-001	 1.096165234788257e+001
 4.340853172744594e+000	 7.190227623517679e-001	 1.062375786263945e+001
 4.333901157891983e+000	 7.598031019557879e-001	 1.027945491949257e+001
 4.326543621046915e+000	 8.006374306208084e-001	 9.927285072768623e+000
 4.407100470613848e+000	 3.976058877200713e-001	 1.019288581399009e+001
 4.403269997595813e+000	 4.379935254201460e-001	 1.036073394468918e+001
 4.399054997766487e+000	 4.784768820612544e-001	 1.053870926231849e+001
 4.394452294587114e+000	 5.190510867386196e-001	 1.072745823690860e+001
 4.389458781719333e+000	 5.597111787698808e-001	 1.092767482220033e+001
 4.384071425662307e+000	 6.004521086249419e-001	 1.114010387814107e+001
 4.378287268388279e+000	 6.412687389382653e-001	 1.116131862672286e+001
 4.372103429973867e+000	 6.821558456044388e-001	 1.086825607798461e+001
 4.365517111224275e+000	 7.231081189577554e-001	 1.056057271726975e+001
 4.358525596287595e+000	 7.641201650364463e-001	 1.024733499541523e+001
 4.351126255256309e+000	 8.051865069321068e-001	 9.927020985262848e+000
 4.431999343327089e+000	 3.998522486695924e-001	 1.015155281288790e+001
 4.428147229218177e+000	 4.404680651139264e-001	 1.029586082302757e+001
 4.423908415830206e+000	 4.811801412841977e-001	 1.045068596668707e+001
 4.419279708677876e+000	 5.219835787563930e-001	 1.061680057028435e+001
 4.414257983872892e+000	 5.628733888216966e-001	 1.079502712393150e+001
 4.408840190775990e+000	 6.038444934215933e-001	 1.098624169104854e+001
 4.403023354647401e+000	 6.448917261658803e-001	 1.096433146189751e+001
 4.396804579292986e+000	 6.860098334344250e-001	 1.070536636432469e+001
 4.390181049703291e+000	 7.271934755634089e-001	 1.044664796584006e+001
 4.383150034682609e+000	 7.684372281167013e-001	 1.018696442861283e+001
 4.375708889465193e+000	 8.097355832429123e-001	 9.925079532253044e+000
 4.456898216039838e+000	 4.020986096186052e-001	 1.011575520706653e+001
 4.453024460839959e+000	 4.429426048072887e-001	 1.024033457194873e+001
 4.448761833893272e+000	 4.838834005067944e-001	 1.037581437160041e+001
 4.444107122767933e+000	 5.249160707738715e-001	 1.052309063683001e+001
 4.439057186025711e+000	 5.660355988732497e-001	 1.068311222055168e+001
 4.433608955888925e+000	 6.072368782179941e-001	 1.085688419652225e+001
 4.427759440905781e+000	 6.485147133932371e-001	 1.080267191757018e+001
 4.421505728611392e+000	 6.898638212641255e-001	 1.057036758194845e+001
 4.414844988181640e+000	 7.312788321687279e-001	 1.033999786278357e+001
 4.407774473077029e+000	 7.727542911965535e-001	 1.011055875063801e+001
 4.400291523673573e+000	 8.142846595532255e-001	 9.881023790712014e+000
 4.481797088752097e+000	 4.043449705671097e-001	 1.008561965441325e+001
 4.477901692461161e+000	 4.454171445002335e-001	 1.019424201240231e+001
 4.473615251955686e+000	 4.865866597290444e-001	 1.031414136069669e+001
 4.468934536857286e+000	 5.278485627910552e-001	 1.044633529422925e+001
 4.463856388177796e+000	 5.691978089245402e-001	 1.059189686713986e+001
 4.458377721001111e+000	 6.106292630141446e-001	 1.075195798264094e+001
 4.452495527163420e+000	 6.521377006203358e-001	 1.067567717840930e+001
 4.446206877929084e+000	 6.937178090935400e-001	 1.047218913631771e+001
 4.439508926659324e+000	 7.353641887737129e-001	 1.027232068568153e+001
 4.432398911470851e+000	 7.770713542760025e-001	 1.007527578140865e+001
 4.424874157881446e+000	 8.188337358630459e-001	 9.880237870514090e+000
 4.179047815779902e+000	 7.733429727426728e-001	 9.881110803332378e+000
 4.171546965803959e+000	 8.128320319509310e-001	 1.001553824464600e+001
 4.163649624201344e+000	 8.523624856654427e-001	 1.014612451980235e+001
 4.155353527534344e+000	 8.919288431804858e-001	 1.027346530046306e+001
 4.146656504724693e+000	 9.315255401334329e-001	 1.039834743887986e+001
 4.137556479447226e+000	 9.711469402141431e-001	 1.052176785373687e+001
 4.128051472493548e+000	 1.010787336957094e+000	 1.064495258659722e+001
 4.118139604102669e+000	 1.050440955616010e+000	 1.076937597750617e+001
 4.107819096255514e+000	 1.090101955120620e+000	 1.089677990604954e+001
 4.097088274930204e+000	 1.129764430115053e+000	 1.102919304202198e+001
 4.085945572314992e+000	 1.169422413077266e+000	 1.116895004783849e+001
 4.203630449992338e+000	 7.778920490569271e-001	 9.899119984672760e+000
 4.196085477369345e+000	 8.176133968488740e-001	 1.004320858834793e+001
 4.188141680816043e+000	 8.573763826440791e-001	 1.018106638970983e+001
 4.179796783580376e+000	 8.971754834385507e-001	 1.031287564758748e+001
 4.171048601813030e+000	 9.370051021381156e-001	 1.043900966102620e+001
 4.161895046975169e+000	 9.768595692778667e-001	 1.056005236019172e+001
 4.152334128215988e+000	 1.016733144824837e+000	 1.067681808256434e+001
 4.142363954717085e+000	 1.056620020063654e+000	 1.079037148172960e+001
 4.131982738000448e+000	 1.096514319564808e+000	 1.090204751374740e+001
 4.121188794197010e+000	 1.136410103235041e+000	 1.101347144386884e+001
 4.109980546272603e+000	 1.176301368449240e+000	 1.112657881428171e+001
 4.228213084204269e+000	 7.824411253706887e-001	 9.911792925490818e+000
 4.220623988934317e+000	 8.223947617462386e-001	 1.006534374408573e+001
 4.212633737430396e+000	 8.623902796220805e-001	 1.021022409726070e+001
 4.204240039626113e+000	 9.024221236959534e-001	 1.034619927468802e+001
 4.195440698901107e+000	 9.424846641421386e-001	 1.047322550109291e+001
 4.186233614502861e+000	 9.825721983409625e-001	 1.059147023986859e+001
 4.176616783938171e+000	 1.022678952692014e+000	 1.070133269678188e+001
 4.166588305331214e+000	 1.062799084510823e+000	 1.080346446981518e+001
 4.156146379745045e+000	 1.102926684008645e+000	 1.089879028879416e+001
 4.145289313463411e+000	 1.143055776354834e+000	 1.098852878616910e+001
 4.134015520229721e+000	 1.183180323821201e+000	 1.107421323816062e+001
 4.252795718415691e+000	 7.869902016839576e-001	 9.920027059098258e+000
 4.245162500498869e+000	 8.271761266430252e-001	 1.008299281548992e+001
 4.237125794044403e+000	 8.674041765994475e-001	 1.023479769937433e+001
 4.228683295671557e+000	 9.076687639526944e-001	 1.037478638661099e+001
 4.219832795988922e+000	 9.479642261455018e-001	 1.050249441775211e+001
 4.210572182030301e+000	 9.882848274034308e-001	 1.061766922210864e+001
 4.200899439660093e+000	 1.028624760558625e+000	 1.072029135682389e+001
 4.190812655945057e+000	 1.068978148957521e+000	 1.081059590572523e+001
 4.180310021489308e+000	 1.109339048452133e+000	 1.088909398025548e+001
 4.169389832729410e+000	 1.149701449474429e+000	 1.095659426243290e+001
 4.158050494186345e+000	 1.190059279193150e+000	 1.101422452756421e+001
 4.277378352626607e+000	 7.915392779967340e-001	 9.924734257752064e+000
 4.269701012063006e+000	 8.319574915392335e-001	 1.009721754968182e+001
 4.261617850658065e+000	 8.724180735761798e-001	 1.025599810259341e+001
 4.253126551716705e+000	 9.129154042087733e-001	 1.039999624631092e+001
 4.244224893076473e+000	 9.534437881482052e-001	 1.052832313939597e+001
 4.234910749557492e+000	 9.939974564652716e-001	 1.064030252149420e+001
 4.225182095381759e+000	 1.034570568424671e+000	 1.073549269572622e+001
 4.215037006558610e+000	 1.075157213403744e+000	 1.081370868460195e+001
 4.204473663233235e+000	 1.115751412895269e+000	 1.087504450039679e+001
 4.193490351995004e+000	 1.156347122593827e+000	 1.091989546850254e+001
 4.182085468142476e+000	 1.196938234565087e+000	 1.094898053997487e+001
 4.301960986837014e+000	 7.960883543090176e-001	 9.926840420113068e+000
 4.294239523626727e+000	 8.367388564348637e-001	 1.010909197603069e+001
 4.286109907271380e+000	 8.774319705522771e-001	 1.027504675309451e+001
 4.277569807761560e+000	 9.181620444641899e-001	 1.042319691604761e+001
 4.268616990163762e+000	 9.589233501502491e-001	 1.055222545643043e+001
 4.259249317084431e+000	 9.997100855264839e-001	 1.066102868112746e+001
 4.249464751103163e+000	 1.040516376290151e+000	 1.074873894611614e+001
 4.239261357171881e+000	 1.081336277849494e+000	 1.081474757759087e+001
 4.228637304976828e+000	 1.122163777338056e+000	 1.085872792002036e+001
 4.217590871260191e+000	 1.162992795713027e+000	 1.088065844820019e+001
 4.206120442098111e+000	 1.203817189937011e+000	 1.088084587799999e+001
 4.326543621046915e+000	 8.006374306208084e-001	 9.927285072768623e+000
 4.318778035190028e+000	 8.415202213299152e-001	 1.011970205722640e+001
 4.310601963884349e+000	 8.824458675277399e-001	 1.029317533726684e+001
 4.302013063806120e+000	 9.234086847189447e-001	 1.044576500740577e+001
 4.293009087250787e+000	 9.644029121516328e-001	 1.057572202064979e+001
 4.283587884611121e+000	 1.005422714587069e+000	 1.068151142125213e+001
 4.273747406824312e+000	 1.046462184155066e+000	 1.076183583795132e+001
 4.263485707784863e+000	 1.087515342294771e+000	 1.081565917854519e+001
 4.252800946720086e+000	 1.128576141780491e+000	 1.084223046396161e+001
 4.241691390524975e+000	 1.169638468832031e+000	 1.084110773741937e+001
 4.230155416053255e+000	 1.210696145308922e+000	 1.081218198184005e+001
 4.351126255256309e+000	 8.051865069321068e-001	 9.927020985262848e+000
 4.343316546752915e+000	 8.463015862243891e-001	 1.013014535217983e+001
 4.335094020496972e+000	 8.874597645025674e-001	 1.031162549244055e+001
 4.326456319850387e+000	 9.286553249730376e-001	 1.046908543978857e+001
 4.317401184337551e+000	 9.698824741523568e-001	 1.060034015141218e+001
 4.307926452137560e+000	 1.011135343647027e+000	 1.070341949300642e+001
 4.298030062545201e+000	 1.052407992019415e+000	 1.077659249972500e+001
 4.287710058397559e+000	 1.093694406739574e+000	 1.081839185253692e+001
 4.276964588463008e+000	 1.134988506222576e+000	 1.082763850673761e+001
 4.265791909789357e+000	 1.176284141950839e+000	 1.080346640672175e+001
 4.254190390007903e+000	 1.217575100680821e+000	 1.074534721862201e+001
 4.375708889465193e+000	 8.097355832429123e-001	 9.925079532253044e+000
 4.367855058315383e+000	 8.510829511182845e-001	 1.014153069028637e+001
 4.359586077109249e+000	 8.924736614767607e-001	 1.033164852736592e+001
 4.350899575894356e+000	 9.339019652264681e-001	 1.049455120705209e+001
 4.341793281424052e+000	 9.753620361524213e-001	 1.062761364834839e+001
 4.332265019663749e+000	 1.016847972706357e+000	 1.072842653710591e+001
 4.322312718265832e+000	 1.058353799883198e+000	 1.079482136300166e+001
 4.311934409009967e+000	 1.099873471183905e+000	 1.082489568610357e+001
 4.301128230205595e+000	 1.141400870664311e+000	 1.081703856834279e+001
 4.289892429053334e+000	 1.182929815069449e+000	 1.076995610249807e+001
 4.278225363962058e+000	 1.224454056052707e+000	 1.068269696872179e+001
 4.400291523673573e+000	 8.142846595532255e-001	 9.881023790712014e+000
 4.392393569877434e+000	 8.558643160116016e-001	 1.011683410895124e+001
 4.384078133721181e+000	 8.974875584503188e-001	 1.033176021205118e+001
 4.375342831938034e+000	 9.391486054792367e-001	 1.052260375300246e+001
 4.366185378510290e+000	 9.808415981518261e-001	 1.065908261034863e+001
 4.356603587189687e+000	 1.022560601765058e+000	 1.075821094726293e+001
 4.346595373986204e+000	 1.064299607746416e+000	 1.081833807015235e+001
 4.336158759622090e+000	 1.106052535627762e+000	 1.083712243916242e+001
 4.325291871947846e+000	 1.147813235105695e+000	 1.081251731018511e+001
 4.313992948316907e+000	 1.189575488187862e+000	 1.074279708674963e+001
 4.302260337915721e+000	 1.231333011424581e+000	 1.062658370919287e+001
 4.424874157881446e+000	 8.188337358630459e-001	 9.880237870514090e+000
 4.416932081439071e+000	 8.606456809043407e-001	 1.010957127639182e+001
 4.408570190332767e+000	 9.025014554232427e-001	 1.031722041142967e+001
 4.399786087981418e+000	 9.443952457313437e-001	 1.049983004331079e+001
 4.390577475596269e+000	 9.863211601505713e-001	 1.065398380376817e+001
 4.380942154715376e+000	 1.028273230823133e+000	 1.077620103822793e+001
 4.370878029706319e+000	 1.070245415609068e+000	 1.084896138516566e+001
 4.360383110233927e+000	 1.112231600071145e+000	 1.085702549852786e+001
 4.349455513689764e+000	 1.154225599546729e+000	 1.081616153115807e+001
 4.338093467580077e+000	 1.196221161306078e+000	 1.072420827554338e+001
 4.326295311868889e+000	 1.238211966796443e+000	 1.057935709441413e+001
 4.085945572314992e+000	 1.169422413077266e+000	 1.116895004783849e+001
 4.074389528975536e+000	 1.209069876518825e+000	 1.074198151891589e+001
 4.062418795974019e+000	 1.248700735263687e+000	 1.032488400799604e+001
 4.050032136936431e+000	 1.288308848805791e+000	 1.042113976179918e+001
 4.037228430064649e+000	 1.327888023744064e+000	 1.052401610718135e+001
 4.024006670090824e+000	 1.367432016293249e+000	 1.061685645816713e+001
 4.010365970170742e+000	 1.406934534869337e+000	 1.070042211104030e+001
 3.996305563713150e+000	 1.446389242748077e+000	 1.077550848854449e+001
 3.981824806142011e+000	 1.485789760794904e+000	 1.084294126120390e+001
 3.966923176588746e+000	 1.525129670264477e+000	 1.090357232822300e+001
 3.951600279511499e+000	 1.564402515667893e+000	 1.095827566741779e+001
 4.109980546272603e+000	 1.176301368449240e+000	 1.112657881428171e+001
 4.098356526207931e+000	 1.216182052263254e+000	 1.066590913823172e+001
 4.086315377130201e+000	 1.256046033705988e+000	 1.029789818093039e+001
 4.073855855392610e+000	 1.295887136150756e+000	 1.040012307202909e+001
 4.060976832598230e+000	 1.335699129764719e+000	 1.049303630600169e+001
 4.047677297565866e+000	 1.375475734034469e+000	 1.057747136667679e+001
 4.033956358234573e+000	 1.415210620366681e+000	 1.065429948093776e+001
 4.019813243503739e+000	 1.454897414762256e+000	 1.072442570872231e+001
 4.005247305005702e+000	 1.494529700562309e+000	 1.078878488042575e+001
 3.990258018807951e+000	 1.534101021264173e+000	 1.084833739084275e+001
 3.974844987041911e+000	 1.573604883405484e+000	 1.090406485944836e+001
 4.134015520229721e+000	 1.183180323821201e+000	 1.107421323816062e+001
 4.122323523439744e+000	 1.223294228007851e+000	 1.058428071835709e+001
 4.110211958285729e+000	 1.263391332148599e+000	 1.029378118298055e+001
 4.097679573848086e+000	 1.303465423496135e+000	 1.038466878533951e+001
 4.084725235131073e+000	 1.343510235785849e+000	 1.046767247753242e+001
 4.071347925040157e+000	 1.383519451776187e+000	 1.054373651233984e+001
 4.057546746297663e+000	 1.423486705864506e+000	 1.061384279114111e+001
 4.043320923293615e+000	 1.463405586776860e+000	 1.067900677204945e+001
 4.028669803868731e+000	 1.503269640330041e+000	 1.074027322202743e+001
 4.013592861026560e+000	 1.543072372264059e+000	 1.079871182245201e+001
 3.998089694571819e+000	 1.582807251143084e+000	 1.085541263828095e+001
 4.158050494186345e+000	 1.190059279193150e+000	 1.101422452756421e+001
 4.146290520670970e+000	 1.230406403752616e+000	 1.049951619961263e+001
 4.134108539440599e+000	 1.270736630591519e+000	 1.029484837838827e+001
 4.121503292302855e+000	 1.311043710841926e+000	 1.037444303200791e+001
 4.108473637663178e+000	 1.351321341807455e+000	 1.044756189671963e+001
 4.095018552513700e+000	 1.391563169518405e+000	 1.051526074055721e+001
 4.081137134360013e+000	 1.431762791362815e+000	 1.057863290406341e+001
 4.066828603082779e+000	 1.471913758791889e+000	 1.063880502521757e+001
 4.052092302731094e+000	 1.512009580098102e+000	 1.069693260486904e+001
 4.036927703244576e+000	 1.552043723264134e+000	 1.075419542248267e+001
 4.021334402101221e+000	 1.592009618880696e+000	 1.081179281270104e+001
 4.182085468142476e+000	 1.196938234565087e+000	 1.094898053997487e+001
 4.170257517901614e+000	 1.237518579497549e+000	 1.041403253703022e+001
 4.158005120594816e+000	 1.278081929034749e+000	 1.030079253027698e+001
 4.145327010756916e+000	 1.318621998188129e+000	 1.036910966497161e+001
 4.132222040194548e+000	 1.359132447829537e+000	 1.043233990337886e+001
 4.118689179986493e+000	 1.399606887261122e+000	 1.049165129568894e+001
 4.104727522421621e+000	 1.440038876861606e+000	 1.054824940684212e+001
 4.090336282871229e+000	 1.480421930807344e+000	 1.060337285688210e+001
 4.075514801592793e+000	 1.520749519866490e+000	 1.065828869828971e+001
 4.060262545461995e+000	 1.561015074264399e+000	 1.071428764044131e+001
 4.044579109630118e+000	 1.601211986618317e+000	 1.077267913205376e+001
 4.206120442098111e+000	 1.203817189937011e+000	 1.088084587799999e+001
 4.194224515131673e+000	 1.244630755242650e+000	 1.033024378564683e+001
 4.181901701748377e+000	 1.285427227478289e+000	 1.031130384937775e+001
 4.169150729210273e+000	 1.326200285534745e+000	 1.036833032489463e+001
 4.155970442725177e+000	 1.366943553852095e+000	 1.042163995748447e+001
 4.142359807458537e+000	 1.407650605004339e+000	 1.047251386679816e+001
 4.128317910482487e+000	 1.448314962360879e+000	 1.052227064777547e+001
 4.113843962658969e+000	 1.488930102823224e+000	 1.057226172503481e+001
 4.098937300453829e+000	 1.529489459635205e+000	 1.062386654066525e+001
 4.083597387678820e+000	 1.569986425264854e+000	 1.067848758590722e+001
 4.067823817158510e+000	 1.610414354355949e+000	 1.073754528794201e+001
 4.230155416053255e+000	 1.210696145308922e+000	 1.081218198184005e+001
 4.218191512361147e+000	 1.251742930987919e+000	 1.027665749331462e+001
 4.205798282901285e+000	 1.292772525922139e+000	 1.032607006654038e+001
 4.192974447662922e+000	 1.333778572881774e+000	 1.037176450301629e+001
 4.179718845255070e+000	 1.374754659875128e+000	 1.041509369257427e+001
 4.166030434929832e+000	 1.415694322748053e+000	 1.045745263183564e+001
 4.151908298542613e+000	 1.456591047860634e+000	 1.050027377151684e+001
 4.137351642445994e+000	 1.497438274839530e+000	 1.054502218344300e+001
 4.122359799314199e+000	 1.538229399404250e+000	 1.059319055733335e+001
 4.106932229895052e+000	 1.578957776265499e+000	 1.064629403818937e+001
 4.091068524686397e+000	 1.619616722093591e+000	 1.070586491586694e+001
 4.254190390007903e+000	 1.217575100680821e+000	 1.074534721862201e+001
 4.242158509590039e+000	 1.258855106733357e+000	 1.030798425761269e+001
 4.229694864053536e+000	 1.300117824366298e+000	 1.034477650278659e+001
 4.216798166114866e+000	 1.341356860229215e+000	 1.037906960186950e+001
 4.203467247784224e+000	 1.382565765898637e+000	 1.041233096734378e+001
 4.189701062400377e+000	 1.423738040492267e+000	 1.044607030032663e+001
 4.175498686601996e+000	 1.464867133360872e+000	 1.048183475307596e+001
 4.160859322232306e+000	 1.505946446856261e+000	 1.052120390719267e+001
 4.145782298173907e+000	 1.546969339173622e+000	 1.056578457791105e+001
 4.130267072110688e+000	 1.587929127266333e+000	 1.061720545565604e+001
 4.114313232213778e+000	 1.628819089831244e+000	 1.067711159681273e+001
 4.278225363962058e+000	 1.224454056052707e+000	 1.068269696872179e+001
 4.266125506818345e+000	 1.265967282478963e+000	 1.034301258177754e+001
 4.253591445205132e+000	 1.307463122810768e+000	 1.036710613700186e+001
 4.240621884566104e+000	 1.348935147577068e+000	 1.038990099395222e+001
 4.227215650312640e+000	 1.390376871922621e+000	 1.041297991550137e+001
 4.213371689870172e+000	 1.431781758236981e+000	 1.043796815461874e+001
 4.199089074660639e+000	 1.473143218861593e+000	 1.046652843067416e+001
 4.184367002017906e+000	 1.514454618873418e+000	 1.050035571737053e+001
 4.169204797032950e+000	 1.555709278943322e+000	 1.054117185302832e+001
 4.153601914325729e+000	 1.596900478267356e+000	 1.059071998475003e+001
 4.137557939740653e+000	 1.638021457568906e+000	 1.065075885877798e+001
 4.302260337915721e+000	 1.231333011424581e+000	 1.062658370919287e+001
 4.290092504046069e+000	 1.273079458224736e+000	 1.038145081207362e+001
 4.277488026356076e+000	 1.314808421255548e+000	 1.039273967135818e+001
 4.264445603016635e+000	 1.356513434925334e+000	 1.040391207843239e+001
 4.250964052840319e+000	 1.398187977947081e+000	 1.041666699395218e+001
 4.237042317339218e+000	 1.439825475982193e+000	 1.043274608974720e+001
 4.222679462718540e+000	 1.481419304362796e+000	 1.045392853749806e+001
 4.207874681802794e+000	 1.522962790891000e+000	 1.048202560491875e+001
 4.192627295891330e+000	 1.564449218713350e+000	 1.051887507050102e+001
 4.176936756540175e+000	 1.605871829268570e+000	 1.056633546870173e+001
 4.160802647267024e+000	 1.647223825306579e+000	 1.062628017825575e+001
 4.326295311868889e+000	 1.238211966796443e+000	 1.057935709441413e+001
 4.314059501273209e+000	 1.280191633970678e+000	 1.042300477984809e+001
 4.301384607506363e+000	 1.322153719700637e+000	 1.042135559455603e+001
 4.288269321466461e+000	 1.364091722274012e+000	 1.042075433596264e+001
 4.274712455367261e+000	 1.405999083972017e+000	 1.042301702937604e+001
 4.260712944807515e+000	 1.447869193727904e+000	 1.043000265197141e+001
 4.246269850775702e+000	 1.489695389864481e+000	 1.044360773239519e+001
 4.231382361586969e+000	 1.531470962909008e+000	 1.046576075369446e+001
 4.216049794749046e+000	 1.573189158483706e+000	 1.049841637096462e+001
 4.200271598754028e+000	 1.614843180269973e+000	 1.054354945595161e+001
 4.184047354792891e+000	 1.656426193044263e+000	 1.060314898166423e+001
 3.951600279511499e+000	 1.564402515667893e+000	 1.095827566741779e+001
 3.935855846239047e+000	 1.603601807705202e+000	 1.088094410812605e+001
 3.919689736435062e+000	 1.642721026262243e+000	 1.081455604345211e+001
 3.903101939481164e+000	 1.681753623468193e+000	 1.076097786122425e+001
 3.886092575776805e+000	 1.720693026811100e+000	 1.072207666461405e+001
 3.868661897952027e+000	 1.759532642309953e+000	 1.069971460492973e+001
 3.850810291991065e+000	 1.798265857740103e+000	 1.069574314383560e+001
 3.832538278264387e+000	 1.836886045909251e+000	 1.071199725986022e+001
 3.813846512466861e+000	 1.875386567981045e+000	 1.074945808866907e+001
 3.794735786459812e+000	 1.913760776843247e+000	 1.072351920115459e+001
 3.775207029014879e+000	 1.952002020517314e+000	 1.071167939589427e+001
 3.974844987041911e+000	 1.573604883405484e+000	 1.090406485944836e+001
 3.959007939455936e+000	 1.613034759513854e+000	 1.084455018671340e+001
 3.942746734888187e+000	 1.652384091121428e+000	 1.079498824841440e+001
 3.926061362657818e+000	 1.691646291840492e+000	 1.075726855976268e+001
 3.908951943872515e+000	 1.730814750497263e+000	 1.073328187275263e+001
 3.891418732648380e+000	 1.769882834322602e+000	 1.072491442029859e+001
 3.873462117240142e+000	 1.808843892196423e+000	 1.073404208812985e+001
 3.855082621079272e+000	 1.847691257942942e+000	 1.076252452954825e+001
 3.836280903717666e+000	 1.886418253673828e+000	 1.078535809106662e+001
 3.817057761674656e+000	 1.925018193176183e+000	 1.076020096112898e+001
 3.797414129185245e+000	 1.963484385342178e+000	 1.074815823359648e+001
 3.998089694571819e+000	 1.582807251143084e+000	 1.085541263828095e+001
 3.982160032672422e+000	 1.622467711322332e+000	 1.081236508937034e+001
 3.965803733341005e+000	 1.662047155980281e+000	 1.077830170412022e+001
 3.949020785834266e+000	 1.701538960212334e+000	 1.075513673940581e+001
 3.931811311968122e+000	 1.740936474182871e+000	 1.074478620134328e+001
 3.914175567344729e+000	 1.780233026334630e+000	 1.074916199828428e+001
 3.896113942489314e+000	 1.819421926652085e+000	 1.077016601988249e+001
 3.877626963894351e+000	 1.858496469975968e+000	 1.080968415758298e+001
 3.858715294968766e+000	 1.897449939365969e+000	 1.081272396589784e+001
 3.839379736889895e+000	 1.936275609508530e+000	 1.078782935456347e+001
 3.819621229356107e+000	 1.974966750166537e+000	 1.077508718631840e+001
 4.021334402101221e+000	 1.592009618880696e+000	 1.081179281270104e+001
 4.005312125888501e+000	 1.631900663130633e+000	 1.078385945549624e+001
 3.988860731793518e+000	 1.671710220838802e+000	 1.076396382572006e+001
 3.971980209010510e+000	 1.711431628583718e+000	 1.075404654247081e+001
 3.954670680063623e+000	 1.751058197867924e+000	 1.075605047759841e+001
 3.936932402041073e+000	 1.790583218346036e+000	 1.077191481505977e+001
 3.918765767738582e+000	 1.829999961107087e+000	 1.080356903464151e+001
 3.900171306709629e+000	 1.869301682008328e+000	 1.085292683565251e+001
 3.881149686220162e+000	 1.908481625057468e+000	 1.083159261393067e+001
 3.861701712105532e+000	 1.947533025840290e+000	 1.080645035337675e+001
 3.841828329527464e+000	 1.986449114990393e+000	 1.079252110836755e+001
 4.044579109630118e+000	 1.601211986618317e+000	 1.077267913205376e+001
 4.028464219104175e+000	 1.641333614938760e+000	 1.075850363422986e+001
 4.011917730245727e+000	 1.681373285696993e+000	 1.075144151214303e+001
 3.994939632186549e+000	 1.721324296954644e+000	 1.075346137408387e+001
 3.977530048159019e+000	 1.761179921552422e+000	 1.076653457569054e+001
 3.959689236737412e+000	 1.800933410356818e+000	 1.079262918315746e+001
 3.941417592987945e+000	 1.840577995561430e+000	 1.083370385908746e+001
 3.922715649525100e+000	 1.880106894040020e+000	 1.087783536540722e+001
 3.903584077471856e+000	 1.919513310748324e+000	 1.084199917322379e+001
 3.884023687321565e+000	 1.958790442171460e+000	 1.081610797840228e+001
 3.864035429699317e+000	 1.997931479813745e+000	 1.080051272044196e+001
 4.067823817158510e+000	 1.610414354355949e+000	 1.073754528794201e+001
 4.051616312319444e+000	 1.650766566746712e+000	 1.073576769274242e+001
 4.034974728697631e+000	 1.691036350554853e+000	 1.074020116084608e+001
 4.017899055362383e+000	 1.731216965325112e+000	 1.075284392324273e+001
 4.000389416254310e+000	 1.771301645236365e+000	 1.077569744398196e+001
 3.982446071433747e+000	 1.811283602366980e+000	 1.081076028471609e+001
 3.964069418237406e+000	 1.851156030015114e+000	 1.086002189014403e+001
 3.945259992340769e+000	 1.890912106071048e+000	 1.088019542068866e+001
 3.926018468723843e+000	 1.930544996438538e+000	 1.084397706948957e+001
 3.906345662537992e+000	 1.970047858502042e+000	 1.081684435513356e+001
 3.886242529871669e+000	 2.009413844636593e+000	 1.079911267059051e+001
 4.091068524686397e+000	 1.619616722093591e+000	 1.070586491586694e+001
 4.074768405534308e+000	 1.660199518554488e+000	 1.071512142424811e+001
 4.058031727149230e+000	 1.700699415412381e+000	 1.072970868206039e+001
 4.040858478538012e+000	 1.741109633695122e+000	 1.075165618316139e+001
 4.023248784349496e+000	 1.781423368919754e+000	 1.078299713132618e+001
 4.005202906130077e+000	 1.821633794376520e+000	 1.082576220359409e+001
 3.986721243486961e+000	 1.861734064468140e+000	 1.088197323275513e+001
 3.967804335156632e+000	 1.901717318101410e+000	 1.087466451084642e+001
 3.948452859976128e+000	 1.941576682128109e+000	 1.083755806474045e+001
 3.928667637754816e+000	 1.981305274832036e+000	 1.080869976756905e+001
 3.908449630044514e+000	 2.020896209458937e+000	 1.078836959309476e+001
 4.114313232213778e+000	 1.628819089831244e+000	 1.067711159681273e+001
 4.097920498748768e+000	 1.669632470362090e+000	 1.069603435574298e+001
 4.081088725600523e+000	 1.710362480269578e+000	 1.071942951255479e+001
 4.063817901713437e+000	 1.751002302064674e+000	 1.074935947092489e+001
 4.046108152444578e+000	 1.791545092602587e+000	 1.078789081247772e+001
 4.027959740826403e+000	 1.831983986385437e+000	 1.083708795639452e+001
 4.009373068736612e+000	 1.872312098920506e+000	 1.089900673638151e+001
 3.990348677972691e+000	 1.912522530131106e+000	 1.086126427147239e+001
 3.970887251228707e+000	 1.952608367817037e+000	 1.082277230428597e+001
 3.950989612972036e+000	 1.992562691161441e+000	 1.079171271023166e+001
 3.930656730217855e+000	 2.032378574280777e+000	 1.076833016535537e+001
 4.137557939740653e+000	 1.638021457568906e+000	 1.065075885877798e+001
 4.121072591962822e+000	 1.679065422169517e+000	 1.067797575548287e+001
 4.104145724051513e+000	 1.720025545126444e+000	 1.070882862893523e+001
 4.086777324888655e+000	 1.760894970433770e+000	 1.074541444648178e+001
 4.068967520539556e+000	 1.801666816284866e+000	 1.078983481264558e+001
 4.050716575522725e+000	 1.842334178393733e+000	 1.084418952244424e+001
 4.032024893986358e+000	 1.882890133372212e+000	 1.088677249443507e+001
 4.012893020788947e+000	 1.923327742160135e+000	 1.084001493990121e+001
 3.993321642481584e+000	 1.963640053505323e+000	 1.079964836214590e+001
 3.973311588189653e+000	 2.003820107490257e+000	 1.076591993843511e+001
 3.952863830391693e+000	 2.043860939102113e+000	 1.073903916286040e+001
 4.160802647267024e+000	 1.647223825306579e+000	 1.062628017825575e+001
 4.144224685176470e+000	 1.688498373976768e+000	 1.066041464021098e+001
 4.127202722502196e+000	 1.729688609982978e+000	 1.069737056049857e+001
 4.109736748063670e+000	 1.770787638802406e+000	 1.073928113099982e+001
 4.091826888634429e+000	 1.811788539966589e+000	 1.078828463122344e+001
 4.073473410219042e+000	 1.852684370401406e+000	 1.084651787276793e+001
 4.054676719236201e+000	 1.893468167823260e+000	 1.085931063931488e+001
 4.035437363605397e+000	 1.934132954188499e+000	 1.081093539426776e+001
 4.015756033734755e+000	 1.974671739192966e+000	 1.076821328494087e+001
 3.995633563407664e+000	 2.015077523818485e+000	 1.073135651686507e+001
 3.975070930566027e+000	 2.055343303922946e+000	 1.070053951231146e+001
 4.184047354792891e+000	 1.656426193044263e+000	 1.060314898166423e+001
 4.167376778389714e+000	 1.697931325783844e+000	 1.064281978214419e+001
 4.150259720952576e+000	 1.739351674839182e+000	 1.068451940165778e+001
 4.132696171238480e+000	 1.780680307170584e+000	 1.073041892460998e+001
 4.114686256729197e+000	 1.821910263647758e+000	 1.078269496472902e+001
 4.096230244915355e+000	 1.863034562408458e+000	 1.084352299809663e+001
 4.077328544486139e+000	 1.904046202273650e+000	 1.082453017965163e+001
 4.057981706422046e+000	 1.944938166216197e+000	 1.077404319126275e+001
 4.038190424988224e+000	 1.985703424879968e+000	 1.072849263432026e+001
 4.017955538626073e+000	 2.026334940146125e+000	 1.068805586654110e+001
 3.997278030740859e+000	 2.066825668743275e+000	 1.065287234297892e+001
 3.775207029014879e+000	 1.952002020517314e+000	 1.071167939589427e+001
 3.755261306457614e+000	 1.990103645605905e+000	 1.075430958267472e+001
 3.734899823209243e+000	 2.028059000775460e+000	 1.075839705717655e+001
 3.714123922224505e+000	 2.065861440270376e+000	 1.073964581177152e+001
 3.692935085323902e+000	 2.103504327454524e+000	 1.071659509102213e+001
 3.671334933419179e+000	 2.140981038377074e+000	 1.069102766279475e+001
 3.649325226630563e+000	 2.178284965358760e+000	 1.066473701847100e+001
 3.626907864294588e+000	 2.215409520594832e+000	 1.063952237316079e+001
 3.604084884861436e+000	 2.252348139770829e+000	 1.061718361221532e+001
 3.580858465680939e+000	 2.289094285687271e+000	 1.059951619740795e+001
 3.557230922676468e+000	 2.325641451889307e+000	 1.058830604643404e+001
 3.797414129185245e+000	 1.963484385342178e+000	 1.074815823359648e+001
 3.777351078847552e+000	 2.001810137636888e+000	 1.078076950738469e+001
 3.756869822167703e+000	 2.039988759601311e+000	 1.083189465710276e+001
 3.735971710000170e+000	 2.078013566387164e+000	 1.084029740632420e+001
 3.714658232882046e+000	 2.115877882319285e+000	 1.081754089715781e+001
 3.692931021259852e+000	 2.153575044482422e+000	 1.079166290402372e+001
 3.670791845607464e+000	 2.191098406328611e+000	 1.076450494580259e+001
 3.648242616433983e+000	 2.228441341301309e+000	 1.073791465065419e+001
 3.625285384180478e+000	 2.265597246472443e+000	 1.071374059629739e+001
 3.601922339004716e+000	 2.302559546188413e+000	 1.069382710881634e+001
 3.578155810453152e+000	 2.339321695721108e+000	 1.068000903391269e+001
 3.819621229356107e+000	 1.974966750166537e+000	 1.077508718631840e+001
 3.799440851238083e+000	 2.013516629667467e+000	 1.079752170464528e+001
 3.778839821126840e+000	 2.051918518426859e+000	 1.083841391050182e+001
 3.757819497776587e+000	 2.090165692503749e+000	 1.089761814777803e+001
 3.736381380441009e+000	 2.128251437183941e+000	 1.090879121555669e+001
 3.714527109101400e+000	 2.166169050587766e+000	 1.088207087144732e+001
 3.692258464585285e+000	 2.203911847298559e+000	 1.085352475556413e+001
 3.669577368574334e+000	 2.241473162007984e+000	 1.082505002437273e+001
 3.646485883500498e+000	 2.278846353174353e+000	 1.079854505628294e+001
 3.622986212329490e+000	 2.316024806689953e+000	 1.077590414121810e+001
 3.599080698230837e+000	 2.353001939553409e+000	 1.075901214175408e+001
 3.841828329527464e+000	 1.986449114990393e+000	 1.079252110836755e+001
 3.821530623629203e+000	 2.025223121697641e+000	 1.080462423944324e+001
 3.800809820086653e+000	 2.063848277252102e+000	 1.083514069831927e+001
 3.779667285553756e+000	 2.102317818620131e+000	 1.088390792006778e+001
 3.758104528000789e+000	 2.140624992048494e+000	 1.095071499164825e+001
 3.736123196943819e+000	 2.178763056693107e+000	 1.096195468448007e+001
 3.713725083564023e+000	 2.216725288268604e+000	 1.093149320035198e+001
 3.690912120715638e+000	 2.254504982714856e+000	 1.090061892421223e+001
 3.667686382821500e+000	 2.292095459876560e+000	 1.087128115144708e+001
 3.644050085655257e+000	 2.329490067191890e+000	 1.084542524328162e+001
 3.620005586009521e+000	 2.366682183386207e+000	 1.082498717592988e+001
 3.864035429699317e+000	 1.997931479813745e+000	 1.080051272044196e+001
 3.843620396020914e+000	 2.036929613727413e+000	 1.080213299249736e+001
 3.822779819047144e+000	 2.075778036077042e+000	 1.082213405469579e+001
 3.801515073331678e+000	 2.114469944736309e+000	 1.086033632774918e+001
 3.779827675561385e+000	 2.152998546912943e+000	 1.091651127964182e+001
 3.757719284787112e+000	 2.191357062798445e+000	 1.099038180950145e+001
 3.735191702543681e+000	 2.229538729238746e+000	 1.099810462036819e+001
 3.712246872857898e+000	 2.267536803421925e+000	 1.096430932728168e+001
 3.688886882143481e+000	 2.305344566579064e+000	 1.093163054969151e+001
 3.665113958982019e+000	 2.342955327694224e+000	 1.090206583554707e+001
 3.640930473789205e+000	 2.380362427219501e+000	 1.087760337938312e+001
 3.886242529871669e+000	 2.009413844636593e+000	 1.079911267059051e+001
 3.865710168413219e+000	 2.048636105756780e+000	 1.079010172266609e+001
 3.844749818008310e+000	 2.087707794901678e+000	 1.079945084429209e+001
 3.823362861110350e+000	 2.126622070852283e+000	 1.082696333351229e+001
 3.801550823122800e+000	 2.165372101777288e+000	 1.087239291659943e+001
 3.779315372631278e+000	 2.203951068903780e+000	 1.093544415638482e+001
 3.756658321524257e+000	 2.242352170208984e+000	 1.101577296882033e+001
 3.733581625001110e+000	 2.280568624129190e+000	 1.101580682798256e+001
 3.710087381466441e+000	 2.318593673281866e+000	 1.097927249872698e+001
 3.686177832309777e+000	 2.356420588196956e+000	 1.094549888265848e+001
 3.661855361569890e+000	 2.394042671053293e+000	 1.091652750525760e+001
 3.908449630044514e+000	 2.020896209458937e+000	 1.078836959309476e+001
 3.887799940806113e+000	 2.060342597785744e+000	 1.076858212722762e+001
 3.866719816970153e+000	 2.099637553726010e+000	 1.076714582392181e+001
 3.845210648889776e+000	 2.138774196968054e+000	 1.078384674750816e+001
 3.823273970685031e+000	 2.177745656641531e+000	 1.081842075702330e+001
 3.800911460476317e+000	 2.216545075009111e+000	 1.087055393914127e+001
 3.778124940505753e+000	 2.255165611179320e+000	 1.093988315107774e+001
 3.754916377145279e+000	 2.293600444836654e+000	 1.102599667314784e+001
 3.731287880790379e+000	 2.331842779984965e+000	 1.101388389482845e+001
 3.707241705638529e+000	 2.369885848700085e+000	 1.097539496313360e+001
 3.682780249351574e+000	 2.407722914887582e+000	 1.094142388763075e+001
 3.930656730217855e+000	 2.032378574280777e+000	 1.076833016535537e+001
 3.909889713199599e+000	 2.072049089814303e+000	 1.073762390011673e+001
 3.888689815932672e+000	 2.111567312550038e+000	 1.072527170209532e+001
 3.867058436669951e+000	 2.150926323083620e+000	 1.073104228815499e+001
 3.844997118248081e+000	 2.190119211505670e+000	 1.075465352181056e+001
 3.822507548322229e+000	 2.229139081114438e+000	 1.079577287090775e+001
 3.799591559488167e+000	 2.267979052149753e+000	 1.085401797704336e+001
 3.776251129290399e+000	 2.306632265544314e+000	 1.092895733637053e+001
 3.752488380115299e+000	 2.345091886688361e+000	 1.102011109110940e+001
 3.728305578968277e+000	 2.383351109203611e+000	 1.099142233676854e+001
 3.703705137134258e+000	 2.421403158722369e+000	 1.095195450984890e+001
 3.952863830391693e+000	 2.043860939102113e+000	 1.073903916286040e+001
 3.931979485593676e+000	 2.083755581842459e+000	 1.069727478819835e+001
 3.910659814895868e+000	 2.123497071373763e+000	 1.067387919655630e+001
 3.888906224450881e+000	 2.163078449198983e+000	 1.066860364089474e+001
 3.866720265811948e+000	 2.202492766369705e+000	 1.068114785818599e+001
 3.844103636169015e+000	 2.241733087219763e+000	 1.071116055199172e+001
 3.821058178471498e+000	 2.280792493120281e+000	 1.075823998857557e+001
 3.797585881436475e+000	 2.319664086252171e+000	 1.082193470616020e+001
 3.773688879441198e+000	 2.358340993392055e+000	 1.090174433660641e+001
 3.749369452299018e+000	 2.396816369707535e+000	 1.099324700977046e+001
 3.724630024917941e+000	 2.435083402557653e+000	 1.094777907055900e+001
 3.975070930566027e+000	 2.055343303922946e+000	 1.070053951231146e+001
 3.954069257988343e+000	 2.095462073870210e+000	 1.064758064565506e+001
 3.932629813859740e+000	 2.135426830197184e+000	 1.061301708988966e+001
 3.910754012232562e+000	 2.175230575314143e+000	 1.059658251498005e+001
 3.888443413376633e+000	 2.214866321233638e+000	 1.059795839762588e+001
 3.865699724016673e+000	 2.254327093325085e+000	 1.061677452888877e+001
 3.842524797455749e+000	 2.293605934090908e+000	 1.065260963717730e+001
 3.818920633583505e+000	 2.332695906960225e+000	 1.070499212616291e+001
 3.794889378768076e+000	 2.371590100096045e+000	 1.077340092686231e+001
 3.770433325630757e+000	 2.410281630211856e+000	 1.085726646278386e+001
 3.745554912702627e+000	 2.448763646393434e+000	 1.092855504752710e+001
 3.997278030740859e+000	 2.066825668743275e+000	 1.065287234297892e+001
 3.976159030383603e+000	 2.107168565897559e+000	 1.058858548656159e+001
 3.954599812824290e+000	 2.147356589020302e+000	 1.054273228327608e+001
 3.932601800014996e+000	 2.187382701429100e+000	 1.051502869836848e+001
 3.910166560942135e+000	 2.227239876097466e+000	 1.050513781185091e+001
 3.887295811865206e+000	 2.266921099430403e+000	 1.051267035133296e+001
 3.863991416440920e+000	 2.306419375061632e+000	 1.053718534206164e+001
 3.840255385731489e+000	 2.345727727668477e+000	 1.057819087370660e+001
 3.816089878095935e+000	 2.384839206800333e+000	 1.063514498308384e+001
 3.791497198963489e+000	 2.423746890716575e+000	 1.070745665166695e+001
 3.766479800488311e+000	 2.462443890229713e+000	 1.079448691639032e+001
 3.557230922676468e+000	 2.325641451889307e+000	 1.058830604643404e+001
 3.533204709905683e+000	 2.361983166298250e+000	 1.065327299149181e+001
 3.508782419009181e+000	 2.398112994838169e+000	 1.071291346143920e+001
 3.483966778545826e+000	 2.434024545055288e+000	 1.076854734298644e+001
 3.458760653213695e+000	 2.469711469727997e+000	 1.082147731668838e+001
 3.433167042958189e+000	 2.505167470460531e+000	 1.086132047583474e+001
 3.407189081967097e+000	 2.540386301257156e+000	 1.083236370358359e+001
 3.380830037553035e+000	 2.575361772072694e+000	 1.080283598576459e+001
 3.354093308923844e+000	 2.610087752335311e+000	 1.077288302093803e+001
 3.326982425841762e+000	 2.644558174437429e+000	 1.074265405074606e+001
 3.299501047172259e+000	 2.678767037190700e+000	 1.071230130095828e+001
 3.578155810453152e+000	 2.339321695721108e+000	 1.068000903391269e+001
 3.553988267019065e+000	 2.375877184920824e+000	 1.073656016266640e+001
 3.529422315587982e+000	 2.412219541864151e+000	 1.078919940547631e+001
 3.504460700769116e+000	 2.448342336494647e+000	 1.083935245451097e+001
 3.479106304111708e+000	 2.484239184254102e+000	 1.088842616180147e+001
 3.453362143207898e+000	 2.519903749697368e+000	 1.089055599539703e+001
 3.427231370681874e+000	 2.555329750087555e+000	 1.085621759022140e+001
 3.400717273065733e+000	 2.590510958967458e+000	 1.082283247732113e+001
 3.373823269562664e+000	 2.625441209703058e+000	 1.079060359862026e+001
 3.346552910698208e+000	 2.660114398994962e+000	 1.075973647505290e+001
 3.318909876860575e+000	 2.694524490353718e+000	 1.073043857649881e+001
 3.599080698230837e+000	 2.353001939553409e+000	 1.075901214175408e+001
 3.574771824133441e+000	 2.389771203543980e+000	 1.080770317429369e+001
 3.550062212167763e+000	 2.426326088890770e+000	 1.085389602670449e+001
 3.524954622993362e+000	 2.462660127934669e+000	 1.089912271840627e+001
 3.499451955010643e+000	 2.498766898780867e+000	 1.094489478636691e+001
 3.473557243458482e+000	 2.534640028934828e+000	 1.090686520535984e+001
 3.447273659397470e+000	 2.570273198918516e+000	 1.086800075894192e+001
 3.420604508579189e+000	 2.605660145862691e+000	 1.083159582144518e+001
 3.393553230202166e+000	 2.640794667071146e+000	 1.079791026956408e+001
 3.366123395555251e+000	 2.675670623552683e+000	 1.076720561029131e+001
 3.338318706549391e+000	 2.710281943516740e+000	 1.073974427996418e+001
 3.620005586009521e+000	 2.366682183386207e+000	 1.082498717592988e+001
 3.595555381248813e+000	 2.403665222167719e+000	 1.086635033262637e+001
 3.570702108748525e+000	 2.440432635918028e+000	 1.090662853385003e+001
 3.545448545218563e+000	 2.476977919375354e+000	 1.094746066485568e+001
 3.519797605910497e+000	 2.513294613308290e+000	 1.095654671606030e+001
 3.493752343709944e+000	 2.549376308172914e+000	 1.091036380014963e+001
 3.467315948113889e+000	 2.585216647750037e+000	 1.086781373844951e+001
 3.440491744093400e+000	 2.620809332758388e+000	 1.082921160166896e+001
 3.413283190842348e+000	 2.656148124439576e+000	 1.079487390108742e+001
 3.385693880412890e+000	 2.691226848110591e+000	 1.076511784483775e+001
 3.357727536238708e+000	 2.726039396679764e+000	 1.074026056627647e+001
 3.640930473789205e+000	 2.380362427219501e+000	 1.087760337938312e+001
 3.616338938365180e+000	 2.417559240792040e+000	 1.091214774861899e+001
 3.591342005330266e+000	 2.454539182945924e+000	 1.094702030264492e+001
 3.565942467444717e+000	 2.491295710816703e+000	 1.098396734773732e+001
 3.540143256811272e+000	 2.527822327836373e+000	 1.095162326541543e+001
 3.513947443962279e+000	 2.564112587411625e+000	 1.090116669368067e+001
 3.487358236831127e+000	 2.600160096582118e+000	 1.085575661567794e+001
 3.460378979608368e+000	 2.635958519654554e+000	 1.081576529215620e+001
 3.433013151483213e+000	 2.671501581808349e+000	 1.078156557702903e+001
 3.405264365271126e+000	 2.706783072668687e+000	 1.075353010279686e+001
 3.377136365928527e+000	 2.741796849842790e+000	 1.073203043844576e+001
 3.661855361569890e+000	 2.394042671053293e+000	 1.091652750525760e+001
 3.637122495482541e+000	 2.431453259416944e+000	 1.094473940065070e+001
 3.611981901912988e+000	 2.468645729974458e+000	 1.097469292819826e+001
 3.586436389671830e+000	 2.505613502258716e+000	 1.099320665383672e+001
 3.560488907712967e+000	 2.542350042365116e+000	 1.093329008852379e+001
 3.534142544215492e+000	 2.578848866650962e+000	 1.087938804165560e+001
 3.507400525549186e+000	 2.615103545414761e+000	 1.083192904841250e+001
 3.480266215124093e+000	 2.651107706551186e+000	 1.079134226082683e+001
 3.452743112124759e+000	 2.686855039177464e+000	 1.075805659156200e+001
 3.424834850129957e+000	 2.722339297226971e+000	 1.073249982869478e+001
 3.396545195618846e+000	 2.757554303005819e+000	 1.071509772333906e+001
 3.682780249351574e+000	 2.407722914887582e+000	 1.094142388763075e+001
 3.657906052600898e+000	 2.445347278042430e+000	 1.096376719510994e+001
 3.632621798496690e+000	 2.482752277003630e+000	 1.098926627558210e+001
 3.606930311899897e+000	 2.519931293701392e+000	 1.096554553551732e+001
 3.580834558615585e+000	 2.556877756894518e+000	 1.090167497670974e+001
 3.554337644469580e+000	 2.593585145890925e+000	 1.084514126310535e+001
 3.527442814268067e+000	 2.630046994247966e+000	 1.079643027748173e+001
 3.500153450640573e+000	 2.666256893448284e+000	 1.075602777237520e+001
 3.472473072766985e+000	 2.702208496546921e+000	 1.072441844321846e+001
 3.444405334989385e+000	 2.737895521785442e+000	 1.070208497269467e+001
 3.415954025309669e+000	 2.773311756168852e+000	 1.068950704827529e+001
 3.703705137134258e+000	 2.421403158722369e+000	 1.095195450984890e+001
 3.678689609720249e+000	 2.459241296668499e+000	 1.096887102492504e+001
 3.653261695081372e+000	 2.496858824033440e+000	 1.099035852870256e+001
 3.627424234128919e+000	 2.534249085144732e+000	 1.092391308932629e+001
 3.601180209519121e+000	 2.571405471424580e+000	 1.085690468909982e+001
 3.574532744724543e+000	 2.608321425131511e+000	 1.079853906119913e+001
 3.547485102987768e+000	 2.644990443081731e+000	 1.074935913853567e+001
 3.520040686157808e+000	 2.681406080345850e+000	 1.070990699118621e+001
 3.492203033409894e+000	 2.717561953916721e+000	 1.068072282911673e+001
 3.463975819849409e+000	 2.753451746344100e+000	 1.066234397631302e+001
 3.435362855000992e+000	 2.789069209331887e+000	 1.065530381841353e+001
 3.724630024917941e+000	 2.435083402557653e+000	 1.094777907055900e+001
 3.699473166840595e+000	 2.473135315295151e+000	 1.095968882612224e+001
 3.673901591667034e+000	 2.510965371063887e+000	 1.094712524592926e+001
 3.647918156358897e+000	 2.548566876588736e+000	 1.086844899491955e+001
 3.621525860423578e+000	 2.585933185955301e+000	 1.079910498161724e+001
 3.594727844980383e+000	 2.623057704372725e+000	 1.073969344335305e+001
 3.567527391708290e+000	 2.659933891916058e+000	 1.069081407342752e+001
 3.539927921675802e+000	 2.696555267243882e+000	 1.065306498415292e+001
 3.511932994053483e+000	 2.732915411286862e+000	 1.062704163938303e+001
 3.483546304710029e+000	 2.769007970902947e+000	 1.061333575861761e+001
 3.454771684692816e+000	 2.804826662494924e+000	 1.061253419490371e+001
 3.745554912702627e+000	 2.448763646393434e+000	 1.092855504752710e+001
 3.720256723961937e+000	 2.487029333922384e+000	 1.093585663248769e+001
 3.694541488253678e+000	 2.525071918094974e+000	 1.088073144451650e+001
 3.668412078589829e+000	 2.562884668033404e+000	 1.079929165272506e+001
 3.641871511328956e+000	 2.600460900486681e+000	 1.072840063500417e+001
 3.614922945237099e+000	 2.637793983614562e+000	 1.066871574066426e+001
 3.587569680429634e+000	 2.674877340750945e+000	 1.062089314121341e+001
 3.559815157194549e+000	 2.711704454142379e+000	 1.058558672339968e+001
 3.531662954697753e+000	 2.748268868657346e+000	 1.056344695176014e+001
 3.503116789571246e+000	 2.784564195461981e+000	 1.055511970288817e+001
 3.474180514385142e+000	 2.820584115657964e+000	 1.056124507376953e+001
 3.766479800488311e+000	 2.462443890229713e+000	 1.079448691639032e+001
 3.741040281084275e+000	 2.500923352550201e+000	 1.089443799855505e+001
 3.715181384841301e+000	 2.539178465126698e+000	 1.079999066697753e+001
 3.688906000821718e+000	 2.577202459478735e+000	 1.071657821947701e+001
 3.662217162235256e+000	 2.614988615018722e+000	 1.064491548191020e+001
 3.635118045494689e+000	 2.652530262857025e+000	 1.058571662669790e+001
 3.607611969151799e+000	 2.689820789586394e+000	 1.053969402878565e+001
 3.579702392714055e+000	 2.726853641041346e+000	 1.050755708891485e+001
 3.551392915342706e+000	 2.763622326028174e+000	 1.049001102639600e+001
 3.522687274433060e+000	 2.800120420021203e+000	 1.048775564372152e+001
 3.493589344077969e+000	 2.836341568821007e+000	 1.050148406549522e+001
 3.299501047172259e+000	 2.678767037190700e+000	 1.071230130095828e+001
 3.271652959324307e+000	 2.712708409240331e+000	 1.080018560754714e+001
 3.243442074581433e+000	 2.746376432436797e+000	 1.085651874353717e+001
 3.214872429326423e+000	 2.779765325159458e+000	 1.088126920335785e+001
 3.185948182162390e+000	 2.812869385586999e+000	 1.087443410941457e+001
 3.156673611930152e+000	 2.845682994912843e+000	 1.083603876932118e+001
 3.127053115624469e+000	 2.878200620501056e+000	 1.076613617670446e+001
 3.097091206211275e+000	 2.910416818979071e+000	 1.082697578461173e+001
 3.066792510348126e+000	 2.942326239263587e+000	 1.085401115391099e+001
 3.036161766010287e+000	 2.973923625516153e+000	 1.083460835648022e+001
 3.005203820025000e+000	 3.005203820025000e+000	 1.076864617057936e+001
 3.318909876860575e+000	 2.694524490353718e+000	 1.073043857649881e+001
 3.290897976731710e+000	 2.728665517534071e+000	 1.081762982647373e+001
 3.262521145608556e+000	 2.762531587926648e+000	 1.087471222304063e+001
 3.233783443617327e+000	 2.796116885901280e+000	 1.090166039507357e+001
 3.204689053823508e+000	 2.829415676096522e+000	 1.089847664570299e+001
 3.175242280237568e+000	 2.862422306653998e+000	 1.086519049262698e+001
 3.145447545718943e+000	 2.895131212392854e+000	 1.080185815281555e+001
 3.115309389780425e+000	 2.927536917920681e+000	 1.076126195964750e+001
 3.084832466295200e+000	 2.959634040677222e+000	 1.079269413066883e+001
 3.054021541108977e+000	 2.991417293907328e+000	 1.077913151777846e+001
 3.022881489559751e+000	 3.022881489559750e+000	 1.072044379728377e+001
 3.338318706549391e+000	 2.710281943516740e+000	 1.073974427996418e+001
 3.310142994139513e+000	 2.744622625827627e+000	 1.082618900510097e+001
 3.281600216635979e+000	 2.778686743416161e+000	 1.088395135174728e+001
 3.252694457908433e+000	 2.812468446642638e+000	 1.091301224928647e+001
 3.223429925484728e+000	 2.845961966605489e+000	 1.091337936210761e+001
 3.193810948544985e+000	 2.879161618394527e+000	 1.088508661273863e+001
 3.163841975813317e+000	 2.912061804283989e+000	 1.082819365017016e+001
 3.133527573349372e+000	 2.944657016861626e+000	 1.074278526496651e+001
 3.102872422241972e+000	 2.976941842090218e+000	 1.073515814922065e+001
 3.071881316207269e+000	 3.008910962297919e+000	 1.072723940079722e+001
 3.040559159093999e+000	 3.040559159093999e+000	 1.067562863937321e+001
 3.357727536238708e+000	 2.726039396679764e+000	 1.074026056627647e+001
 3.329388011547718e+000	 2.760579734121002e+000	 1.082590546917086e+001
 3.300679287663704e+000	 2.794841898905338e+000	 1.088427882595719e+001
 3.271605472199738e+000	 2.828820007383532e+000	 1.091536803358957e+001
 3.242170797146046e+000	 2.862508257113894e+000	 1.091918629914323e+001
 3.212379616852403e+000	 2.895900930134434e+000	 1.089577214551012e+001
 3.182236405907592e+000	 2.928992396174467e+000	 1.084518886306045e+001
 3.151745756918122e+000	 2.961777115801907e+000	 1.076752390891204e+001
 3.120912378188446e+000	 2.994249643502573e+000	 1.068105598724578e+001
 3.089741091305160e+000	 3.026404630687924e+000	 1.067858741630714e+001
 3.058236828627750e+000	 3.058236828627750e+000	 1.063385915849421e+001
 3.377136365928527e+000	 2.741796849842790e+000	 1.073203043844576e+001
 3.348633028956324e+000	 2.776536842414193e+000	 1.081682237256098e+001
 3.319758358691731e+000	 2.810997054394177e+000	 1.087573814440855e+001
 3.290516486491244e+000	 2.845171568123964e+000	 1.090877178657626e+001
 3.260911668807468e+000	 2.879054547621743e+000	 1.091594223115472e+001
 3.230948285159820e+000	 2.912640241873716e+000	 1.089729279773452e+001
 3.200630836001766e+000	 2.945922988064284e+000	 1.085289062812239e+001
 3.169963940486670e+000	 2.978897214741522e+000	 1.078282606946176e+001
 3.138952334134620e+000	 3.011557444914289e+000	 1.068721200760560e+001
 3.107600866402651e+000	 3.043898299077346e+000	 1.063283143761909e+001
 3.075914498161000e+000	 3.075914498161000e+000	 1.059479420764838e+001
 3.396545195618846e+000	 2.757554303005819e+000	 1.071509772333906e+001
 3.367878046365330e+000	 2.792493950707203e+000	 1.079898367362362e+001
 3.338837429720059e+000	 2.827152209882678e+000	 1.085837358535091e+001
 3.309427500782953e+000	 2.861523128863934e+000	 1.089326829581145e+001
 3.279652540468988e+000	 2.895600838129032e+000	 1.090369264535008e+001
 3.249516953467239e+000	 2.929379553612375e+000	 1.088969494740317e+001
 3.219025266095842e+000	 2.962853579953443e+000	 1.085134640598292e+001
 3.188182124055021e+000	 2.996017313680475e+000	 1.078874048234249e+001
 3.156992290080494e+000	 3.028865246325366e+000	 1.070199221271345e+001
 3.125460641499743e+000	 3.061391967466182e+000	 1.059123747916260e+001
 3.093592167693749e+000	 3.093592167693749e+000	 1.055809302001094e+001
 3.415954025309669e+000	 2.773311756168852e+000	 1.068950704827529e+001
 3.387123063774741e+000	 2.808451059000032e+000	 1.077243411233123e+001
 3.357916500748686e+000	 2.843307365370840e+000	 1.083223018440009e+001
 3.328338515074863e+000	 2.877874689603440e+000	 1.086890307655410e+001
 3.298393412130610e+000	 2.912147128635763e+000	 1.088248372154906e+001
 3.268085621774659e+000	 2.946118865350409e+000	 1.087302562463719e+001
 3.237419696189817e+000	 2.979784171841942e+000	 1.084060426353305e+001
 3.206400307623170e+000	 3.013137412618761e+000	 1.078531643831297e+001
 3.175032246026069e+000	 3.046173047735802e+000	 1.070727957318698e+001
 3.143320416596434e+000	 3.078885635854433e+000	 1.060663097223419e+001
 3.111269837226000e+000	 3.111269837226000e+000	 1.052341519813037e+001
 3.435362855000992e+000	 2.789069209331887e+000	 1.065530381841353e+001
 3.406368081184549e+000	 2.824408167292675e+000	 1.073721918819679e+001
 3.376995571777615e+000	 2.859462520858665e+000	 1.079735371314356e+001
 3.347249529366973e+000	 2.894226250342483e+000	 1.083572235120087e+001
 3.317134283792334e+000	 2.928693419141935e+000	 1.085236231261750e+001
 3.286654290082080e+000	 2.962858177087820e+000	 1.084733249326601e+001
 3.255814126283693e+000	 2.996714763729783e+000	 1.082071285680159e+001
 3.224618491191120e+000	 3.030257511556383e+000	 1.077260376748506e+001
 3.193072201971343e+000	 3.063480849145599e+000	 1.070312527565603e+001
 3.161180191692725e+000	 3.096379304242099e+000	 1.061241635799422e+001
 3.128947506757750e+000	 3.128947506757750e+000	 1.050679611281605e+001
 3.454771684692816e+000	 2.804826662494924e+000	 1.061253419490371e+001
 3.425613098594761e+000	 2.840365275585138e+000	 1.069338513893848e+001
 3.396074642806847e+000	 2.875617676346153e+000	 1.075379065846704e+001
 3.366160543659284e+000	 2.910577811081062e+000	 1.079377302942277e+001
 3.335875155454158e+000	 2.945239709647549e+000	 1.081337592556177e+001
 3.305222958389501e+000	 2.979597488824607e+000	 1.081266383302645e+001
 3.274208556377471e+000	 3.013645355616963e+000	 1.079172141440658e+001
 3.242836674758871e+000	 3.047377610493341e+000	 1.075065282417327e+001
 3.211112157916318e+000	 3.080788650554756e+000	 1.068958097751931e+001
 3.179039966788617e+000	 3.113872972629180e+000	 1.060864677479115e+001
 3.146625176289000e+000	 3.146625176289000e+000	 1.053898512883291e+001
 3.474180514385142e+000	 2.820584115657964e+000	 1.056124507376953e+001
 3.444858116005373e+000	 2.856322383877417e+000	 1.064097891985932e+001
 3.415153713836379e+000	 2.891772831833303e+000	 1.070158820257413e+001
 3.385071557951796e+000	 2.926929371819179e+000	 1.074310268896743e+001
 3.354616027116083e+000	 2.961786000152605e+000	 1.076557270325659e+001
 3.323791626696921e+000	 2.996336800560769e+000	 1.076906852235858e+001
 3.292602986471148e+000	 3.030575947503485e+000	 1.075367972156098e+001
 3.261054858326421e+000	 3.064497709429634e+000	 1.071951447225234e+001
 3.229152113860992e+000	 3.098096451963272e+000	 1.066669879379423e+001
 3.196899741884108e+000	 3.131366641015676e+000	 1.060314539973892e+001
 3.164302845819750e+000	 3.164302845819750e+000	 1.055715148978890e+001
 3.493589344077969e+000	 2.836341568821007e+000	 1.050148406549522e+001
 3.464103133416387e+000	 2.872279492169516e+000	 1.058004818391436e+001
 3.434232784866212e+000	 2.907927987320115e+000	 1.064079420367201e+001
 3.403982572244511e+000	 2.943280932556834e+000	 1.068375955710151e+001
 3.373356898778110e+000	 2.978332290657102e+000	 1.070900140678204e+001
 3.342360295004344e+000	 3.013076112296309e+000	 1.071659602177522e+001
 3.310997416564727e+000	 3.047506539389349e+000	 1.070663810461180e+001
 3.279273041893774e+000	 3.081617808365264e+000	 1.067924007100273e+001
 3.247192069805367e+000	 3.115404253371149e+000	 1.063453128440536e+001
 3.214759516979200e+000	 3.148860309401588e+000	 1.059905148310206e+001
 3.181980515350000e+000	 3.181980515350000e+000	 1.056162018030172e+001
 3.005203820025000e+000	 3.005203820025000e+000	 1.076864617057936e+001
 2.973923625516154e+000	 3.036161766010285e+000	 1.072296241533928e+001
 2.942326239263588e+000	 3.066792510348125e+000	 1.066520058980681e+001
 2.910416818979072e+000	 3.097091206211275e+000	 1.059518512027710e+001
 2.878200620501058e+000	 3.127053115624468e+000	 1.051971245725452e+001
 2.845682994912844e+000	 3.156673611930151e+000	 1.053419794074327e+001
 2.812869385587000e+000	 3.185948182162389e+000	 1.055216111169136e+001
 2.779765325159459e+000	 3.214872429326422e+000	 1.057535511803625e+001
 2.746376432436799e+000	 3.243442074581432e+000	 1.060549271568670e+001
 2.712708409240333e+000	 3.271652959324308e+000	 1.064424265019571e+001
 2.678767037190700e+000	 3.299501047172260e+000	 1.069322615708271e+001
 3.022881489559751e+000	 3.022881489559750e+000	 1.072044379728377e+001
 2.991417293907329e+000	 3.054021541108976e+000	 1.068171779032518e+001
 2.959634040677222e+000	 3.084832466295199e+000	 1.062928277711744e+001
 2.927536917920683e+000	 3.115309389780423e+000	 1.056294438285248e+001
 2.895131212392854e+000	 3.145447545718941e+000	 1.054834308731990e+001
 2.862422306653998e+000	 3.175242280237566e+000	 1.056281389959069e+001
 2.829415676096524e+000	 3.204689053823506e+000	 1.057928332433793e+001
 2.796116885901280e+000	 3.233783443617326e+000	 1.059953853796985e+001
 2.762531587926650e+000	 3.262521145608555e+000	 1.062532715112828e+001
 2.728665517534072e+000	 3.290897976731708e+000	 1.065835351800284e+001
 2.694524490353718e+000	 3.318909876860575e+000	 1.070027516435280e+001
 3.040559159093999e+000	 3.040559159093999e+000	 1.067562863937321e+001
 3.008910962297920e+000	 3.071881316207268e+000	 1.064354456913762e+001
 2.976941842090219e+000	 3.102872422241972e+000	 1.059615488705847e+001
 2.944657016861628e+000	 3.133527573349372e+000	 1.055716191551571e+001
 2.912061804283991e+000	 3.163841975813316e+000	 1.057249256837653e+001
 2.879161618394528e+000	 3.193810948544984e+000	 1.058651732763936e+001
 2.845961966605489e+000	 3.223429925484727e+000	 1.060109303989776e+001
 2.812468446642639e+000	 3.252694457908430e+000	 1.061804165606892e+001
 2.778686743416164e+000	 3.281600216635978e+000	 1.063914635761486e+001
 2.744622625827629e+000	 3.310142994139512e+000	 1.066614779242986e+001
 2.710281943516740e+000	 3.338318706549391e+000	 1.070074042954692e+001
 3.058236828627750e+000	 3.058236828627750e+000	 1.063385915849421e+001
 3.026404630687927e+000	 3.089741091305159e+000	 1.060810671325748e+001
 2.994249643502575e+000	 3.120912378188445e+000	 1.056548618268721e+001
 2.961777115801909e+000	 3.151745756918121e+000	 1.057612183690215e+001
 2.928992396174468e+000	 3.182236405907591e+000	 1.059202674328828e+001
 2.895900930134435e+000	 3.212379616852401e+000	 1.060517454049195e+001
 2.862508257113896e+000	 3.242170797146046e+000	 1.061745675824524e+001
 2.828820007383535e+000	 3.271605472199736e+000	 1.063073087157703e+001
 2.794841898905339e+000	 3.300679287663703e+000	 1.064681635255087e+001
 2.760579734121003e+000	 3.329388011547717e+000	 1.066749083165170e+001
 2.726039396679764e+000	 3.357727536238708e+000	 1.069448637815456e+001
 3.075914498161000e+000	 3.075914498161000e+000	 1.059479420764838e+001
 3.043898299077347e+000	 3.107600866402649e+000	 1.057506845203743e+001
 3.011557444914291e+000	 3.138952334134619e+000	 1.056863989319189e+001
 2.978897214741524e+000	 3.169963940486670e+000	 1.059079283477833e+001
 2.945922988064285e+000	 3.200630836001765e+000	 1.060681140387038e+001
 2.912640241873717e+000	 3.230948285159820e+000	 1.061865171373161e+001
 2.879054547621744e+000	 3.260911668807466e+000	 1.062824075899770e+001
 2.845171568123967e+000	 3.290516486491244e+000	 1.063747229200763e+001
 2.810997054394178e+000	 3.319758358691729e+000	 1.064820279892751e+001
 2.776536842414195e+000	 3.348633028956322e+000	 1.066224758555607e+001
 2.741796849842790e+000	 3.377136365928527e+000	 1.068137698232731e+001
 3.093592167693749e+000	 3.093592167693749e+000	 1.055809302001094e+001
 3.061391967466183e+000	 3.125460641499740e+000	 1.054499681793703e+001
 3.028865246325367e+000	 3.156992290080494e+000	 1.057780674489679e+001
 2.996017313680475e+000	 3.188182124055019e+000	 1.060104007928035e+001
 2.962853579953444e+000	 3.219025266095841e+000	 1.061671229234798e+001
 2.929379553612376e+000	 3.249516953467239e+000	 1.062681488692231e+001
 2.895600838129033e+000	 3.279652540468988e+000	 1.063331110780836e+001
 2.861523128863935e+000	 3.309427500782952e+000	 1.063813174147919e+001
 2.827152209882678e+000	 3.338837429720057e+000	 1.064317101544876e+001
 2.792493950707204e+000	 3.367878046365330e+000	 1.065028260740898e+001
 2.757554303005820e+000	 3.396545195618847e+000	 1.066127577383152e+001
 3.111269837226000e+000	 3.111269837226000e+000	 1.052341519813037e+001
 3.078885635854434e+000	 3.143320416596433e+000	 1.054806789694003e+001
 3.046173047735802e+000	 3.175032246026067e+000	 1.058290330449905e+001
 3.013137412618763e+000	 3.206400307623170e+000	 1.060672878454497e+001
 2.979784171841943e+000	 3.237419696189816e+000	 1.062159510276486e+001
 2.946118865350410e+000	 3.268085621774658e+000	 1.062952996747305e+001
 2.912147128635764e+000	 3.298393412130610e+000	 1.063253366244493e+001
 2.877874689603441e+000	 3.328338515074862e+000	 1.063257476876635e+001
 2.843307365370841e+000	 3.357916500748686e+000	 1.063158598631235e+001
 2.808451059000032e+000	 3.387123063774738e+000	 1.063146006512225e+001
 2.773311756168852e+000	 3.415954025309669e+000	 1.063404585655918e+001
 3.128947506757750e+000	 3.128947506757750e+000	 1.050679611281605e+001
 3.096379304242098e+000	 3.161180191692723e+000	 1.054744848433417e+001
 3.063480849145600e+000	 3.193072201971341e+000	 1.058379417655122e+001
 3.030257511556385e+000	 3.224618491191119e+000	 1.060772420746678e+001
 2.996714763729785e+000	 3.255814126283693e+000	 1.062132548234460e+001
 2.962858177087821e+000	 3.286654290082079e+000	 1.062666273437120e+001
 2.928693419141937e+000	 3.317134283792333e+000	 1.062577407866202e+001
 2.894226250342484e+000	 3.347249529366971e+000	 1.062066665507779e+001
 2.859462520858667e+000	 3.376995571777615e+000	 1.061331237065900e+001
 2.824408167292676e+000	 3.406368081184548e+000	 1.060564375213932e+001
 2.789069209331887e+000	 3.435362855000992e+000	 1.059954991861476e+001
 3.146625176289000e+000	 3.146625176289000e+000	 1.053898512883291e+001
 3.113872972629181e+000	 3.179039966788615e+000	 1.054300250577836e+001
 3.080788650554756e+000	 3.211112157916316e+000	 1.058034410193938e+001
 3.047377610493342e+000	 3.242836674758869e+000	 1.060389164649721e+001
 3.013645355616966e+000	 3.274208556377470e+000	 1.061576903280566e+001
 2.979597488824608e+000	 3.305222958389499e+000	 1.061807884178956e+001
 2.945239709647550e+000	 3.335875155454158e+000	 1.061289781587573e+001
 2.910577811081064e+000	 3.366160543659283e+000	 1.060227242157225e+001
 2.875617676346155e+000	 3.396074642806846e+000	 1.058821451170331e+001
 2.840365275585138e+000	 3.425613098594759e+000	 1.057269709795390e+001
 2.804826662494924e+000	 3.454771684692816e+000	 1.055765024399464e+001
 3.164302845819750e+000	 3.164302845819750e+000	 1.055715148978890e+001
 3.131366641015677e+000	 3.196899741884106e+000	 1.054576164317370e+001
 3.098096451963273e+000	 3.229152113860990e+000	 1.057241795407492e+001
 3.064497709429635e+000	 3.261054858326421e+000	 1.059509644048364e+001
 3.030575947503487e+000	 3.292602986471148e+000	 1.060479131163250e+001
 2.996336800560771e+000	 3.323791626696921e+000	 1.060364382257317e+001
 2.961786000152606e+000	 3.354616027116082e+000	 1.059377014264787e+001
 2.926929371819180e+000	 3.385071557951795e+000	 1.057725683662249e+001
 2.891772831833304e+000	 3.415153713836378e+000	 1.055615644555845e+001
 2.856322383877419e+000	 3.444858116005372e+000	 1.053248317827638e+001
 2.820584115657964e+000	 3.474180514385142e+000	 1.050820872387509e+001
 3.181980515350000e+000	 3.181980515350000e+000	 1.056162018030172e+001
 3.148860309401589e+000	 3.214759516979199e+000	 1.055723980468326e+001
 3.115404253371151e+000	 3.247192069805366e+000	 1.055988073521333e+001
 3.081617808365265e+000	 3.279273041893772e+000	 1.058120396754731e+001
 3.047506539389349e+000	 3.310997416564726e+000	 1.058825783330437e+001
 3.013076112296310e+000	 3.342360295004343e+000	 1.058322309160922e+001
 2.978332290657104e+000	 3.373356898778109e+000	 1.056825614198763e+001
 2.943280932556835e+000	 3.403982572244510e+000	 1.054548442283708e+001
 2.907927987320116e+000	 3.434232784866211e+000	 1.051700190976683e+001
 2.872279492169517e+000	 3.464103133416387e+000	 1.048486472486085e+001
 2.836341568821007e+000	 3.493589344077969e+000	 1.045108686752385e+001
 2.678767037190700e+000	 3.299501047172260e+000	 1.069322615708271e+001
 2.644558174437429e+000	 3.326982425841761e+000	 1.063379176418265e+001
 2.610087752335312e+000	 3.354093308923843e+000	 1.056329329943299e+001
 2.575361772072695e+000	 3.380830037553033e+000	 1.048297385056092e+001
 2.540386301257157e+000	 3.407189081967097e+000	 1.039404194974281e+001
 2.505167470460533e+000	 3.433167042958188e+000	 1.029766888540330e+001
 2.469711469727998e+000	 3.458760653213694e+000	 1.027779919009956e+001
 2.434024545055290e+000	 3.483966778545825e+000	 1.026752421464026e+001
 2.398112994838170e+000	 3.508782419009180e+000	 1.025305388767766e+001
 2.361983166298252e+000	 3.533204709905684e+000	 1.023458679441697e+001
 2.325641451889307e+000	 3.557230922676468e+000	 1.021222141987174e+001
 2.694524490353718e+000	 3.318909876860575e+000	 1.070027516435280e+001
 2.660114398994962e+000	 3.346552910698207e+000	 1.062989406002856e+001
 2.625441209703059e+000	 3.373823269562664e+000	 1.055219007040527e+001
 2.590510958967460e+000	 3.400717273065733e+000	 1.046849716050555e+001
 2.555329750087556e+000	 3.427231370681872e+000	 1.038011019257583e+001
 2.519903749697368e+000	 3.453362143207897e+000	 1.028828213828233e+001
 2.484239184254103e+000	 3.479106304111707e+000	 1.023447142439018e+001
 2.448342336494648e+000	 3.504460700769115e+000	 1.023140715717626e+001
 2.412219541864152e+000	 3.529422315587981e+000	 1.022887715043974e+001
 2.375877184920825e+000	 3.553988267019064e+000	 1.022710140610635e+001
 2.339321695721108e+000	 3.578155810453152e+000	 1.022619293068557e+001
 2.710281943516740e+000	 3.338318706549391e+000	 1.070074042954692e+001
 2.675670623552684e+000	 3.366123395555250e+000	 1.062040608491751e+001
 2.640794667071147e+000	 3.393553230202165e+000	 1.053646680588971e+001
 2.605660145862692e+000	 3.420604508579188e+000	 1.045034753486459e+001
 2.570273198918516e+000	 3.447273659397470e+000	 1.036342956785452e+001
 2.534640028934830e+000	 3.473557243458482e+000	 1.027704766656511e+001
 2.498766898780868e+000	 3.499451955010642e+000	 1.019543554905670e+001
 2.462660127934670e+000	 3.524954622993360e+000	 1.020080019588071e+001
 2.426326088890773e+000	 3.550062212167762e+000	 1.021143270869774e+001
 2.389771203543982e+000	 3.574771824133441e+000	 1.022757370378166e+001
 2.353001939553409e+000	 3.599080698230837e+000	 1.024934987025788e+001
 2.726039396679764e+000	 3.357727536238708e+000	 1.069448637815456e+001
 2.691226848110592e+000	 3.385693880412889e+000	 1.060516980587171e+001
 2.656148124439577e+000	 3.413283190842348e+000	 1.051594376636213e+001
 2.620809332758391e+000	 3.440491744093400e+000	 1.042832429156007e+001
 2.585216647750037e+000	 3.467315948113887e+000	 1.034377922642340e+001
 2.549376308172916e+000	 3.493752343709943e+000	 1.026372524038040e+001
 2.513294613308291e+000	 3.519797605910497e+000	 1.018952498939136e+001
 2.476977919375356e+000	 3.545448545218562e+000	 1.017467392571226e+001
 2.440432635918029e+000	 3.570702108748523e+000	 1.019968212952305e+001
 2.403665222167720e+000	 3.595555381248813e+000	 1.023495740070947e+001
 2.366682183386207e+000	 3.620005586009521e+000	 1.028063927095256e+001
 2.741796849842790e+000	 3.377136365928527e+000	 1.068137698232731e+001
 2.706783072668689e+000	 3.405264365271124e+000	 1.058402718900868e+001
 2.671501581808350e+000	 3.433013151483212e+000	 1.049044164927688e+001
 2.635958519654555e+000	 3.460378979608367e+000	 1.040222760864315e+001
 2.600160096582120e+000	 3.487358236831126e+000	 1.032093958750120e+001
 2.564112587411627e+000	 3.513947443962279e+000	 1.024807629140732e+001
 2.527822327836374e+000	 3.540143256811271e+000	 1.018507767980441e+001
 2.491295710816704e+000	 3.565942467444717e+000	 1.015200134372480e+001
 2.454539182945926e+000	 3.591342005330265e+000	 1.019258972917678e+001
 2.417559240792042e+000	 3.616338938365179e+000	 1.024820929082209e+001
 2.380362427219501e+000	 3.640930473789204e+000	 1.031901156154601e+001
 2.757554303005820e+000	 3.396545195618847e+000	 1.066127577383152e+001
 2.722339297226972e+000	 3.424834850129955e+000	 1.055682019956680e+001
 2.686855039177465e+000	 3.452743112124757e+000	 1.045978157658166e+001
 2.651107706551188e+000	 3.480266215124091e+000	 1.037185849971917e+001
 2.615103545414763e+000	 3.507400525549186e+000	 1.029469230244158e+001
 2.578848866650964e+000	 3.534142544215492e+000	 1.022986386540260e+001
 2.542350042365117e+000	 3.560488907712966e+000	 1.017889059130925e+001
 2.505613502258717e+000	 3.586436389671829e+000	 1.014322355245066e+001
 2.468645729974460e+000	 3.611981901912987e+000	 1.018912249456128e+001
 2.431453259416945e+000	 3.637122495482539e+000	 1.026628916069854e+001
 2.394042671053293e+000	 3.661855361569890e+000	 1.036342047018685e+001
 2.773311756168852e+000	 3.415954025309669e+000	 1.063404585655918e+001
 2.737895521785443e+000	 3.444405334989383e+000	 1.052339080193053e+001
 2.702208496546922e+000	 3.472473072766984e+000	 1.042378508265816e+001
 2.666256893448286e+000	 3.500153450640572e+000	 1.033701879021015e+001
 2.630046994247967e+000	 3.527442814268066e+000	 1.026482021972930e+001
 2.593585145890925e+000	 3.554337644469579e+000	 1.020885257634592e+001
 2.556877756894519e+000	 3.580834558615584e+000	 1.017071085564477e+001
 2.519931293701394e+000	 3.606930311899896e+000	 1.015191890481358e+001
 2.482752277003631e+000	 3.632621798496689e+000	 1.018825000734978e+001
 2.445347278042432e+000	 3.657906052600896e+000	 1.028815970454628e+001
 2.407722914887582e+000	 3.682780249351574e+000	 1.041282293066359e+001
 2.789069209331887e+000	 3.435362855000992e+000	 1.059954991861476e+001
 2.753451746344101e+000	 3.463975819849408e+000	 1.048358095965439e+001
 2.717561953916722e+000	 3.492203033409893e+000	 1.038227410267134e+001
 2.681406080345851e+000	 3.520040686157808e+000	 1.029751109442230e+001
 2.644990443081733e+000	 3.547485102987768e+000	 1.023110735116289e+001
 2.608321425131512e+000	 3.574532744724542e+000	 1.018480856214002e+001
 2.571405471424581e+000	 3.601180209519120e+000	 1.016028747512113e+001
 2.534249085144733e+000	 3.627424234128919e+000	 1.015914087064078e+001
 2.496858824033442e+000	 3.653261695081372e+000	 1.018894437068770e+001
 2.459241296668500e+000	 3.678689609720248e+000	 1.031278644206469e+001
 2.421403158722368e+000	 3.703705137134258e+000	 1.046617899185001e+001
 2.804826662494924e+000	 3.454771684692816e+000	 1.055765024399464e+001
 2.769007970902948e+000	 3.483546304710028e+000	 1.043723263548631e+001
 2.732915411286864e+000	 3.511932994053482e+000	 1.033507096131142e+001
 2.696555267243883e+000	 3.539927921675799e+000	 1.025313879338612e+001
 2.659933891916059e+000	 3.567527391708290e+000	 1.019333883917741e+001
 2.623057704372725e+000	 3.594727844980382e+000	 1.015749944180377e+001
 2.585933185955302e+000	 3.621525860423578e+000	 1.014737127007582e+001
 2.548566876588737e+000	 3.647918156358896e+000	 1.016462420531053e+001
 2.510965371063890e+000	 3.673901591667034e+000	 1.021084443112328e+001
 2.473135315295151e+000	 3.699473166840595e+000	 1.033913763907734e+001
 2.435083402557653e+000	 3.724630024917941e+000	 1.052245173020270e+001
 2.820584115657964e+000	 3.474180514385142e+000	 1.050820872387509e+001
 2.784564195461982e+000	 3.503116789571245e+000	 1.038418779139016e+001
 2.748268868657348e+000	 3.531662954697752e+000	 1.028199836191339e+001
 2.711704454142382e+000	 3.559815157194548e+000	 1.020370601343981e+001
 2.674877340750947e+000	 3.587569680429633e+000	 1.015130092526231e+001
 2.637793983614563e+000	 3.614922945237097e+000	 1.012669427410017e+001
 2.600460900486683e+000	 3.641871511328956e+000	 1.013171482809061e+001
 2.562884668033405e+000	 3.668412078589828e+000	 1.016810574563255e+001
 2.525071918094975e+000	 3.694541488253676e+000	 1.023752158542029e+001
 2.487029333922386e+000	 3.720256723961937e+000	 1.036618423082465e+001
 2.448763646393434e+000	 3.745554912702627e+000	 1.058060716519167e+001
 2.836341568821007e+000	 3.493589344077969e+000	 1.045108686752385e+001
 2.800120420021204e+000	 3.522687274433059e+000	 1.032428838856759e+001
 2.763622326028175e+000	 3.551392915342705e+000	 1.022287937593897e+001
 2.726853641041347e+000	 3.579702392714053e+000	 1.014901760552597e+001
 2.689820789586396e+000	 3.607611969151798e+000	 1.010478091943224e+001
 2.652530262857026e+000	 3.635118045494689e+000	 1.009216351754352e+001
 2.614988615018723e+000	 3.662217162235255e+000	 1.011307245490147e+001
 2.577202459478736e+000	 3.688906000821717e+000	 1.016932435203039e+001
 2.539178465126700e+000	 3.715181384841300e+000	 1.026264232468999e+001
 2.500923352550203e+000	 3.741040281084274e+000	 1.039465313883790e+001
 2.462443890229713e+000	 3.766479800488312e+000	 1.043356681235313e+001
 2.325641451889307e+000	 3.557230922676468e+000	 1.021222141987174e+001
 2.289094285687273e+000	 3.580858465680938e+000	 1.002679060414939e+001
 2.252348139770831e+000	 3.604084884861436e+000	 9.892049963583586e+000
 2.215409520594834e+000	 3.626907864294587e+000	 9.808079681469311e+000
 2.178284965358761e+000	 3.649325226630562e+000	 9.774818240444029e+000
 2.140981038377075e+000	 3.671334933419178e+000	 9.792066083782611e+000
 2.103504327454526e+000	 3.692935085323902e+000	 9.859489577809352e+000
 2.065861440270377e+000	 3.714123922224504e+000	 9.976625259551019e+000
 2.028059000775461e+000	 3.734899823209242e+000	 1.014288435311144e+001
 1.990103645605906e+000	 3.755261306457614e+000	 1.025289125835800e+001
 1.952002020517314e+000	 3.775207029014879e+000	 1.009713655733712e+001
 2.339321695721108e+000	 3.578155810453152e+000	 1.022619293068557e+001
 2.302559546188415e+000	 3.601922339004716e+000	 1.007407793038826e+001
 2.265597246472444e+000	 3.625285384180478e+000	 9.973306191336709e+000
 2.228441341301310e+000	 3.648242616433983e+000	 9.923973407053074e+000
 2.191098406328613e+000	 3.670791845607463e+000	 9.926030553637594e+000
 2.153575044482423e+000	 3.692931021259851e+000	 9.979287605153605e+000
 2.115877882319286e+000	 3.714658232882046e+000	 1.008341755641428e+001
 2.078013566387166e+000	 3.735971710000170e+000	 1.023796073701956e+001
 2.039988759601313e+000	 3.756869822167702e+000	 1.031011259294412e+001
 2.001810137636889e+000	 3.777351078847552e+000	 1.014617758149314e+001
 1.963484385342178e+000	 3.797414129185244e+000	 1.000366561281970e+001
 2.353001939553409e+000	 3.599080698230837e+000	 1.024934987025788e+001
 2.316024806689954e+000	 3.622986212329489e+000	 1.013182656006194e+001
 2.278846353174354e+000	 3.646485883500497e+000	 1.006634797869272e+001
 2.241473162007985e+000	 3.669577368574334e+000	 1.005302418298213e+001
 2.203911847298560e+000	 3.692258464585284e+000	 1.009181743640511e+001
 2.166169050587768e+000	 3.714527109101399e+000	 1.018254598070676e+001
 2.128251437183943e+000	 3.736381380441008e+000	 1.032488812130451e+001
 2.090165692503751e+000	 3.757819497776587e+000	 1.037330260807158e+001
 2.051918518426860e+000	 3.778839821126839e+000	 1.020269510336027e+001
 2.013516629667468e+000	 3.799440851238081e+000	 1.005354718783127e+001
 1.974966750166537e+000	 3.819621229356107e+000	 9.925061279385631e+000
 2.366682183386207e+000	 3.620005586009521e+000	 1.028063927095256e+001
 2.329490067191891e+000	 3.644050085655256e+000	 1.019897720637426e+001
 2.292095459876561e+000	 3.667686382821499e+000	 1.017011005828971e+001
 2.254504982714857e+000	 3.690912120715638e+000	 1.019416109950245e+001
 2.216725288268605e+000	 3.713725083564023e+000	 1.027110267393499e+001
 2.178763056693109e+000	 3.736123196943818e+000	 1.040076002665666e+001
 2.140624992048495e+000	 3.758104528000787e+000	 1.043839360996380e+001
 2.102317818620132e+000	 3.779667285553756e+000	 1.026267080881977e+001
 2.063848277252104e+000	 3.800809820086653e+000	 1.010842240354116e+001
 2.025223121697643e+000	 3.821530623629202e+000	 9.974839582967856e+000
 1.986449114990393e+000	 3.841828329527464e+000	 9.861149213825728e+000
 2.380362427219501e+000	 3.640930473789204e+000	 1.031901156154601e+001
 2.342955327694226e+000	 3.665113958982019e+000	 1.027447429745654e+001
 2.305344566579066e+000	 3.688886882143479e+000	 1.028353119934668e+001
 2.267536803421926e+000	 3.712246872857897e+000	 1.034631760807130e+001
 2.229538729238747e+000	 3.735191702543681e+000	 1.046281474007015e+001
 2.191357062798447e+000	 3.757719284787112e+000	 1.050127532157220e+001
 2.152998546912945e+000	 3.779827675561384e+000	 1.032203668499436e+001
 2.114469944736311e+000	 3.801515073331677e+000	 1.016427019274359e+001
 2.075778036077044e+000	 3.822779819047144e+000	 1.002715365816228e+001
 2.036929613727414e+000	 3.843620396020914e+000	 9.909900634789317e+000
 1.997931479813745e+000	 3.864035429699317e+000	 9.811761776072178e+000
 2.394042671053293e+000	 3.661855361569890e+000	 1.036342047018685e+001
 2.356420588196958e+000	 3.686177832309777e+000	 1.035726587022655e+001
 2.318593673281868e+000	 3.710087381466440e+000	 1.040555409233289e+001
 2.280568624129192e+000	 3.733581625001110e+000	 1.050843139675105e+001
 2.242352170208986e+000	 3.756658321524257e+000	 1.055780357194075e+001
 2.203951068903781e+000	 3.779315372631277e+000	 1.037668353662803e+001
 2.165372101777290e+000	 3.801550823122799e+000	 1.021702109010497e+001
 2.126622070852284e+000	 3.823362861110349e+000	 1.007797852873246e+001
 2.087707794901679e+000	 3.844749818008309e+000	 9.958753883066045e+000
 2.048636105756782e+000	 3.865710168413217e+000	 9.858582391693364e+000
 2.009413844636593e+000	 3.886242529871669e+000	 9.776737837680082e+000
 2.407722914887582e+000	 3.682780249351574e+000	 1.041282293066359e+001
 2.369885848700086e+000	 3.707241705638530e+000	 1.044630346786620e+001
 2.331842779984966e+000	 3.731287880790379e+000	 1.053512523756853e+001
 2.293600444836655e+000	 3.754916377145277e+000	 1.060380929344004e+001
 2.255165611179321e+000	 3.778124940505752e+000	 1.042246983070543e+001
 2.216545075009111e+000	 3.800911460476316e+000	 1.026256590711087e+001
 2.177745656641533e+000	 3.823273970685031e+000	 1.012324217875295e+001
 2.138774196968055e+000	 3.845210648889774e+000	 1.000367895250254e+001
 2.099637553726011e+000	 3.866719816970152e+000	 9.903093779035372e+000
 2.060342597785745e+000	 3.887799940806112e+000	 9.820742907006292e+000
 2.020896209458937e+000	 3.908449630044514e+000	 9.755922596838312e+000
 2.421403158722368e+000	 3.703705137134258e+000	 1.046617899185001e+001
 2.383351109203613e+000	 3.728305578968275e+000	 1.054054204077465e+001
 2.345091886688362e+000	 3.752488380115298e+000	 1.063510780137400e+001
 2.306632265544315e+000	 3.776251129290399e+000	 1.045523084469325e+001
 2.267979052149753e+000	 3.799591559488165e+000	 1.029676473134144e+001
 2.229139081114440e+000	 3.822507548322229e+000	 1.015883438557702e+001
 2.190119211505671e+000	 3.844997118248080e+000	 1.004060021246329e+001
 2.150926323083621e+000	 3.867058436669951e+000	 9.941259814991470e+000
 2.111567312550040e+000	 3.888689815932671e+000	 9.860049571202287e+000
 2.072049089814305e+000	 3.909889713199597e+000	 9.796246069352138e+000
 2.032378574280778e+000	 3.930656730217856e+000	 9.749167399650954e+000
 2.435083402557653e+000	 3.724630024917941e+000	 1.052245173020270e+001
 2.396816369707536e+000	 3.749369452299018e+000	 1.063893985085986e+001
 2.358340993392056e+000	 3.773688879441198e+000	 1.047078809257220e+001
 2.319664086252173e+000	 3.797585881436474e+000	 1.031545622511803e+001
 2.280792493120283e+000	 3.821058178471498e+000	 1.018061587322005e+001
 2.241733087219764e+000	 3.844103636169013e+000	 1.006540539832369e+001
 2.202492766369707e+000	 3.866720265811948e+000	 9.969000222961634e+000
 2.163078449198985e+000	 3.888906224450880e+000	 9.890614535863506e+000
 2.123497071373765e+000	 3.910659814895867e+000	 9.829502853869474e+000
 2.083755581842461e+000	 3.931979485593674e+000	 9.784961438739961e+000
 2.043860939102113e+000	 3.952863830391693e+000	 9.756329567443096e+000
 2.448763646393434e+000	 3.745554912702627e+000	 1.058060716519167e+001
 2.410281630211857e+000	 3.770433325630755e+000	 1.046495900168455e+001
 2.371590100096047e+000	 3.794889378768076e+000	 1.031446719735102e+001
 2.332695906960226e+000	 3.818920633583504e+000	 1.018442776085769e+001
 2.293605934090909e+000	 3.842524797455748e+000	 1.007395491846201e+001
 2.254327093325086e+000	 3.865699724016672e+000	 9.982199720424326e+000
 2.214866321233639e+000	 3.888443413376632e+000	 9.908351878928452e+000
 2.175230575314145e+000	 3.910754012232561e+000	 9.851641461924805e+000
 2.135426830197186e+000	 3.932629813859740e+000	 9.811340440533517e+000
 2.095462073870212e+000	 3.954069257988342e+000	 9.786764088145137e+000
 2.055343303922946e+000	 3.975070930566027e+000	 9.777272229855244e+000
 2.462443890229713e+000	 3.766479800488312e+000	 1.043356681235313e+001
 2.423746890716576e+000	 3.791497198963489e+000	 1.028962242127632e+001
 2.384839206800335e+000	 3.816089878095935e+000	 1.016610127992517e+001
 2.345727727668478e+000	 3.840255385731489e+000	 1.006209145210072e+001
 2.306419375061633e+000	 3.863991416440919e+000	 9.976717479083519e+000
 2.266921099430404e+000	 3.887295811865205e+000	 9.909142354929166e+000
 2.227239876097467e+000	 3.910166560942134e+000	 9.858569357194684e+000
 2.187382701429101e+000	 3.932601800014995e+000	 9.824243730258500e+000
 2.147356589020303e+000	 3.954599812824289e+000	 9.805454218907224e+000
 2.107168565897561e+000	 3.976159030383603e+000	 9.801534450371532e+000
 2.066825668743274e+000	 3.997278030740858e+000	 9.811864163501129e+000
 1.952002020517314e+000	 3.775207029014879e+000	 1.009713655733712e+001
 1.913760776843248e+000	 3.794735786459811e+000	 9.870675292897580e+000
 1.875386567981046e+000	 3.813846512466861e+000	 9.642507553455653e+000
 1.836886045909252e+000	 3.832538278264387e+000	 9.661378356027390e+000
 1.798265857740104e+000	 3.850810291991064e+000	 9.650257100211821e+000
 1.759532642309955e+000	 3.868661897952027e+000	 9.611196549393076e+000
 1.720693026811102e+000	 3.886092575776805e+000	 9.548860577303387e+000
 1.681753623468194e+000	 3.903101939481164e+000	 9.467822047136053e+000
 1.642721026262245e+000	 3.919689736435061e+000	 9.372556194990409e+000
 1.603601807705203e+000	 3.935855846239046e+000	 9.267434313382090e+000
 1.564402515667893e+000	 3.951600279511499e+000	 9.156717744084048e+000
 1.963484385342178e+000	 3.797414129185244e+000	 1.000366561281970e+001
 1.925018193176184e+000	 3.817057761674655e+000	 9.818498301253149e+000
 1.886418253673830e+000	 3.836280903717665e+000	 9.628115134076575e+000
 1.847691257942943e+000	 3.855082621079271e+000	 9.606836812196127e+000
 1.808843892196425e+000	 3.873462117240141e+000	 9.627382903983216e+000
 1.769882834322604e+000	 3.891418732648380e+000	 9.616732884305620e+000
 1.730814750497265e+000	 3.908951943872515e+000	 9.579531369460009e+000
 1.691646291840494e+000	 3.926061362657817e+000	 9.520334540815261e+000
 1.652384091121429e+000	 3.942746734888186e+000	 9.443603455911585e+000
 1.613034759513856e+000	 3.959007939455936e+000	 9.353697658810663e+000
 1.573604883405484e+000	 3.974844987041912e+000	 9.254869099163448e+000
 1.974966750166537e+000	 3.819621229356107e+000	 9.925061279385631e+000
 1.936275609508532e+000	 3.839379736889895e+000	 9.778683462051808e+000
 1.897449939365971e+000	 3.858715294968765e+000	 9.623607697964879e+000
 1.858496469975970e+000	 3.877626963894352e+000	 9.562873637755571e+000
 1.819421926652086e+000	 3.896113942489314e+000	 9.612104948613416e+000
 1.780233026334632e+000	 3.914175567344729e+000	 9.626931695478842e+000
 1.740936474182872e+000	 3.931811311968122e+000	 9.611981275600451e+000
 1.701538960212335e+000	 3.949020785834265e+000	 9.571795169545407e+000
 1.662047155980282e+000	 3.965803733341005e+000	 9.510822178060128e+000
 1.622467711322333e+000	 3.982160032672421e+000	 9.433411957480825e+000
 1.582807251143084e+000	 3.998089694571819e+000	 9.343808863362765e+000
 1.986449114990393e+000	 3.841828329527464e+000	 9.861149213825728e+000
 1.947533025840291e+000	 3.861701712105530e+000	 9.751099234107848e+000
 1.908481625057469e+000	 3.881149686220162e+000	 9.628895664711086e+000
 1.869301682008329e+000	 3.900171306709627e+000	 9.529609249832561e+000
 1.829999961107089e+000	 3.918765767738582e+000	 9.604574087012612e+000
 1.790583218346036e+000	 3.936932402041072e+000	 9.641973555185315e+000
 1.751058197867926e+000	 3.954670680063622e+000	 9.646419866808564e+000
 1.711431628583719e+000	 3.971980209010510e+000	 9.622441778966476e+000
 1.671710220838804e+000	 3.988860731793519e+000	 9.574477754093312e+000
 1.631900663130635e+000	 4.005312125888501e+000	 9.506869418657921e+000
 1.592009618880696e+000	 4.021334402101220e+000	 9.423855329683182e+000
 1.997931479813745e+000	 3.864035429699317e+000	 9.811761776072178e+000
 1.958790442171462e+000	 3.884023687321564e+000	 9.735619814792541e+000
 1.919513310748325e+000	 3.903584077471854e+000	 9.643894244064654e+000
 1.880106894040023e+000	 3.922715649525100e+000	 9.537146305590282e+000
 1.840577995561432e+000	 3.941417592987946e+000	 9.604944115428580e+000
 1.800933410356820e+000	 3.959689236737411e+000	 9.662041081287226e+000
 1.761179921552423e+000	 3.977530048159018e+000	 9.683057879546269e+000
 1.721324296954645e+000	 3.994939632186548e+000	 9.672512517725810e+000
 1.681373285696995e+000	 4.011917730245727e+000	 9.634835035436115e+000
 1.641333614938762e+000	 4.028464219104175e+000	 9.574360884543607e+000
 1.601211986618317e+000	 4.044579109630118e+000	 9.495324616901828e+000
 2.009413844636593e+000	 3.886242529871669e+000	 9.776737837680082e+000
 1.970047858502044e+000	 3.906345662537992e+000	 9.732124976075427e+000
 1.930544996438539e+000	 3.926018468723842e+000	 9.668523299072330e+000
 1.890912106071050e+000	 3.945259992340768e+000	 9.586375735872009e+000
 1.851156030015116e+000	 3.964069418237405e+000	 9.613371689351276e+000
 1.811283602366981e+000	 3.982446071433746e+000	 9.687318878790874e+000
 1.771301645236367e+000	 4.000389416254310e+000	 9.722107182357032e+000
 1.731216965325114e+000	 4.017899055362383e+000	 9.722245828820608e+000
 1.691036350554854e+000	 4.034974728697630e+000	 9.692158347745066e+000
 1.650766566746713e+000	 4.051616312319443e+000	 9.636175869334824e+000
 1.610414354355949e+000	 4.067823817158510e+000	 9.558530731692610e+000
 2.020896209458937e+000	 3.908449630044514e+000	 9.755922596838312e+000
 1.981305274832037e+000	 3.928667637754816e+000	 9.740499906155055e+000
 1.941576682128110e+000	 3.948452859976126e+000	 9.702707213882187e+000
 1.901717318101412e+000	 3.967804335156631e+000	 9.642869780041830e+000
 1.861734064468141e+000	 3.986721243486961e+000	 9.630016242284363e+000
 1.821633794376521e+000	 4.005202906130077e+000	 9.717993483393746e+000
 1.781423368919755e+000	 4.023248784349495e+000	 9.763780743704562e+000
 1.741109633695124e+000	 4.040858478538011e+000	 9.771880441235865e+000
 1.700699415412382e+000	 4.058031727149229e+000	 9.746711505844766e+000
 1.660199518554490e+000	 4.074768405534308e+000	 9.692602596951062e+000
 1.619616722093591e+000	 4.091068524686397e+000	 9.613785628629001e+000
 2.032378574280778e+000	 3.930656730217856e+000	 9.749167399650954e+000
 1.992562691161443e+000	 3.950989612972036e+000	 9.760635056458085e+000
 1.952608367817038e+000	 3.970887251228706e+000	 9.746374766028824e+000
 1.912522530131107e+000	 3.990348677972691e+000	 9.706594746961956e+000
 1.872312098920507e+000	 4.009373068736611e+000	 9.655039907270268e+000
 1.831983986385438e+000	 4.027959740826402e+000	 9.754253306945332e+000
 1.791545092602588e+000	 4.046108152444578e+000	 9.808292600901458e+000
 1.751002302064676e+000	 4.063817901713434e+000	 9.821655361865508e+000
 1.710362480269579e+000	 4.081088725600523e+000	 9.798757828158196e+000
 1.669632470362091e+000	 4.097920498748766e+000	 9.743928037483098e+000
 1.628819089831244e+000	 4.114313232213777e+000	 9.661399268153048e+000
 2.043860939102113e+000	 3.952863830391693e+000	 9.756329567443096e+000
 2.003820107490259e+000	 3.973311588189652e+000	 9.792425993795904e+000
 1.963640053505324e+000	 3.993321642481583e+000	 9.799459003023792e+000
 1.923327742160137e+000	 4.012893020788947e+000	 9.777520384810620e+000
 1.882890133372214e+000	 4.032024893986358e+000	 9.726781712105748e+000
 1.842334178393734e+000	 4.050716575522725e+000	 9.796288584745998e+000
 1.801666816284867e+000	 4.068967520539554e+000	 9.855857830085519e+000
 1.760894970433770e+000	 4.086777324888655e+000	 9.871809867705967e+000
 1.720025545126445e+000	 4.104145724051512e+000	 9.848560150650675e+000
 1.679065422169518e+000	 4.121072591962820e+000	 9.790437942412694e+000
 1.638021457568906e+000	 4.137557939740653e+000	 9.701679672590284e+000
 2.055343303922946e+000	 3.975070930566027e+000	 9.777272229855244e+000
 2.015077523818487e+000	 3.995633563407664e+000	 9.835773257476706e+000
 1.974671739192968e+000	 4.015756033734754e+000	 9.861897123082345e+000
 1.934132954188501e+000	 4.035437363605398e+000	 9.855619785011832e+000
 1.893468167823262e+000	 4.054676719236200e+000	 9.817002395747439e+000
 1.852684370401408e+000	 4.073473410219042e+000	 9.844291324612790e+000
 1.811788539966591e+000	 4.091826888634428e+000	 9.906692517202137e+000
 1.770787638802407e+000	 4.109736748063669e+000	 9.922583498311536e+000
 1.729688609982979e+000	 4.127202722502195e+000	 9.896380840306190e+000
 1.688498373976769e+000	 4.144224685176470e+000	 9.832416878652065e+000
 1.647223825306579e+000	 4.160802647267024e+000	 9.734932980287114e+000
 2.066825668743274e+000	 3.997278030740858e+000	 9.811864163501129e+000
 2.026334940146127e+000	 4.017955538626073e+000	 9.890582221180635e+000
 1.985703424879969e+000	 4.038190424988225e+000	 9.933630359826170e+000
 1.944938166216199e+000	 4.057981706422045e+000	 9.940869289367404e+000
 1.904046202273651e+000	 4.077328544486139e+000	 9.912250320492793e+000
 1.863034562408459e+000	 4.096230244915353e+000	 9.898455257642770e+000
 1.821910263647760e+000	 4.114686256729197e+000	 9.961013729954200e+000
 1.780680307170586e+000	 4.132696171238479e+000	 9.974216048500935e+000
 1.739351674839183e+000	 4.150259720952575e+000	 9.942481808154714e+000
 1.697931325783846e+000	 4.167376778389714e+000	 9.870148261448627e+000
 1.656426193044263e+000	 4.184047354792892e+000	 9.761463497943504e+000
 1.564402515667893e+000	 3.951600279511499e+000	 9.156717744084048e+000
 1.525129670264477e+000	 3.966923176588746e+000	 9.283199067643277e+000
 1.485789760794904e+000	 3.981824806142011e+000	 9.388174284554998e+000
 1.446389242748077e+000	 3.996305563713150e+000	 9.474028588220126e+000
 1.406934534869337e+000	 4.010365970170742e+000	 9.543058563136123e+000
 1.367432016293249e+000	 4.024006670090824e+000	 9.597468706936178e+000
 1.327888023744064e+000	 4.037228430064648e+000	 9.639368227478768e+000
 1.288308848805791e+000	 4.050032136936429e+000	 9.670768117148448e+000
 1.248700735263688e+000	 4.062418795974019e+000	 9.679819193903335e+000
 1.209069876518826e+000	 4.074389528975536e+000	 9.262553501386844e+000
 1.169422413077266e+000	 4.085945572314992e+000	 8.813695108110203e+000
 1.573604883405484e+000	 3.974844987041912e+000	 9.254869099163448e+000
 1.534101021264173e+000	 3.990258018807951e+000	 9.360762513029869e+000
 1.494529700562309e+000	 4.005247305005702e+000	 9.447124128907632e+000
 1.454897414762256e+000	 4.019813243503739e+000	 9.516447427050768e+000
 1.415210620366681e+000	 4.033956358234573e+000	 9.571133114446177e+000
 1.375475734034469e+000	 4.047677297565865e+000	 9.613485556034419e+000
 1.335699129764719e+000	 4.060976832598230e+000	 9.645709489556388e+000
 1.295887136150757e+000	 4.073855855392612e+000	 9.669907026199798e+000
 1.256046033705989e+000	 4.086315377130201e+000	 9.688074938364119e+000
 1.216182052263255e+000	 4.098356526207932e+000	 9.310218956280139e+000
 1.176301368449240e+000	 4.109980546272603e+000	 8.836547393452429e+000
 1.582807251143084e+000	 3.998089694571819e+000	 9.343808863362765e+000
 1.543072372264059e+000	 4.013592861026560e+000	 9.429562569019868e+000
 1.503269640330041e+000	 4.028669803868731e+000	 9.497753178599183e+000
 1.463405586776860e+000	 4.043320923293615e+000	 9.550983154677489e+000
 1.423486705864507e+000	 4.057546746297663e+000	 9.591758004198788e+000
 1.383519451776188e+000	 4.071347925040158e+000	 9.622482617893915e+000
 1.343510235785850e+000	 4.084725235131073e+000	 9.645457901962507e+000
 1.303465423496136e+000	 4.097679573848085e+000	 9.662877704205586e+000
 1.263391332148600e+000	 4.110211958285728e+000	 9.676826035919303e+000
 1.223294228007852e+000	 4.122323523439743e+000	 9.365626564691327e+000
 1.183180323821201e+000	 4.134015520229720e+000	 8.872431559403504e+000
 1.592009618880696e+000	 4.021334402101220e+000	 9.423855329683182e+000
 1.552043723264134e+000	 4.036927703244576e+000	 9.489889969067532e+000
 1.512009580098102e+000	 4.052092302731094e+000	 9.540325032304164e+000
 1.471913758791889e+000	 4.066828603082779e+000	 9.577872674182352e+000
 1.431762791362815e+000	 4.081137134360012e+000	 9.605143892998957e+000
 1.391563169518406e+000	 4.095018552513700e+000	 9.624644777184464e+000
 1.351321341807456e+000	 4.108473637663178e+000	 9.638773052890208e+000
 1.311043710841927e+000	 4.121503292302854e+000	 9.649814934739840e+000
 1.270736630591520e+000	 4.134108539440599e+000	 9.659942281048220e+000
 1.230406403752617e+000	 4.146290520670970e+000	 9.425989363744398e+000
 1.190059279193150e+000	 4.158050494186345e+000	 8.918626956982083e+000
 1.601211986618317e+000	 4.044579109630118e+000	 9.495324616901828e+000
 1.561015074264399e+000	 4.060262545461995e+000	 9.542033700447224e+000
 1.520749519866489e+000	 4.075514801592793e+000	 9.575101963018692e+000
 1.480421930807344e+000	 4.090336282871229e+000	 9.597351975788399e+000
 1.440038876861606e+000	 4.104727522421619e+000	 9.611500933596140e+000
 1.399606887261123e+000	 4.118689179986493e+000	 9.620156807780395e+000
 1.359132447829538e+000	 4.132222040194547e+000	 9.625814808732436e+000
 1.318621998188130e+000	 4.145327010756916e+000	 9.630854160391793e+000
 1.278081929034750e+000	 4.158005120594816e+000	 9.637535187979918e+000
 1.237518579497550e+000	 4.170257517901613e+000	 9.488521786238763e+000
 1.196938234565087e+000	 4.182085468142475e+000	 8.972414688527342e+000
 1.610414354355949e+000	 4.067823817158510e+000	 9.558530731692610e+000
 1.569986425264854e+000	 4.083597387678821e+000	 9.586281054144203e+000
 1.529489459635206e+000	 4.098937300453828e+000	 9.602344955937069e+000
 1.488930102823224e+000	 4.113843962658967e+000	 9.609656162941317e+000
 1.448314962360879e+000	 4.128317910482486e+000	 9.611038785394319e+000
 1.407650605004339e+000	 4.142359807458537e+000	 9.609203375926175e+000
 1.366943553852095e+000	 4.155970442725177e+000	 9.606743306133531e+000
 1.326200285534746e+000	 4.169150729210273e+000	 9.606131463936931e+000
 1.285427227478290e+000	 4.181901701748378e+000	 9.609717273012093e+000
 1.244630755242651e+000	 4.194224515131672e+000	 9.550439620772844e+000
 1.203817189937011e+000	 4.206120442098112e+000	 9.031077557661220e+000
 1.619616722093591e+000	 4.091068524686397e+000	 9.613785628629001e+000
 1.578957776265498e+000	 4.106932229895052e+000	 9.622917673044764e+000
 1.538229399404250e+000	 4.122359799314200e+000	 9.622313745037003e+000
 1.497438274839530e+000	 4.137351642445994e+000	 9.615019477501900e+000
 1.456591047860635e+000	 4.151908298542613e+000	 9.603966628467619e+000
 1.415694322748053e+000	 4.166030434929832e+000	 9.591969043294110e+000
 1.374754659875129e+000	 4.179718845255070e+000	 9.581718944311563e+000
 1.333778572881775e+000	 4.192974447662922e+000	 9.575783550149790e+000
 1.292772525922139e+000	 4.205798282901283e+000	 9.576602026043336e+000
 1.251742930987921e+000	 4.218191512361147e+000	 9.586482765451416e+000
 1.210696145308922e+000	 4.230155416053254e+000	 9.091900020956695e+000
 1.628819089831244e+000	 4.114313232213777e+000	 9.661399268153048e+000
 1.587929127266333e+000	 4.130267072110688e+000	 9.652227598492601e+000
 1.546969339173622e+000	 4.145782298173907e+000	 9.635266848424767e+000
 1.505946446856262e+000	 4.160859322232307e+000	 9.613675324084788e+000
 1.464867133360873e+000	 4.175498686601996e+000	 9.590493177100687e+000
 1.423738040492268e+000	 4.189701062400376e+000	 9.568638269938305e+000
 1.382565765898637e+000	 4.203467247784223e+000	 9.550902377641021e+000
 1.341356860229215e+000	 4.216798166114867e+000	 9.539947728233361e+000
 1.300117824366299e+000	 4.229694864053535e+000	 9.538303883070139e+000
 1.258855106733358e+000	 4.242158509590038e+000	 9.548364957441420e+000
 1.217575100680821e+000	 4.254190390007903e+000	 9.152168141244010e+000
 1.638021457568906e+000	 4.137557939740653e+000	 9.701679672590284e+000
 1.596900478267356e+000	 4.153601914325729e+000	 9.674493315276044e+000
 1.555709278943322e+000	 4.169204797032950e+000	 9.641461602488835e+000
 1.514454618873418e+000	 4.184367002017907e+000	 9.605856293576414e+000
 1.473143218861593e+000	 4.199089074660638e+000	 9.570826692872547e+000
 1.431781758236981e+000	 4.213371689870172e+000	 9.539395417149189e+000
 1.390376871922622e+000	 4.227215650312640e+000	 9.514454508485409e+000
 1.348935147577069e+000	 4.240621884566103e+000	 9.498761894840886e+000
 1.307463122810769e+000	 4.253591445205132e+000	 9.494938199611289e+000
 1.265967282478964e+000	 4.266125506818344e+000	 9.505463900450003e+000
 1.224454056052708e+000	 4.278225363962058e+000	 9.209169542491299e+000
 1.647223825306579e+000	 4.160802647267024e+000	 9.734932980287114e+000
 1.605871829268570e+000	 4.176936756540175e+000	 9.689995795107224e+000
 1.564449218713350e+000	 4.192627295891330e+000	 9.641154194908802e+000
 1.522962790891000e+000	 4.207874681802793e+000	 9.591794185864993e+000
 1.481419304362796e+000	 4.222679462718540e+000	 9.545174997302148e+000
 1.439825475982193e+000	 4.237042317339217e+000	 9.504424750212184e+000
 1.398187977947082e+000	 4.250964052840319e+000	 9.472536480270344e+000
 1.356513434925335e+000	 4.264445603016635e+000	 9.452364517666460e+000
 1.314808421255549e+000	 4.277488026356076e+000	 9.446621225022788e+000
 1.273079458224738e+000	 4.290092504046069e+000	 9.457874093657608e+000
 1.231333011424581e+000	 4.302260337915721e+000	 9.260193366197322e+000
 1.656426193044263e+000	 4.184047354792892e+000	 9.761463497943504e+000
 1.614843180269973e+000	 4.200271598754027e+000	 9.699014538651946e+000
 1.573189158483706e+000	 4.216049794749046e+000	 9.634599696563969e+000
 1.531470962909008e+000	 4.231382361586969e+000	 9.571720031812580e+000
 1.489695389864481e+000	 4.246269850775702e+000	 9.513745484072143e+000
 1.447869193727905e+000	 4.260712944807515e+000	 9.463910441074511e+000
 1.405999083972017e+000	 4.274712455367261e+000	 9.425309670787280e+000
 1.364091722274013e+000	 4.288269321466460e+000	 9.400894619582935e+000
 1.322153719700638e+000	 4.301384607506362e+000	 9.393470077669084e+000
 1.280191633970679e+000	 4.314059501273208e+000	 9.405691212013085e+000
 1.238211966796443e+000	 4.326295311868889e+000	 9.302530229237892e+000
 1.169422413077266e+000	 4.085945572314992e+000	 8.813695108110203e+000
 1.129764430115052e+000	 4.097088274930204e+000	 8.816577082461691e+000
 1.090101955120620e+000	 4.107819096255514e+000	 8.836896247585841e+000
 1.050440955616010e+000	 4.118139604102669e+000	 8.875881390871429e+000
 1.010787336957094e+000	 4.128051472493549e+000	 8.934544379368274e+000
 9.711469402141435e-001	 4.137556479447227e+000	 9.013702349311622e+000
 9.315255401334336e-001	 4.146656504724692e+000	 9.113999632355405e+000
 8.919288431804867e-001	 4.155353527534343e+000	 9.235929360701572e+000
 8.523624856654437e-001	 4.163649624201344e+000	 9.379854696266024e+000
 8.128320319509323e-001	 4.171546965803957e+000	 9.546029632063902e+000
 7.733429727426728e-001	 4.179047815779902e+000	 9.734619317117559e+000
 1.176301368449240e+000	 4.109980546272603e+000	 8.836547393452429e+000
 1.136410103235041e+000	 4.121188794197010e+000	 8.826892293753247e+000
 1.096514319564808e+000	 4.131982738000447e+000	 8.837671496540747e+000
 1.056620020063654e+000	 4.142363954717085e+000	 8.869628056779197e+000
 1.016733144824837e+000	 4.152334128215989e+000	 8.923288417015854e+000
 9.768595692778671e-001	 4.161895046975168e+000	 8.998985433134676e+000
 9.370051021381163e-001	 4.171048601813031e+000	 9.096881118046245e+000
 8.971754834385515e-001	 4.179796783580375e+000	 9.216989044110104e+000
 8.573763826440801e-001	 4.188141680816043e+000	 9.359196348127972e+000
 8.176133968488752e-001	 4.196085477369345e+000	 9.523285285879773e+000
 7.778920490569271e-001	 4.203630449992339e+000	 9.708954286386307e+000
 1.183180323821201e+000	 4.134015520229720e+000	 8.872431559403504e+000
 1.143055776354833e+000	 4.145289313463412e+000	 8.849562551636810e+000
 1.102926684008646e+000	 4.156146379745046e+000	 8.850202042202577e+000
 1.062799084510824e+000	 4.166588305331214e+000	 8.874602982542221e+000
 1.022678952692014e+000	 4.176616783938171e+000	 8.922801969537051e+000
 9.825721983409630e-001	 4.186233614502861e+000	 8.994643116966060e+000
 9.424846641421393e-001	 4.195440698901107e+000	 9.089801625978328e+000
 9.024221236959544e-001	 4.204240039626114e+000	 9.207806993968726e+000
 8.623902796220819e-001	 4.212633737430395e+000	 9.348065804376757e+000
 8.223947617462398e-001	 4.220623988934316e+000	 9.509884043153187e+000
 7.824411253706887e-001	 4.228213084204269e+000	 9.692488890945537e+000
 1.190059279193150e+000	 4.158050494186345e+000	 8.918626956982083e+000
 1.149701449474428e+000	 4.169389832729408e+000	 8.882039497070617e+000
 1.109339048452133e+000	 4.180310021489308e+000	 8.872112807811966e+000
 1.068978148957521e+000	 4.190812655945057e+000	 8.888605260469960e+000
 1.028624760558625e+000	 4.200899439660094e+000	 8.931059079937263e+000
 9.882848274034312e-001	 4.210572182030300e+000	 8.998825071481026e+000
 9.479642261455025e-001	 4.219832795988921e+000	 9.091087027431710e+000
 9.076687639526953e-001	 4.228683295671556e+000	 9.206885751777323e+000
 8.674041765994487e-001	 4.237125794044403e+000	 9.345142643846918e+000
 8.271761266430265e-001	 4.245162500498869e+000	 9.504682785587697e+000
 7.869902016839576e-001	 4.252795718415691e+000	 9.684257480335473e+000
 1.196938234565087e+000	 4.182085468142475e+000	 8.972414688527342e+000
 1.156347122593826e+000	 4.193490351995003e+000	 8.921774465636561e+000
 1.115751412895269e+000	 4.204473663233235e+000	 8.901026354075375e+000
 1.075157213403744e+000	 4.215037006558611e+000	 8.909429563605164e+000
 1.034570568424671e+000	 4.225182095381759e+000	 8.946027316522264e+000
 9.939974564652718e-001	 4.234910749557491e+000	 9.009672439385808e+000
 9.534437881482060e-001	 4.244224893076472e+000	 9.099052615463231e+000
 9.129154042087739e-001	 4.253126551716705e+000	 9.212715234411878e+000
 8.724180735761806e-001	 4.261617850658064e+000	 9.349091779028894e+000
 8.319574915392348e-001	 4.269701012063006e+000	 9.506521692314815e+000
 7.915392779967340e-001	 4.277378352626607e+000	 9.683275671588032e+000
 1.203817189937011e+000	 4.206120442098112e+000	 9.031077557661220e+000
 1.162992795713028e+000	 4.217590871260192e+000	 8.966218496265226e+000
 1.122163777338056e+000	 4.228637304976828e+000	 8.934562946666212e+000
 1.081336277849494e+000	 4.239261357171881e+000	 8.934866271988486e+000
 1.040516376290152e+000	 4.249464751103163e+000	 8.965667957889759e+000
 9.997100855264847e-001	 4.259249317084431e+000	 9.025318079074090e+000
 9.589233501502497e-001	 4.268616990163761e+000	 9.112003407141277e+000
 9.181620444641909e-001	 4.277569807761561e+000	 9.223773094828333e+000
 8.774319705522782e-001	 4.286109907271380e+000	 9.358563875107395e+000
 8.367388564348647e-001	 4.294239523626726e+000	 9.514224717110661e+000
 7.960883543090176e-001	 4.301960986837015e+000	 9.688540884441323e+000
 1.210696145308922e+000	 4.230155416053254e+000	 9.091900020956695e+000
 1.169638468832031e+000	 4.241691390524976e+000	 9.012822339663444e+000
 1.128576141780491e+000	 4.252800946720085e+000	 8.970340621424546e+000
 1.087515342294771e+000	 4.263485707784863e+000	 8.962701594618823e+000
 1.046462184155066e+000	 4.273747406824312e+000	 8.987936171614033e+000
 1.005422714587070e+000	 4.283587884611121e+000	 9.043886799976644e+000
 9.644029121516335e-001	 4.293009087250787e+000	 9.128234435477454e+000
 9.234086847189454e-001	 4.302013063806119e+000	 9.238525070469269e+000
 8.824458675277407e-001	 4.310601963884349e+000	 9.372195754714451e+000
 8.415202213299167e-001	 4.318778035190029e+000	 9.526600049343282e+000
 8.006374306208084e-001	 4.326543621046915e+000	 9.699032858308254e+000
 1.217575100680821e+000	 4.254190390007903e+000	 9.152168141244010e+000
 1.176284141950838e+000	 4.265791909789358e+000	 9.059036466456249e+000
 1.134988506222576e+000	 4.276964588463007e+000	 9.005975247346804e+000
 1.093694406739574e+000	 4.287710058397558e+000	 8.990717687279409e+000
 1.052407992019415e+000	 4.298030062545200e+000	 9.010781186874068e+000
 1.011135343647027e+000	 4.307926452137561e+000	 9.063495589933195e+000
 9.698824741523578e-001	 4.317401184337552e+000	 9.146031031461979e+000
 9.286553249730383e-001	 4.326456319850386e+000	 9.255425319860247e+000
 8.874597645025687e-001	 4.335094020496972e+000	 9.388610788961895e+000
 8.463015862243902e-001	 4.343316546752914e+000	 9.542440559295120e+000
 8.051865069321068e-001	 4.351126255256308e+000	 9.713714151720817e+000
 1.224454056052708e+000	 4.278225363962058e+000	 9.209169542491299e+000
 1.182929815069449e+000	 4.289892429053334e+000	 9.102311075054407e+000
 1.141400870664311e+000	 4.301128230205595e+000	 9.039080587452199e+000
 1.099873471183905e+000	 4.311934409009967e+000	 9.016692766392140e+000
 1.058353799883198e+000	 4.322312718265832e+000	 9.032146461262101e+000
 1.016847972706357e+000	 4.332265019663749e+000	 9.082253834900211e+000
 9.753620361524223e-001	 4.341793281424052e+000	 9.163669096592525e+000
 9.339019652264692e-001	 4.350899575894357e+000	 9.272916747860577e+000
 8.924736614767618e-001	 4.359586077109249e+000	 9.406419275293208e+000
 8.510829511182857e-001	 4.367855058315383e+000	 9.560524228474362e+000
 8.097355832429123e-001	 4.375708889465194e+000	 9.736443545114936e+000
 1.231333011424581e+000	 4.302260337915721e+000	 9.260193366197322e+000
 1.189575488187862e+000	 4.313992948316907e+000	 9.140096099258040e+000
 1.147813235105695e+000	 4.325291871947846e+000	 9.067268357608867e+000
 1.106052535627762e+000	 4.336158759622090e+000	 9.038401219055618e+000
 1.064299607746416e+000	 4.346595373986204e+000	 9.049969842001417e+000
 1.022560601765059e+000	 4.356603587189687e+000	 9.098263531293778e+000
 9.808415981518268e-001	 4.366185378510290e+000	 9.179415366267767e+000
 9.391486054792375e-001	 4.375342831938033e+000	 9.291012134190510e+000
 8.974875584503200e-001	 4.384078133721181e+000	 9.468933427584959e+000
 8.558643160116030e-001	 4.392393569877435e+000	 9.672153534488999e+000
 8.142846595532254e-001	 4.400291523673573e+000	 9.898136026064698e+000
 1.238211966796443e+000	 4.326295311868889e+000	 9.302530229237892e+000
 1.196221161306078e+000	 4.338093467580077e+000	 9.169841215607091e+000
 1.154225599546729e+000	 4.349455513689764e+000	 9.088148283399153e+000
 1.112231600071146e+000	 4.360383110233927e+000	 9.053613709415330e+000
 1.070245415609068e+000	 4.370878029706319e+000	 9.062183721789721e+000
 1.028273230823134e+000	 4.380942154715376e+000	 9.132156502507598e+000
 9.863211601505719e-001	 4.390577475596267e+000	 9.251112373531166e+000
 9.443952457313445e-001	 4.399786087981418e+000	 9.400697417112594e+000
 9.025014554232437e-001	 4.408570190332767e+000	 9.578282474686612e+000
 8.606456809043420e-001	 4.416932081439071e+000	 9.781204930941319e+000
 8.188337358630459e-001	 4.424874157881446e+000	 1.000676688806327e+001
 7.733429727426728e-001	 4.179047815779902e+000	 9.734619317117559e+000
 7.339007234633732e-001	 4.186154527505775e+000	 9.461080119123851e+000
 6.945106227088217e-001	 4.192869541852530e+000	 9.181120440296411e+000
 6.551779307865256e-001	 4.199195384720042e+000	 8.893492883985767e+000
 6.159078283377327e-001	 4.205134664553649e+000	 8.716881183890189e+000
 5.767054150413704e-001	 4.210690069845527e+000	 8.916556604529927e+000
 5.375757083998125e-001	 4.215864366623789e+000	 9.090609127607436e+000
 4.985236426059487e-001	 4.220660395932038e+000	 9.242508653561096e+000
 4.595540674909452e-001	 4.225081071302156e+000	 9.374936330254398e+000
 4.206717475519851e-001	 4.229129376222967e+000	 9.489765355524579e+000
 3.818813610591916e-001	 4.232808361607396e+000	 9.588044619705356e+000
 7.778920490569271e-001	 4.203630449992339e+000	 9.708954286386307e+000
 7.382177865464501e-001	 4.210778965904968e+000	 9.398285696437631e+000
 6.985959793168153e-001	 4.217533480336205e+000	 9.077110792430755e+000
 6.590319186185143e-001	 4.223896534044159e+000	 8.744161584108271e+000
 6.195308155671546e-001	 4.229870750817963e+000	 8.477687954230920e+000
 5.800977998397751e-001	 4.235458834964458e+000	 8.685446080547408e+000
 5.407379184534678e-001	 4.240663568782508e+000	 8.872063441360247e+000
 5.014561346257865e-001	 4.245487810027735e+000	 9.041778571638190e+000
 4.622573267163152e-001	 4.249934489370448e+000	 9.198012512032859e+000
 4.231462872486904e-001	 4.254006607849407e+000	 9.343348886452963e+000
 3.841277220122707e-001	 4.257707234324079e+000	 9.479516896751200e+000
 7.824411253706887e-001	 4.228213084204269e+000	 9.692488890945537e+000
 7.425348496291238e-001	 4.235403404303565e+000	 9.353591760370016e+000
 7.026813359244744e-001	 4.242197418819215e+000	 9.000137781350821e+000
 6.628859064502167e-001	 4.248597683367563e+000	 8.630830187237301e+000
 6.231538027963185e-001	 4.254606837081536e+000	 8.272933502527161e+000
 5.834901846379291e-001	 4.260227600082640e+000	 8.480712619392509e+000
 5.439001285068604e-001	 4.265462770940488e+000	 8.672029531524609e+000
 5.043886266453294e-001	 4.270315224122728e+000	 8.851903748653953e+000
 4.649605859413387e-001	 4.274787907438088e+000	 9.024508072491999e+000
 4.256208269449779e-001	 4.278883839475262e+000	 9.193147940575685e+000
 3.863740829648416e-001	 4.282606107040270e+000	 9.360243765422501e+000
 7.869902016839576e-001	 4.252795718415691e+000	 9.684257480335473e+000
 7.468519127113944e-001	 4.260027842701565e+000	 9.326053992604619e+000
 7.067666925317991e-001	 4.266861357301558e+000	 8.949278334768611e+000
 6.667398942816334e-001	 4.273298832690252e+000	 8.552596748456454e+000
 6.267767900252242e-001	 4.279342923344370e+000	 8.134715290037574e+000
 5.868825694358326e-001	 4.284996365200072e+000	 8.305845710851616e+000
 5.470623385599900e-001	 4.290261973097731e+000	 8.493709616278272e+000
 5.073211186645774e-001	 4.295142638217015e+000	 8.675800676680916e+000
 4.676638451660153e-001	 4.299641325505075e+000	 8.857055485553724e+000
 4.280953666408476e-001	 4.303761071100537e+000	 9.041512839651004e+000
 3.886204439169041e-001	 4.307504979755969e+000	 9.232295414827686e+000
 7.915392779967340e-001	 4.277378352626607e+000	 9.683275671588032e+000
 7.511689757932621e-001	 4.284652281098968e+000	 9.314710910288881e+000
 7.108520491387896e-001	 4.291525295783235e+000	 8.923593792904333e+000
 6.705938821127639e-001	 4.297999982012227e+000	 8.508545320747658e+000
 6.303997772538719e-001	 4.304079009606460e+000	 8.068228565914643e+000
 5.902749542334858e-001	 4.309765130316755e+000	 8.164324035545443e+000
 5.502245486128572e-001	 4.315061175254239e+000	 8.340296710755807e+000
 5.102536106835305e-001	 4.319970052310598e+000	 8.516378256367830e+000
 4.703671043903454e-001	 4.324494743571407e+000	 8.698281250137269e+000
 4.305699063362993e-001	 4.328638302725229e+000	 8.890789550969407e+000
 3.908668048684583e-001	 4.332403852471176e+000	 9.097739303576443e+000
 7.960883543090176e-001	 4.301960986837015e+000	 9.688540884441323e+000
 7.554860388747265e-001	 4.309276719495773e+000	 9.318584356449378e+000
 7.149374057454458e-001	 4.316189234264248e+000	 8.922130353843411e+000
 6.744478699436082e-001	 4.322701131333487e+000	 8.497746355051264e+000
 6.340227644822613e-001	 4.328815095867807e+000	 8.044044254844671e+000
 5.936673390308883e-001	 4.334533895432688e+000	 8.059615773762362e+000
 5.533867586654613e-001	 4.339860377410006e+000	 8.214974889992782e+000
 5.131861027021888e-001	 4.344797466403475e+000	 8.376538013837587e+000
 4.730703636143287e-001	 4.349348161637087e+000	 8.550806060873416e+000
 4.330444460313332e-001	 4.353515534349340e+000	 8.743319811766913e+000
 3.931131658195043e-001	 4.357302725185893e+000	 8.958640237793961e+000
 8.006374306208084e-001	 4.326543621046915e+000	 9.699032858308254e+000
 7.598031019557878e-001	 4.333901157891983e+000	 9.336679973688481e+000
 7.190227623517680e-001	 4.340853172744595e+000	 8.943919503710864e+000
 6.783018577741667e-001	 4.347402280654036e+000	 8.519257086687555e+000
 6.376457517103924e-001	 4.353551182128414e+000	 8.061245212831931e+000
 5.970597238280406e-001	 4.359302660547872e+000	 7.995178903763235e+000
 5.565489687178027e-001	 4.364659579565039e+000	 8.120919542905650e+000
 5.161185947205521e-001	 4.369624880495647e+000	 8.259174310190598e+000
 4.757736228379655e-001	 4.374201579702113e+000	 8.417244972999164e+000
 4.355189857259491e-001	 4.378392765972867e+000	 8.647371159518142e+000
 3.953595267700419e-001	 4.382201597900117e+000	 8.902681614374400e+000
 8.051865069321068e-001	 4.351126255256308e+000	 9.713714151720817e+000
 7.641201650364461e-001	 4.358525596287595e+000	 9.367987661823594e+000
 7.231081189577555e-001	 4.365517111224277e+000	 8.987978432263304e+000
 6.821558456044390e-001	 4.372103429973867e+000	 8.572121908679614e+000
 6.412687389382656e-001	 4.378287268388279e+000	 8.158520266799245e+000
 6.004521086249425e-001	 4.384071425662305e+000	 8.094615260069787e+000
 5.597111787698814e-001	 4.389458781719332e+000	 8.263799797922834e+000
 5.190510867386203e-001	 4.394452294587113e+000	 8.444199887708999e+000
 4.784768820612556e-001	 4.399054997766487e+000	 8.635647651491626e+000
 4.379935254201473e-001	 4.403269997595813e+000	 8.838059632796975e+000
 3.976058877200713e-001	 4.407100470613849e+000	 9.051438453378211e+000
 8.097355832429123e-001	 4.375708889465194e+000	 9.736443545114936e+000
 7.684372281167010e-001	 4.383150034682610e+000	 9.473736089689762e+000
 7.271934755634087e-001	 4.390181049703290e+000	 9.181490145284794e+000
 6.860098334344252e-001	 4.396804579292986e+000	 8.859259319169968e+000
 6.448917261658805e-001	 4.403023354647401e+000	 8.506555089150185e+000
 6.038444934215939e-001	 4.408840190775990e+000	 8.394994748740745e+000
 5.628733888216974e-001	 4.414257983872891e+000	 8.537849861773806e+000
 5.219835787563939e-001	 4.419279708677875e+000	 8.688968326803479e+000
 4.811801412841987e-001	 4.423908415830205e+000	 8.848319405767491e+000
 4.404680651139277e-001	 4.428147229218177e+000	 9.015957711834558e+000
 3.998522486695924e-001	 4.431999343327089e+000	 9.192024779934481e+000
 8.142846595532254e-001	 4.400291523673573e+000	 9.898136026064698e+000
 7.727542911965530e-001	 4.407774473077029e+000	 9.675041202784016e+000
 7.312788321687278e-001	 4.414844988181641e+000	 9.419626538724682e+000
 6.898638212641257e-001	 4.421505728611392e+000	 9.131686216066326e+000
 6.485147133932374e-001	 4.427759440905780e+000	 8.810969194556844e+000
 6.072368782179947e-001	 4.433608955888925e+000	 8.664111117083557e+000
 5.660355988732504e-001	 4.439057186025711e+000	 8.785256444372745e+000
 5.249160707738723e-001	 4.444107122767933e+000	 8.911706861774956e+000
 4.838834005067956e-001	 4.448761833893272e+000	 9.043565901030918e+000
 4.429426048072900e-001	 4.453024460839958e+000	 9.181023441378148e+000
 4.020986096186051e-001	 4.456898216039838e+000	 9.324357195568902e+000
 8.188337358630459e-001	 4.424874157881446e+000	 1.000676688806327e+001
 7.770713542760024e-001	 4.432398911470850e+000	 9.825790493125837e+000
 7.353641887737129e-001	 4.439508926659324e+000	 9.609744870323958e+000
 6.937178090935400e-001	 4.446206877929083e+000	 9.358664623209959e+000
 6.521377006203363e-001	 4.452495527163420e+000	 9.072536012062692e+000
 6.106292630141452e-001	 4.458377721001112e+000	 8.902075455347889e+000
 5.691978089245410e-001	 4.463856388177795e+000	 9.006092021974734e+000
 5.278485627910562e-001	 4.468934536857285e+000	 9.112448969803962e+000
 4.865866597290456e-001	 4.473615251955685e+000	 9.221381243425670e+000
 4.454171445002347e-001	 4.477901692461160e+000	 9.333211197811787e+000
 4.043449705671096e-001	 4.481797088752095e+000	 9.448350001535394e+000
 3.818813610591916e-001	 4.232808361607396e+000	 9.588044619705356e+000
 3.431874992402947e-001	 4.236121143260720e+000	 9.364206989394686e+000
 3.045946655437639e-001	 4.239070899352234e+000	 9.158401970927056e+000
 2.661072749782476e-001	 4.241660867892877e+000	 8.969100310829257e+000
 2.277296535260610e-001	 4.243894344221187e+000	 8.793881941546431e+000
 1.894660376312568e-001	 4.245774678499766e+000	 8.629433821111643e+000
 1.513205737604614e-001	 4.247305273224471e+000	 8.471550295946352e+000
 1.132973180351722e-001	 4.248489580748445e+000	 8.315135910601104e+000
 7.540023593415254e-002	 4.249331100823046e+000	 8.154210583808448e+000
 3.763320206451105e-002	 4.249833378157620e+000	 7.981917066211819e+000
 0.000000000000000e+000	 4.250000000000000e+000	 7.790530591553260e+000
 3.841277220122707e-001	 4.257707234324079e+000	 9.479516896751200e+000
 3.452062492418693e-001	 4.261039502928045e+000	 9.306599006615121e+000
 3.063863988766923e-001	 4.264006610525749e+000	 9.153682266915929e+000
 2.676726118960295e-001	 4.266611814175252e+000	 9.019990574896395e+000
 2.290692397291529e-001	 4.268858428599436e+000	 8.903827129083995e+000
 1.905805437403765e-001	 4.270749823667742e+000	 8.802571788759966e+000
 1.522106947873091e-001	 4.272289421890706e+000	 8.712681029193904e+000
 1.139637728509888e-001	 4.273480695929437e+000	 8.629690414935400e+000
 7.584376673652662e-002	 4.274327166122058e+000	 8.548219508891846e+000
 3.785457384284010e-002	 4.274832398029147e+000	 8.461979130801563e+000
 0.000000000000000e+000	 4.275000000000000e+000	 8.363780875023238e+000
 3.863740829648416e-001	 4.282606107040270e+000	 9.360243765422501e+000
 3.472249992428512e-001	 4.285957862594974e+000	 9.233743825081451e+000
 3.081781322089745e-001	 4.288942321698952e+000	 9.129547297381176e+000
 2.692379488131421e-001	 4.291562760457388e+000	 9.047639035177390e+000
 2.304088259315829e-001	 4.293822512977510e+000	 8.987052786151848e+000
 1.916950498488716e-001	 4.295724968835597e+000	 8.945868070920957e+000
 1.531008158135993e-001	 4.297273570556868e+000	 8.921209730468789e+000
 1.146302276663440e-001	 4.298471811110384e+000	 8.909250063651797e+000
 7.628729753856453e-002	 4.299323231421050e+000	 8.905213470835905e+000
 3.807594562098688e-002	 4.299831417900672e+000	 8.903383515488622e+000
 0.000000000000000e+000	 4.300000000000000e+000	 8.897112311758594e+000
 3.886204439169041e-001	 4.307504979755969e+000	 9.232295414827686e+000
 3.492437492432404e-001	 4.310876222261504e+000	 9.147395418612572e+000
 3.099698655406105e-001	 4.313878032871843e+000	 9.087435911190820e+000
 2.708032857295856e-001	 4.316513706739286e+000	 9.053170673133275e+000
 2.317484121333510e-001	 4.318786597355411e+000	 9.044371447011443e+000
 1.928095559567420e-001	 4.320700114003332e+000	 9.059824332915865e+000
 1.539909368393317e-001	 4.322257719222949e+000	 9.097328927790400e+000
 1.152966824812377e-001	 4.323462926291289e+000	 9.153700127760086e+000
 7.673082834026622e-002	 4.324319296720022e+000	 9.224772507815123e+000
 3.829731739895138e-002	 4.324830437772191e+000	 9.305407188861883e+000
 0.000000000000000e+000	 4.324999999999999e+000	 9.389501098251063e+000
 3.908668048684583e-001	 4.332403852471176e+000	 9.097739303576443e+000
 3.512624992430367e-001	 4.335794581927638e+000	 9.049307536595993e+000
 3.117615988716001e-001	 4.338813744044420e+000	 9.028789269050467e+000
 2.723686226453598e-001	 4.341464653020945e+000	 9.037715347244518e+000
 2.330879983344570e-001	 4.343750681733136e+000	 9.076603115753912e+000
 1.939240620639878e-001	 4.345675259170946e+000	 9.144952329054883e+000
 1.548810578645064e-001	 4.347241867888957e+000	 9.241243882402515e+000
 1.159631372956699e-001	 4.348454041472150e+000	 9.362941279538585e+000
 7.717435914163169e-002	 4.349315362018978e+000	 9.506494749867894e+000
 3.851868917673360e-002	 4.349829457643705e+000	 9.667347923269817e+000
 0.000000000000000e+000	 4.350000000000000e+000	 9.839946966707238e+000
 3.931131658195043e-001	 4.357302725185893e+000	 8.958640237793961e+000
 3.532812492422405e-001	 4.360712941593376e+000	 8.941233710400118e+000
 3.135533322019435e-001	 4.363749455216683e+000	 8.955050777450781e+000
 2.739339595604647e-001	 4.366415599302365e+000	 9.002407653667575e+000
 2.344275845349013e-001	 4.368714766110686e+000	 9.084575052876279e+000
 1.950385681706090e-001	 4.370650404338439e+000	 9.201773614380404e+000
 1.557711788891233e-001	 4.372226016554885e+000	 9.353172224966398e+000
 1.166295921096407e-001	 4.373445156652971e+000	 9.536889152498048e+000
 7.761788994266097e-002	 4.374311427317911e+000	 9.749995901985734e+000
 3.874006095433356e-002	 4.374828477515214e+000	 9.988523700427193e+000
 0.000000000000000e+000	 4.374999999999999e+000	 1.024747251259937e+001
 3.953595267700419e-001	 4.382201597900117e+000	 8.902681614374400e+000
 3.552999992408514e-001	 4.385631301258716e+000	 8.927987457189838e+000
 3.153450655316407e-001	 4.388685166388635e+000	 8.962724186190892e+000
 2.754992964749006e-001	 4.391366545583549e+000	 9.007955842165227e+000
 2.357671707346836e-001	 4.393678850488062e+000	 9.064819444643721e+000
 1.961530742766055e-001	 4.395625549505810e+000	 9.134524824627231e+000
 1.566612999131826e-001	 4.397210165220736e+000	 9.218354221437625e+000
 1.172960469231500e-001	 4.398436271833745e+000	 9.317661651557767e+000
 7.806142074335404e-002	 4.399307492616827e+000	 9.433872057747264e+000
 3.896143273175123e-002	 4.399827497386718e+000	 9.568480247098917e+000
 0.000000000000000e+000	 4.400000000000000e+000	 9.723049627036156e+000
 3.976058877200713e-001	 4.407100470613849e+000	 9.051438453378211e+000
 3.573187492388698e-001	 4.410549660923660e+000	 9.050109355074591e+000
 3.171367988606916e-001	 4.413620877560275e+000	 9.049696720806448e+000
 2.770646333886671e-001	 4.416317491864493e+000	 9.051565193070271e+000
 2.371067569338040e-001	 4.418642934865264e+000	 9.057154798413698e+000
 1.972675803819774e-001	 4.420600694673062e+000	 9.067980492790580e+000
 1.575514209366841e-001	 4.422194313886512e+000	 9.085631473163181e+000
 1.179625017361979e-001	 4.423427387014476e+000	 9.111770263578428e+000
 7.850495154371090e-002	 4.424303557915724e+000	 9.148131584355681e+000
 3.918280450898664e-002	 4.424826517258219e+000	 9.196521013390239e+000
 0.000000000000000e+000	 4.425000000000000e+000	 9.258813448898870e+000
 3.998522486695924e-001	 4.431999343327089e+000	 9.192024779934481e+000
 3.593374992362954e-001	 4.435468020588207e+000	 9.170652826848013e+000
 3.189285321890961e-001	 4.438556588731601e+000	 9.141727068554339e+000
 2.786299703017645e-001	 4.441268438145198e+000	 9.106908776622358e+000
 2.384463431322625e-001	 4.443607019242291e+000	 9.067937073917117e+000
 1.983820864867247e-001	 4.445575839840191e+000	 9.026628194938279e+000
 1.584415419596280e-001	 4.447178462552210e+000	 8.984874514370993e+000
 1.186289565487843e-001	 4.448418502195166e+000	 8.944643352439865e+000
 7.894848234373154e-002	 4.449299623214602e+000	 8.907975566056136e+000
 3.940417628603975e-002	 4.449825537129714e+000	 8.876983935103011e+000
 0.000000000000000e+000	 4.449999999999999e+000	 8.853851353514292e+000
 4.020986096186051e-001	 4.456898216039838e+000	 9.324357195568902e+000
 3.613562492331282e-001	 4.460386380252357e+000	 9.289459361262839e+000
 3.207202655168545e-001	 4.463492299902615e+000	 9.238580219973652e+000
 2.801953072141926e-001	 4.466219384425665e+000	 9.173673737975083e+000
 2.397859293300590e-001	 4.468571103619142e+000	 9.096774262285134e+000
 1.994965925908473e-001	 4.470550985007201e+000	 9.009995498311238e+000
 1.593316629820141e-001	 4.472162611217829e+000	 8.915529257516075e+000
 1.192954113609092e-001	 4.473409617375812e+000	 8.815643984059697e+000
 7.939201314341601e-002	 4.474295688513460e+000	 8.712683069762706e+000
 3.962554806291059e-002	 4.474824557001203e+000	 8.609062967078163e+000
 0.000000000000000e+000	 4.474999999999999e+000	 8.507271110058214e+000
 4.043449705671096e-001	 4.481797088752095e+000	 9.448350001535394e+000
 3.633749992293684e-001	 4.485304739916109e+000	 9.406370258003737e+000
 3.225119988439666e-001	 4.488428011073319e+000	 9.340023113181866e+000
 2.817606441259515e-001	 4.491170330705895e+000	 9.251551330864126e+000
 2.411255155271938e-001	 4.493535187995821e+000	 9.143280647509775e+000
 2.006110986943454e-001	 4.495526130174090e+000	 9.017618469487498e+000
 1.602217840038425e-001	 4.497146759883374e+000	 8.877052341991570e+000
 1.199618661725727e-001	 4.498400732556415e+000	 8.724148198952493e+000
 7.983554394276425e-002	 4.499291753812299e+000	 8.561548403642760e+000
 3.984691983959917e-002	 4.499823576872690e+000	 8.391969590010406e+000
 0.000000000000000e+000	 4.500000000000000e+000	 8.218200315059617e+000
 4.500000000000000e+000	 0.000000000000000e+000	 1.081616259393660e+001
 4.499823576872690e+000	 3.984691983959790e-002	 1.072270814122828e+001
 4.499291753812299e+000	 7.983554394276311e-002	 1.062898924110158e+001
 4.498400732556415e+000	 1.199618661725717e-001	 1.053671460917976e+001
 4.497146759883374e+000	 1.602217840038416e-001	 1.044764196072488e+001
 4.495526130174089e+000	 2.006110986943446e-001	 1.036358021246790e+001
 4.493535187995821e+000	 2.411255155271932e-001	 1.028639173949271e+001
 4.491170330705895e+000	 2.817606441259510e-001	 1.021799468315958e+001
 4.488428011073320e+000	 3.225119988439663e-001	 1.016036530564773e+001
 4.485304739916110e+000	 3.633749992293682e-001	 1.011554038628453e+001
 4.481797088752097e+000	 4.043449705671097e-001	 1.008561965441325e+001
 4.525000000000000e+000	 0.000000000000000e+000	 1.070678374094806e+001
 4.524822596744175e+000	 4.006829161619294e-002	 1.063022894062078e+001
 4.524287819111140e+000	 8.027907474193370e-002	 1.055371609861545e+001
 4.523391847737016e+000	 1.206283209839829e-001	 1.047881181592071e+001
 4.522130908548916e+000	 1.611119050253526e-001	 1.040712878139599e+001
 4.520501275340979e+000	 2.017256047974699e-001	 1.034032808334359e+001
 4.518499272372498e+000	 2.424651017239095e-001	 1.028012158329563e+001
 4.516121276986123e+000	 2.833259810372560e-001	 1.022827434800540e+001
 4.513363722244021e+000	 3.243037321705990e-001	 1.018660713521011e+001
 4.510223099579862e+000	 3.653937492251135e-001	 1.015699892830428e+001
 4.506695961464353e+000	 4.065913315151141e-001	 1.014138951462926e+001
 4.550000000000000e+000	 0.000000000000000e+000	 1.061263882523114e+001
 4.549821616615666e+000	 4.028966339278321e-002	 1.055094604691760e+001
 4.549283884409996e+000	 8.072260554108510e-002	 1.048958986006477e+001
 4.548382962917662e+000	 1.212947757953508e-001	 1.042999482266509e+001
 4.547115057214539e+000	 1.620020260467866e-001	 1.037362867621414e+001
 4.545476420507988e+000	 2.028401109004743e-001	 1.032200476768104e+001
 4.543463356749350e+000	 2.438046879204513e-001	 1.027668454087589e+001
 4.541072223266592e+000	 2.848913179483225e-001	 1.023928009320652e+001
 4.538299433415035e+000	 3.260954654969190e-001	 1.021145679337874e+001
 4.535141459244013e+000	 3.674124992204619e-001	 1.019493595514934e+001
 4.531594834177102e+000	 4.088376924626270e-001	 1.019149756179021e+001
 4.574999999999999e+000	 0.000000000000000e+000	 1.053345411595279e+001
 4.574820636487161e+000	 4.051103516936872e-002	 1.048464411720350e+001
 4.574279949708873e+000	 8.116613634021740e-002	 1.043645378302115e+001
 4.573374078098351e+000	 1.219612306066755e-001	 1.039016567709926e+001
 4.572099205880235e+000	 1.628921470681434e-001	 1.034710264917788e+001
 4.570451565675120e+000	 2.039546170033579e-001	 1.030863036807978e+001
 4.568427441126377e+000	 2.451442741168184e-001	 1.027615993134734e+001
 4.566023169547297e+000	 2.864566548591504e-001	 1.025115054747504e+001
 4.563235144586363e+000	 3.278871988229265e-001	 1.023511228627774e+001
 4.560059818908560e+000	 3.694312492154132e-001	 1.022960889247291e+001
 4.556493706890342e+000	 4.110840534096479e-001	 1.023626065708746e+001
 4.600000000000000e+000	 0.000000000000000e+000	 1.046896183295022e+001
 4.599819656358659e+000	 4.073240694594946e-002	 1.043111277897105e+001
 4.599276015007772e+000	 8.160966713933057e-002	 1.039415511105684e+001
 4.598365193279084e+000	 1.226276854179570e-001	 1.035922942468416e+001
 4.597083354546008e+000	 1.637822680894232e-001	 1.032751371034910e+001
 4.595426710842369e+000	 2.050691231061205e-001	 1.030022599834707e+001
 4.593391525503580e+000	 2.464838603130109e-001	 1.027862708737997e+001
 4.590974115828240e+000	 2.880219917697399e-001	 1.026402335298717e+001
 4.588170855758002e+000	 3.296789321486214e-001	 1.025776963132538e+001
 4.584978178573502e+000	 3.714499992099676e-001	 1.026127217334425e+001
 4.581392579604074e+000	 4.133304143561773e-001	 1.027599166391858e+001
 4.624999999999999e+000	 0.000000000000000e+000	 1.041889998590201e+001
 4.624818676230165e+000	 4.095377872252544e-002	 1.039014649578534e+001
 4.624272080306688e+000	 8.205319793842462e-002	 1.036254496601496e+001
 4.623356308459858e+000	 1.232941402291954e-001	 1.033709402763445e+001
 4.622067503211861e+000	 1.646723891106259e-001	 1.031482682163506e+001
 4.620401856009741e+000	 2.061836292087624e-001	 1.029681375616790e+001
 4.618355609880956e+000	 2.478234465090287e-001	 1.028416535483352e+001
 4.615925062109422e+000	 2.895873286800908e-001	 1.027803519204633e+001
 4.613106566929955e+000	 3.314706654740036e-001	 1.027962291098304e+001
 4.609896538238842e+000	 3.734687492041250e-001	 1.029017731912949e+001
 4.606291452318299e+000	 4.155767753022150e-001	 1.031099955593590e+001
 4.650000000000000e+000	 0.000000000000000e+000	 1.038301221868717e+001
 4.649817696101674e+000	 4.117515049909665e-002	 1.036154443728196e+001
 4.649268145605621e+000	 8.249672873749950e-002	 1.034147824375489e+001
 4.648347423640677e+000	 1.239605950403905e-001	 1.032367028651104e+001
 4.647051651877790e+000	 1.655625101317515e-001	 1.030900884431944e+001
 4.645377001177234e+000	 2.072981353112834e-001	 1.029841669665674e+001
 4.643319694258506e+000	 2.491630327048719e-001	 1.029285409240294e+001
 4.640876008390843e+000	 2.911526655902032e-001	 1.029332181288619e+001
 4.638042278102218e+000	 3.332623987990734e-001	 1.030086432477008e+001
 4.634814897904580e+000	 3.754874991978856e-001	 1.031657301776310e+001
 4.631190325033014e+000	 4.178231362477610e-001	 1.034158952160956e+001
 4.675000000000000e+000	 0.000000000000000e+000	 1.036104765873810e+001
 4.674816715973187e+000	 4.139652227566309e-002	 1.034511035333632e+001
 4.674264210904576e+000	 8.294025953655530e-002	 1.033081351324277e+001
 4.673338538821540e+000	 1.246270498515425e-001	 1.031887176432957e+001
 4.672035800543796e+000	 1.664526311528001e-001	 1.031002848827688e+001
 4.670352146344847e+000	 2.084126414136835e-001	 1.030505880675782e+001
 4.668283778636232e+000	 2.505026189005405e-001	 1.030477267127510e+001
 4.665826954672503e+000	 2.927180025000771e-001	 1.031001805464580e+001
 4.662977989274797e+000	 3.350541321238305e-001	 1.032168423960993e+001
 4.659733257570715e+000	 3.775062491912491e-001	 1.034070519950823e+001
 4.656089197748221e+000	 4.200694971928152e-001	 1.036806306543552e+001
 4.699999999999999e+000	 0.000000000000000e+000	 1.035276077120140e+001
 4.699815735844708e+000	 4.161789405222478e-002	 1.034065245224866e+001
 4.699260276203549e+000	 8.338379033559194e-002	 1.033041291886247e+001
 4.698329654002444e+000	 1.252935046626512e-001	 1.032261471309084e+001
 4.697019949209879e+000	 1.673427521737716e-001	 1.031785626280833e+001
 4.695327291512582e+000	 2.095271475159628e-001	 1.031676498046233e+001
 4.693247863014131e+000	 2.518422050960345e-001	 1.032000047479673e+001
 4.690777900954401e+000	 2.942833394097125e-001	 1.032825787154768e+001
 4.687913700447687e+000	 3.368458654482750e-001	 1.034227123856935e+001
 4.684651617237246e+000	 3.795249991842157e-001	 1.036281711029891e+001
 4.680988070463921e+000	 4.223158581373777e-001	 1.039071810591370e+001
 4.725000000000000e+000	 0.000000000000000e+000	 1.035791121772849e+001
 4.724814755716230e+000	 4.183926582878168e-002	 1.034798328279637e+001
 4.724256341502540e+000	 8.382732113460945e-002	 1.034014208582784e+001
 4.723320769183393e+000	 1.259599594737167e-001	 1.033481800264360e+001
 4.722004097876039e+000	 1.682328731946660e-001	 1.033246442903712e+001
 4.720302436680437e+000	 2.106416536181212e-001	 1.033356099481258e+001
 4.718211947392206e+000	 2.531817912913539e-001	 1.033861689815255e+001
 4.715728847236537e+000	 2.958486763191094e-001	 1.034817435630821e+001
 4.712849411620889e+000	 3.386375987724069e-001	 1.036281216805038e+001
 4.709569976904175e+000	 3.815437491767853e-001	 1.038314938275412e+001
 4.705886943180112e+000	 4.245622190814485e-001	 1.040984907041553e+001
 4.750000000000000e+000	 0.000000000000000e+000	 1.037626371972551e+001
 4.749813775587761e+000	 4.206063760533384e-002	 1.036691962001092e+001
 4.749252406801552e+000	 8.427085193360784e-002	 1.035987002858189e+001
 4.748311884364385e+000	 1.266264142847391e-001	 1.035540305179387e+001
 4.746988246542276e+000	 1.691229942154834e-001	 1.035382695380850e+001
 4.745277581848414e+000	 2.117561597201589e-001	 1.035547348666373e+001
 4.743176031770457e+000	 2.545213774864986e-001	 1.036070134805387e+001
 4.740679793518913e+000	 2.974140132282679e-001	 1.036989976280897e+001
 4.737785122794405e+000	 3.404293320962263e-001	 1.038349218349203e+001
 4.734488336571500e+000	 3.835624991689580e-001	 1.040194010494923e+001
 4.730785815896796e+000	 4.268085800250276e-001	 1.042574698705577e+001
 4.481797088752097e+000	 4.043449705671097e-001	 1.008561965441325e+001
 4.477901692461161e+000	 4.454171445002335e-001	 1.019424201240231e+001
 4.473615251955686e+000	 4.865866597290444e-001	 1.031414136069669e+001
 4.468934536857286e+000	 5.278485627910552e-001	 1.044633529422925e+001
 4.463856388177796e+000	 5.691978089245402e-001	 1.059189686713986e+001
 4.458377721001111e+000	 6.106292630141446e-001	 1.075195798264094e+001
 4.452495527163420e+000	 6.521377006203358e-001	 1.067567717840930e+001
 4.446206877929084e+000	 6.937178090935400e-001	 1.047218913631771e+001
 4.439508926659324e+000	 7.353641887737129e-001	 1.027232068568153e+001
 4.432398911470851e+000	 7.770713542760025e-001	 1.007527578140865e+001
 4.424874157881446e+000	 8.188337358630459e-001	 9.880237870514090e+000
 4.506695961464353e+000	 4.065913315151141e-001	 1.014138951462926e+001
 4.502778924082358e+000	 4.478916841926803e-001	 1.023883977654248e+001
 4.498468670018098e+000	 4.892899189508041e-001	 1.034701995555436e+001
 4.493761950946636e+000	 5.307810548077607e-001	 1.046689739453439e+001
 4.488655590329878e+000	 5.723600189753693e-001	 1.059949496742512e+001
 4.483146486113297e+000	 6.140216478098557e-001	 1.074589457155323e+001
 4.477231613421060e+000	 6.557606878470224e-001	 1.065193679306302e+001
 4.470908027246774e+000	 6.975717969225737e-001	 1.047230413148302e+001
 4.464172865137007e+000	 7.394495453783545e-001	 1.029600243527624e+001
 4.457023349864672e+000	 7.813884173551503e-001	 1.012226059631861e+001
 4.449456792089316e+000	 8.233828121726123e-001	 9.950287132201419e+000
 4.531594834177102e+000	 4.088376924626270e-001	 1.019149756179021e+001
 4.527656155704141e+000	 4.503662238845501e-001	 1.027802372535591e+001
 4.523322088081165e+000	 4.919931781719295e-001	 1.037472193724874e+001
 4.518589365036693e+000	 5.337135468238041e-001	 1.048250850799222e+001
 4.513454792482697e+000	 5.755222290255385e-001	 1.060235535195056e+001
 4.507915251226232e+000	 6.174140326049388e-001	 1.073529358341672e+001
 4.501967699679440e+000	 6.593836750731418e-001	 1.062926391478992e+001
 4.495609176565179e+000	 7.014257847511329e-001	 1.047204690929256e+001
 4.488836803615358e+000	 7.435349019826437e-001	 1.031787406639927e+001
 4.481647788259090e+000	 7.857054804340989e-001	 1.016600088200914e+001
 4.474039426297694e+000	 8.279318884821644e-001	 1.001566262952317e+001
 4.556493706890342e+000	 4.110840534096479e-001	 1.023626065708746e+001
 4.552533387326506e+000	 4.528407635758423e-001	 1.031213081557921e+001
 4.548175506144886e+000	 4.946964373924210e-001	 1.039760432323192e+001
 4.543416779127454e+000	 5.366460388391862e-001	 1.049354566639919e+001
 4.538253994636254e+000	 5.786844390750477e-001	 1.060087500883013e+001
 4.532684016339917e+000	 6.208064173993935e-001	 1.072057189287665e+001
 4.526703785938563e+000	 6.630066622986950e-001	 1.060754603859923e+001
 4.520310325884299e+000	 7.052797725792174e-001	 1.047129060111933e+001
 4.513500742094372e+000	 7.476202585865805e-001	 1.033779440947001e+001
 4.506272226654105e+000	 7.900225435128488e-001	 1.020634124293271e+001
 4.498622060506580e+000	 8.324809647917016e-001	 1.007619482836750e+001
 4.581392579604074e+000	 4.133304143561773e-001	 1.027599166391858e+001
 4.577410618949450e+000	 4.553153032665570e-001	 1.034149385498584e+001
 4.573028924209256e+000	 4.973996966122782e-001	 1.041601983020867e+001
 4.568244193218922e+000	 5.395785308539064e-001	 1.050038144846014e+001
 4.563053196790550e+000	 5.818466491238975e-001	 1.059544632023742e+001
 4.557452781454351e+000	 6.241988021932196e-001	 1.070214161534129e+001
 4.551439872198428e+000	 6.666296495236816e-001	 1.058666574657673e+001
 4.545011475204132e+000	 7.091337604068273e-001	 1.046990327139500e+001
 4.538164680574053e+000	 7.517056151901652e-001	 1.035561707367752e+001
 4.530896665049718e+000	 7.943396065913998e-001	 1.024312090781226e+001
 4.523204694715974e+000	 8.370300411012241e-001	 1.013170866424548e+001
 4.606291452318299e+000	 4.155767753022150e-001	 1.031099955593590e+001
 4.602287850572980e+000	 4.577898429566946e-001	 1.036644161452012e+001
 4.597882342274284e+000	 5.001029558315013e-001	 1.043031699037279e+001
 4.593071607311094e+000	 5.425110228679650e-001	 1.050338410014222e+001
 4.587852398945583e+000	 5.850088591720871e-001	 1.058645718689056e+001
 4.582221546569534e+000	 6.275911869864179e-001	 1.066808891023909e+001
 4.576175958459033e+000	 6.702526367481012e-001	 1.056650084066639e+001
 4.569712624524679e+000	 7.129877482339623e-001	 1.046774805455428e+001
 4.562828619054400e+000	 7.557909717933976e-001	 1.037119058809489e+001
 4.555521103445926e+000	 7.986566696697516e-001	 1.027617387493111e+001
 4.547787328925875e+000	 8.415791174107322e-001	 1.018202369176064e+001
 4.631190325033014e+000	 4.178231362477610e-001	 1.034158952160956e+001
 4.627165082197091e+000	 4.602643826462549e-001	 1.038729893681422e+001
 4.622735760339963e+000	 5.028062150500905e-001	 1.044084026389412e+001
 4.617899021403971e+000	 5.454435148813617e-001	 1.050291765114626e+001
 4.612651601101351e+000	 5.881710692196172e-001	 1.057429114852143e+001
 4.606990311685467e+000	 6.309835717789877e-001	 1.063168900260188e+001
 4.600912044720382e+000	 6.738756239719546e-001	 1.054692447116882e+001
 4.594413773845941e+000	 7.168417360606224e-001	 1.046468328756176e+001
 4.587492557535412e+000	 7.598763283962778e-001	 1.038435853824152e+001
 4.580145541842733e+000	 8.029737327479043e-001	 1.030532905273626e+001
 4.572369963136282e+000	 8.461281937202254e-001	 1.022695422925706e+001
 4.656089197748221e+000	 4.200694971928152e-001	 1.036806306543552e+001
 4.652042313821781e+000	 4.627389223352377e-001	 1.040438684122324e+001
 4.647589178406295e+000	 5.055094742680454e-001	 1.044793014779604e+001
 4.642726435497552e+000	 5.483760068940969e-001	 1.049934202764121e+001
 4.637450803257858e+000	 5.913332792664872e-001	 1.055932750047952e+001
 4.631759076802149e+000	 6.343759565709294e-001	 1.059725972210134e+001
 4.625648130982472e+000	 6.774986111952412e-001	 1.052780526111677e+001
 4.619114923167916e+000	 7.206957238868079e-001	 1.046056263818647e+001
 4.612156496017089e+000	 7.639616849988056e-001	 1.039495969826363e+001
 4.604769980240135e+000	 8.072907958258581e-001	 1.033041039593022e+001
 4.596952597347198e+000	 8.506772700297042e-001	 1.026630949882629e+001
 4.680988070463921e+000	 4.223158581373777e-001	 1.039071810591370e+001
 4.676919545447057e+000	 4.652134620236433e-001	 1.041802262550808e+001
 4.672442596473283e+000	 5.082127334853663e-001	 1.045192328135839e+001
 4.667553849591841e+000	 5.513084989061705e-001	 1.049301316140057e+001
 4.662250005415101e+000	 5.944954893126973e-001	 1.054194140661453e+001
 4.656527841919582e+000	 6.377683413622428e-001	 1.056468042726066e+001
 4.650384217245304e+000	 6.811215984179611e-001	 1.050900742668114e+001
 4.643816072490604e+000	 7.245497117125187e-001	 1.045523522918263e+001
 4.636820434499434e+000	 7.680470416009811e-001	 1.040282815889639e+001
 4.629394418638134e+000	 8.116078589036129e-001	 1.035123703721948e+001
 4.621535231558619e+000	 8.552263463391679e-001	 1.029989376184592e+001
 4.705886943180112e+000	 4.245622190814485e-001	 1.040984907041553e+001
 4.701796777072913e+000	 4.676880017114715e-001	 1.042851996429036e+001
 4.697296014540921e+000	 5.109159927020531e-001	 1.045315254817413e+001
 4.692381263686833e+000	 5.542409909175823e-001	 1.048428309547430e+001
 4.687049207573082e+000	 5.976576993582478e-001	 1.052250400857521e+001
 4.681296607037763e+000	 6.411607261529280e-001	 1.053382632053388e+001
 4.675120303508878e+000	 6.847445856401145e-001	 1.049039089375471e+001
 4.668517221814008e+000	 7.284036995377549e-001	 1.044854575852808e+001
 4.661484372982443e+000	 7.721323982028044e-001	 1.040779345136359e+001
 4.654018857036731e+000	 8.159249219811687e-001	 1.036762341488064e+001
 4.646117865770552e+000	 8.597754226486175e-001	 1.032750645021548e+001
 4.730785815896796e+000	 4.268085800250276e-001	 1.042574698705577e+001
 4.726674008699353e+000	 4.701625413987225e-001	 1.043618900439816e+001
 4.722149432609216e+000	 5.136192519181059e-001	 1.045194717498325e+001
 4.717208677782532e+000	 5.571734829283325e-001	 1.047350008652360e+001
 4.711848409731800e+000	 6.008199094031386e-001	 1.050138253165684e+001
 4.706065372156694e+000	 6.445531109429850e-001	 1.050456855767609e+001
 4.699856389773194e+000	 6.883675728617011e-001	 1.047181141085413e+001
 4.693218371138125e+000	 7.322576873625164e-001	 1.044033461586587e+001
 4.686148311466119e+000	 7.762177548042758e-001	 1.040968066736487e+001
 4.678643295435927e+000	 8.202419850585258e-001	 1.037937939629792e+001
 4.670700499982989e+000	 8.643244989580522e-001	 1.034894229344787e+001
 4.424874157881446e+000	 8.188337358630459e-001	 9.880237870514090e+000
 4.416932081439071e+000	 8.606456809043407e-001	 1.010957127639182e+001
 4.408570190332767e+000	 9.025014554232427e-001	 1.031722041142967e+001
 4.399786087981418e+000	 9.443952457313437e-001	 1.049983004331079e+001
 4.390577475596269e+000	 9.863211601505713e-001	 1.065398380376817e+001
 4.380942154715376e+000	 1.028273230823133e+000	 1.077620103822793e+001
 4.370878029706319e+000	 1.070245415609068e+000	 1.084896138516566e+001
 4.360383110233927e+000	 1.112231600071145e+000	 1.085702549852786e+001
 4.349455513689764e+000	 1.154225599546729e+000	 1.081616153115807e+001
 4.338093467580077e+000	 1.196221161306078e+000	 1.072420827554338e+001
 4.326295311868889e+000	 1.238211966796443e+000	 1.057935709441413e+001
 4.449456792089316e+000	 8.233828121726123e-001	 9.950287132201419e+000
 4.441470593000705e+000	 8.654270457968737e-001	 1.015893492768826e+001
 4.433062246944354e+000	 9.075153523960031e-001	 1.034600126356121e+001
 4.424229344024800e+000	 9.496418859833249e-001	 1.050830816775581e+001
 4.414969572682244e+000	 9.918007221492239e-001	 1.064261843872768e+001
 4.405280722241064e+000	 1.033985859881143e+000	 1.074563226052404e+001
 4.395160685426432e+000	 1.076191223471678e+000	 1.081398377643573e+001
 4.384607460845763e+000	 1.118410664514506e+000	 1.084423763357643e+001
 4.373619155431682e+000	 1.160637963987752e+000	 1.082729601646213e+001
 4.362193986843245e+000	 1.202866834424291e+000	 1.072088196338088e+001
 4.350330285822056e+000	 1.245090922168304e+000	 1.055871973964107e+001
 4.474039426297694e+000	 8.279318884821644e-001	 1.001566262952317e+001
 4.466009104562758e+000	 8.702084106895727e-001	 1.020534658849730e+001
 4.457554303556283e+000	 9.125292493690713e-001	 1.037356549235005e+001
 4.448672600068478e+000	 9.548885262357173e-001	 1.051731907923312e+001
 4.439361669768483e+000	 9.972802841483514e-001	 1.063354975394143e+001
 4.429619289767003e+000	 1.039698488939652e+000	 1.071913896664333e+001
 4.419443341146805e+000	 1.082137031334772e+000	 1.077090354237429e+001
 4.408831811457884e+000	 1.124589728958293e+000	 1.078559197397451e+001
 4.397782797173934e+000	 1.167050328429106e+000	 1.075988069184267e+001
 4.386294506106817e+000	 1.209512507542697e+000	 1.069037032454508e+001
 4.374365259775718e+000	 1.251969877540177e+000	 1.059309263295721e+001
 4.498622060506580e+000	 8.324809647917016e-001	 1.007619482836750e+001
 4.490547616125227e+000	 8.749897755824375e-001	 1.024857114290968e+001
 4.482046360168561e+000	 9.175431463424479e-001	 1.039961243060733e+001
 4.473115856112449e+000	 9.601351664885214e-001	 1.052649662337594e+001
 4.463753766854984e+000	 1.002759846147954e+000	 1.062634620591600e+001
 4.453957857293190e+000	 1.045411117998660e+000	 1.069622435630343e+001
 4.443725996867435e+000	 1.088082839198349e+000	 1.073313102949283e+001
 4.433056162070295e+000	 1.130768793402507e+000	 1.073399899675087e+001
 4.421946438916521e+000	 1.173462692870789e+000	 1.069568985475772e+001
 4.410395025370796e+000	 1.216158180661294e+000	 1.061499001880890e+001
 4.398400233729874e+000	 1.258848832912064e+000	 1.058209575572632e+001
 4.523204694715974e+000	 8.370300411012241e-001	 1.013170866424548e+001
 4.515086127688112e+000	 8.797711404754689e-001	 1.028836891040898e+001
 4.506538416781186e+000	 9.225570433161329e-001	 1.042383781406771e+001
 4.497559112156713e+000	 9.653818067417365e-001	 1.053547201764242e+001
 4.488145863941748e+000	 1.008239408148032e+000	 1.062057459285871e+001
 4.478296424819631e+000	 1.051123747058167e+000	 1.067639094137114e+001
 4.468008652588326e+000	 1.094028647062409e+000	 1.070010463041417e+001
 4.457280512682989e+000	 1.136947857847147e+000	 1.068883317683867e+001
 4.446110080659443e+000	 1.179875057312801e+000	 1.063962379364076e+001
 4.434495544635176e+000	 1.222803853780083e+000	 1.054944911381272e+001
 4.422435207684522e+000	 1.265727788283963e+000	 1.056711154598146e+001
 4.547787328925875e+000	 8.415791174107322e-001	 1.018202369176064e+001
 4.539624639251415e+000	 8.845525053686660e-001	 1.032449576923922e+001
 4.531030473394155e+000	 9.275709402901259e-001	 1.044593387860765e+001
 4.522002368201274e+000	 9.706284469953628e-001	 1.054387392234731e+001
 4.512537961028775e+000	 1.013718970148584e+000	 1.061580009949650e+001
 4.502634992346319e+000	 1.056836376118173e+000	 1.065914056445288e+001
 4.492291308309473e+000	 1.099974454926952e+000	 1.067126301288144e+001
 4.481504863295974e+000	 1.143126922292215e+000	 1.064947020843098e+001
 4.470273722402701e+000	 1.186287421755143e+000	 1.059099546473900e+001
 4.458596063899960e+000	 1.229449526899063e+000	 1.049299809795664e+001
 4.446470181639666e+000	 1.272606743655874e+000	 1.055131607129070e+001
 4.572369963136282e+000	 8.461281937202254e-001	 1.022695422925706e+001
 4.564163150815135e+000	 8.893338702620293e-001	 1.035670327579320e+001
 4.555522530007471e+000	 9.325848372644270e-001	 1.046558945432762e+001
 4.546445624246128e+000	 9.758750872494004e-001	 1.055132850940245e+001
 4.536930058116062e+000	 1.019198532149612e+000	 1.061158634044909e+001
 4.526973559873260e+000	 1.062549005178679e+000	 1.064397441688570e+001
 4.516573964030879e+000	 1.105920262791978e+000	 1.064604511236238e+001
 4.505729213909241e+000	 1.149305986737709e+000	 1.061528697220476e+001
 4.494437364146293e+000	 1.192699786197816e+000	 1.054911992891292e+001
 4.482696583165150e+000	 1.236095200018235e+000	 1.044489048135285e+001
 4.470505155595303e+000	 1.279485699027798e+000	 1.053472379748433e+001
 4.596952597347198e+000	 8.506772700297042e-001	 1.026630949882629e+001
 4.588701662379272e+000	 8.941152351555588e-001	 1.038473878016985e+001
 4.580014586621130e+000	 9.375987342390362e-001	 1.048249005661555e+001
 4.570888880291277e+000	 9.811217275038494e-001	 1.055745952885157e+001
 4.561322155203614e+000	 1.024678094151114e+000	 1.060749540221044e+001
 4.551312127400450e+000	 1.068261634239683e+000	 1.063039305615074e+001
 4.540856619752545e+000	 1.111866070657487e+000	 1.062389012489084e+001
 4.529953564522797e+000	 1.155485051183629e+000	 1.058566150359689e+001
 4.518601005890221e+000	 1.199112150640817e+000	 1.051331429536313e+001
 4.506797102430744e+000	 1.242740873137600e+000	 1.040438271503123e+001
 4.494540129551432e+000	 1.286364654399735e+000	 1.051735302249161e+001
 4.621535231558619e+000	 8.552263463391679e-001	 1.029989376184592e+001
 4.613240173943826e+000	 8.988966000492542e-001	 1.040834553804384e+001
 4.604506643235138e+000	 9.426126312139539e-001	 1.049631797430419e+001
 4.595332136336721e+000	 9.863683677587096e-001	 1.056188837328168e+001
 4.585714252291427e+000	 1.030157656153092e+000	 1.060308788379037e+001
 4.575650694927891e+000	 1.073974263301187e+000	 1.061789642273119e+001
 4.565139275474467e+000	 1.117811878523480e+000	 1.060423750013688e+001
 4.554177915136639e+000	 1.161664115629977e+000	 1.055997296209238e+001
 4.542764647634484e+000	 1.205524515084149e+000	 1.048289766715328e+001
 4.530897621696741e+000	 1.249386546257156e+000	 1.037073411272340e+001
 4.518575103508055e+000	 1.293243609771683e+000	 1.049922577442321e+001
 4.646117865770552e+000	 8.597754226486175e-001	 1.032750645021548e+001
 4.637778685508796e+000	 9.036779649431156e-001	 1.042726281898362e+001
 4.628998699849491e+000	 9.476265281891795e-001	 1.050675235502961e+001
 4.619775392382458e+000	 9.916150080139811e-001	 1.056423414018958e+001
 4.610106349379503e+000	 1.035637218155545e+000	 1.059792293606602e+001
 4.599989262455583e+000	 1.079686892363189e+000	 1.060598385643499e+001
 4.589421931196648e+000	 1.123757686389955e+000	 1.058652693469685e+001
 4.578402265750768e+000	 1.167843180076752e+000	 1.053760160148758e+001
 4.566928289379082e+000	 1.211936879527810e+000	 1.045719108846226e+001
 4.554998140963142e+000	 1.256032219376904e+000	 1.037684023866759e+001
 4.542610077465175e+000	 1.300122565143645e+000	 1.048036771288907e+001
 4.670700499982989e+000	 8.643244989580522e-001	 1.034894229344787e+001
 4.662317197074184e+000	 9.084593298371435e-001	 1.044122601134897e+001
 4.653490756464190e+000	 9.526404251647136e-001	 1.051346928789430e+001
 4.644218648428491e+000	 9.968616482696642e-001	 1.056411369237908e+001
 4.634498446467843e+000	 1.041116780158473e+000	 1.059155829989058e+001
 4.624327829983526e+000	 1.085399521425691e+000	 1.059415411220202e+001
 4.613704586919089e+000	 1.129703494256914e+000	 1.057019836559525e+001
 4.602626616365185e+000	 1.174022244523953e+000	 1.051792874109262e+001
 4.591091931124016e+000	 1.218349243971802e+000	 1.043551749350231e+001
 4.579098660229948e+000	 1.262677892496843e+000	 1.038339881986141e+001
 4.566645051422785e+000	 1.307001520515620e+000	 1.046080803343262e+001
 4.326295311868889e+000	 1.238211966796443e+000	 1.057935709441413e+001
 4.314059501273209e+000	 1.280191633970678e+000	 1.042300477984809e+001
 4.301384607506363e+000	 1.322153719700637e+000	 1.042135559455603e+001
 4.288269321466461e+000	 1.364091722274012e+000	 1.042075433596264e+001
 4.274712455367261e+000	 1.405999083972017e+000	 1.042301702937604e+001
 4.260712944807515e+000	 1.447869193727904e+000	 1.043000265197141e+001
 4.246269850775702e+000	 1.489695389864481e+000	 1.044360773239519e+001
 4.231382361586969e+000	 1.531470962909008e+000	 1.046576075369446e+001
 4.216049794749046e+000	 1.573189158483706e+000	 1.049841637096462e+001
 4.200271598754028e+000	 1.614843180269973e+000	 1.054354945595161e+001
 4.184047354792891e+000	 1.656426193044263e+000	 1.060314898166423e+001
 4.350330285822056e+000	 1.245090922168304e+000	 1.055871973964107e+001
 4.338026498500345e+000	 1.287303809716620e+000	 1.049096083446085e+001
 4.325281188656641e+000	 1.329499018145727e+000	 1.048299871700654e+001
 4.312093039916263e+000	 1.371670009622691e+000	 1.047571119827695e+001
 4.298460857894163e+000	 1.413810189996953e+000	 1.047095425309242e+001
 4.284383572275750e+000	 1.455912911473615e+000	 1.047062757506057e+001
 4.269860238832774e+000	 1.497971475366166e+000	 1.047666907373752e+001
 4.254890041371024e+000	 1.539979134927016e+000	 1.049104917164411e+001
 4.239472293606604e+000	 1.581929098254062e+000	 1.051576491274049e+001
 4.223606440967679e+000	 1.623814531271376e+000	 1.055283389481954e+001
 4.207292062318510e+000	 1.665628560781946e+000	 1.060428803911360e+001
 4.374365259775718e+000	 1.251969877540177e+000	 1.059309263295721e+001
 4.361993495728061e+000	 1.294415985462394e+000	 1.057889646070697e+001
 4.349177769807554e+000	 1.336844316590506e+000	 1.056315358477879e+001
 4.335916758366729e+000	 1.379248296970957e+000	 1.054771161677518e+001
 4.322209260421725e+000	 1.421621296021413e+000	 1.053446806334456e+001
 4.308054199744611e+000	 1.463956629218827e+000	 1.052536493340042e+001
 4.293450626890411e+000	 1.506247560867369e+000	 1.052238313073636e+001
 4.278397721155550e+000	 1.548487306944599e+000	 1.052753664296342e+001
 4.262894792464511e+000	 1.590669038024090e+000	 1.054286653858628e+001
 4.246941283181525e+000	 1.632785882272590e+000	 1.057043478490658e+001
 4.230536769844139e+000	 1.674830928519619e+000	 1.061231790029126e+001
 4.398400233729874e+000	 1.258848832912064e+000	 1.058209575572632e+001
 4.385960492956355e+000	 1.301528161207999e+000	 1.062385637791082e+001
 4.373074350959102e+000	 1.344189615034976e+000	 1.066122717919348e+001
 4.359740476817858e+000	 1.386826584318810e+000	 1.063615711996960e+001
 4.345957662949947e+000	 1.429432402045397e+000	 1.061295458360202e+001
 4.331724827214101e+000	 1.472000346963540e+000	 1.059360550111760e+001
 4.317041014948613e+000	 1.514523646368090e+000	 1.058013539185503e+001
 4.301905400940547e+000	 1.556995478961755e+000	 1.057460344214589e+001
 4.286317291322765e+000	 1.599408977793790e+000	 1.057909638875501e+001
 4.270276125395566e+000	 1.641757233273613e+000	 1.059572222000077e+001
 4.253781477369779e+000	 1.684033296257282e+000	 1.062660370833918e+001
 4.422435207684522e+000	 1.265727788283963e+000	 1.056711154598146e+001
 4.409927490185231e+000	 1.308640336953436e+000	 1.059921881810614e+001
 4.396970932111286e+000	 1.351534913479136e+000	 1.063843698071243e+001
 4.383564195269647e+000	 1.394404871666250e+000	 1.068532806718903e+001
 4.369706065478828e+000	 1.437243508068906e+000	 1.070581334979740e+001
 4.355395454684217e+000	 1.480044064707754e+000	 1.067474327899084e+001
 4.340631403007379e+000	 1.522799731868328e+000	 1.064931438684949e+001
 4.325413080726016e+000	 1.565503650978487e+000	 1.063163270015499e+001
 4.309739790181370e+000	 1.608148917563162e+000	 1.062383227577018e+001
 4.293610967609800e+000	 1.650728584274447e+000	 1.062806878267036e+001
 4.277026184895429e+000	 1.693235663994934e+000	 1.064651291248569e+001
 4.446470181639666e+000	 1.272606743655874e+000	 1.055131607129070e+001
 4.433894487414683e+000	 1.315752512698706e+000	 1.057354862182101e+001
 4.420867513264104e+000	 1.358880211922986e+000	 1.060301960223776e+001
 4.407387913722100e+000	 1.401983159013279e+000	 1.064025087894411e+001
 4.393454468008369e+000	 1.445054614091939e+000	 1.068576725494484e+001
 4.379066082154961e+000	 1.488087782451469e+000	 1.074009786960688e+001
 4.364221791066710e+000	 1.531075817368083e+000	 1.072931160457122e+001
 4.348920760511959e+000	 1.574011822994792e+000	 1.069801032722246e+001
 4.333162289040322e+000	 1.616888857332206e+000	 1.067645461220209e+001
 4.316945809824231e+000	 1.659699935275091e+000	 1.066684947699947e+001
 4.300270892421088e+000	 1.702438031732576e+000	 1.067141520571877e+001
 4.470505155595303e+000	 1.279485699027798e+000	 1.053472379748433e+001
 4.457861484644715e+000	 1.322864688443807e+000	 1.054687458986636e+001
 4.444764094417560e+000	 1.366225510366526e+000	 1.056638872837644e+001
 4.431211632175216e+000	 1.409561446359895e+000	 1.059374762660358e+001
 4.417202870538569e+000	 1.452865720114497e+000	 1.062943541094418e+001
 4.402736709626332e+000	 1.496131500194685e+000	 1.067394039302495e+001
 4.387812179126604e+000	 1.539351902867356e+000	 1.072775656645874e+001
 4.372428440298370e+000	 1.582519995010672e+000	 1.077312493813657e+001
 4.356584787899623e+000	 1.625628797100923e+000	 1.073634634077429e+001
 4.340280652038857e+000	 1.668671286275547e+000	 1.071144166349357e+001
 4.323515599946758e+000	 1.711640399470208e+000	 1.070068246447007e+001
 4.494540129551432e+000	 1.286364654399735e+000	 1.051735302249161e+001
 4.481828481875328e+000	 1.329976864188740e+000	 1.051922918303745e+001
 4.468660675571649e+000	 1.373570808809755e+000	 1.052859091553592e+001
 4.455035350628992e+000	 1.417139733706099e+000	 1.054587888633425e+001
 4.440951273069429e+000	 1.460676826136579e+000	 1.057153625374374e+001
 4.426407337098330e+000	 1.504175217937402e+000	 1.060601021385134e+001
 4.411402567187063e+000	 1.547627988366147e+000	 1.064975357216566e+001
 4.395936120085255e+000	 1.591028167026127e+000	 1.070322633572015e+001
 4.380007286759271e+000	 1.634368736869311e+000	 1.076689732002540e+001
 4.363615494253678e+000	 1.677642637275812e+000	 1.076122499607362e+001
 4.346760307472438e+000	 1.720842767207830e+000	 1.073368869023387e+001
 4.518575103508055e+000	 1.293243609771683e+000	 1.049922577442321e+001
 4.505795479106517e+000	 1.337089039933506e+000	 1.049064842477380e+001
 4.492557256726375e+000	 1.380916107252676e+000	 1.048967611533572e+001
 4.478859069083431e+000	 1.424718021051889e+000	 1.049670846226126e+001
 4.464699675600948e+000	 1.468487932158185e+000	 1.051214735574804e+001
 4.450077964570956e+000	 1.512218935679620e+000	 1.053639857997391e+001
 4.434992955248089e+000	 1.555904073864455e+000	 1.056987346037721e+001
 4.419443799872612e+000	 1.599536339041157e+000	 1.061299053275586e+001
 4.403429785619271e+000	 1.643108676637371e+000	 1.066617722842164e+001
 4.386950336468694e+000	 1.686613988275887e+000	 1.072987156942580e+001
 4.370005014998127e+000	 1.730045134945440e+000	 1.076980995304962e+001
 4.542610077465175e+000	 1.300122565143645e+000	 1.048036771288907e+001
 4.529762476338289e+000	 1.344201215678103e+000	 1.046117180690947e+001
 4.516453837881738e+000	 1.388261405695286e+000	 1.044969758478673e+001
 4.502682787538534e+000	 1.432296308397268e+000	 1.044630330107226e+001
 4.488448078133128e+000	 1.476299038179315e+000	 1.045134926934195e+001
 4.473748592044207e+000	 1.520262653421339e+000	 1.046519955699893e+001
 4.458583343309677e+000	 1.564180159362281e+000	 1.048822370894117e+001
 4.442951479660441e+000	 1.608044511055761e+000	 1.052079849441665e+001
 4.426852284479617e+000	 1.651848616405103e+000	 1.056330967114521e+001
 4.410285178683903e+000	 1.695585339275773e+000	 1.061615376055844e+001
 4.393249722523829e+000	 1.739247502683042e+000	 1.067973982779910e+001
 4.566645051422785e+000	 1.307001520515620e+000	 1.046080803343262e+001
 4.553729473570638e+000	 1.351313391422532e+000	 1.043084219839932e+001
 4.540350419037734e+000	 1.395606704137587e+000	 1.040871179930741e+001
 4.526506505994300e+000	 1.439874595742234e+000	 1.039473340931845e+001
 4.512196480665969e+000	 1.484110144199970e+000	 1.038922544847017e+001
 4.497419219518086e+000	 1.528306371162558e+000	 1.039250995410058e+001
 4.482173731371831e+000	 1.572456244859625e+000	 1.040491438166525e+001
 4.466459159448743e+000	 1.616552683069939e+000	 1.042677343011815e+001
 4.450274783340313e+000	 1.660588556172508e+000	 1.045843088577635e+001
 4.433620020899308e+000	 1.704556690275470e+000	 1.050024147835319e+001
 4.416494430049541e+000	 1.748449870420633e+000	 1.055257274262855e+001
 4.184047354792891e+000	 1.656426193044263e+000	 1.060314898166423e+001
 4.167376778389714e+000	 1.697931325783844e+000	 1.064281978214419e+001
 4.150259720952576e+000	 1.739351674839182e+000	 1.068451940165778e+001
 4.132696171238480e+000	 1.780680307170584e+000	 1.073041892460998e+001
 4.114686256729197e+000	 1.821910263647758e+000	 1.078269496472902e+001
 4.096230244915355e+000	 1.863034562408458e+000	 1.084352299809663e+001
 4.077328544486139e+000	 1.904046202273650e+000	 1.082453017965163e+001
 4.057981706422046e+000	 1.944938166216197e+000	 1.077404319126275e+001
 4.038190424988224e+000	 1.985703424879968e+000	 1.072849263432026e+001
 4.017955538626073e+000	 2.026334940146125e+000	 1.068805586654110e+001
 3.997278030740859e+000	 2.066825668743275e+000	 1.065287234297892e+001
 4.207292062318510e+000	 1.665628560781946e+000	 1.060428803911360e+001
 4.190528871602665e+000	 1.707364277590921e+000	 1.064133560335445e+001
 4.173316719402627e+000	 1.749014739695385e+000	 1.068249333755051e+001
 4.155655594412936e+000	 1.790572975538763e+000	 1.072996662443770e+001
 4.137545624823596e+000	 1.832031987328927e+000	 1.078596413978201e+001
 4.118987079611292e+000	 1.873384754415509e+000	 1.085269104538187e+001
 4.099980369735707e+000	 1.914624236724038e+000	 1.080788415050150e+001
 4.080526049238338e+000	 1.955743378243895e+000	 1.076500582934001e+001
 4.060624816241361e+000	 1.996735110566969e+000	 1.072914823931247e+001
 4.040277513844186e+000	 2.037592356473764e+000	 1.070043239746712e+001
 4.019485130915437e+000	 2.078308033563603e+000	 1.067893850267358e+001
 4.230536769844139e+000	 1.674830928519619e+000	 1.061231790029126e+001
 4.213680964815437e+000	 1.716797229398172e+000	 1.064496150011641e+001
 4.196373717852327e+000	 1.758677804551919e+000	 1.068378741060097e+001
 4.178615017586891e+000	 1.800465643907400e+000	 1.073103700069894e+001
 4.160404992917361e+000	 1.842153711010651e+000	 1.078895270662991e+001
 4.141743914306483e+000	 1.883734946423183e+000	 1.083303839760951e+001
 4.122632194984438e+000	 1.925202271175086e+000	 1.078772841964020e+001
 4.103070392053720e+000	 1.966548590272258e+000	 1.075140502942040e+001
 4.083059207493538e+000	 2.007766796254612e+000	 1.072417681069284e+001
 4.062599489061307e+000	 2.048849772801992e+000	 1.070610867630497e+001
 4.041692231089015e+000	 2.089790398384435e+000	 1.069722180621758e+001
 4.253781477369779e+000	 1.684033296257282e+000	 1.062660370833918e+001
 4.236833058028028e+000	 1.726230181205598e+000	 1.065306379693678e+001
 4.219430716301676e+000	 1.768340869408785e+000	 1.068776962377718e+001
 4.201574440760342e+000	 1.810358312276494e+000	 1.073300023927121e+001
 4.183264361010493e+000	 1.852275434692930e+000	 1.079103354556197e+001
 4.164500749000932e+000	 1.894085138431478e+000	 1.080591650606082e+001
 4.145284020232332e+000	 1.935780305626793e+000	 1.076400693907995e+001
 4.125614734868195e+000	 1.977353802301288e+000	 1.073320184524052e+001
 4.105493598744757e+000	 2.018798481942898e+000	 1.071355688106978e+001
 4.084921464277440e+000	 2.060107189130809e+000	 1.070508108440339e+001
 4.063899331261593e+000	 2.101272763205771e+000	 1.070773684596238e+001
 4.277026184895429e+000	 1.693235663994934e+000	 1.064651291248569e+001
 4.259985151240440e+000	 1.735663133013200e+000	 1.066501081155150e+001
 4.242487714750674e+000	 1.778003934265982e+000	 1.069380965301558e+001
 4.224533863933293e+000	 1.820250980646046e+000	 1.073522787143700e+001
 4.206123729102992e+000	 1.862397158375763e+000	 1.079158054751274e+001
 4.187257583694635e+000	 1.904435330440396e+000	 1.077618369174917e+001
 4.167935845479390e+000	 1.946358340079158e+000	 1.073666398082324e+001
 4.148159077681762e+000	 1.988159014330984e+000	 1.071035729487190e+001
 4.127927989995016e+000	 2.029830167631827e+000	 1.069726658501479e+001
 4.107243439492581e+000	 2.071364605460214e+000	 1.069734523611894e+001
 4.086106431433171e+000	 2.112755128027612e+000	 1.071049707186684e+001
 4.300270892421088e+000	 1.702438031732576e+000	 1.067141520571877e+001
 4.283137244452671e+000	 1.745096084820976e+000	 1.068017280105458e+001
 4.265544713199322e+000	 1.787666999123510e+000	 1.070127880200563e+001
 4.247493287105741e+000	 1.830143649016057e+000	 1.073709273752131e+001
 4.228983097194856e+000	 1.872518882059152e+000	 1.078996858674718e+001
 4.210014418387592e+000	 1.914785522449936e+000	 1.074376850858463e+001
 4.190587670725611e+000	 1.956936374532184e+000	 1.070564412821466e+001
 4.170703420494422e+000	 1.998964226361345e+000	 1.068283236168508e+001
 4.150362381244317e+000	 2.040861853321398e+000	 1.067528366982026e+001
 4.129565414706734e+000	 2.082622021790207e+000	 1.068289599954559e+001
 4.108313531603750e+000	 2.124237492849956e+000	 1.070551482237275e+001
 4.323515599946758e+000	 1.711640399470208e+000	 1.070068246447007e+001
 4.306289337664721e+000	 1.754529036628928e+000	 1.069792190976503e+001
 4.288601711647618e+000	 1.797330063981369e+000	 1.070954995843298e+001
 4.270452710277686e+000	 1.840036317386525e+000	 1.073796895170243e+001
 4.251842465286088e+000	 1.882640605743094e+000	 1.076375803180138e+001
 4.232771253079805e+000	 1.925135714460097e+000	 1.070860014371023e+001
 4.213239495970997e+000	 1.967514408985869e+000	 1.067089226757125e+001
 4.193247763306173e+000	 2.009769438392373e+000	 1.065058799528226e+001
 4.172796772492659e+000	 2.051893539011612e+000	 1.064758550591019e+001
 4.151887389919897e+000	 2.093879438120789e+000	 1.066172751657546e+001
 4.130520631773328e+000	 2.135719857672803e+000	 1.069280135428419e+001
 4.346760307472438e+000	 1.720842767207830e+000	 1.073368869023387e+001
 4.329441430876592e+000	 1.763961988437055e+000	 1.071763211876616e+001
 4.311658710095563e+000	 1.806993128839560e+000	 1.071799755162670e+001
 4.293412133449130e+000	 1.849928985757451e+000	 1.073723186795175e+001
 4.274701833376686e+000	 1.892762329427593e+000	 1.072844508460169e+001
 4.255528087771272e+000	 1.935485906470880e+000	 1.067060840057063e+001
 4.235891321215545e+000	 1.978092443440211e+000	 1.063235358008178e+001
 4.215792106117017e+000	 2.020574650424067e+000	 1.061358511240031e+001
 4.195231163740042e+000	 2.062925224702467e+000	 1.061414909691684e+001
 4.174209365132070e+000	 2.105136854451960e+000	 1.063383322231599e+001
 4.152727731941906e+000	 2.147202222496155e+000	 1.067236687168849e+001
 4.370005014998127e+000	 1.730045134945440e+000	 1.076980995304962e+001
 4.352593524088284e+000	 1.773394940245357e+000	 1.073867919705541e+001
 4.334715708543159e+000	 1.816656193698082e+000	 1.072599751155810e+001
 4.316371556620073e+000	 1.859821654128835e+000	 1.073425804706042e+001
 4.297561201466651e+000	 1.902884053112646e+000	 1.069117946013877e+001
 4.278284922461995e+000	 1.945836098482286e+000	 1.062972368252112e+001
 4.258543146459256e+000	 1.988670477895214e+000	 1.058997353396440e+001
 4.238336448926953e+000	 2.031379862456426e+000	 1.057178459778484e+001
 4.217665554986465e+000	 2.073956910393966e+000	 1.057495108943595e+001
 4.196531340343254e+000	 2.116394270783719e+000	 1.059920586388745e+001
 4.174934832109484e+000	 2.158684587320011e+000	 1.064422055395387e+001
 4.393249722523829e+000	 1.739247502683042e+000	 1.067973982779910e+001
 4.375745617299795e+000	 1.782827892053834e+000	 1.075539506051661e+001
 4.357772706990403e+000	 1.826319258556935e+000	 1.073292722914114e+001
 4.339330979790512e+000	 1.869714322500677e+000	 1.072842522471295e+001
 4.320420569555982e+000	 1.913005776798254e+000	 1.065187773716229e+001
 4.301041757151973e+000	 1.956186290494313e+000	 1.058587697695691e+001
 4.281194971702131e+000	 1.999248512350875e+000	 1.054369787687323e+001
 4.260880791735980e+000	 2.042185074489451e+000	 1.052514730503647e+001
 4.240099946231929e+000	 2.084988596086107e+000	 1.052996778247201e+001
 4.218853315553447e+000	 2.127651687116066e+000	 1.055783751862362e+001
 4.197141932276062e+000	 2.170166952144371e+000	 1.060837058283850e+001
 4.416494430049541e+000	 1.748449870420633e+000	 1.055257274262855e+001
 4.398897710511125e+000	 1.792260843862486e+000	 1.061916802639352e+001
 4.380829705437297e+000	 1.835982323416120e+000	 1.070038461492067e+001
 4.362290402960451e+000	 1.879606990872976e+000	 1.070801957983810e+001
 4.343279937644680e+000	 1.923127500484416e+000	 1.061045735375659e+001
 4.323798591841205e+000	 1.966536482506963e+000	 1.053899983994373e+001
 4.303846796944171e+000	 2.009826546807196e+000	 1.049347262854480e+001
 4.283425134544102e+000	 2.052990286523143e+000	 1.047363405743051e+001
 4.262534337476437e+000	 2.096020281778891e+000	 1.047917513658549e+001
 4.241175290762652e+000	 2.138909103449004e+000	 1.050971961169779e+001
 4.219349032441642e+000	 2.181649316969236e+000	 1.056482416874337e+001
 3.997278030740859e+000	 2.066825668743275e+000	 1.065287234297892e+001
 3.976159030383603e+000	 2.107168565897559e+000	 1.058858548656159e+001
 3.954599812824290e+000	 2.147356589020302e+000	 1.054273228327608e+001
 3.932601800014996e+000	 2.187382701429100e+000	 1.051502869836848e+001
 3.910166560942135e+000	 2.227239876097466e+000	 1.050513781185091e+001
 3.887295811865206e+000	 2.266921099430403e+000	 1.051267035133296e+001
 3.863991416440920e+000	 2.306419375061632e+000	 1.053718534206164e+001
 3.840255385731489e+000	 2.345727727668477e+000	 1.057819087370660e+001
 3.816089878095935e+000	 2.384839206800333e+000	 1.063514498308384e+001
 3.791497198963489e+000	 2.423746890716575e+000	 1.070745665166695e+001
 3.766479800488311e+000	 2.462443890229713e+000	 1.079448691639032e+001
 4.019485130915437e+000	 2.078308033563603e+000	 1.067893850267358e+001
 3.998248802778659e+000	 2.118875057924907e+000	 1.062264689896214e+001
 3.976569811788677e+000	 2.159286347843419e+000	 1.058294204113810e+001
 3.954449587797304e+000	 2.199534827544055e+000	 1.055953772914483e+001
 3.931889708507547e+000	 2.239613430961295e+000	 1.055209614054020e+001
 3.908891899713674e+000	 2.279515105535721e+000	 1.056022838805015e+001
 3.885458035426050e+000	 2.319232816032355e+000	 1.058349519358274e+001
 3.861590137879450e+000	 2.358759548376727e+000	 1.062140767817692e+001
 3.837290377423783e+000	 2.398088313504621e+000	 1.067342826701729e+001
 3.812561072296218e+000	 2.437212151221293e+000	 1.073897170830068e+001
 3.787404688273996e+000	 2.476124134065992e+000	 1.081740620439583e+001
 4.041692231089015e+000	 2.089790398384435e+000	 1.069722180621758e+001
 4.020338575172714e+000	 2.130581549952659e+000	 1.064925391348242e+001
 3.998539810752065e+000	 2.171216106666839e+000	 1.061605979922169e+001
 3.976297375578613e+000	 2.211686953659215e+000	 1.059735084739022e+001
 3.953612856071957e+000	 2.251986985825226e+000	 1.059278805289596e+001
 3.930487987561143e+000	 2.292109111641043e+000	 1.060198260403335e+001
 3.906924654410178e+000	 2.332046257002981e+000	 1.062449658067430e+001
 3.882924890026412e+000	 2.371791369084782e+000	 1.065984376762935e+001
 3.858490876750632e+000	 2.411337420208612e+000	 1.070749058224764e+001
 3.833624945627949e+000	 2.450677411725614e+000	 1.076685711497855e+001
 3.808329576058680e+000	 2.489804377901773e+000	 1.083731828127229e+001
 4.063899331261593e+000	 2.101272763205771e+000	 1.070773684596238e+001
 4.042428347565767e+000	 2.142288041980814e+000	 1.066841640568004e+001
 4.020509809714452e+000	 2.183145865490564e+000	 1.064209035993722e+001
 3.998145163358922e+000	 2.223839079774578e+000	 1.062846742548510e+001
 3.975336003635369e+000	 2.264360540689262e+000	 1.062720713404187e+001
 3.952084075407609e+000	 2.304703117746367e+000	 1.063792043976604e+001
 3.928391273393308e+000	 2.344859697973510e+000	 1.066017044183003e+001
 3.904259642172374e+000	 2.384823189792640e+000	 1.069347322144484e+001
 3.879691376076480e+000	 2.424586526912305e+000	 1.073729879234180e+001
 3.854688818958676e+000	 2.464142672229537e+000	 1.079107216337095e+001
 3.829254463842364e+000	 2.503484621737058e+000	 1.084468183645958e+001
 4.086106431433171e+000	 2.112755128027612e+000	 1.071049707186684e+001
 4.064518119957823e+000	 2.153994534009374e+000	 1.068014323315115e+001
 4.042479808675839e+000	 2.195075624314593e+000	 1.066103764128155e+001
 4.019992951138231e+000	 2.235991205890145e+000	 1.065288609404014e+001
 3.997059151197778e+000	 2.276734095553400e+000	 1.065534637904406e+001
 3.973680163253079e+000	 2.317297123851694e+000	 1.066802890642179e+001
 3.949857892375436e+000	 2.357673138943943e+000	 1.069049745597769e+001
 3.925594394317335e+000	 2.397855010500300e+000	 1.072227003813373e+001
 3.900891875401328e+000	 2.437835633615702e+000	 1.076281986759185e+001
 3.875752692288407e+000	 2.477607932733064e+000	 1.081157644831306e+001
 3.850179351625048e+000	 2.517164865571844e+000	 1.082165830617323e+001
 4.108313531603750e+000	 2.124237492849956e+000	 1.070551482237275e+001
 4.086607892348878e+000	 2.165701026038337e+000	 1.068444226304271e+001
 4.064449807636226e+000	 2.207005383138925e+000	 1.067290470074114e+001
 4.041840738916539e+000	 2.248143332005915e+000	 1.067060476194413e+001
 4.018782298759190e+000	 2.289107650417643e+000	 1.067719820885861e+001
 3.995276251097546e+000	 2.329891129957026e+000	 1.069229459746717e+001
 3.971324511356565e+000	 2.370486579914278e+000	 1.071545804949429e+001
 3.946929146461295e+000	 2.410886831207762e+000	 1.074620813752133e+001
 3.922092374725176e+000	 2.451084740318801e+000	 1.078402088213066e+001
 3.896816565617136e+000	 2.491073193236193e+000	 1.082832985961115e+001
 3.871104239406733e+000	 2.530845109406134e+000	 1.079633963334389e+001
 4.130520631773328e+000	 2.135719857672803e+000	 1.069280135428419e+001
 4.108697664738933e+000	 2.177407518067704e+000	 1.068132039867769e+001
 4.086419806595614e+000	 2.218935141963561e+000	 1.067769375842401e+001
 4.063688526693849e+000	 2.260295458121890e+000	 1.068162063576504e+001
 4.040505446319600e+000	 2.301481205281988e+000	 1.069275448576461e+001
 4.016872338941014e+000	 2.342485136062360e+000	 1.071070369989039e+001
 3.992791130336695e+000	 2.383300020884517e+000	 1.073503240299511e+001
 3.968263898604257e+000	 2.423918651915029e+000	 1.076526136286326e+001
 3.943292874048022e+000	 2.464333847021602e+000	 1.080086901114037e+001
 3.917880438944865e+000	 2.504538453738924e+000	 1.082943873618270e+001
 3.892029127187417e+000	 2.544525353239926e+000	 1.076877600038960e+001
 4.152727731941906e+000	 2.147202222496155e+000	 1.067236687168849e+001
 4.130787437127987e+000	 2.189114010097476e+000	 1.067078360532564e+001
 4.108389805554000e+000	 2.230864900788501e+000	 1.067540621944959e+001
 4.085536314470157e+000	 2.272447584238067e+000	 1.068593023852865e+001
 4.062228593879011e+000	 2.313854760146438e+000	 1.070200652830208e+001
 4.038468426783482e+000	 2.355079142167698e+000	 1.072324200506980e+001
 4.014257749315824e+000	 2.396113461854660e+000	 1.074920045790489e+001
 3.989598650746219e+000	 2.436950472622097e+000	 1.077940348289260e+001
 3.964493373369871e+000	 2.477582953724107e+000	 1.081333152815063e+001
 3.938944312271595e+000	 2.518003714241259e+000	 1.080412299843193e+001
 3.912954014967101e+000	 2.558205597073220e+000	 1.073901805820628e+001
 4.174934832109484e+000	 2.158684587320011e+000	 1.064422055395387e+001
 4.152877209516043e+000	 2.200820502127651e+000	 1.065283693515096e+001
 4.130359804511387e+000	 2.242794659613744e+000	 1.066604269562393e+001
 4.107384102245465e+000	 2.284599710354449e+000	 1.068352942789797e+001
 4.083951741437423e+000	 2.326228315010991e+000	 1.070494512573306e+001
 4.060064514624951e+000	 2.367673148273040e+000	 1.072989491929538e+001
 4.035724368293952e+000	 2.408926902824704e+000	 1.075794192281924e+001
 4.010933402887179e+000	 2.449982293328969e+000	 1.078860819380196e+001
 3.985693872690720e+000	 2.490832060426314e+000	 1.082137580242290e+001
 3.960008185597324e+000	 2.531468974743195e+000	 1.077609268118288e+001
 3.933878902745785e+000	 2.571885840906018e+000	 1.070711691370819e+001
 4.197141932276062e+000	 2.170166952144371e+000	 1.060837058283850e+001
 4.174966981903096e+000	 2.212526994158230e+000	 1.062748455136908e+001
 4.152329803467775e+000	 2.254724418439292e+000	 1.064960302642682e+001
 4.129231890019775e+000	 2.296751836471034e+000	 1.067441341377528e+001
 4.105674888994834e+000	 2.338601869875647e+000	 1.070156055204373e+001
 4.081660602465419e+000	 2.380267154378384e+000	 1.073064747395626e+001
 4.057190987271080e+000	 2.421740343794652e+000	 1.076123627966422e+001
 4.032268155027141e+000	 2.463014114035644e+000	 1.079284912116255e+001
 4.006894372010566e+000	 2.504081167128224e+000	 1.081498600269258e+001
 3.981072058922055e+000	 2.544934235244736e+000	 1.074540640180882e+001
 3.954803790523469e+000	 2.585566084738318e+000	 1.067312411776401e+001
 4.219349032441642e+000	 2.181649316969236e+000	 1.056482416874337e+001
 4.197056754289153e+000	 2.224233486189214e+000	 1.059472975163997e+001
 4.174299802423162e+000	 2.266654177265143e+000	 1.062608629933614e+001
 4.151079677793085e+000	 2.308903962587824e+000	 1.065857677534855e+001
 4.127398036551244e+000	 2.350975424740407e+000	 1.069184257950425e+001
 4.103256690304888e+000	 2.392861160483732e+000	 1.072548433540655e+001
 4.078657606247211e+000	 2.434553784764503e+000	 1.075906278966124e+001
 4.053602907166103e+000	 2.476045934742122e+000	 1.079209982178260e+001
 4.028094871329415e+000	 2.517330273829837e+000	 1.078258383431750e+001
 4.002135932245784e+000	 2.558399495745879e+000	 1.071212303545891e+001
 3.975728678300154e+000	 2.599246328570120e+000	 1.063709165351373e+001
 3.766479800488311e+000	 2.462443890229713e+000	 1.079448691639032e+001
 3.741040281084275e+000	 2.500923352550201e+000	 1.089443799855505e+001
 3.715181384841301e+000	 2.539178465126698e+000	 1.079999066697753e+001
 3.688906000821718e+000	 2.577202459478735e+000	 1.071657821947701e+001
 3.662217162235256e+000	 2.614988615018722e+000	 1.064491548191020e+001
 3.635118045494689e+000	 2.652530262857025e+000	 1.058571662669790e+001
 3.607611969151799e+000	 2.689820789586394e+000	 1.053969402878565e+001
 3.579702392714055e+000	 2.726853641041346e+000	 1.050755708891485e+001
 3.551392915342706e+000	 2.763622326028174e+000	 1.049001102639600e+001
 3.522687274433060e+000	 2.800120420021203e+000	 1.048775564372152e+001
 3.493589344077969e+000	 2.836341568821007e+000	 1.050148406549522e+001
 3.787404688273996e+000	 2.476124134065992e+000	 1.081740620439583e+001
 3.761823838206611e+000	 2.514817371178015e+000	 1.092638792574415e+001
 3.735821281428924e+000	 2.553285012158412e+000	 1.089972384715470e+001
 3.709399923053606e+000	 2.591520250924044e+000	 1.081360842510697e+001
 3.682562813141554e+000	 2.629516329550722e+000	 1.073919586291193e+001
 3.655313145752281e+000	 2.667266542099426e+000	 1.067717425595124e+001
 3.627654257873964e+000	 2.704764238421754e+000	 1.062823013895490e+001
 3.599589628233558e+000	 2.742002827940189e+000	 1.059304733205137e+001
 3.571122875987657e+000	 2.778975783398840e+000	 1.057230575560433e+001
 3.542257759294873e+000	 2.815676644580222e+000	 1.056668021613891e+001
 3.512998173770796e+000	 2.852099021983801e+000	 1.057683916580412e+001
 3.808329576058680e+000	 2.489804377901773e+000	 1.083731828127229e+001
 3.782607395327954e+000	 2.528711389805241e+000	 1.090053258466430e+001
 3.756461178015566e+000	 2.567391559189468e+000	 1.095159835652594e+001
 3.729893845284540e+000	 2.605838042368645e+000	 1.089999583752124e+001
 3.702908464046932e+000	 2.644044044081983e+000	 1.082220541591560e+001
 3.675508246008996e+000	 2.682002821341077e+000	 1.075673074757283e+001
 3.647696546595307e+000	 2.719707687256372e+000	 1.070423295165569e+001
 3.619476863752307e+000	 2.757152014838322e+000	 1.066537070016354e+001
 3.590852836631927e+000	 2.794329240768846e+000	 1.064079905439081e+001
 3.561828244156089e+000	 2.831232869138650e+000	 1.063116827170724e+001
 3.532407003463121e+000	 2.867856475146093e+000	 1.063712258507604e+001
 3.829254463842364e+000	 2.503484621737058e+000	 1.084468183645958e+001
 3.803390952448300e+000	 2.542605408431881e+000	 1.087170042683657e+001
 3.777101074601229e+000	 2.581498106219867e+000	 1.091468000418013e+001
 3.750387767514518e+000	 2.620155833812538e+000	 1.097360425151280e+001
 3.723254114951390e+000	 2.658571758612505e+000	 1.089404454443358e+001
 3.695703346264835e+000	 2.696739100581979e+000	 1.082449653493003e+001
 3.667738835315830e+000	 2.734651136090251e+000	 1.076782285853967e+001
 3.639364099270299e+000	 2.772301201735744e+000	 1.072465746742653e+001
 3.610582797275516e+000	 2.809682698138190e+000	 1.069563099956471e+001
 3.581398729016710e+000	 2.846789093696487e+000	 1.068136960591649e+001
 3.551815833154945e+000	 2.883613928307883e+000	 1.068249374953236e+001
 3.850179351625048e+000	 2.517164865571844e+000	 1.082165830617323e+001
 3.824174509567652e+000	 2.556499427057932e+000	 1.083995204437232e+001
 3.797740971185911e+000	 2.595604653249607e+000	 1.087427274218000e+001
 3.770881689743540e+000	 2.634473625255720e+000	 1.092456253877878e+001
 3.743599765854925e+000	 2.673099473142290e+000	 1.095481325443618e+001
 3.715898446519798e+000	 2.711475379822131e+000	 1.088058142766815e+001
 3.687781124035530e+000	 2.749594584923389e+000	 1.081911940169410e+001
 3.659251334787535e+000	 2.787450388632455e+000	 1.077103683305521e+001
 3.630312757918424e+000	 2.825036155506874e+000	 1.073694036813450e+001
 3.600969213876734e+000	 2.862345318253733e+000	 1.071743249027964e+001
 3.571224662846269e+000	 2.899371381469173e+000	 1.071311033801467e+001
 3.871104239406733e+000	 2.530845109406134e+000	 1.079633963334389e+001
 3.844958066686008e+000	 2.570393445683397e+000	 1.080534830370116e+001
 3.818380867769612e+000	 2.609711200278689e+000	 1.083044857865658e+001
 3.791375611971606e+000	 2.648791416698196e+000	 1.087154118388437e+001
 3.763945416757542e+000	 2.687627187671334e+000	 1.092851239847347e+001
 3.736093546773886e+000	 2.726211659061534e+000	 1.092509462856773e+001
 3.707823412754411e+000	 2.764538033755787e+000	 1.085824129660293e+001
 3.679138570304016e+000	 2.802599575528457e+000	 1.080463695035706e+001
 3.650042718560651e+000	 2.840389612874897e+000	 1.076486467243748e+001
 3.620539698736161e+000	 2.877901542810388e+000	 1.073950371352130e+001
 3.590633492537089e+000	 2.915128834629961e+000	 1.072912832921119e+001
 3.892029127187417e+000	 2.544525353239926e+000	 1.076877600038960e+001
 3.865741623803371e+000	 2.584287464308273e+000	 1.076795033819682e+001
 3.839020764352334e+000	 2.623817747307115e+000	 1.078327957419107e+001
 3.811869534198717e+000	 2.663109208139963e+000	 1.081462314487649e+001
 3.784291067659238e+000	 2.702154902199639e+000	 1.086182589941477e+001
 3.756288647027099e+000	 2.740947938300187e+000	 1.092471878580343e+001
 3.727865701472470e+000	 2.779481482587446e+000	 1.088530645436741e+001
 3.699025805819740e+000	 2.817748762423748e+000	 1.082558495484792e+001
 3.669772679202196e+000	 2.855743070242259e+000	 1.077954019413645e+001
 3.640110183594994e+000	 2.893457767366451e+000	 1.074772862143763e+001
 3.610042322227410e+000	 2.930886287790248e+000	 1.073070204735988e+001
 3.912954014967101e+000	 2.558205597073220e+000	 1.073901805820628e+001
 3.886525180919736e+000	 2.598181482932562e+000	 1.072781954103964e+001
 3.859660660934076e+000	 2.637924294334881e+000	 1.073283784041237e+001
 3.832363456424873e+000	 2.677426999581022e+000	 1.075389122210252e+001
 3.804636718560013e+000	 2.716682616727206e+000	 1.079078322713422e+001
 3.776483747279436e+000	 2.755684217538092e+000	 1.084330341227718e+001
 3.747907990189709e+000	 2.794424931418365e+000	 1.090043200321352e+001
 3.718913041334707e+000	 2.832897949318327e+000	 1.083400699146579e+001
 3.689502639843061e+000	 2.871096527608960e+000	 1.078110201712535e+001
 3.659680668453230e+000	 2.909013991921924e+000	 1.074225115547725e+001
 3.629451151917229e+000	 2.946643740950033e+000	 1.071798420648504e+001
 3.933878902745785e+000	 2.571885840906018e+000	 1.070711691370819e+001
 3.907308738035108e+000	 2.612075501556264e+000	 1.068501755830672e+001
 3.880300557514837e+000	 2.652030841361990e+000	 1.067919553863947e+001
 3.852857378650074e+000	 2.691744791021372e+000	 1.068942806240442e+001
 3.824982369459868e+000	 2.731210331254034e+000	 1.071547747848383e+001
 3.796678847530897e+000	 2.770420496775246e+000	 1.075709207181814e+001
 3.767950278906126e+000	 2.809368380248543e+000	 1.081400687292557e+001
 3.738800276848919e+000	 2.848047136212197e+000	 1.083002824091587e+001
 3.709232600483244e+000	 2.886449984975000e+000	 1.076968405938487e+001
 3.679251153310868e+000	 2.924570216476804e+000	 1.072321389009094e+001
 3.648859981606546e+000	 2.962401194109317e+000	 1.069112595322211e+001
 3.954803790523469e+000	 2.585566084738318e+000	 1.067312411776401e+001
 3.928092295149484e+000	 2.625969520179377e+000	 1.063960628228167e+001
 3.900940454094619e+000	 2.666137388388442e+000	 1.062242487856690e+001
 3.873351300874320e+000	 2.706062582461015e+000	 1.062131616317967e+001
 3.845328020358802e+000	 2.745738045780124e+000	 1.063600140315641e+001
 3.816873947781481e+000	 2.785156776011651e+000	 1.066618772531724e+001
 3.787992567621723e+000	 2.824311829077981e+000	 1.071156898052024e+001
 3.758687512362374e+000	 2.863196323105355e+000	 1.077182662033895e+001
 3.728962561122746e+000	 2.901803442340379e+000	 1.074541910382670e+001
 3.698821638167911e+000	 2.940126441031094e+000	 1.069075806889563e+001
 3.668268811295363e+000	 2.978158647268101e+000	 1.065027690828310e+001
 3.975728678300154e+000	 2.599246328570120e+000	 1.063709165351373e+001
 3.948875852262866e+000	 2.639863538801905e+000	 1.059164784497537e+001
 3.921580350673420e+000	 2.680243935414237e+000	 1.056259811699164e+001
 3.893845223097610e+000	 2.720380373899949e+000	 1.054963787631410e+001
 3.865673671256817e+000	 2.760265760305474e+000	 1.055244741282147e+001
 3.837069048031190e+000	 2.799893055247307e+000	 1.057069280332502e+001
 3.808034856336499e+000	 2.839255277906679e+000	 1.060402683061642e+001
 3.778574747875074e+000	 2.878345509997804e+000	 1.065208991512466e+001
 3.748692521761567e+000	 2.917156899705098e+000	 1.070843882816376e+001
 3.718392123024358e+000	 2.955682665584793e+000	 1.064502363969630e+001
 3.687677640983678e+000	 2.993916100426382e+000	 1.059558520661229e+001
 3.493589344077969e+000	 2.836341568821007e+000	 1.050148406549522e+001
 3.464103133416387e+000	 2.872279492169516e+000	 1.058004818391436e+001
 3.434232784866212e+000	 2.907927987320115e+000	 1.064079420367201e+001
 3.403982572244511e+000	 2.943280932556834e+000	 1.068375955710151e+001
 3.373356898778110e+000	 2.978332290657102e+000	 1.070900140678204e+001
 3.342360295004344e+000	 3.013076112296309e+000	 1.071659602177522e+001
 3.310997416564727e+000	 3.047506539389349e+000	 1.070663810461180e+001
 3.279273041893774e+000	 3.081617808365264e+000	 1.067924007100273e+001
 3.247192069805367e+000	 3.115404253371149e+000	 1.063453128440536e+001
 3.214759516979200e+000	 3.148860309401588e+000	 1.059905148310206e+001
 3.181980515350000e+000	 3.181980515350000e+000	 1.056162018030172e+001
 3.512998173770796e+000	 2.852099021983801e+000	 1.057683916580412e+001
 3.483348150827399e+000	 2.888236600461318e+000	 1.064267771260260e+001
 3.453311855896036e+000	 2.924083142806598e+000	 1.069224766377986e+001
 3.422893586537202e+000	 2.959632493294132e+000	 1.072564922937124e+001
 3.392097770440096e+000	 2.994878581161230e+000	 1.074300130139678e+001
 3.360928963311705e+000	 3.029815424031473e+000	 1.074444075210791e+001
 3.329391846658216e+000	 3.064437131274841e+000	 1.073012168382465e+001
 3.297491225461002e+000	 3.098737907300537e+000	 1.070021463248491e+001
 3.265232025749582e+000	 3.132712054778697e+000	 1.066199283694704e+001
 3.232619292074090e+000	 3.166353977787204e+000	 1.063563251373229e+001
 3.199658184880000e+000	 3.199658184880000e+000	 1.059932970158395e+001
 3.532407003463121e+000	 2.867856475146093e+000	 1.063712258507604e+001
 3.502593168238003e+000	 2.904193708752715e+000	 1.069108874453420e+001
 3.472390926925537e+000	 2.940238298292759e+000	 1.073031787243787e+001
 3.441804600829648e+000	 2.975984054031187e+000	 1.075497269340742e+001
 3.410838642101901e+000	 3.011424871665177e+000	 1.076523358125808e+001
 3.379497631618939e+000	 3.046554735766512e+000	 1.076129777937742e+001
 3.347786276751622e+000	 3.081367723160253e+000	 1.074337857350837e+001
 3.315709409028185e+000	 3.115858006235765e+000	 1.071170441920887e+001
 3.283271981693775e+000	 3.150019856186222e+000	 1.068701649443667e+001
 3.250479067168973e+000	 3.183847646172815e+000	 1.066064190798987e+001
 3.217335854410000e+000	 3.217335854410000e+000	 1.062612750859312e+001
 3.551815833154945e+000	 2.883613928307883e+000	 1.068249374953236e+001
 3.521838185648202e+000	 2.920150817043707e+000	 1.072542585188673e+001
 3.491469997954720e+000	 2.956393453778600e+000	 1.075513476000878e+001
 3.460715615121846e+000	 2.992335614767993e+000	 1.077184545822590e+001
 3.429579513763525e+000	 3.027971162168942e+000	 1.077579956264083e+001
 3.398066299926047e+000	 3.063294047501425e+000	 1.076725446375131e+001
 3.366180706844950e+000	 3.098298315045584e+000	 1.074648242226705e+001
 3.333927592595324e+000	 3.132978105170948e+000	 1.071900801757755e+001
 3.301311937637951e+000	 3.167327657593730e+000	 1.070009410310921e+001
 3.268338842263852e+000	 3.201341314558420e+000	 1.067438317990632e+001
 3.235013523940000e+000	 3.235013523940000e+000	 1.064230452100888e+001
 3.571224662846269e+000	 2.899371381469173e+000	 1.071311033801467e+001
 3.541083203057994e+000	 2.936107925334290e+000	 1.074583216721742e+001
 3.510549068983579e+000	 2.972548609264119e+000	 1.076682711929004e+001
 3.479626629413799e+000	 3.008687175504554e+000	 1.077638219147497e+001
 3.448320385424970e+000	 3.044517452672527e+000	 1.077480001064259e+001
 3.416634968233030e+000	 3.080033359236212e+000	 1.076239789825676e+001
 3.384575136938196e+000	 3.115228906930835e+000	 1.073950688930558e+001
 3.352145776162416e+000	 3.150098204106086e+000	 1.072081481241763e+001
 3.319351893582105e+000	 3.184635459001217e+000	 1.070154244841117e+001
 3.286198617358726e+000	 3.218834982944022e+000	 1.067716064819890e+001
 3.252691193470001e+000	 3.252691193470001e+000	 1.064815271441067e+001
 3.590633492537089e+000	 2.915128834629961e+000	 1.072912832921119e+001
 3.560328220467381e+000	 2.952065033624467e+000	 1.075244942237185e+001
 3.529628140012117e+000	 2.988703764749316e+000	 1.076552263625889e+001
 3.498537643705507e+000	 3.025038736240869e+000	 1.076869674217485e+001
 3.467061257086231e+000	 3.061063743175931e+000	 1.076233515408011e+001
 3.435203636539888e+000	 3.096772670970874e+000	 1.074681491600058e+001
 3.402969567031362e+000	 3.132159498816006e+000	 1.072562590766731e+001
 3.370363959729464e+000	 3.167218303041179e+000	 1.071062620365051e+001
 3.337391849526239e+000	 3.201943260408684e+000	 1.069167884766108e+001
 3.304058392453595e+000	 3.236328651329618e+000	 1.066927941452196e+001
 3.270368862999999e+000	 3.270368862999999e+000	 1.064396509173963e+001
 3.610042322227410e+000	 2.930886287790248e+000	 1.073070204735988e+001
 3.579573237876362e+000	 2.968022141914240e+000	 1.074541798613743e+001
 3.548707211040334e+000	 3.004858920234193e+000	 1.075134791982558e+001
 3.517448657996968e+000	 3.041390296976939e+000	 1.074890216272388e+001
 3.485802128747313e+000	 3.077610033679155e+000	 1.073850469990579e+001
 3.453772304846619e+000	 3.113511982705410e+000	 1.072059209715626e+001
 3.421363997124447e+000	 3.149090090701097e+000	 1.070434859237929e+001
 3.388582143296466e+000	 3.184338401976226e+000	 1.068877210123816e+001
 3.355431805470353e+000	 3.219251061816130e+000	 1.067082113575197e+001
 3.321918167548458e+000	 3.253822319715209e+000	 1.065104534242060e+001
 3.288046532530000e+000	 3.288046532530000e+000	 1.063003565568156e+001
 3.629451151917229e+000	 2.946643740950033e+000	 1.071798420648504e+001
 3.598818255284934e+000	 2.983979250203605e+000	 1.072487690068881e+001
 3.567786282068231e+000	 3.021014075718749e+000	 1.072442853063192e+001
 3.536359672288182e+000	 3.057741857712761e+000	 1.071711073019851e+001
 3.504543000408214e+000	 3.094156324182197e+000	 1.070340784716094e+001
 3.472340973153226e+000	 3.130251294439821e+000	 1.068511797075530e+001
 3.439758427217453e+000	 3.166020682586106e+000	 1.067104655569589e+001
 3.406800326863423e+000	 3.201458500911228e+000	 1.065558267492132e+001
 3.373471761414447e+000	 3.236558863223557e+000	 1.063928765131231e+001
 3.339777942643317e+000	 3.271315988100795e+000	 1.062276503695905e+001
 3.305724202060000e+000	 3.305724202060000e+000	 1.060665938193566e+001
 3.648859981606546e+000	 2.962401194109317e+000	 1.069112595322211e+001
 3.618063272693102e+000	 2.999936358492565e+000	 1.069096391687022e+001
 3.586865353095806e+000	 3.037169231202983e+000	 1.068488900893076e+001
 3.555270686579151e+000	 3.074093418448338e+000	 1.067343396697372e+001
 3.523283872068935e+000	 3.110702614685059e+000	 1.065714330048431e+001
 3.490909641459706e+000	 3.146990606174107e+000	 1.064080262184995e+001
 3.458152857310378e+000	 3.182951274471036e+000	 1.062606189889974e+001
 3.425018510430335e+000	 3.218578599846186e+000	 1.061138834731026e+001
 3.391511717358521e+000	 3.253866664630963e+000	 1.059739722330894e+001
 3.357637717738171e+000	 3.288809656486376e+000	 1.058474582499949e+001
 3.323401871590000e+000	 3.323401871590000e+000	 1.057413219333655e+001
 3.668268811295363e+000	 2.978158647268101e+000	 1.065027690828310e+001
 3.637308290100862e+000	 3.015893466781117e+000	 1.064381552835751e+001
 3.605944424123060e+000	 3.053324386686897e+000	 1.063285290158045e+001
 3.574181700869874e+000	 3.090444979183670e+000	 1.061798266068848e+001
 3.542024743729474e+000	 3.127248905187740e+000	 1.060003666494858e+001
 3.509478309766062e+000	 3.163729917908265e+000	 1.058445099250723e+001
 3.476547287403223e+000	 3.199881866355886e+000	 1.056973673253076e+001
 3.443236693997202e+000	 3.235698698781097e+000	 1.055651978719533e+001
 3.409551673302576e+000	 3.271174466038349e+000	 1.054546915807506e+001
 3.375497492833020e+000	 3.306303324871952e+000	 1.053729573610685e+001
 3.341079541120000e+000	 3.341079541120000e+000	 1.053275093479773e+001
 3.687677640983678e+000	 2.993916100426382e+000	 1.059558520661229e+001
 3.656553307508218e+000	 3.031850575069264e+000	 1.058356700474161e+001
 3.625023495149993e+000	 3.069479542170489e+000	 1.056844278818674e+001
 3.593092715160352e+000	 3.106796539918756e+000	 1.055086688358101e+001
 3.560765615389834e+000	 3.143795195690242e+000	 1.053263829973126e+001
 3.528046978072291e+000	 3.180469229642300e+000	 1.051641648080610e+001
 3.494941717495988e+000	 3.216812458240655e+000	 1.050241317614261e+001
 3.461454877564024e+000	 3.252818797715964e+000	 1.049130790306835e+001
 3.427591629246610e+000	 3.288482267445716e+000	 1.048382322674799e+001
 3.393357267927864e+000	 3.323796993257524e+000	 1.048072348405664e+001
 3.358757210650000e+000	 3.358757210650000e+000	 1.048281334904646e+001
 3.181980515350000e+000	 3.181980515350000e+000	 1.056162018030172e+001
 3.148860309401589e+000	 3.214759516979199e+000	 1.055723980468326e+001
 3.115404253371151e+000	 3.247192069805366e+000	 1.055988073521333e+001
 3.081617808365265e+000	 3.279273041893772e+000	 1.058120396754731e+001
 3.047506539389349e+000	 3.310997416564726e+000	 1.058825783330437e+001
 3.013076112296310e+000	 3.342360295004343e+000	 1.058322309160922e+001
 2.978332290657104e+000	 3.373356898778109e+000	 1.056825614198763e+001
 2.943280932556835e+000	 3.403982572244510e+000	 1.054548442283708e+001
 2.907927987320116e+000	 3.434232784866211e+000	 1.051700190976683e+001
 2.872279492169517e+000	 3.464103133416387e+000	 1.048486472486085e+001
 2.836341568821007e+000	 3.493589344077969e+000	 1.045108686752385e+001
 3.199658184880000e+000	 3.199658184880000e+000	 1.059932970158395e+001
 3.166353977787205e+000	 3.232619292074087e+000	 1.059551947452810e+001
 3.132712054778697e+000	 3.265232025749580e+000	 1.058698293553207e+001
 3.098737907300539e+000	 3.297491225461001e+000	 1.059672439192092e+001
 3.064437131274842e+000	 3.329391846658214e+000	 1.060097219561091e+001
 3.029815424031474e+000	 3.360928963311703e+000	 1.059407196350576e+001
 2.994878581161231e+000	 3.392097770440095e+000	 1.057822829443717e+001
 2.959632493294134e+000	 3.422893586537201e+000	 1.055561537595540e+001
 2.924083142806599e+000	 3.453311855896036e+000	 1.052837239713233e+001
 2.888236600461320e+000	 3.483348150827398e+000	 1.049859907542863e+001
 2.852099021983801e+000	 3.512998173770796e+000	 1.046835130847589e+001
 3.217335854410000e+000	 3.217335854410000e+000	 1.062612750859312e+001
 3.183847646172816e+000	 3.250479067168972e+000	 1.062281752369046e+001
 3.150019856186225e+000	 3.283271981693775e+000	 1.061532834296006e+001
 3.115858006235767e+000	 3.315709409028185e+000	 1.060968761305266e+001
 3.081367723160254e+000	 3.347786276751620e+000	 1.061084957766544e+001
 3.046554735766512e+000	 3.379497631618937e+000	 1.060180900789474e+001
 3.011424871665178e+000	 3.410838642101900e+000	 1.058481945436061e+001
 2.975984054031187e+000	 3.441804600829646e+000	 1.056210259352511e+001
 2.940238298292760e+000	 3.472390926925536e+000	 1.053584355378878e+001
 2.904193708752717e+000	 3.502593168238003e+000	 1.050818635882452e+001
 2.867856475146093e+000	 3.532407003463121e+000	 1.048122949919184e+001
 3.235013523940000e+000	 3.235013523940000e+000	 1.064230452100888e+001
 3.201341314558423e+000	 3.268338842263850e+000	 1.063942387354908e+001
 3.167327657593731e+000	 3.301311937637950e+000	 1.063289511259867e+001
 3.132978105170949e+000	 3.333927592595322e+000	 1.062305203976443e+001
 3.098298315045586e+000	 3.366180706844949e+000	 1.061770639039233e+001
 3.063294047501426e+000	 3.398066299926045e+000	 1.060624777384378e+001
 3.027971162168944e+000	 3.429579513763525e+000	 1.058784047810937e+001
 2.992335614767995e+000	 3.460715615121845e+000	 1.056475441286789e+001
 2.956393453778601e+000	 3.491469997954718e+000	 1.053922137609448e+001
 2.920150817043707e+000	 3.521838185648202e+000	 1.051343041271690e+001
 2.883613928307883e+000	 3.551815833154945e+000	 1.048952330495231e+001
 3.252691193470001e+000	 3.252691193470001e+000	 1.064815271441067e+001
 3.218834982944023e+000	 3.286198617358724e+000	 1.064562949655175e+001
 3.184635459001219e+000	 3.319351893582104e+000	 1.063997311043698e+001
 3.150098204106087e+000	 3.352145776162415e+000	 1.063153106640087e+001
 3.115228906930837e+000	 3.384575136938195e+000	 1.062136007104892e+001
 3.080033359236213e+000	 3.416634968233030e+000	 1.060720282510921e+001
 3.044517452672528e+000	 3.448320385424968e+000	 1.058710322339003e+001
 3.008687175504556e+000	 3.479626629413798e+000	 1.056338015764592e+001
 2.972548609264120e+000	 3.510549068983577e+000	 1.053831283006132e+001
 2.936107925334291e+000	 3.541083203057994e+000	 1.051413602607890e+001
 2.899371381469173e+000	 3.571224662846268e+000	 1.049303552234257e+001
 3.270368862999999e+000	 3.270368862999999e+000	 1.064396509173963e+001
 3.236328651329619e+000	 3.304058392453593e+000	 1.064172638780796e+001
 3.201943260408684e+000	 3.337391849526239e+000	 1.063685321876205e+001
 3.167218303041179e+000	 3.370363959729463e+000	 1.062970707353297e+001
 3.132159498816007e+000	 3.402969567031361e+000	 1.062068617784478e+001
 3.096772670970876e+000	 3.435203636539887e+000	 1.060448971271199e+001
 3.061063743175933e+000	 3.467061257086230e+000	 1.058242052220073e+001
 3.025038736240870e+000	 3.498537643705504e+000	 1.055779011120404e+001
 2.988703764749318e+000	 3.529628140012117e+000	 1.053292582514809e+001
 2.952065033624470e+000	 3.560328220467380e+000	 1.051010891347742e+001
 2.915128834629961e+000	 3.590633492537090e+000	 1.049156985408227e+001
 3.288046532530000e+000	 3.288046532530000e+000	 1.063003565568156e+001
 3.253822319715210e+000	 3.321918167548457e+000	 1.062800753759806e+001
 3.219251061816132e+000	 3.355431805470353e+000	 1.062382730883906e+001
 3.184338401976227e+000	 3.388582143296466e+000	 1.061787070857823e+001
 3.149090090701097e+000	 3.421363997124447e+000	 1.061055091250388e+001
 3.113511982705412e+000	 3.453772304846618e+000	 1.059792494839838e+001
 3.077610033679156e+000	 3.485802128747312e+000	 1.057360615464046e+001
 3.041390296976939e+000	 3.517448657996966e+000	 1.054779549077191e+001
 3.004858920234195e+000	 3.548707211040334e+000	 1.052286918889895e+001
 2.968022141914241e+000	 3.579573237876359e+000	 1.050115569019161e+001
 2.930886287790248e+000	 3.610042322227410e+000	 1.048493088466691e+001
 3.305724202060000e+000	 3.305724202060000e+000	 1.060665938193566e+001
 3.271315988100795e+000	 3.339777942643316e+000	 1.060476690476437e+001
 3.236558863223558e+000	 3.373471761414446e+000	 1.060118821446808e+001
 3.201458500911230e+000	 3.406800326863422e+000	 1.059631357388948e+001
 3.166020682586108e+000	 3.439758427217452e+000	 1.059057140721268e+001
 3.130251294439822e+000	 3.472340973153225e+000	 1.058442674081508e+001
 3.094156324182199e+000	 3.504543000408213e+000	 1.056047482355885e+001
 3.057741857712763e+000	 3.536359672288181e+000	 1.053320842249367e+001
 3.021014075718751e+000	 3.567786282068230e+000	 1.050795264239563e+001
 2.983979250203606e+000	 3.598818255284933e+000	 1.048708384812969e+001
 2.946643740950033e+000	 3.629451151917229e+000	 1.047292405679099e+001
 3.323401871590000e+000	 3.323401871590000e+000	 1.057413219333655e+001
 3.288809656486377e+000	 3.357637717738170e+000	 1.057229939095159e+001
 3.253866664630964e+000	 3.391511717358519e+000	 1.056922970638467e+001
 3.218578599846186e+000	 3.425018510430334e+000	 1.056532820135773e+001
 3.182951274471038e+000	 3.458152857310378e+000	 1.056103884901398e+001
 3.146990606174108e+000	 3.490909641459706e+000	 1.055684293988435e+001
 3.110702614685061e+000	 3.523283872068934e+000	 1.054284213001492e+001
 3.074093418448340e+000	 3.555270686579150e+000	 1.051384191725486e+001
 3.037169231202985e+000	 3.586865353095806e+000	 1.048798677649333e+001
 2.999936358492565e+000	 3.618063272693100e+000	 1.046770173251428e+001
 2.962401194109317e+000	 3.648859981606546e+000	 1.045535564852355e+001
 3.341079541120000e+000	 3.341079541120000e+000	 1.053275093479773e+001
 3.306303324871953e+000	 3.375497492833018e+000	 1.053090081566491e+001
 3.271174466038349e+000	 3.409551673302574e+000	 1.052824646747341e+001
 3.235698698781098e+000	 3.443236693997201e+000	 1.052520802782119e+001
 3.199881866355887e+000	 3.476547287403222e+000	 1.052224532121018e+001
 3.163729917908267e+000	 3.509478309766060e+000	 1.051985622960401e+001
 3.127248905187742e+000	 3.542024743729473e+000	 1.051857492338720e+001
 3.090444979183671e+000	 3.574181700869873e+000	 1.048950984727645e+001
 3.053324386686898e+000	 3.605944424123059e+000	 1.046278302881057e+001
 3.015893466781118e+000	 3.637308290100862e+000	 1.044281851930800e+001
 2.978158647268101e+000	 3.668268811295363e+000	 1.043203275120835e+001
 3.358757210650000e+000	 3.358757210650000e+000	 1.048281334904646e+001
 3.323796993257525e+000	 3.393357267927863e+000	 1.048086789211578e+001
 3.288482267445717e+000	 3.427591629246607e+000	 1.047853406876370e+001
 3.252818797715966e+000	 3.461454877564024e+000	 1.047624737125089e+001
 3.216812458240656e+000	 3.494941717495987e+000	 1.047448377977733e+001
 3.180469229642302e+000	 3.528046978072290e+000	 1.047375809710579e+001
 3.143795195690242e+000	 3.560765615389833e+000	 1.047462214100031e+001
 3.106796539918757e+000	 3.593092715160351e+000	 1.046002692344817e+001
 3.069479542170491e+000	 3.625023495149992e+000	 1.043215366144616e+001
 3.031850575069266e+000	 3.656553307508217e+000	 1.041224419335186e+001
 2.993916100426382e+000	 3.687677640983678e+000	 1.040276324806182e+001
 2.836341568821007e+000	 3.493589344077969e+000	 1.045108686752385e+001
 2.800120420021204e+000	 3.522687274433059e+000	 1.032428838856759e+001
 2.763622326028175e+000	 3.551392915342705e+000	 1.022287937593897e+001
 2.726853641041347e+000	 3.579702392714053e+000	 1.014901760552597e+001
 2.689820789586396e+000	 3.607611969151798e+000	 1.010478091943224e+001
 2.652530262857026e+000	 3.635118045494689e+000	 1.009216351754352e+001
 2.614988615018723e+000	 3.662217162235255e+000	 1.011307245490147e+001
 2.577202459478736e+000	 3.688906000821717e+000	 1.016932435203039e+001
 2.539178465126700e+000	 3.715181384841300e+000	 1.026264232468999e+001
 2.500923352550203e+000	 3.741040281084274e+000	 1.039465313883790e+001
 2.462443890229713e+000	 3.766479800488312e+000	 1.043356681235313e+001
 2.852099021983801e+000	 3.512998173770796e+000	 1.046835130847589e+001
 2.815676644580223e+000	 3.542257759294872e+000	 1.035275600750712e+001
 2.778975783398841e+000	 3.571122875987657e+000	 1.026426517823134e+001
 2.742002827940190e+000	 3.599589628233557e+000	 1.020509704147227e+001
 2.704764238421754e+000	 3.627654257873962e+000	 1.017738727259071e+001
 2.667266542099427e+000	 3.655313145752280e+000	 1.018318521049068e+001
 2.629516329550723e+000	 3.682562813141553e+000	 1.022445027769019e+001
 2.591520250924045e+000	 3.709399923053605e+000	 1.030304861874328e+001
 2.553285012158413e+000	 3.735821281428923e+000	 1.042074996361187e+001
 2.514817371178017e+000	 3.761823838206612e+000	 1.044321638856816e+001
 2.476124134065992e+000	 3.787404688273996e+000	 1.036510611427815e+001
 2.867856475146093e+000	 3.532407003463121e+000	 1.048122949919184e+001
 2.831232869138651e+000	 3.561828244156089e+000	 1.037702906476368e+001
 2.794329240768847e+000	 3.590852836631926e+000	 1.030165264259786e+001
 2.757152014838323e+000	 3.619476863752306e+000	 1.025737934886966e+001
 2.719707687256372e+000	 3.647696546595306e+000	 1.024640312656099e+001
 2.682002821341079e+000	 3.675508246008994e+000	 1.027082887115454e+001
 2.644044044081985e+000	 3.702908464046931e+000	 1.033266877269043e+001
 2.605838042368646e+000	 3.729893845284539e+000	 1.043383888161419e+001
 2.567391559189470e+000	 3.756461178015565e+000	 1.050808078172109e+001
 2.528711389805244e+000	 3.782607395327953e+000	 1.039204965510682e+001
 2.489804377901773e+000	 3.808329576058680e+000	 1.030164690262468e+001
 2.883613928307883e+000	 3.551815833154945e+000	 1.048952330495231e+001
 2.846789093696489e+000	 3.581398729016709e+000	 1.039690073123282e+001
 2.809682698138191e+000	 3.610582797275515e+000	 1.033482652713499e+001
 2.772301201735746e+000	 3.639364099270299e+000	 1.030564116116881e+001
 2.734651136090252e+000	 3.667738835315828e+000	 1.031159728460106e+001
 2.696739100581981e+000	 3.695703346264835e+000	 1.035485577307884e+001
 2.658571758612507e+000	 3.723254114951389e+000	 1.043748198995450e+001
 2.620155833812538e+000	 3.750387767514516e+000	 1.055771444443045e+001
 2.581498106219867e+000	 3.777101074601226e+000	 1.044792238562076e+001
 2.542605408431882e+000	 3.803390952448300e+000	 1.034565378870727e+001
 2.503484621737058e+000	 3.829254463842364e+000	 1.025000527830045e+001
 2.899371381469173e+000	 3.571224662846268e+000	 1.049303552234257e+001
 2.862345318253735e+000	 3.600969213876733e+000	 1.041216523773979e+001
 2.825036155506875e+000	 3.630312757918423e+000	 1.036357277495979e+001
 2.787450388632458e+000	 3.659251334787534e+000	 1.034966041834421e+001
 2.749594584923391e+000	 3.687781124035530e+000	 1.037273997435731e+001
 2.711475379822133e+000	 3.715898446519798e+000	 1.043502872837321e+001
 2.673099473142290e+000	 3.743599765854925e+000	 1.053864562854502e+001
 2.634473625255722e+000	 3.770881689743538e+000	 1.048862392260595e+001
 2.595604653249608e+000	 3.797740971185909e+000	 1.039204405217785e+001
 2.556499427057933e+000	 3.824174509567651e+000	 1.030389539457641e+001
 2.517164865571844e+000	 3.850179351625048e+000	 1.022325853944883e+001
 2.915128834629961e+000	 3.590633492537090e+000	 1.049156985408227e+001
 2.877901542810389e+000	 3.620539698736160e+000	 1.042261784639291e+001
 2.840389612874899e+000	 3.650042718560650e+000	 1.038767848218238e+001
 2.802599575528459e+000	 3.679138570304014e+000	 1.038921633158283e+001
 2.764538033755789e+000	 3.707823412754410e+000	 1.042960280936768e+001
 2.726211659061536e+000	 3.736093546773886e+000	 1.051111204613041e+001
 2.687627187671335e+000	 3.763945416757541e+000	 1.051659044077938e+001
 2.648791416698197e+000	 3.791375611971605e+000	 1.042331632550218e+001
 2.609711200278691e+000	 3.818380867769611e+000	 1.034031619329016e+001
 2.570393445683398e+000	 3.844958066686007e+000	 1.026664298253887e+001
 2.530845109406134e+000	 3.871104239406732e+000	 1.020136073159630e+001
 2.930886287790248e+000	 3.610042322227410e+000	 1.048493088466691e+001
 2.893457767366452e+000	 3.640110183594993e+000	 1.042805482286084e+001
 2.855743070242261e+000	 3.669772679202195e+000	 1.040693186691147e+001
 2.817748762423749e+000	 3.699025805819737e+000	 1.042408934911152e+001
 2.779481482587447e+000	 3.727865701472470e+000	 1.048195875180637e+001
 2.740947938300189e+000	 3.756288647027098e+000	 1.053426982162933e+001
 2.702154902199641e+000	 3.784291067659237e+000	 1.044189489548075e+001
 2.663109208139964e+000	 3.811869534198716e+000	 1.036166578866896e+001
 2.623817747307116e+000	 3.839020764352334e+000	 1.029261098054367e+001
 2.584287464308274e+000	 3.865741623803368e+000	 1.023376691583753e+001
 2.544525353239926e+000	 3.892029127187417e+000	 1.018418056358148e+001
 2.946643740950033e+000	 3.629451151917229e+000	 1.047292405679099e+001
 2.909013991921924e+000	 3.659680668453228e+000	 1.042827340953942e+001
 2.871096527608962e+000	 3.689502639843060e+000	 1.042112223925441e+001
 2.832897949318329e+000	 3.718913041334706e+000	 1.045406112312137e+001
 2.794424931418366e+000	 3.747907990189708e+000	 1.052958207642412e+001
 2.755684217538093e+000	 3.776483747279434e+000	 1.045021777126134e+001
 2.716682616727208e+000	 3.804636718560011e+000	 1.037035724446439e+001
 2.677426999581023e+000	 3.832363456424872e+000	 1.030354806551675e+001
 2.637924294334883e+000	 3.859660660934074e+000	 1.024880229816191e+001
 2.598181482932563e+000	 3.886525180919735e+000	 1.020513936157692e+001
 2.558205597073221e+000	 3.912954014967101e+000	 1.017158863574285e+001
 2.962401194109317e+000	 3.648859981606546e+000	 1.045535564852355e+001
 2.924570216476806e+000	 3.679251153310866e+000	 1.042307179957494e+001
 2.886449984975001e+000	 3.709232600483242e+000	 1.043003997227469e+001
 2.848047136212198e+000	 3.738800276848918e+000	 1.047891447774709e+001
 2.809368380248544e+000	 3.767950278906126e+000	 1.045073732064478e+001
 2.770420496775247e+000	 3.796678847530895e+000	 1.036881937090748e+001
 2.731210331254036e+000	 3.824982369459867e+000	 1.030185674318570e+001
 2.691744791021374e+000	 3.852857378650074e+000	 1.024884048428847e+001
 2.652030841361992e+000	 3.880300557514837e+000	 1.020876569745718e+001
 2.612075501556264e+000	 3.907308738035107e+000	 1.018063424274816e+001
 2.571885840906018e+000	 3.933878902745785e+000	 1.016345738961296e+001
 2.978158647268101e+000	 3.668268811295363e+000	 1.043203275120835e+001
 2.940126441031095e+000	 3.698821638167910e+000	 1.041224911171196e+001
 2.901803442340381e+000	 3.728962561122744e+000	 1.043347647387139e+001
 2.863196323105357e+000	 3.758687512362374e+000	 1.044592074686538e+001
 2.824311829077982e+000	 3.787992567621723e+000	 1.035949736612656e+001
 2.785156776011652e+000	 3.816873947781480e+000	 1.028995729868564e+001
 2.745738045780125e+000	 3.845328020358801e+000	 1.023627408712104e+001
 2.706062582461016e+000	 3.873351300874318e+000	 1.019742190639723e+001
 2.666137388388443e+000	 3.900940454094618e+000	 1.017237835272763e+001
 2.625969520179379e+000	 3.928092295149483e+000	 1.016012719177693e+001
 2.585566084738318e+000	 3.954803790523470e+000	 1.015966105920952e+001
 2.993916100426382e+000	 3.687677640983678e+000	 1.040276324806182e+001
 2.955682665584793e+000	 3.718392123024356e+000	 1.039560536593542e+001
 2.917156899705098e+000	 3.748692521761566e+000	 1.043122415954665e+001
 2.878345509997806e+000	 3.778574747875073e+000	 1.034485329395697e+001
 2.839255277906680e+000	 3.808034856336499e+000	 1.027028844272052e+001
 2.799893055247309e+000	 3.837069048031190e+000	 1.021351554093038e+001
 2.760265760305475e+000	 3.865673671256816e+000	 1.017349137387251e+001
 2.720380373899951e+000	 3.893845223097609e+000	 1.014917268607975e+001
 2.680243935414238e+000	 3.921580350673420e+000	 1.013951901854714e+001
 2.639863538801907e+000	 3.948875852262866e+000	 1.014349550553837e+001
 2.599246328570120e+000	 3.975728678300154e+000	 1.016007562386482e+001
 2.462443890229713e+000	 3.766479800488312e+000	 1.043356681235313e+001
 2.423746890716576e+000	 3.791497198963489e+000	 1.028962242127632e+001
 2.384839206800335e+000	 3.816089878095935e+000	 1.016610127992517e+001
 2.345727727668478e+000	 3.840255385731489e+000	 1.006209145210072e+001
 2.306419375061633e+000	 3.863991416440919e+000	 9.976717479083519e+000
 2.266921099430404e+000	 3.887295811865205e+000	 9.909142354929166e+000
 2.227239876097467e+000	 3.910166560942134e+000	 9.858569357194684e+000
 2.187382701429101e+000	 3.932601800014995e+000	 9.824243730258500e+000
 2.147356589020303e+000	 3.954599812824289e+000	 9.805454218907224e+000
 2.107168565897561e+000	 3.976159030383603e+000	 9.801534450371532e+000
 2.066825668743274e+000	 3.997278030740858e+000	 9.811864163501129e+000
 2.476124134065992e+000	 3.787404688273996e+000	 1.036510611427815e+001
 2.437212151221294e+000	 3.812561072296217e+000	 1.024322686985369e+001
 2.398088313504623e+000	 3.837290377423782e+000	 1.013891425035502e+001
 2.358759548376729e+000	 3.861590137879450e+000	 1.005120683762653e+001
 2.319232816032356e+000	 3.885458035426049e+000	 9.979183564367718e+000
 2.279515105535722e+000	 3.908891899713674e+000	 9.921965728034367e+000
 2.239613430961296e+000	 3.931889708507546e+000	 9.878718853419871e+000
 2.199534827544057e+000	 3.954449587797303e+000	 9.848654401075617e+000
 2.159286347843420e+000	 3.976569811788677e+000	 9.831031319255921e+000
 2.118875057924909e+000	 3.998248802778657e+000	 9.825157437599252e+000
 2.078308033563603e+000	 4.019485130915437e+000	 9.830390701281244e+000
 2.489804377901773e+000	 3.808329576058680e+000	 1.030164690262468e+001
 2.450677411725615e+000	 3.833624945627947e+000	 1.020139851734771e+001
 2.411337420208613e+000	 3.858490876750630e+000	 1.011587700342609e+001
 2.371791369084784e+000	 3.882924890026411e+000	 1.004407114681895e+001
 2.332046257002982e+000	 3.906924654410177e+000	 9.985013960753454e+000
 2.292109111641044e+000	 3.930487987561142e+000	 9.937784738786949e+000
 2.251986985825228e+000	 3.953612856071956e+000	 9.901510949772993e+000
 2.211686953659217e+000	 3.976297375578613e+000	 9.875369971884844e+000
 2.171216106666841e+000	 3.998539810752064e+000	 9.858590663393931e+000
 2.130581549952660e+000	 4.020338575172712e+000	 9.850454768443649e+000
 2.089790398384435e+000	 4.041692231089016e+000	 9.850298156598969e+000
 2.503484621737058e+000	 3.829254463842364e+000	 1.025000527830045e+001
 2.464142672229539e+000	 3.854688818958676e+000	 1.016415475253195e+001
 2.424586526912307e+000	 3.879691376076478e+000	 1.009701645782804e+001
 2.384823189792640e+000	 3.904259642172372e+000	 1.004072024649221e+001
 2.344859697973512e+000	 3.928391273393306e+000	 9.994252896812562e+000
 2.304703117746368e+000	 3.952084075407610e+000	 9.956651387036786e+000
 2.264360540689263e+000	 3.975336003635367e+000	 9.927004823254203e+000
 2.223839079774579e+000	 3.998145163358922e+000	 9.904456199526358e+000
 2.183145865490566e+000	 4.020509809714451e+000	 9.888203987974924e+000
 2.142288041980816e+000	 4.042428347565767e+000	 9.877503557095253e+000
 2.101272763205771e+000	 4.063899331261593e+000	 9.871668417120135e+000
 2.517164865571844e+000	 3.850179351625048e+000	 1.022325853944883e+001
 2.477607932733066e+000	 3.875752692288406e+000	 1.013151484274972e+001
 2.437835633615703e+000	 3.900891875401327e+000	 1.008236124682406e+001
 2.397855010500301e+000	 3.925594394317333e+000	 1.004119156414242e+001
 2.357673138943945e+000	 3.949857892375436e+000	 1.000694601804829e+001
 2.317297123851696e+000	 3.973680163253078e+000	 9.978618955985620e+000
 2.276734095553402e+000	 3.997059151197778e+000	 9.955260810830128e+000
 2.235991205890147e+000	 4.019992951138230e+000	 9.935979887632321e+000
 2.195075624314594e+000	 4.042479808675839e+000	 9.919943973491247e+000
 2.153994534009375e+000	 4.064518119957822e+000	 9.906381768854701e+000
 2.112755128027612e+000	 4.086106431433171e+000	 9.894584139114446e+000
 2.530845109406134e+000	 3.871104239406732e+000	 1.020136073159630e+001
 2.491073193236195e+000	 3.896816565617135e+000	 1.010349988314183e+001
 2.451084740318802e+000	 3.922092374725174e+000	 1.007194167191103e+001
 2.410886831207764e+000	 3.946929146461295e+000	 1.004552404576708e+001
 2.370486579914279e+000	 3.971324511356564e+000	 1.002314034859990e+001
 2.329891129957027e+000	 3.995276251097546e+000	 1.000374197750183e+001
 2.289107650417644e+000	 4.018782298759190e+000	 9.986340378083396e+000
 2.248143332005917e+000	 4.041840738916538e+000	 9.970008858335234e+000
 2.207005383138926e+000	 4.064449807636225e+000	 9.953884218764744e+000
 2.165701026038339e+000	 4.086607892348876e+000	 9.937168197129893e+000
 2.124237492849956e+000	 4.108313531603750e+000	 9.919128726682343e+000
 2.544525353239926e+000	 3.892029127187417e+000	 1.018418056358148e+001
 2.504538453738926e+000	 3.917880438944866e+000	 1.008896985072593e+001
 2.464333847021603e+000	 3.943292874048022e+000	 1.006578965797452e+001
 2.423918651915030e+000	 3.968263898604255e+000	 1.005375811504507e+001
 2.383300020884518e+000	 3.992791130336693e+000	 1.004288425418251e+001
 2.342485136062361e+000	 4.016872338941013e+000	 1.003207619855413e+001
 2.301481205281990e+000	 4.040505446319600e+000	 1.002030608887350e+001
 2.260295458121891e+000	 4.063688526693848e+000	 1.000661192488887e+001
 2.218935141963562e+000	 4.086419806595612e+000	 9.990099216260459e+000
 2.177407518067706e+000	 4.108697664738932e+000	 9.969942441174934e+000
 2.135719857672804e+000	 4.130520631773328e+000	 9.945386311652079e+000
 2.558205597073221e+000	 3.912954014967101e+000	 1.017158863574285e+001
 2.518003714241260e+000	 3.938944312271593e+000	 1.009617668098830e+001
 2.477582953724108e+000	 3.964493373369870e+000	 1.006393870988269e+001
 2.436950472622099e+000	 3.989598650746217e+000	 1.006593563382651e+001
 2.396113461854660e+000	 4.014257749315822e+000	 1.006622740621608e+001
 2.355079142167700e+000	 4.038468426783482e+000	 1.006367854872229e+001
 2.313854760146439e+000	 4.062228593879011e+000	 1.005722157597113e+001
 2.272447584238069e+000	 4.085536314470156e+000	 1.004585886516771e+001
 2.230864900788501e+000	 4.108389805553999e+000	 1.002866432819250e+001
 2.189114010097477e+000	 4.130787437127987e+000	 1.000478488454350e+001
 2.147202222496156e+000	 4.152727731941907e+000	 9.973441734121749e+000
 2.571885840906018e+000	 3.933878902745785e+000	 1.016345738961296e+001
 2.531468974743198e+000	 3.960008185597324e+000	 1.010749493436184e+001
 2.490832060426316e+000	 3.985693872690718e+000	 1.006642387046546e+001
 2.449982293328970e+000	 4.010933402887178e+000	 1.008209986388349e+001
 2.408926902824705e+000	 4.035724368293952e+000	 1.009322074709923e+001
 2.367673148273041e+000	 4.060064514624949e+000	 1.009860710874464e+001
 2.326228315010992e+000	 4.083951741437421e+000	 1.009715151262962e+001
 2.284599710354450e+000	 4.107384102245465e+000	 1.008782039601211e+001
 2.242794659613746e+000	 4.130359804511387e+000	 1.006965576339236e+001
 2.200820502127653e+000	 4.152877209516041e+000	 1.004177667422983e+001
 2.158684587320011e+000	 4.174934832109484e+000	 1.000338052362228e+001
 2.585566084738318e+000	 3.954803790523470e+000	 1.015966105920952e+001
 2.544934235244737e+000	 3.981072058922053e+000	 1.012280830059436e+001
 2.504081167128226e+000	 4.006894372010565e+000	 1.008094001480679e+001
 2.463014114035645e+000	 4.032268155027139e+000	 1.010229542987507e+001
 2.421740343794653e+000	 4.057190987271080e+000	 1.012391645658549e+001
 2.380267154378385e+000	 4.081660602465417e+000	 1.013692108006423e+001
 2.338601869875648e+000	 4.105674888994833e+000	 1.014016158505903e+001
 2.296751836471036e+000	 4.129231890019773e+000	 1.013256814838800e+001
 2.254724418439293e+000	 4.152329803467774e+000	 1.011315055491164e+001
 2.212526994158232e+000	 4.174966981903097e+000	 1.008099970047180e+001
 2.170166952144371e+000	 4.197141932276062e+000	 1.003528888087850e+001
 2.599246328570120e+000	 3.975728678300154e+000	 1.016007562386482e+001
 2.558399495745880e+000	 4.002135932245784e+000	 1.014200206674982e+001
 2.517330273829839e+000	 4.028094871329415e+000	 1.011650006238537e+001
 2.476045934742124e+000	 4.053602907166102e+000	 1.012656828348189e+001
 2.434553784764505e+000	 4.078657606247210e+000	 1.015836791922129e+001
 2.392861160483733e+000	 4.103256690304887e+000	 1.017868075533651e+001
 2.350975424740408e+000	 4.127398036551243e+000	 1.018631846576934e+001
 2.308903962587825e+000	 4.151079677793084e+000	 1.018017464333089e+001
 2.266654177265145e+000	 4.174299802423161e+000	 1.015922653833205e+001
 2.224233486189215e+000	 4.197056754289152e+000	 1.012253657719193e+001
 2.181649316969235e+000	 4.219349032441642e+000	 1.006925366014617e+001
 2.066825668743274e+000	 3.997278030740858e+000	 9.811864163501129e+000
 2.026334940146127e+000	 4.017955538626073e+000	 9.890582221180635e+000
 1.985703424879969e+000	 4.038190424988225e+000	 9.933630359826170e+000
 1.944938166216199e+000	 4.057981706422045e+000	 9.940869289367404e+000
 1.904046202273651e+000	 4.077328544486139e+000	 9.912250320492793e+000
 1.863034562408459e+000	 4.096230244915353e+000	 9.898455257642770e+000
 1.821910263647760e+000	 4.114686256729197e+000	 9.961013729954200e+000
 1.780680307170586e+000	 4.132696171238479e+000	 9.974216048500935e+000
 1.739351674839183e+000	 4.150259720952575e+000	 9.942481808154714e+000
 1.697931325783846e+000	 4.167376778389714e+000	 9.870148261448627e+000
 1.656426193044263e+000	 4.184047354792892e+000	 9.761463497943504e+000
 2.078308033563603e+000	 4.019485130915437e+000	 9.830390701281244e+000
 2.037592356473766e+000	 4.040277513844186e+000	 9.904047162740918e+000
 1.996735110566970e+000	 4.060624816241361e+000	 9.943684644790185e+000
 1.955743378243896e+000	 4.080526049238336e+000	 9.949100383874002e+000
 1.914624236724040e+000	 4.099980369735707e+000	 9.920182375129039e+000
 1.873384754415511e+000	 4.118987079611292e+000	 9.863472723163577e+000
 1.832031987328929e+000	 4.137545624823596e+000	 9.925486407683151e+000
 1.790572975538765e+000	 4.155655594412934e+000	 9.940471637267105e+000
 1.749014739695386e+000	 4.173316719402626e+000	 9.912878105732013e+000
 1.707364277590922e+000	 4.190528871602665e+000	 9.847069885052861e+000
 1.665628560781946e+000	 4.207292062318510e+000	 9.747318558474433e+000
 2.089790398384435e+000	 4.041692231089016e+000	 9.850298156598969e+000
 2.048849772801994e+000	 4.062599489061308e+000	 9.918140831921166e+000
 2.007766796254614e+000	 4.083059207493538e+000	 9.953576987859648e+000
 1.966548590272261e+000	 4.103070392053721e+000	 9.956340625619173e+000
 1.925202271175088e+000	 4.122632194984438e+000	 9.926256698727833e+000
 1.883734946423184e+000	 4.141743914306483e+000	 9.863240876380635e+000
 1.842153711010653e+000	 4.160404992917361e+000	 9.889171334670628e+000
 1.800465643907401e+000	 4.178615017586889e+000	 9.904367590627857e+000
 1.758677804551921e+000	 4.196373717852326e+000	 9.879331316611262e+000
 1.716797229398173e+000	 4.213680964815437e+000	 9.818455160452679e+000
 1.674830928519619e+000	 4.230536769844139e+000	 9.726035933493403e+000
 2.101272763205771e+000	 4.063899331261593e+000	 9.871668417120135e+000
 2.060107189130810e+000	 4.084921464277438e+000	 9.932957037961447e+000
 2.018798481942900e+000	 4.105493598744757e+000	 9.963413372775523e+000
 1.977353802301289e+000	 4.125614734868194e+000	 9.962708417173866e+000
 1.935780305626794e+000	 4.145284020232332e+000	 9.930604348412832e+000
 1.894085138431480e+000	 4.164500749000930e+000	 9.866954361249958e+000
 1.852275434692931e+000	 4.183264361010493e+000	 9.852365598306941e+000
 1.810358312276496e+000	 4.201574440760342e+000	 9.866205065221152e+000
 1.768340869408786e+000	 4.219430716301675e+000	 9.842147072130393e+000
 1.726230181205599e+000	 4.236833058028028e+000	 9.784614600140099e+000
 1.684033296257282e+000	 4.253781477369778e+000	 9.697931423777817e+000
 2.112755128027612e+000	 4.086106431433171e+000	 9.894584139114446e+000
 2.071364605460215e+000	 4.107243439492581e+000	 9.948590117858569e+000
 2.029830167631828e+000	 4.127927989995016e+000	 9.973300061708470e+000
 1.988159014330986e+000	 4.148159077681763e+000	 9.968322181888379e+000
 1.946358340079160e+000	 4.167935845479390e+000	 9.933356136274245e+000
 1.904435330440397e+000	 4.187257583694633e+000	 9.868192937314587e+000
 1.862397158375764e+000	 4.206123729102990e+000	 9.815365485496400e+000
 1.820250980646048e+000	 4.224533863933291e+000	 9.826284127898569e+000
 1.778003934265984e+000	 4.242487714750673e+000	 9.801629617056186e+000
 1.735663133013202e+000	 4.259985151240439e+000	 9.745857025944439e+000
 1.693235663994934e+000	 4.277026184895429e+000	 9.663318828224513e+000
 2.124237492849956e+000	 4.108313531603750e+000	 9.919128726682343e+000
 2.082622021790209e+000	 4.129565414706734e+000	 9.965134922102271e+000
 2.040861853321399e+000	 4.150362381244316e+000	 9.983343587733605e+000
 1.998964226361347e+000	 4.170703420494422e+000	 9.973300363330898e+000
 1.956936374532186e+000	 4.190587670725611e+000	 9.934642635991402e+000
 1.914785522449937e+000	 4.210014418387591e+000	 9.867099519700521e+000
 1.872518882059153e+000	 4.228983097194856e+000	 9.778466504292089e+000
 1.830143649016058e+000	 4.247493287105741e+000	 9.784903785178930e+000
 1.787666999123512e+000	 4.265544713199321e+000	 9.758081847059071e+000
 1.745096084820978e+000	 4.283137244452670e+000	 9.702489614725844e+000
 1.702438031732576e+000	 4.300270892421088e+000	 9.622509997954778e+000
 2.135719857672804e+000	 4.130520631773328e+000	 9.945386311652079e+000
 2.093879438120791e+000	 4.151887389919897e+000	 9.982686800871703e+000
 2.051893539011612e+000	 4.172796772492658e+000	 9.993650747548216e+000
 2.009769438392374e+000	 4.193247763306173e+000	 9.977761424743919e+000
 1.967514408985870e+000	 4.213239495970996e+000	 9.934594189241608e+000
 1.925135714460099e+000	 4.232771253079804e+000	 9.863816532282495e+000
 1.882640605743096e+000	 4.251842465286086e+000	 9.765187922367019e+000
 1.840036317386526e+000	 4.270452710277686e+000	 9.742362011751965e+000
 1.797330063981371e+000	 4.288601711647616e+000	 9.711805344979251e+000
 1.754529036628929e+000	 4.306289337664721e+000	 9.654817942594862e+000
 1.711640399470208e+000	 4.323515599946758e+000	 9.575814888673683e+000
 2.147202222496156e+000	 4.152727731941907e+000	 9.973441734121749e+000
 2.105136854451962e+000	 4.174209365132070e+000	 1.000134159067469e+001
 2.062925224702469e+000	 4.195231163740040e+000	 1.000432859442300e+001
 2.020574650424068e+000	 4.215792106117017e+000	 9.981823848518193e+000
 1.978092443440213e+000	 4.235891321215545e+000	 9.933340911903420e+000
 1.935485906470882e+000	 4.255528087771272e+000	 9.858485920819073e+000
 1.892762329427594e+000	 4.274701833376685e+000	 9.756957499457577e+000
 1.849928985757452e+000	 4.293412133449129e+000	 9.698955778067255e+000
 1.806993128839562e+000	 4.311658710095563e+000	 9.663100415928936e+000
 1.763961988437056e+000	 4.329441430876591e+000	 9.603146027713320e+000
 1.720842767207830e+000	 4.346760307472438e+000	 9.523541611349877e+000
 2.158684587320011e+000	 4.174934832109484e+000	 1.000338052362228e+001
 2.116394270783720e+000	 4.196531340343253e+000	 1.002119560141354e+001
 2.073956910393968e+000	 4.217665554986464e+000	 1.001548443137831e+001
 2.031379862456428e+000	 4.238336448926953e+000	 9.985606135683483e+000
 1.988670477895216e+000	 4.258543146459256e+000	 9.931012700061952e+000
 1.945836098482288e+000	 4.278284922461995e+000	 9.851249165668417e+000
 1.902884053112647e+000	 4.297561201466650e+000	 9.745953607116375e+000
 1.859821654128836e+000	 4.316371556620072e+000	 9.654981077042713e+000
 1.816656193698084e+000	 4.334715708543159e+000	 9.612266121274729e+000
 1.773394940245358e+000	 4.352593524088283e+000	 9.547776371729013e+000
 1.730045134945440e+000	 4.370005014998127e+000	 9.465996481277569e+000
 2.170166952144371e+000	 4.197141932276062e+000	 1.003528888087850e+001
 2.127651687116068e+000	 4.218853315553446e+000	 1.004234560386126e+001
 2.084988596086108e+000	 4.240099946231929e+000	 1.002722580457700e+001
 2.042185074489454e+000	 4.260880791735980e+000	 9.989226805415475e+000
 1.999248512350877e+000	 4.281194971702131e+000	 9.927739235823498e+000
 1.956186290494315e+000	 4.301041757151972e+000	 9.842247294100616e+000
 1.913005776798255e+000	 4.320420569555981e+000	 9.732328792353366e+000
 1.869714322500678e+000	 4.339330979790511e+000	 9.610732949925364e+000
 1.826319258556937e+000	 4.357772706990402e+000	 9.559600311540747e+000
 1.782827892053836e+000	 4.375745617299794e+000	 9.494614027893082e+000
 1.739247502683042e+000	 4.393249722523829e+000	 9.547923445514259e+000
 2.181649316969235e+000	 4.219349032441642e+000	 1.006925366014617e+001
 2.138909103449004e+000	 4.241175290762651e+000	 1.006488881753356e+001
 2.096020281778892e+000	 4.262534337476436e+000	 1.003966049692600e+001
 2.052990286523145e+000	 4.283425134544102e+000	 9.992804394558249e+000
 2.009826546807198e+000	 4.303846796944171e+000	 9.923649992946519e+000
 1.966536482506964e+000	 4.323798591841205e+000	 9.831620892220901e+000
 1.923127500484418e+000	 4.343279937644680e+000	 9.716234921538687e+000
 1.879606990872978e+000	 4.362290402960450e+000	 9.577104033978481e+000
 1.835982323416121e+000	 4.380829705437296e+000	 9.547005802389782e+000
 1.792260843862488e+000	 4.398897710511126e+000	 9.609539911949780e+000
 1.748449870420633e+000	 4.416494430049542e+000	 9.670638771891134e+000
 1.656426193044263e+000	 4.184047354792892e+000	 9.761463497943504e+000
 1.614843180269973e+000	 4.200271598754027e+000	 9.699014538651946e+000
 1.573189158483706e+000	 4.216049794749046e+000	 9.634599696563969e+000
 1.531470962909008e+000	 4.231382361586969e+000	 9.571720031812580e+000
 1.489695389864481e+000	 4.246269850775702e+000	 9.513745484072143e+000
 1.447869193727905e+000	 4.260712944807515e+000	 9.463910441074511e+000
 1.405999083972017e+000	 4.274712455367261e+000	 9.425309670787280e+000
 1.364091722274013e+000	 4.288269321466460e+000	 9.400894619582935e+000
 1.322153719700638e+000	 4.301384607506362e+000	 9.393470077669084e+000
 1.280191633970679e+000	 4.314059501273208e+000	 9.405691212013085e+000
 1.238211966796443e+000	 4.326295311868889e+000	 9.302530229237892e+000
 1.665628560781946e+000	 4.207292062318510e+000	 9.747318558474433e+000
 1.623814531271376e+000	 4.223606440967679e+000	 9.689503567175375e+000
 1.581929098254062e+000	 4.239472293606605e+000	 9.628406124953774e+000
 1.539979134927016e+000	 4.254890041371024e+000	 9.567530801896334e+000
 1.497971475366167e+000	 4.269860238832774e+000	 9.510251113380694e+000
 1.455912911473616e+000	 4.284383572275750e+000	 9.459805032893302e+000
 1.413810189996953e+000	 4.298460857894164e+000	 9.419290871354935e+000
 1.371670009622692e+000	 4.312093039916264e+000	 9.391663525359519e+000
 1.329499018145728e+000	 4.325281188656641e+000	 9.379731095660455e+000
 1.287303809716621e+000	 4.338026498500344e+000	 9.386151876190835e+000
 1.245090922168304e+000	 4.350330285822056e+000	 9.359597616324757e+000
 1.674830928519619e+000	 4.230536769844139e+000	 9.726035933493403e+000
 1.632785882272589e+000	 4.246941283181525e+000	 9.670570730107599e+000
 1.590669038024091e+000	 4.262894792464511e+000	 9.610544598593052e+000
 1.548487306944598e+000	 4.278397721155550e+000	 9.549467286435212e+000
 1.506247560867370e+000	 4.293450626890412e+000	 9.490717496564399e+000
 1.463956629218828e+000	 4.308054199744611e+000	 9.437538343139455e+000
 1.421621296021414e+000	 4.322209260421725e+000	 9.393033176795877e+000
 1.379248296970957e+000	 4.335916758366728e+000	 9.360161781841105e+000
 1.336844316590508e+000	 4.349177769807554e+000	 9.341736946795754e+000
 1.294415985462395e+000	 4.361993495728061e+000	 9.340421408619642e+000
 1.251969877540177e+000	 4.374365259775718e+000	 9.358725169925114e+000
 1.684033296257282e+000	 4.253781477369778e+000	 9.697931423777817e+000
 1.641757233273613e+000	 4.270276125395566e+000	 9.642548613788433e+000
 1.599408977793790e+000	 4.286317291322766e+000	 9.581364195714238e+000
 1.556995478961755e+000	 4.301905400940546e+000	 9.517894761406593e+000
 1.514523646368090e+000	 4.317041014948612e+000	 9.455525812820969e+000
 1.472000346963541e+000	 4.331724827214100e+000	 9.397507159425745e+000
 1.429432402045398e+000	 4.345957662949947e+000	 9.346948688143685e+000
 1.386826584318810e+000	 4.359740476817857e+000	 9.306816508386209e+000
 1.344189615034977e+000	 4.373074350959101e+000	 9.279929473643776e+000
 1.301528161208000e+000	 4.385960492956355e+000	 9.334940379371206e+000
 1.258848832912064e+000	 4.398400233729873e+000	 9.406622761176537e+000
 1.693235663994934e+000	 4.277026184895429e+000	 9.663318828224513e+000
 1.650728584274448e+000	 4.293610967609801e+000	 9.605767243433798e+000
 1.608148917563162e+000	 4.309739790181370e+000	 9.541210882668061e+000
 1.565503650978487e+000	 4.325413080726016e+000	 9.473174848825677e+000
 1.522799731868328e+000	 4.340631403007379e+000	 9.405053054167452e+000
 1.480044064707755e+000	 4.355395454684217e+000	 9.340103558005188e+000
 1.437243508068906e+000	 4.369706065478828e+000	 9.281444280102638e+000
 1.394404871666252e+000	 4.383564195269647e+000	 9.292462639609539e+000
 1.351534913479137e+000	 4.396970932111286e+000	 9.343339768760233e+000
 1.308640336953438e+000	 4.409927490185230e+000	 9.395713970164096e+000
 1.265727788283963e+000	 4.422435207684523e+000	 9.449740639739757e+000
 1.702438031732576e+000	 4.300270892421088e+000	 9.622509997954778e+000
 1.659699935275092e+000	 4.316945809824232e+000	 9.560554152355241e+000
 1.616888857332206e+000	 4.333162289040322e+000	 9.490427598028425e+000
 1.574011822994792e+000	 4.348920760511957e+000	 9.415665615501293e+000
 1.531075817368083e+000	 4.364221791066709e+000	 9.339672138607400e+000
 1.488087782451470e+000	 4.379066082154960e+000	 9.297075985403907e+000
 1.445054614091940e+000	 4.393454468008369e+000	 9.336946555246952e+000
 1.401983159013280e+000	 4.407387913722100e+000	 9.375610305090826e+000
 1.358880211922987e+000	 4.420867513264104e+000	 9.413113450756157e+000
 1.315752512698707e+000	 4.433894487414682e+000	 9.449520384366137e+000
 1.272606743655874e+000	 4.446470181639666e+000	 9.484915492921074e+000
 1.711640399470208e+000	 4.323515599946758e+000	 9.575814888673683e+000
 1.668671286275546e+000	 4.340280652038856e+000	 9.507234448946718e+000
 1.625628797100923e+000	 4.356584787899623e+000	 9.429354333984337e+000
 1.582519995010673e+000	 4.372428440298371e+000	 9.345721668605837e+000
 1.539351902867357e+000	 4.387812179126605e+000	 9.362659790998677e+000
 1.496131500194686e+000	 4.402736709626332e+000	 9.396642720941411e+000
 1.452865720114497e+000	 4.417202870538570e+000	 9.427052889516808e+000
 1.409561446359896e+000	 4.431211632175215e+000	 9.453839628632888e+000
 1.366225510366526e+000	 4.444764094417558e+000	 9.476971593933234e+000
 1.322864688443808e+000	 4.457861484644715e+000	 9.496438741795762e+000
 1.279485699027798e+000	 4.470505155595302e+000	 9.512254213683193e+000
 1.720842767207830e+000	 4.346760307472438e+000	 9.523541611349877e+000
 1.677642637275812e+000	 4.363615494253677e+000	 9.446130881521754e+000
 1.634368736869311e+000	 4.380007286759271e+000	 9.398848260796527e+000
 1.591028167026128e+000	 4.395936120085255e+000	 9.435957867873636e+000
 1.547627988366147e+000	 4.411402567187063e+000	 9.467505099843981e+000
 1.504175217937403e+000	 4.426407337098330e+000	 9.493320256520402e+000
 1.460676826136579e+000	 4.440951273069429e+000	 9.513251626850652e+000
 1.417139733706099e+000	 4.455035350628992e+000	 9.527167719963206e+000
 1.373570808809757e+000	 4.468660675571649e+000	 9.534959407914483e+000
 1.329976864188742e+000	 4.481828481875327e+000	 9.536541974948046e+000
 1.286364654399735e+000	 4.494540129551433e+000	 9.531857068497551e+000
 1.730045134945440e+000	 4.370005014998127e+000	 9.465996481277569e+000
 1.686613988275887e+000	 4.386950336468694e+000	 9.473971250663807e+000
 1.643108676637371e+000	 4.403429785619270e+000	 9.513619241903850e+000
 1.599536339041157e+000	 4.419443799872612e+000	 9.545864323935229e+000
 1.555904073864455e+000	 4.434992955248088e+000	 9.570431493062944e+000
 1.512218935679621e+000	 4.450077964570955e+000	 9.587064194229090e+000
 1.468487932158185e+000	 4.464699675600948e+000	 9.595526724304458e+000
 1.424718021051890e+000	 4.478859069083431e+000	 9.595606547306588e+000
 1.380916107252677e+000	 4.492557256726375e+000	 9.587116515848736e+000
 1.337089039933507e+000	 4.505795479106518e+000	 9.569896993551023e+000
 1.293243609771684e+000	 4.518575103508055e+000	 9.543817873580885e+000
 1.739247502683042e+000	 4.393249722523829e+000	 9.547923445514259e+000
 1.695585339275773e+000	 4.410285178683903e+000	 9.592692589483404e+000
 1.651848616405103e+000	 4.426852284479617e+000	 9.628441295262888e+000
 1.608044511055761e+000	 4.442951479660440e+000	 9.654786116104468e+000
 1.564180159362282e+000	 4.458583343309677e+000	 9.671362230247288e+000
 1.520262653421339e+000	 4.473748592044207e+000	 9.677826021895880e+000
 1.476299038179316e+000	 4.488448078133128e+000	 9.673857574970079e+000
 1.432296308397268e+000	 4.502682787538533e+000	 9.659163073403793e+000
 1.388261405695288e+000	 4.516453837881738e+000	 9.633477102200901e+000
 1.344201215678104e+000	 4.529762476338288e+000	 9.596564843898337e+000
 1.300122565143645e+000	 4.542610077465175e+000	 9.548224165536825e+000
 1.748449870420633e+000	 4.416494430049542e+000	 9.670638771891134e+000
 1.704556690275469e+000	 4.433620020899308e+000	 9.712360261196670e+000
 1.660588556172508e+000	 4.450274783340313e+000	 9.743177661256967e+000
 1.616552683069940e+000	 4.466459159448742e+000	 9.762614858823845e+000
 1.572456244859625e+000	 4.482173731371831e+000	 9.770217010699573e+000
 1.528306371162559e+000	 4.497419219518087e+000	 9.765553221359410e+000
 1.484110144199971e+000	 4.512196480665968e+000	 9.748219128079612e+000
 1.439874595742234e+000	 4.526506505994299e+000	 9.717839387234841e+000
 1.395606704137588e+000	 4.540350419037734e+000	 9.674070055875250e+000
 1.351313391422534e+000	 4.553729473570638e+000	 9.616600863149998e+000
 1.307001520515620e+000	 4.566645051422786e+000	 9.545157366608999e+000
 1.238211966796443e+000	 4.326295311868889e+000	 9.302530229237892e+000
 1.196221161306078e+000	 4.338093467580077e+000	 9.169841215607091e+000
 1.154225599546729e+000	 4.349455513689764e+000	 9.088148283399153e+000
 1.112231600071146e+000	 4.360383110233927e+000	 9.053613709415330e+000
 1.070245415609068e+000	 4.370878029706319e+000	 9.062183721789721e+000
 1.028273230823134e+000	 4.380942154715376e+000	 9.132156502507598e+000
 9.863211601505719e-001	 4.390577475596267e+000	 9.251112373531166e+000
 9.443952457313445e-001	 4.399786087981418e+000	 9.400697417112594e+000
 9.025014554232437e-001	 4.408570190332767e+000	 9.578282474686612e+000
 8.606456809043420e-001	 4.416932081439071e+000	 9.781204930941319e+000
 8.188337358630459e-001	 4.424874157881446e+000	 1.000676688806327e+001
 1.245090922168304e+000	 4.350330285822056e+000	 9.359597616324757e+000
 1.202866834424291e+000	 4.362193986843245e+000	 9.205603611583511e+000
 1.160637963987752e+000	 4.373619155431682e+000	 9.103741690397932e+000
 1.118410664514506e+000	 4.384607460845763e+000	 9.086799600553446e+000
 1.076191223471679e+000	 4.395160685426433e+000	 9.112899663886960e+000
 1.033985859881143e+000	 4.405280722241064e+000	 9.174084417307119e+000
 9.918007221492244e-001	 4.414969572682243e+000	 9.268028268367592e+000
 9.496418859833258e-001	 4.424229344024799e+000	 9.392372709391076e+000
 9.075153523960041e-001	 4.433062246944353e+000	 9.544723821791671e+000
 8.654270457968748e-001	 4.441470593000705e+000	 9.722649995899513e+000
 8.233828121726124e-001	 4.449456792089316e+000	 9.923679870649918e+000
 1.251969877540177e+000	 4.374365259775718e+000	 9.358725169925114e+000
 1.209512507542697e+000	 4.386294506106817e+000	 9.264881555428394e+000
 1.167050328429106e+000	 4.397782797173934e+000	 9.194793226644713e+000
 1.124589728958293e+000	 4.408831811457884e+000	 9.163147910458482e+000
 1.082137031334773e+000	 4.419443341146805e+000	 9.167927323418368e+000
 1.039698488939653e+000	 4.429619289767002e+000	 9.207082701857916e+000
 9.972802841483522e-001	 4.439361669768483e+000	 9.278531608255161e+000
 9.548885262357183e-001	 4.448672600068476e+000	 9.380154953216911e+000
 9.125292493690724e-001	 4.457554303556284e+000	 9.509794239594246e+000
 8.702084106895740e-001	 4.466009104562758e+000	 9.665249034259778e+000
 8.279318884821645e-001	 4.474039426297694e+000	 9.844274672109316e+000
 1.258848832912064e+000	 4.398400233729873e+000	 9.406622761176537e+000
 1.216158180661293e+000	 4.410395025370794e+000	 9.362643497331337e+000
 1.173462692870789e+000	 4.421946438916520e+000	 9.275825296969046e+000
 1.130768793402507e+000	 4.433056162070295e+000	 9.226246458475627e+000
 1.088082839198349e+000	 4.443725996867436e+000	 9.212138751700248e+000
 1.045411117998661e+000	 4.453957857293190e+000	 9.231700279656916e+000
 1.002759846147955e+000	 4.463753766854985e+000	 9.283091999697316e+000
 9.601351664885222e-001	 4.473115856112448e+000	 9.364434472017582e+000
 9.175431463424488e-001	 4.482046360168562e+000	 9.473804842280453e+000
 8.749897755824388e-001	 4.490547616125227e+000	 9.609234064120896e+000
 8.324809647917018e-001	 4.498622060506580e+000	 9.768704366299824e+000
 1.265727788283963e+000	 4.422435207684523e+000	 9.449740639739757e+000
 1.222803853780082e+000	 4.434495544635175e+000	 9.443153375324618e+000
 1.179875057312801e+000	 4.446110080659443e+000	 9.341957803748846e+000
 1.136947857847147e+000	 4.457280512682990e+000	 9.276799307121653e+000
 1.094028647062409e+000	 4.468008652588326e+000	 9.246160003178776e+000
 1.051123747058168e+000	 4.478296424819630e+000	 9.248485149845903e+000
 1.008239408148032e+000	 4.488145863941747e+000	 9.282179379785287e+000
 9.653818067417374e-001	 4.497559112156713e+000	 9.345603174045591e+000
 9.225570433161338e-001	 4.506538416781186e+000	 9.437069581873068e+000
 8.797711404754701e-001	 4.515086127688112e+000	 9.554841192691528e+000
 8.370300411012241e-001	 4.523204694715973e+000	 9.697127365219604e+000
 1.272606743655874e+000	 4.446470181639666e+000	 9.484915492921074e+000
 1.229449526899063e+000	 4.458596063899961e+000	 9.507265181974866e+000
 1.186287421755143e+000	 4.470273722402702e+000	 9.393968167945891e+000
 1.143126922292215e+000	 4.481504863295972e+000	 9.315507177488366e+000
 1.099974454926952e+000	 4.492291308309473e+000	 9.270615011728346e+000
 1.056836376118174e+000	 4.502634992346319e+000	 9.257984412193967e+000
 1.013718970148585e+000	 4.512537961028774e+000	 9.276264007263183e+000
 9.706284469953637e-001	 4.522002368201274e+000	 9.324054509545436e+000
 9.275709402901268e-001	 4.531030473394154e+000	 9.399905171533243e+000
 8.845525053686674e-001	 4.539624639251415e+000	 9.502310505773625e+000
 8.415791174107322e-001	 4.547787328925875e+000	 9.629707274732548e+000
 1.279485699027798e+000	 4.470505155595302e+000	 9.512254213683193e+000
 1.236095200018235e+000	 4.482696583165149e+000	 9.555827285241366e+000
 1.192699786197815e+000	 4.494437364146294e+000	 9.432629371734297e+000
 1.149305986737709e+000	 4.505729213909240e+000	 9.343067539065798e+000
 1.105920262791978e+000	 4.516573964030879e+000	 9.286125647656064e+000
 1.062549005178679e+000	 4.526973559873260e+000	 9.260744291274184e+000
 1.019198532149613e+000	 4.536930058116062e+000	 9.265816453881556e+000
 9.758750872494013e-001	 4.546445624246127e+000	 9.300183429302170e+000
 9.325848372644280e-001	 4.555522530007469e+000	 9.362631011336292e+000
 8.893338702620306e-001	 4.564163150815134e+000	 9.451885960811090e+000
 8.461281937202254e-001	 4.572369963136283e+000	 9.566612754948222e+000
 1.286364654399735e+000	 4.494540129551433e+000	 9.531857068497551e+000
 1.242740873137600e+000	 4.506797102430743e+000	 9.589682578866631e+000
 1.199112150640817e+000	 4.518601005890221e+000	 9.458710077184751e+000
 1.155485051183629e+000	 4.529953564522796e+000	 9.360174696683503e+000
 1.111866070657487e+000	 4.540856619752542e+000	 9.293311772877459e+000
 1.068261634239684e+000	 4.551312127400450e+000	 9.257310159864666e+000
 1.024678094151115e+000	 4.561322155203614e+000	 9.251307596028095e+000
 9.811217275038501e-001	 4.570888880291277e+000	 9.274386344519977e+000
 9.375987342390375e-001	 4.580014586621130e+000	 9.325569116429172e+000
 8.941152351555600e-001	 4.588701662379271e+000	 9.403815283369990e+000
 8.506772700297042e-001	 4.596952597347197e+000	 9.508017385081672e+000
 1.293243609771684e+000	 4.518575103508055e+000	 9.543817873580885e+000
 1.249386546257156e+000	 4.530897621696742e+000	 9.609668627967396e+000
 1.205524515084149e+000	 4.542764647634485e+000	 9.472974741160781e+000
 1.161664115629977e+000	 4.554177915136639e+000	 9.367519874677070e+000
 1.117811878523480e+000	 4.565139275474468e+000	 9.292791294331055e+000
 1.073974263301187e+000	 4.575650694927893e+000	 9.248226561602658e+000
 1.030157656153093e+000	 4.585714252291426e+000	 9.233208606625714e+000
 9.863683677587105e-001	 4.595332136336720e+000	 9.247061087981351e+000
 9.426126312139549e-001	 4.604506643235138e+000	 9.289044047480619e+000
 8.988966000492554e-001	 4.613240173943825e+000	 9.358349866922398e+000
 8.552263463391679e-001	 4.621535231558619e+000	 9.454099532626108e+000
 1.300122565143645e+000	 4.542610077465175e+000	 9.548224165536825e+000
 1.256032219376904e+000	 4.554998140963141e+000	 9.587238388709734e+000
 1.211936879527810e+000	 4.566928289379082e+000	 9.476183726567745e+000
 1.167843180076752e+000	 4.578402265750768e+000	 9.365791298382584e+000
 1.123757686389955e+000	 4.589421931196649e+000	 9.285180215697448e+000
 1.079686892363190e+000	 4.599989262455583e+000	 9.234037232919427e+000
 1.035637218155546e+000	 4.610106349379503e+000	 9.211990947287578e+000
 9.916150080139821e-001	 4.619775392382457e+000	 9.218606876439061e+000
 9.476265281891807e-001	 4.628998699849491e+000	 9.253382843339377e+000
 9.036779649431170e-001	 4.637778685508795e+000	 9.315744675811992e+000
 8.597754226486175e-001	 4.646117865770551e+000	 9.405042226678926e+000
 1.307001520515620e+000	 4.566645051422786e+000	 9.545157366608999e+000
 1.262677892496843e+000	 4.579098660229949e+000	 9.557361171027608e+000
 1.218349243971802e+000	 4.591091931124016e+000	 9.469093410088503e+000
 1.174022244523953e+000	 4.602626616365185e+000	 9.355674273057824e+000
 1.129703494256914e+000	 4.613704586919089e+000	 9.271092687484961e+000
 1.085399521425691e+000	 4.624327829983526e+000	 9.215285124282602e+000
 1.041116780158474e+000	 4.634498446467842e+000	 9.188126360720100e+000
 9.968616482696650e-001	 4.644218648428490e+000	 9.189424274195979e+000
 9.526404251647149e-001	 4.653490756464190e+000	 9.218914955818917e+000
 9.084593298371448e-001	 4.662317197074184e+000	 9.276258151283699e+000
 8.643244989580522e-001	 4.670700499982988e+000	 9.361033035267933e+000
 8.188337358630459e-001	 4.424874157881446e+000	 1.000676688806327e+001
 7.770713542760024e-001	 4.432398911470850e+000	 9.825790493125837e+000
 7.353641887737129e-001	 4.439508926659324e+000	 9.609744870323958e+000
 6.937178090935400e-001	 4.446206877929083e+000	 9.358664623209959e+000
 6.521377006203363e-001	 4.452495527163420e+000	 9.072536012062692e+000
 6.106292630141452e-001	 4.458377721001112e+000	 8.902075455347889e+000
 5.691978089245410e-001	 4.463856388177795e+000	 9.006092021974734e+000
 5.278485627910562e-001	 4.468934536857285e+000	 9.112448969803962e+000
 4.865866597290456e-001	 4.473615251955685e+000	 9.221381243425670e+000
 4.454171445002347e-001	 4.477901692461160e+000	 9.333211197811787e+000
 4.043449705671096e-001	 4.481797088752095e+000	 9.448350001535394e+000
 8.233828121726124e-001	 4.449456792089316e+000	 9.923679870649918e+000
 7.813884173551501e-001	 4.457023349864672e+000	 9.765433552571578e+000
 7.394495453783545e-001	 4.464172865137007e+000	 9.574110236513597e+000
 6.975717969225739e-001	 4.470908027246775e+000	 9.349759300639644e+000
 6.557606878470227e-001	 4.477231613421060e+000	 9.092379220769939e+000
 6.140216478098564e-001	 4.483146486113297e+000	 8.905023494037817e+000
 5.723600189753701e-001	 4.488655590329879e+000	 8.995940211658956e+000
 5.307810548077615e-001	 4.493761950946637e+000	 9.089815889525294e+000
 4.892899189508052e-001	 4.498468670018098e+000	 9.186793411284029e+000
 4.478916841926816e-001	 4.502778924082359e+000	 9.287105738935290e+000
 4.065913315151142e-001	 4.506695961464353e+000	 9.391077406883150e+000
 8.279318884821645e-001	 4.474039426297694e+000	 9.844274672109316e+000
 7.857054804340988e-001	 4.481647788259090e+000	 9.707280585477603e+000
 7.435349019826437e-001	 4.488836803615357e+000	 9.539202747302406e+000
 7.014257847511332e-001	 4.495609176565180e+000	 9.340107090030040e+000
 6.593836750731423e-001	 4.501967699679440e+000	 9.110006046343086e+000
 6.174140326049393e-001	 4.507915251226232e+000	 8.912190508801780e+000
 5.755222290255393e-001	 4.513454792482698e+000	 8.990552859376956e+000
 5.337135468238050e-001	 4.518589365036693e+000	 9.072464242746923e+000
 4.919931781719306e-001	 4.523322088081164e+000	 9.157974441291145e+000
 4.503662238845512e-001	 4.527656155704142e+000	 9.247226035032538e+000
 4.088376924626270e-001	 4.531594834177102e+000	 9.340455987116926e+000
 8.324809647917018e-001	 4.498622060506580e+000	 9.768704366299824e+000
 7.900225435128486e-001	 4.506272226654105e+000	 9.651471629052621e+000
 7.476202585865805e-001	 4.513500742094372e+000	 9.505149666649492e+000
 7.052797725792176e-001	 4.520310325884300e+000	 9.329822754907278e+000
 6.630066622986954e-001	 4.526703785938563e+000	 9.125519033755730e+000
 6.208064173993939e-001	 4.532684016339917e+000	 8.923085106470976e+000
 5.786844390750486e-001	 4.538253994636254e+000	 8.989468752277555e+000
 5.366460388391871e-001	 4.543416779127454e+000	 9.059962974221751e+000
 4.946964373924221e-001	 4.548175506144885e+000	 9.134523395167342e+000
 4.528407635758435e-001	 4.552533387326505e+000	 9.213201206626371e+000
 4.110840534096479e-001	 4.556493706890342e+000	 9.296144846274471e+000
 8.370300411012241e-001	 4.523204694715973e+000	 9.697127365219604e+000
 7.943396065913998e-001	 4.530896665049719e+000	 9.598151876289556e+000
 7.517056151901652e-001	 4.538164680574053e+000	 9.472083227928007e+000
 7.091337604068274e-001	 4.545011475204132e+000	 9.319025837939018e+000
 6.666296495236819e-001	 4.551439872198428e+000	 9.139025313060868e+000
 6.241988021932204e-001	 4.557452781454351e+000	 8.937220281218133e+000
 5.818466491238982e-001	 4.563053196790551e+000	 8.992230863550814e+000
 5.395785308539073e-001	 4.568244193218921e+000	 9.051885009995571e+000
 4.973996966122793e-001	 4.573028924209257e+000	 9.116043107844011e+000
 4.553153032665584e-001	 4.577410618949451e+000	 9.184663936150090e+000
 4.133304143561772e-001	 4.581392579604075e+000	 9.257806435899243e+000
 8.415791174107322e-001	 4.547787328925875e+000	 9.629707274732548e+000
 7.986566696697515e-001	 4.555521103445926e+000	 9.547471536619957e+000
 7.557909717933976e-001	 4.562828619054400e+000	 9.440140499616645e+000
 7.129877482339623e-001	 4.569712624524678e+000	 9.307840531768383e+000
 6.702526367481017e-001	 4.576175958459034e+000	 9.150636475469957e+000
 6.275911869864184e-001	 4.582221546569534e+000	 8.968528125573616e+000
 5.850088591720880e-001	 4.587852398945582e+000	 8.998386239291685e+000
 5.425110228679660e-001	 4.593071607311094e+000	 9.047807149804488e+000
 5.001029558315024e-001	 4.597882342274283e+000	 9.102140085484871e+000
 4.577898429566961e-001	 4.602287850572980e+000	 9.161250371679490e+000
 4.155767753022150e-001	 4.606291452318299e+000	 9.225106464567222e+000
 8.461281937202254e-001	 4.572369963136283e+000	 9.566612754948222e+000
 8.029737327479043e-001	 4.580145541842733e+000	 9.499585701063515e+000
 7.598763283962778e-001	 4.587492557535412e+000	 9.409463255323672e+000
 7.168417360606226e-001	 4.594413773845940e+000	 9.296395554014689e+000
 6.738756239719550e-001	 4.600912044720381e+000	 9.160468453429214e+000
 6.309835717789881e-001	 4.606990311685467e+000	 9.001699957458346e+000
 5.881710692196178e-001	 4.612651601101351e+000	 9.007485889013394e+000
 5.454435148813628e-001	 4.617899021403972e+000	 9.047309962943533e+000
 5.028062150500916e-001	 4.622735760339963e+000	 9.092424406796997e+000
 4.602643826462561e-001	 4.627165082197089e+000	 9.142600033770483e+000
 4.178231362477610e-001	 4.631190325033014e+000	 9.197713810332285e+000
 8.506772700297042e-001	 4.596952597347197e+000	 9.508017385081672e+000
 8.072907958258579e-001	 4.604769980240135e+000	 9.454654211704353e+000
 7.639616849988057e-001	 4.612156496017090e+000	 9.380197847981302e+000
 7.206957238868081e-001	 4.619114923167916e+000	 9.284824026284788e+000
 6.774986111952416e-001	 4.625648130982472e+000	 9.168641404543887e+000
 6.343759565709299e-001	 4.631759076802148e+000	 9.031687941576889e+000
 5.913332792664878e-001	 4.637450803257857e+000	 9.019084679673716e+000
 5.483760068940979e-001	 4.642726435497554e+000	 9.049977687476281e+000
 5.055094742680467e-001	 4.647589178406297e+000	 9.086509627508184e+000
 4.627389223352391e-001	 4.652042313821781e+000	 9.128355725285832e+000
 4.200694971928152e-001	 4.656089197748221e+000	 9.175300435980869e+000
 8.552263463391679e-001	 4.621535231558619e+000	 9.454099532626108e+000
 8.116078589036128e-001	 4.629394418638134e+000	 9.412841535332953e+000
 7.680470416009811e-001	 4.636820434499433e+000	 9.352495088055235e+000
 7.245497117125190e-001	 4.643816072490603e+000	 9.273263357045682e+000
 6.811215984179616e-001	 4.650384217245304e+000	 9.175279599206977e+000
 6.377683413622434e-001	 4.656527841919582e+000	 9.058603483414853e+000
 5.944954893126981e-001	 4.662250005415102e+000	 9.032741233083293e+000
 5.513084989061714e-001	 4.667553849591840e+000	 9.055398132661203e+000
 5.082127334853674e-001	 4.672442596473282e+000	 9.084012687893107e+000
 4.652134620236447e-001	 4.676919545447056e+000	 9.118163444099725e+000
 4.223158581373777e-001	 4.680988070463921e+000	 9.157541306991089e+000
 8.597754226486175e-001	 4.646117865770551e+000	 9.405042226678926e+000
 8.159249219811684e-001	 4.654018857036731e+000	 9.374316641099377e+000
 7.721323982028044e-001	 4.661484372982442e+000	 9.326510125620469e+000
 7.284036995377552e-001	 4.668517221814008e+000	 9.261855128215581e+000
 6.847445856401149e-001	 4.675120303508876e+000	 9.180511311795289e+000
 6.411607261529285e-001	 4.681296607037763e+000	 9.082561819764125e+000
 5.976576993582484e-001	 4.687049207573082e+000	 9.048017826570957e+000
 5.542409909175832e-001	 4.692381263686833e+000	 9.063162584475698e+000
 5.109159927020543e-001	 4.697296014540922e+000	 9.084553823234939e+000
 4.676880017114728e-001	 4.701796777072913e+000	 9.111672298573694e+000
 4.245622190814485e-001	 4.705886943180112e+000	 9.144114312096544e+000
 8.643244989580522e-001	 4.670700499982988e+000	 9.361033035267933e+000
 8.202419850585254e-001	 4.678643295435927e+000	 9.339252882030136e+000
 7.762177548042755e-001	 4.686148311466118e+000	 9.302402336161016e+000
 7.322576873625165e-001	 4.693218371138125e+000	 9.250744985336231e+000
 6.883675728617015e-001	 4.699856389773194e+000	 9.184468715301556e+000
 6.445531109429856e-001	 4.706065372156695e+000	 9.103681917899090e+000
 6.008199094031392e-001	 4.711848409731800e+000	 9.064480296785872e+000
 5.571734829283334e-001	 4.717208677782531e+000	 9.072865714123397e+000
 5.136192519181071e-001	 4.722149432609214e+000	 9.087756477114626e+000
 4.701625413987239e-001	 4.726674008699353e+000	 9.108534425701683e+000
 4.268085800250276e-001	 4.730785815896795e+000	 9.134700186358526e+000
 4.043449705671096e-001	 4.481797088752095e+000	 9.448350001535394e+000
 3.633749992293684e-001	 4.485304739916109e+000	 9.406370258003737e+000
 3.225119988439666e-001	 4.488428011073319e+000	 9.340023113181866e+000
 2.817606441259515e-001	 4.491170330705895e+000	 9.251551330864126e+000
 2.411255155271938e-001	 4.493535187995821e+000	 9.143280647509775e+000
 2.006110986943454e-001	 4.495526130174090e+000	 9.017618469487498e+000
 1.602217840038425e-001	 4.497146759883374e+000	 8.877052341991570e+000
 1.199618661725727e-001	 4.498400732556415e+000	 8.724148198952493e+000
 7.983554394276425e-002	 4.499291753812299e+000	 8.561548403642760e+000
 3.984691983959917e-002	 4.499823576872690e+000	 8.391969590010406e+000
 0.000000000000000e+000	 4.500000000000000e+000	 8.218200315059617e+000
 4.065913315151142e-001	 4.506695961464353e+000	 9.391077406883150e+000
 3.653937492251137e-001	 4.510223099579862e+000	 9.365330641870816e+000
 3.243037321705993e-001	 4.513363722244021e+000	 9.317021382010800e+000
 2.833259810372565e-001	 4.516121276986124e+000	 9.248184532299204e+000
 2.424651017239101e-001	 4.518499272372497e+000	 9.160942338897010e+000
 2.017256047974707e-001	 4.520501275340979e+000	 9.057503225336811e+000
 1.611119050253535e-001	 4.522130908548917e+000	 8.940160388906797e+000
 1.206283209839839e-001	 4.523391847737017e+000	 8.811290166684763e+000
 8.027907474193483e-002	 4.524287819111139e+000	 8.673350181093095e+000
 4.006829161619421e-002	 4.524822596744175e+000	 8.528877275196846e+000
 0.000000000000000e+000	 4.525000000000000e+000	 8.380485248271505e+000
 4.088376924626270e-001	 4.531594834177102e+000	 9.340455987116926e+000
 3.674124992204621e-001	 4.535141459244013e+000	 9.328766457084633e+000
 3.260954654969194e-001	 4.538299433415035e+000	 9.296275579685483e+000
 2.848913179483229e-001	 4.541072223266590e+000	 9.244810730221230e+000
 2.438046879204519e-001	 4.543463356749350e+000	 9.176291034837751e+000
 2.028401109004750e-001	 4.545476420507988e+000	 9.092726345179797e+000
 1.620020260467874e-001	 4.547115057214537e+000	 8.996215961661690e+000
 1.212947757953518e-001	 4.548382962917663e+000	 8.888947114979592e+000
 8.072260554108625e-002	 4.549283884409997e+000	 8.773193215909267e+000
 4.028966339278450e-002	 4.549821616615666e+000	 8.651311883804077e+000
 0.000000000000000e+000	 4.550000000000000e+000	 8.525742764529813e+000
 4.110840534096479e-001	 4.556493706890342e+000	 9.296144846274471e+000
 3.694312492154133e-001	 4.560059818908559e+000	 9.296408810774489e+000
 3.278871988229268e-001	 4.563235144586363e+000	 9.277588881418295e+000
 2.864566548591509e-001	 4.566023169547296e+000	 9.241305198903815e+000
 2.451442741168190e-001	 4.568427441126379e+000	 9.189274106269407e+000
 2.039546170033585e-001	 4.570451565675118e+000	 9.123307261498608e+000
 1.628921470681443e-001	 4.572099205880235e+000	 9.045310487111701e+000
 1.219612306066765e-001	 4.573374078098351e+000	 8.957282366524776e+000
 8.116613634021858e-002	 4.574279949708875e+000	 8.861312597396585e+000
 4.051103516937001e-002	 4.574820636487162e+000	 8.759580112573094e+000
 0.000000000000000e+000	 4.574999999999999e+000	 8.654350979579460e+000
 4.133304143561772e-001	 4.581392579604075e+000	 9.257806435899243e+000
 3.714499992099677e-001	 4.584978178573502e+000	 9.267991024712277e+000
 3.296789321486217e-001	 4.588170855758004e+000	 9.260765537559719e+000
 2.880219917697403e-001	 4.590974115828240e+000	 9.237543142122153e+000
 2.464838603130115e-001	 4.593391525503579e+000	 9.199837702366967e+000
 2.050691231061213e-001	 4.595426710842370e+000	 9.149263028621459e+000
 1.637822680894241e-001	 4.597083354546009e+000	 9.087531852933891e+000
 1.226276854179581e-001	 4.598365193279083e+000	 9.016454539661641e+000
 8.160966713933174e-002	 4.599276015007772e+000	 8.937937541685681e+000
 4.073240694595075e-002	 4.599819656358660e+000	 8.853981613059361e+000
 0.000000000000000e+000	 4.600000000000000e+000	 8.766679789257871e+000
 4.155767753022150e-001	 4.606291452318299e+000	 9.225106464567222e+000
 3.734687492041253e-001	 4.609896538238842e+000	 9.243248575457285e+000
 3.314706654740040e-001	 4.613106566929956e+000	 9.245610844540607e+000
 2.895873286800912e-001	 4.615925062109421e+000	 9.233399695058315e+000
 2.478234465090293e-001	 4.618355609880955e+000	 9.207926783563597e+000
 2.061836292087631e-001	 4.620401856009741e+000	 9.170608386997007e+000
 1.646723891106268e-001	 4.622067503211861e+000	 9.122964503280389e+000
 1.232941402291965e-001	 4.623356308459860e+000	 9.066617675529541e+000
 8.205319793842578e-002	 4.624272080306687e+000	 9.003291550466892e+000
 4.095377872252674e-002	 4.624818676230166e+000	 8.934809182043292e+000
 0.000000000000000e+000	 4.624999999999999e+000	 8.863091091654658e+000
 4.178231362477610e-001	 4.631190325033014e+000	 9.197713810332285e+000
 3.754874991978857e-001	 4.634814897904579e+000	 9.221919036431812e+000
 3.332623987990737e-001	 4.638042278102219e+000	 9.231931116751717e+000
 2.911526655902036e-001	 4.640876008390843e+000	 9.228749926145216e+000
 2.491630327048726e-001	 4.643319694258506e+000	 9.213485153506092e+000
 2.072981353112841e-001	 4.645377001177233e+000	 9.187355825395507e+000
 1.655625101317525e-001	 4.647051651877789e+000	 9.151689531346342e+000
 1.239605950403916e-001	 4.648347423640677e+000	 9.107921361108931e+000
 8.249672873750068e-002	 4.649268145605622e+000	 9.057592564604287e+000
 4.117515049909797e-002	 4.649817696101675e+000	 9.002348945798287e+000
 0.000000000000000e+000	 4.650000000000000e+000	 8.943939002104809e+000
 4.200694971928152e-001	 4.656089197748221e+000	 9.175300435980869e+000
 3.775062491912493e-001	 4.659733257570714e+000	 9.203742021855273e+000
 3.350541321238309e-001	 4.662977989274798e+000	 9.219533659325514e+000
 2.927180025000777e-001	 4.665826954672504e+000	 9.223468838851344e+000
 2.505026189005412e-001	 4.668283778636231e+000	 9.216455489984980e+000
 2.084126414136843e-001	 4.670352146344848e+000	 9.199515641114029e+000
 1.664526311528010e-001	 4.672035800543795e+000	 9.173784768967611e+000
 1.246270498515435e-001	 4.673338538821540e+000	 9.140510848316483e+000
 8.294025953655647e-002	 4.674264210904576e+000	 9.101053112820850e+000
 4.139652227566441e-002	 4.674816715973188e+000	 9.056880538446675e+000
 0.000000000000000e+000	 4.675000000000000e+000	 9.009570061283785e+000
 4.223158581373777e-001	 4.680988070463921e+000	 9.157541306991089e+000
 3.795249991842159e-001	 4.684651617237246e+000	 9.188459132467733e+000
 3.368458654482753e-001	 4.687913700447686e+000	 9.208226741786671e+000
 2.942833394097131e-001	 4.690777900954402e+000	 9.217431373408491e+000
 2.518422050960352e-001	 4.693247863014132e+000	 9.216779374877518e+000
 2.095271475159636e-001	 4.695327291512582e+000	 9.207095998260368e+000
 1.673427521737726e-001	 4.697019949209879e+000	 9.189324873359082e+000
 1.252935046626522e-001	 4.698329654002444e+000	 9.164527169299390e+000
 8.338379033559312e-002	 4.699260276203550e+000	 9.133880455638435e+000
 4.161789405222610e-002	 4.699815735844708e+000	 9.098677274623160e+000
 0.000000000000000e+000	 4.699999999999999e+000	 9.060323436661173e+000
 4.245622190814485e-001	 4.705886943180112e+000	 9.144114312096544e+000
 3.815437491767854e-001	 4.709569976904174e+000	 9.175813902976428e+000
 3.386375987724072e-001	 4.712849411620889e+000	 9.197819572539080e+000
 2.958486763191099e-001	 4.715728847236537e+000	 9.210512408484739e+000
 2.531817912913545e-001	 4.718211947392206e+000	 9.214397323140101e+000
 2.106416536181220e-001	 4.720302436680437e+000	 9.210102984186634e+000
 1.682328731946670e-001	 4.722004097876038e+000	 9.198381411099390e+000
 1.259599594737178e-001	 4.723320769183392e+000	 9.180107248069428e+000
 8.382732113461064e-002	 4.724256341502541e+000	 9.156276724748086e+000
 4.183926582878302e-002	 4.724814755716229e+000	 9.128006316657151e+000
 0.000000000000000e+000	 4.725000000000000e+000	 9.096531117559056e+000
 4.268085800250276e-001	 4.730785815896795e+000	 9.134700186358526e+000
 3.835624991689582e-001	 4.734488336571500e+000	 9.165551751161859e+000
 3.404293320962267e-001	 4.737785122794405e+000	 9.188122274158452e+000
 2.974140132282684e-001	 4.740679793518914e+000	 9.202586762804515e+000
 2.545213774864993e-001	 4.743176031770457e+000	 9.209248810885127e+000
 2.117561597201596e-001	 4.745277581848414e+000	 9.208540664140688e+000
 1.691229942154843e-001	 4.746988246542276e+000	 9.201022939463353e+000
 1.266264142847402e-001	 4.748311884364385e+000	 9.187384008611851e+000
 8.427085193360903e-002	 4.749252406801554e+000	 9.168439057979361e+000
 4.206063760533519e-002	 4.749813775587759e+000	 9.145128836475466e+000
 0.000000000000000e+000	 4.750000000000000e+000	 9.118518104050684e+000
 4.750000000000000e+000	 0.000000000000000e+000	 1.037626371972551e+001
 4.749813775587761e+000	 4.206063760533384e-002	 1.036691962001092e+001
 4.749252406801552e+000	 8.427085193360784e-002	 1.035987002858189e+001
 4.748311884364385e+000	 1.266264142847391e-001	 1.035540305179387e+001
 4.746988246542276e+000	 1.691229942154834e-001	 1.035382695380850e+001
 4.745277581848414e+000	 2.117561597201589e-001	 1.035547348666373e+001
 4.743176031770457e+000	 2.545213774864986e-001	 1.036070134805387e+001
 4.740679793518913e+000	 2.974140132282679e-001	 1.036989976280897e+001
 4.737785122794405e+000	 3.404293320962263e-001	 1.038349218349203e+001
 4.734488336571500e+000	 3.835624991689580e-001	 1.040194010494923e+001
 4.730785815896796e+000	 4.268085800250276e-001	 1.042574698705577e+001
 4.775000000000001e+000	 0.000000000000000e+000	 1.038846270739191e+001
 4.774812795459289e+000	 4.228200938188836e-002	 1.037794203918551e+001
 4.774248472100565e+000	 8.471438273261578e-002	 1.036970433483094e+001
 4.773302999545376e+000	 1.272928690957831e-001	 1.036396842217545e+001
 4.771972395208514e+000	 1.700131152363393e-001	 1.036097204789204e+001
 4.770252727016390e+000	 2.128706658222569e-001	 1.036097529264004e+001
 4.768140116148707e+000	 2.558609636817307e-001	 1.036426411862840e+001
 4.765630739801289e+000	 2.989793501375455e-001	 1.037115404553687e+001
 4.762720833967920e+000	 3.422210654202020e-001	 1.038199395016606e+001
 4.759406696238826e+000	 3.855812491613292e-001	 1.039716998459073e+001
 4.755684688613478e+000	 4.290549409688527e-001	 1.041710960698429e+001
 4.800000000000001e+000	 0.000000000000000e+000	 1.039819363581061e+001
 4.799811815330812e+000	 4.250338115845243e-002	 1.038663837300378e+001
 4.799244537399557e+000	 8.515791353166197e-002	 1.037735068970760e+001
 4.798294114726322e+000	 1.279593239069134e-001	 1.037047943696524e+001
 4.796956543874674e+000	 1.709032362573493e-001	 1.036619113623445e+001
 4.795227872184247e+000	 2.139851719245967e-001	 1.036467348057788e+001
 4.793104200526780e+000	 2.572005498773120e-001	 1.036613897299483e+001
 4.790581686083425e+000	 3.005446870473001e-001	 1.037082869781511e+001
 4.787656545141123e+000	 3.440127987448028e-001	 1.037901622047785e+001
 4.784325055905753e+000	 3.875999991544943e-001	 1.039101161040801e+001
 4.780583561329669e+000	 4.313013019136611e-001	 1.040716558108273e+001
 4.825000000000000e+000	 0.000000000000000e+000	 1.040547211766051e+001
 4.824810835202331e+000	 4.272475293502601e-002	 1.039304847253832e+001
 4.824240602698530e+000	 8.560144433074646e-002	 1.038287326546810e+001
 4.823285229907229e+000	 1.286257787181301e-001	 1.037502466096132e+001
 4.821940692540756e+000	 1.717933572785135e-001	 1.036959723587076e+001
 4.820203017351980e+000	 2.150996780271780e-001	 1.036670556755659e+001
 4.818068284904680e+000	 2.585401360732425e-001	 1.036648796397975e+001
 4.815532632365324e+000	 3.021100239575318e-001	 1.036911033160756e+001
 4.812592256314012e+000	 3.458045320700289e-001	 1.037477017640580e+001
 4.809243415572285e+000	 3.896187491484532e-001	 1.038370073256765e+001
 4.805482434045368e+000	 4.335476628594529e-001	 1.039617521299495e+001
 4.850000000000000e+000	 0.000000000000000e+000	 1.041031344370964e+001
 4.849809855073845e+000	 4.294612471160915e-002	 1.039721164133134e+001
 4.849236667997485e+000	 8.604497512986921e-002	 1.038633545996337e+001
 4.848276345088090e+000	 1.292922335294333e-001	 1.037769165649831e+001
 4.846924841206763e+000	 1.726834782998318e-001	 1.037130213220457e+001
 4.845178162519593e+000	 2.162141841300012e-001	 1.036720760882202e+001
 4.843032369282406e+000	 2.598797222695223e-001	 1.036547145141747e+001
 4.840483578646983e+000	 3.036753608682405e-001	 1.036618363384937e+001
 4.837527967486590e+000	 3.475962653958800e-001	 1.036946484206636e+001
 4.834161775238419e+000	 3.916374991432061e-001	 1.037547070982695e+001
 4.830381306760575e+000	 4.357940238062281e-001	 1.038439618077835e+001
 4.875000000000000e+000	 0.000000000000000e+000	 1.041273259106923e+001
 4.874808874945352e+000	 4.316749648820179e-002	 1.039916664943375e+001
 4.874232733296419e+000	 8.648850592903019e-002	 1.038779991649559e+001
 4.873267460268909e+000	 1.299586883408228e-001	 1.037856700915147e+001
 4.871908989872690e+000	 1.735735993213043e-001	 1.037141641058840e+001
 4.870153307687087e+000	 2.173286902330660e-001	 1.036631423526954e+001
 4.867996453659956e+000	 2.612193084661514e-001	 1.036324814556015e+001
 4.865434524928405e+000	 3.052406977794263e-001	 1.036223141580668e+001
 4.862463678658856e+000	 3.493879987223563e-001	 1.036330713904378e+001
 4.859080134904157e+000	 3.936562491387530e-001	 1.036655257085207e+001
 4.855280179475290e+000	 4.380403847539867e-001	 1.037208360422674e+001
 4.900000000000000e+000	 0.000000000000000e+000	 1.041274423119518e+001
 4.899807894816859e+000	 4.338886826480400e-002	 1.039895174701471e+001
 4.899228798595335e+000	 8.693203672822945e-002	 1.038732854306691e+001
 4.898258575449684e+000	 1.306251431522988e-001	 1.037773635265413e+001
 4.896893138538543e+000	 1.744637203429309e-001	 1.037004948693725e+001
 4.895128452854458e+000	 2.184431963363725e-001	 1.036415868977948e+001
 4.892960538037332e+000	 2.625588946631297e-001	 1.035997514915887e+001
 4.890385471209588e+000	 3.068060346910890e-001	 1.035743466092529e+001
 4.887399389830807e+000	 3.511797320494579e-001	 1.035650194002619e+001
 4.883998494569497e+000	 3.956749991350937e-001	 1.035717507365921e+001
 4.880179052189514e+000	 4.402867457027287e-001	 1.035949011013208e+001
 4.925000000000000e+000	 0.000000000000000e+000	 1.041036273764581e+001
 4.924806914688357e+000	 4.361024004141571e-002	 1.039660467755661e+001
 4.924224863894231e+000	 8.737556752746696e-002	 1.038498253104184e+001
 4.923249690630416e+000	 1.312915979638611e-001	 1.037528439305607e+001
 4.921877287204318e+000	 1.753538413647117e-001	 1.036730963740968e+001
 4.920103598021710e+000	 2.195577024399207e-001	 1.036087286244592e+001
 4.917924622414534e+000	 2.638984808604573e-001	 1.035580799826326e+001
 4.915336417490530e+000	 3.083713716032288e-001	 1.035197257122207e+001
 4.912335101002446e+000	 3.529714653771846e-001	 1.034925212080803e+001
 4.908916854234441e+000	 3.976937491322283e-001	 1.034756476324524e+001
 4.905077924903247e+000	 4.425331066524542e-001	 1.034686589555864e+001
 4.949999999999999e+000	 0.000000000000000e+000	 1.040560219360453e+001
 4.949805934559854e+000	 4.383161181803696e-002	 1.039216269065014e+001
 4.949220929193109e+000	 8.781909832674277e-002	 1.038082237324423e+001
 4.948240805811104e+000	 1.319580527755098e-001	 1.037129493214982e+001
 4.946861435870015e+000	 1.762439623866466e-001	 1.036330402718961e+001
 4.945078743188840e+000	 2.206722085437106e-001	 1.035658732473797e+001
 4.942888706791562e+000	 2.652380670581341e-001	 1.035090070178462e+001
 4.940287363771237e+000	 3.099367085158457e-001	 1.034602261227051e+001
 4.937270812173774e+000	 3.547631987055365e-001	 1.034175861071663e+001
 4.933835213898987e+000	 3.997124991301568e-001	 1.033794602747205e+001
 4.929976797616488e+000	 4.447794676031630e-001	 1.033445878919977e+001
 4.975000000000000e+000	 0.000000000000000e+000	 1.039847639917569e+001
 4.974804954431343e+000	 4.405298359466774e-002	 1.038566255440369e+001
 4.974216994491966e+000	 8.826262912605680e-002	 1.037490788150843e+001
 4.973231920991751e+000	 1.326245075872450e-001	 1.036585089019079e+001
 4.971845584535635e+000	 1.771340834087356e-001	 1.035813873840022e+001
 4.970053888355849e+000	 2.217867146477423e-001	 1.035143136263106e+001
 4.967852791168413e+000	 2.665776532561602e-001	 1.034540577986620e+001
 4.965238310051703e+000	 3.115020454289394e-001	 1.033976055682999e+001
 4.962206523344789e+000	 3.565549320345135e-001	 1.033422044151844e+001
 4.958753573563136e+000	 4.017312491288792e-001	 1.032854115126594e+001
 4.954875670329236e+000	 4.470258285548553e-001	 1.032251431088471e+001
 5.000000000000000e+000	 0.000000000000000e+000	 1.038899887846154e+001
 4.999803974302830e+000	 4.427435537130806e-002	 1.037714056748036e+001
 4.999213059790807e+000	 8.870615992540913e-002	 1.036729820370413e+001
 4.998223036172354e+000	 1.332909623990665e-001	 1.035903432793564e+001
 4.996829733201179e+000	 1.780242044309789e-001	 1.035191879718048e+001
 4.995029033522739e+000	 2.229012207520157e-001	 1.034553300874427e+001
 4.992816875545091e+000	 2.679172394545357e-001	 1.033947430110245e+001
 4.990189256331933e+000	 3.130673823425104e-001	 1.033336052716607e+001
 4.987142234515491e+000	 3.583466653641158e-001	 1.032683479485803e+001
 4.983671933226890e+000	 4.037499991283957e-001	 1.031957036919100e+001
 4.979774543041494e+000	 4.492721895075311e-001	 1.031127572930019e+001
 4.730785815896796e+000	 4.268085800250276e-001	 1.042574698705577e+001
 4.726674008699353e+000	 4.701625413987225e-001	 1.043618900439816e+001
 4.722149432609216e+000	 5.136192519181059e-001	 1.045194717498325e+001
 4.717208677782532e+000	 5.571734829283325e-001	 1.047350008652360e+001
 4.711848409731800e+000	 6.008199094031386e-001	 1.050138253165684e+001
 4.706065372156694e+000	 6.445531109429850e-001	 1.050456855767609e+001
 4.699856389773194e+000	 6.883675728617011e-001	 1.047181141085413e+001
 4.693218371138125e+000	 7.322576873625164e-001	 1.044033461586587e+001
 4.686148311466119e+000	 7.762177548042758e-001	 1.040968066736487e+001
 4.678643295435927e+000	 8.202419850585258e-001	 1.037937939629792e+001
 4.670700499982989e+000	 8.643244989580522e-001	 1.034894229344787e+001
 4.755684688613478e+000	 4.290549409688527e-001	 1.041710960698429e+001
 4.751551240325787e+000	 4.726370810862668e-001	 1.042012941216551e+001
 4.747002850677489e+000	 5.163225111344948e-001	 1.042774367375162e+001
 4.742036091878187e+000	 5.601059749394567e-001	 1.044040776539537e+001
 4.736647611890441e+000	 6.039821194484364e-001	 1.045863408764056e+001
 4.730834137275505e+000	 6.479454957334774e-001	 1.045680594441652e+001
 4.724592476037334e+000	 6.919905600837466e-001	 1.043357092705484e+001
 4.717919520462003e+000	 7.361116751877544e-001	 1.041142595201258e+001
 4.710812249949480e+000	 7.803031114062363e-001	 1.038999411801102e+001
 4.703267733834721e+000	 8.245590481363798e-001	 1.036888695266615e+001
 4.695283134194934e+000	 8.688735752679868e-001	 1.034769857985944e+001
 4.780583561329669e+000	 4.313013019136611e-001	 1.040716558108273e+001
 4.776428471951631e+000	 4.751116207749754e-001	 1.040393633515503e+001
 4.771856268745071e+000	 5.190257703521906e-001	 1.040457214413559e+001
 4.766863505973047e+000	 5.630384669519913e-001	 1.040950401568892e+001
 4.761446814048191e+000	 6.071443294952087e-001	 1.041922080040740e+001
 4.755602902393324e+000	 6.513378805254689e-001	 1.041540922677990e+001
 4.749328562300383e+000	 6.956135473072754e-001	 1.040085108169686e+001
 4.742620669784687e+000	 7.399656630144204e-001	 1.038719545326790e+001
 4.735476188431549e+000	 7.843884680095284e-001	 1.037414752925049e+001
 4.727892172232125e+000	 8.288761112154278e-001	 1.036140203536761e+001
 4.719865768405383e+000	 8.734226515789357e-001	 1.034863724438199e+001
 4.805482434045368e+000	 4.335476628594529e-001	 1.039617521299495e+001
 4.801305703576881e+000	 4.775861604648483e-001	 1.038787747423713e+001
 4.796709686811961e+000	 5.217290295711928e-001	 1.038270759008358e+001
 4.791690920067119e+000	 5.659709589659361e-001	 1.038107104324301e+001
 4.786246016205046e+000	 6.103065395434554e-001	 1.038343196944451e+001
 4.780371667510149e+000	 6.547302653189596e-001	 1.038015971710764e+001
 4.774064648562338e+000	 6.992365345322883e-001	 1.037340582407350e+001
 4.767321819106180e+000	 7.438196508425142e-001	 1.036736972054731e+001
 4.760140126912325e+000	 7.884738246141517e-001	 1.036184018544849e+001
 4.752516610628135e+000	 8.331931742956693e-001	 1.035659666141661e+001
 4.744448402614344e+000	 8.779717278908998e-001	 1.035140310344844e+001
 4.830381306760575e+000	 4.357940238062281e-001	 1.038439618077835e+001
 4.826182935201540e+000	 4.800607001558854e-001	 1.037221802313952e+001
 4.821563104878159e+000	 5.244322887915017e-001	 1.036242262748510e+001
 4.816518334160397e+000	 5.689034509812909e-001	 1.035538878552029e+001
 4.811045218361012e+000	 6.134687495931768e-001	 1.035155474610251e+001
 4.805140432625981e+000	 6.581226501139492e-001	 1.035083670035759e+001
 4.798800734823201e+000	 7.028595217587845e-001	 1.035098719731748e+001
 4.792022968426481e+000	 7.476736386720359e-001	 1.035167357025359e+001
 4.784804065391810e+000	 7.925591812201065e-001	 1.035276970848431e+001
 4.777141049022752e+000	 8.375102373771048e-001	 1.035414130770064e+001
 4.769031036821811e+000	 8.825208042038785e-001	 1.035563955600877e+001
 4.855280179475290e+000	 4.380403847539867e-001	 1.037208360422674e+001
 4.851060166825605e+000	 4.825352398480867e-001	 1.035722073273293e+001
 4.846416522943667e+000	 5.271355480131172e-001	 1.034398754540309e+001
 4.841345748252884e+000	 5.718359429980561e-001	 1.033273496977083e+001
 4.835844420516082e+000	 6.166309596443724e-001	 1.032387418867590e+001
 4.829909197740824e+000	 6.615150349104380e-001	 1.032721748608813e+001
 4.823536821082972e+000	 7.064825089867647e-001	 1.033334538727691e+001
 4.816724117745589e+000	 7.515276265029859e-001	 1.033983008003352e+001
 4.809468003870001e+000	 7.966445378273929e-001	 1.034663210037918e+001
 4.801765487415977e+000	 8.418273004597342e-001	 1.035370495047085e+001
 4.793613671027784e+000	 8.870698805178717e-001	 1.036098861987568e+001
 4.880179052189514e+000	 4.402867457027287e-001	 1.035949011013208e+001
 4.875937398449081e+000	 4.850097795414525e-001	 1.034314597334887e+001
 4.871269941008481e+000	 5.298388072360395e-001	 1.032767036543170e+001
 4.866173162344578e+000	 5.747684350162313e-001	 1.031338516941503e+001
 4.860643622670264e+000	 6.197931696970426e-001	 1.030067331579737e+001
 4.854677962854673e+000	 6.649074197084258e-001	 1.030907745885111e+001
 4.848272907341651e+000	 7.101054962162284e-001	 1.032022876989490e+001
 4.841425267063504e+000	 7.553816143353637e-001	 1.033156063313392e+001
 4.834131942346899e+000	 8.007298944360106e-001	 1.034312178461915e+001
 4.826389925807809e+000	 8.461443635435572e-001	 1.035495510362353e+001
 4.818196305232266e+000	 8.916189568328796e-001	 1.036709096695776e+001
 4.905077924903247e+000	 4.425331066524542e-001	 1.034686589555864e+001
 4.900814630071965e+000	 4.874843192359823e-001	 1.033025179519944e+001
 4.896123359072603e+000	 5.325420664602684e-001	 1.031373689924626e+001
 4.891000576435481e+000	 5.777009270358167e-001	 1.029761285870940e+001
 4.885442824823553e+000	 6.229553797511871e-001	 1.028223315820587e+001
 4.879446727967530e+000	 6.682998045079130e-001	 1.029619012704979e+001
 4.873008993599236e+000	 7.137284834471761e-001	 1.031138395714631e+001
 4.866126416380228e+000	 7.592356021691692e-001	 1.032658496140669e+001
 4.858795880822505e+000	 8.048152510459598e-001	 1.034193164621949e+001
 4.851014364198250e+000	 8.504614266285741e-001	 1.035755785581574e+001
 4.842778939435253e+000	 8.961680331489021e-001	 1.037358595741944e+001
 4.929976797616488e+000	 4.447794676031630e-001	 1.033445878919977e+001
 4.925691861694258e+000	 4.899588589316765e-001	 1.031879398696617e+001
 4.920976777136034e+000	 5.352453256858040e-001	 1.030245080440935e+001
 4.915827990525591e+000	 5.806334190568122e-001	 1.028568946575568e+001
 4.910242026975950e+000	 6.261175898068063e-001	 1.026970858283040e+001
 4.904215493079394e+000	 6.716921893088990e-001	 1.028832717031639e+001
 4.897745079855732e+000	 7.173514706796075e-001	 1.030655584158237e+001
 4.890827565695757e+000	 7.630895900044028e-001	 1.032462118701074e+001
 4.883459819296820e+000	 8.089006076572403e-001	 1.034275307057493e+001
 4.875638802587296e+000	 8.547784897147845e-001	 1.036117790645621e+001
 4.867361573636751e+000	 9.007171094659396e-001	 1.038011167280584e+001
 4.954875670329236e+000	 4.470258285548553e-001	 1.032251431088471e+001
 4.950569093315958e+000	 4.924333986285350e-001	 1.030902613262241e+001
 4.945830195198774e+000	 5.379485849126461e-001	 1.029407363849419e+001
 4.940655404614910e+000	 5.835659110792180e-001	 1.027788442391186e+001
 4.935041229127454e+000	 6.292797998638997e-001	 1.026438024545903e+001
 4.928984258190266e+000	 6.750845741113841e-001	 1.028525848546106e+001
 4.922481166111132e+000	 7.209744579135223e-001	 1.030548763953225e+001
 4.915528715010096e+000	 7.669435778410643e-001	 1.032538586285649e+001
 4.908123757769840e+000	 8.129859642698522e-001	 1.034527598113852e+001
 4.900263240974951e+000	 8.590955528021890e-001	 1.036547860061107e+001
 4.891944207836753e+000	 9.052661857839915e-001	 1.038630494816889e+001
 4.979774543041494e+000	 4.492721895075311e-001	 1.031127572930019e+001
 4.975446324937067e+000	 4.949079383265578e-001	 1.030119966655104e+001
 4.970683613260823e+000	 5.406518441407950e-001	 1.028886491158440e+001
 4.965482818703439e+000	 5.864984031030339e-001	 1.027446522166071e+001
 4.959840431278068e+000	 6.324420099224679e-001	 1.026467658527871e+001
 4.953753023300148e+000	 6.784769589153686e-001	 1.028675223104247e+001
 4.947217252365444e+000	 7.245974451489213e-001	 1.030792093300865e+001
 4.940229864323243e+000	 7.707975656791541e-001	 1.032859401183710e+001
 4.932787696241570e+000	 8.170713208837956e-001	 1.034918887597024e+001
 4.924887679361214e+000	 8.634126158907873e-001	 1.037012196286238e+001
 4.916526842035265e+000	 9.098152621030583e-001	 1.039180140322972e+001
 4.670700499982989e+000	 8.643244989580522e-001	 1.034894229344787e+001
 4.662317197074184e+000	 9.084593298371435e-001	 1.044122601134897e+001
 4.653490756464190e+000	 9.526404251647136e-001	 1.051346928789430e+001
 4.644218648428491e+000	 9.968616482696642e-001	 1.056411369237908e+001
 4.634498446467843e+000	 1.041116780158473e+000	 1.059155829989058e+001
 4.624327829983526e+000	 1.085399521425691e+000	 1.059415411220202e+001
 4.613704586919089e+000	 1.129703494256914e+000	 1.057019836559525e+001
 4.602626616365185e+000	 1.174022244523953e+000	 1.051792874109262e+001
 4.591091931124016e+000	 1.218349243971802e+000	 1.043551749350231e+001
 4.579098660229948e+000	 1.262677892496843e+000	 1.038339881986141e+001
 4.566645051422785e+000	 1.307001520515620e+000	 1.046080803343262e+001
 4.695283134194934e+000	 8.688735752679868e-001	 1.034769857985944e+001
 4.686855708638989e+000	 9.132406947316664e-001	 1.043462206334136e+001
 4.677982813078237e+000	 9.576543221407282e-001	 1.050325105948455e+001
 4.668661904473817e+000	 1.002108288525804e+000	 1.055214853881287e+001
 4.658890543555444e+000	 1.046596342161823e+000	 1.057983450332149e+001
 4.648666397510717e+000	 1.091112150488570e+000	 1.058478017414822e+001
 4.637987242640786e+000	 1.135649302124196e+000	 1.056540206127112e+001
 4.626850966978886e+000	 1.180201308971414e+000	 1.052005593111878e+001
 4.615255572868284e+000	 1.224761608415979e+000	 1.044703068892916e+001
 4.603199179496159e+000	 1.269323565616884e+000	 1.042758885772604e+001
 4.590680025379892e+000	 1.313880475887600e+000	 1.049362733627867e+001
 4.719865768405383e+000	 8.734226515789357e-001	 1.034863724438199e+001
 4.711394220202210e+000	 9.180220596270136e-001	 1.042989765195322e+001
 4.702474869690624e+000	 9.626682191173959e-001	 1.049460510912580e+001
 4.693105160517438e+000	 1.007354928782444e+000	 1.054144519613797e+001
 4.683282640641307e+000	 1.052075904165542e+000	 1.056906005980161e+001
 4.673004965036161e+000	 1.096824779551708e+000	 1.057604236580156e+001
 4.662269898360744e+000	 1.141595109991644e+000	 1.056092912805563e+001
 4.651075317590875e+000	 1.186380373418968e+000	 1.052219543143207e+001
 4.639419214610887e+000	 1.231173972860197e+000	 1.045824806509572e+001
 4.627299698760771e+000	 1.275969238736935e+000	 1.046398890331439e+001
 4.614714999335491e+000	 1.320759431259581e+000	 1.051973266672945e+001
 4.744448402614344e+000	 8.779717278908998e-001	 1.035140310344844e+001
 4.735932731763849e+000	 9.228034245231848e-001	 1.042666249580356e+001
 4.726966926301361e+000	 9.676821160947169e-001	 1.048710638962520e+001
 4.717548416559352e+000	 1.012601569039586e+000	 1.053154420664576e+001
 4.707674737725434e+000	 1.057555466169631e+000	 1.055874147975462e+001
 4.697343532559855e+000	 1.102537408615102e+000	 1.056741356775075e+001
 4.686552554078960e+000	 1.147540917859257e+000	 1.055621924212714e+001
 4.675299668201150e+000	 1.192559437866615e+000	 1.052375416259803e+001
 4.663582856351825e+000	 1.237586337304457e+000	 1.046854425907921e+001
 4.651400218023789e+000	 1.282614911856997e+000	 1.049273807818379e+001
 4.638749973289582e+000	 1.327638386631561e+000	 1.053925780731261e+001
 4.769031036821811e+000	 8.825208042038785e-001	 1.035563955600877e+001
 4.760471243323902e+000	 9.275847894201803e-001	 1.042452518348081e+001
 4.751458982910444e+000	 9.726960130726908e-001	 1.048032900666571e+001
 4.741991672599561e+000	 1.017848209297230e+000	 1.052198554370571e+001
 4.732066834807823e+000	 1.063035028174090e+000	 1.054838497802323e+001
 4.721682100081798e+000	 1.108250037678754e+000	 1.055836663332673e+001
 4.710835209795433e+000	 1.153486725727035e+000	 1.055071231555619e+001
 4.699524018809712e+000	 1.198738502314356e+000	 1.052413953889653e+001
 4.687746498091099e+000	 1.243998701748758e+000	 1.047729465401232e+001
 4.675500737285211e+000	 1.289260584977068e+000	 1.051397649665519e+001
 4.662784947242169e+000	 1.334517342003541e+000	 1.055233777424473e+001
 4.793613671027784e+000	 8.870698805178717e-001	 1.036098861987568e+001
 4.785009754882376e+000	 9.323661543180003e-001	 1.042309320251813e+001
 4.775951039517873e+000	 9.777099100513179e-001	 1.047384624052721e+001
 4.766434928638065e+000	 1.023094849555375e+000	 1.051230862635311e+001
 4.756458931888473e+000	 1.068514590178917e+000	 1.053749648144817e+001
 4.746020667601993e+000	 1.113962666742662e+000	 1.054837438930158e+001
 4.735117865510166e+000	 1.159432533594977e+000	 1.054384849025693e+001
 4.723748369416562e+000	 1.204917566762189e+000	 1.052275945566240e+001
 4.711910139828707e+000	 1.250411066193101e+000	 1.048475200126189e+001
 4.699601256545038e+000	 1.295906258097151e+000	 1.052784524035779e+001
 4.686819921193249e+000	 1.341396297375522e+000	 1.055910878579819e+001
 4.818196305232266e+000	 8.916189568328796e-001	 1.036709096695776e+001
 4.809548266439266e+000	 9.371475192166445e-001	 1.042197296748147e+001
 4.800443096123647e+000	 9.827238070305986e-001	 1.046723056714280e+001
 4.790878184674864e+000	 1.028341489814022e+000	 1.050205233343028e+001
 4.780851028967386e+000	 1.073994152184115e+000	 1.052558163621521e+001
 4.770359235120437e+000	 1.119675295806829e+000	 1.053690963656601e+001
 4.759400521223157e+000	 1.165378341463085e+000	 1.053506813212375e+001
 4.747972720021696e+000	 1.211096631210116e+000	 1.051902227701367e+001
 4.736073781564651e+000	 1.256823430637485e+000	 1.049941093131797e+001
 4.723701775803267e+000	 1.302551931217244e+000	 1.053448633355277e+001
 4.710854895142822e+000	 1.348275252747503e+000	 1.055970823163652e+001
 4.842778939435253e+000	 8.961680331489021e-001	 1.037358595741944e+001
 4.834086777994573e+000	 9.419288841161130e-001	 1.042076984720224e+001
 4.824935152727766e+000	 9.877377040105320e-001	 1.046005367851358e+001
 4.815321440709955e+000	 1.033588130073170e+000	 1.049075501729694e+001
 4.805243126044562e+000	 1.079473714189682e+000	 1.051214581497832e+001
 4.794697802637132e+000	 1.125387924871252e+000	 1.052344515078634e+001
 4.783683176934407e+000	 1.171324149331359e+000	 1.052381182534658e+001
 4.772197070625118e+000	 1.217275695658136e+000	 1.051233682395344e+001
 4.760237423298931e+000	 1.263235795081911e+000	 1.050591428380542e+001
 4.747802295059902e+000	 1.309197604337347e+000	 1.053404271920866e+001
 4.734889869090889e+000	 1.355154208119483e+000	 1.055427464308368e+001
 4.867361573636751e+000	 9.007171094659396e-001	 1.038011167280584e+001
 4.858625289548295e+000	 9.467102490164057e-001	 1.041908819118477e+001
 4.849427209330234e+000	 9.927516009911185e-001	 1.045188650250501e+001
 4.839764696743343e+000	 1.038834770332819e+000	 1.047795451712538e+001
 4.829635223120002e+000	 1.084953276195618e+000	 1.049669412376711e+001
 4.819036370152078e+000	 1.131100553935933e+000	 1.050745368304139e+001
 4.807965832643914e+000	 1.177269957199797e+000	 1.050952036689829e+001
 4.796421421226826e+000	 1.223454760106249e+000	 1.050211236283249e+001
 4.784401065031544e+000	 1.269648159526378e+000	 1.050441029242837e+001
 4.771902814314941e+000	 1.315843277457460e+000	 1.052665823580159e+001
 4.758924843037452e+000	 1.362033163491464e+000	 1.054294766429419e+001
 4.891944207836753e+000	 9.052661857839915e-001	 1.038630494816889e+001
 4.883163801100436e+000	 9.514916139175227e-001	 1.041653135521757e+001
 4.873919265931045e+000	 9.977654979723585e-001	 1.044229922204622e+001
 4.864207952775023e+000	 1.044081410592970e+000	 1.046318817179452e+001
 4.854027320193703e+000	 1.090432838201924e+000	 1.047873140868589e+001
 4.843374937665274e+000	 1.136813183000871e+000	 1.048840796044028e+001
 4.832248488351679e+000	 1.183215765068401e+000	 1.049163476118842e+001
 4.820645771826821e+000	 1.229633824554455e+000	 1.048775859415955e+001
 4.808564706762494e+000	 1.276060523970887e+000	 1.049504784695024e+001
 4.796003333568383e+000	 1.322488950577584e+000	 1.051247759481518e+001
 4.782959816982506e+000	 1.368912118863444e+000	 1.052586802429262e+001
 4.916526842035265e+000	 9.098152621030583e-001	 1.039180140322972e+001
 4.907702312650993e+000	 9.562729788194643e-001	 1.041270172621612e+001
 4.898411322530204e+000	 1.002779394954252e+000	 1.043086129375348e+001
 4.888651208805000e+000	 1.049328050853623e+000	 1.044599283239726e+001
 4.878419417265668e+000	 1.095912400208599e+000	 1.045776226241183e+001
 4.867713505176722e+000	 1.142525812066066e+000	 1.046578068672171e+001
 4.856531144057705e+000	 1.189161572937169e+000	 1.046959621487732e+001
 4.844870122425104e+000	 1.235812889002754e+000	 1.046868564174742e+001
 4.832728348491778e+000	 1.282472888415437e+000	 1.047797647679225e+001
 4.820103852820230e+000	 1.329134623697719e+000	 1.049164635891527e+001
 4.806994790926056e+000	 1.375791074235425e+000	 1.050317750985179e+001
 4.566645051422785e+000	 1.307001520515620e+000	 1.046080803343262e+001
 4.553729473570638e+000	 1.351313391422532e+000	 1.043084219839932e+001
 4.540350419037734e+000	 1.395606704137587e+000	 1.040871179930741e+001
 4.526506505994300e+000	 1.439874595742234e+000	 1.039473340931845e+001
 4.512196480665969e+000	 1.484110144199970e+000	 1.038922544847017e+001
 4.497419219518086e+000	 1.528306371162558e+000	 1.039250995410058e+001
 4.482173731371831e+000	 1.572456244859625e+000	 1.040491438166525e+001
 4.466459159448743e+000	 1.616552683069939e+000	 1.042677343011815e+001
 4.450274783340313e+000	 1.660588556172508e+000	 1.045843088577635e+001
 4.433620020899308e+000	 1.704556690275470e+000	 1.050024147835319e+001
 4.416494430049541e+000	 1.748449870420633e+000	 1.055257274262855e+001
 4.590680025379892e+000	 1.313880475887600e+000	 1.049362733627867e+001
 4.577696470802579e+000	 1.358425567166879e+000	 1.046582871193455e+001
 4.564247000193416e+000	 1.402952002579742e+000	 1.044497875262674e+001
 4.550330224449835e+000	 1.447452883087015e+000	 1.043137184246188e+001
 4.535944883198663e+000	 1.491921250220426e+000	 1.042530515707051e+001
 4.521089846991900e+000	 1.536350088903590e+000	 1.042708050655853e+001
 4.505764119433992e+000	 1.580732330356816e+000	 1.043700620884833e+001
 4.489966839237115e+000	 1.625060855084025e+000	 1.045539898740410e+001
 4.473697282201146e+000	 1.669328495939906e+000	 1.048258588708149e+001
 4.456954863114908e+000	 1.713528041275271e+000	 1.051890620160213e+001
 4.439739137575500e+000	 1.757652238158466e+000	 1.056471340593397e+001
 4.614714999335491e+000	 1.320759431259581e+000	 1.051973266672945e+001
 4.601663468033124e+000	 1.365537742911231e+000	 1.049449321789412e+001
 4.588143581347830e+000	 1.410297301021918e+000	 1.047532351422686e+001
 4.574153942904255e+000	 1.455031170431841e+000	 1.046249526380011e+001
 4.559693285730408e+000	 1.499732356240961e+000	 1.045628390550361e+001
 4.544760474464951e+000	 1.544393806644744e+000	 1.045697052531411e+001
 4.529354507495598e+000	 1.589008415854183e+000	 1.046484380296955e+001
 4.513474519025167e+000	 1.633569027098352e+000	 1.048020198286572e+001
 4.497119781061903e+000	 1.678068435707619e+000	 1.050335486273342e+001
 4.480289705330701e+000	 1.722499392275472e+000	 1.053462579341123e+001
 4.462983845101943e+000	 1.766854605896794e+000	 1.057435368280441e+001
 4.638749973289582e+000	 1.327638386631561e+000	 1.053925780731261e+001
 4.625630465262270e+000	 1.372649918655588e+000	 1.051697469247849e+001
 4.612040162500976e+000	 1.417642599464112e+000	 1.049989001825527e+001
 4.597977661357554e+000	 1.462609457776710e+000	 1.048825232386004e+001
 4.583441688261203e+000	 1.507543462261574e+000	 1.048231481337003e+001
 4.568431101937241e+000	 1.552437524386020e+000	 1.048233734610972e+001
 4.552944895556652e+000	 1.597284501351727e+000	 1.048858845747633e+001
 4.536982198812894e+000	 1.642077199112921e+000	 1.050134740384320e+001
 4.520542279922587e+000	 1.686808375475648e+000	 1.052090622491586e+001
 4.503624547546691e+000	 1.731470743276074e+000	 1.054757181666809e+001
 4.486228552628871e+000	 1.776056973635617e+000	 1.058166800775720e+001
 4.662784947242169e+000	 1.334517342003541e+000	 1.055233777424473e+001
 4.649597462490021e+000	 1.379762094399950e+000	 1.053341336815341e+001
 4.635936743652853e+000	 1.424987897906325e+000	 1.051882348127626e+001
 4.621801379809737e+000	 1.470187745121623e+000	 1.050879298532686e+001
 4.607190090791048e+000	 1.515354568282264e+000	 1.050355234577289e+001
 4.592101729408772e+000	 1.560481242127419e+000	 1.050333968714841e+001
 4.576535283617155e+000	 1.605560586849447e+000	 1.050840288885730e+001
 4.560489878600298e+000	 1.650585371127729e+000	 1.051900170492773e+001
 4.543964778783194e+000	 1.695548315243992e+000	 1.053540990090687e+001
 4.526959389762876e+000	 1.740442094277075e+000	 1.055791740083425e+001
 4.509473260156283e+000	 1.785259341374934e+000	 1.058683243699930e+001
 4.686819921193249e+000	 1.341396297375522e+000	 1.055910878579819e+001
 4.673564459716376e+000	 1.386874270144317e+000	 1.054395070143801e+001
 4.659833324803467e+000	 1.432333196348558e+000	 1.053227036938838e+001
 4.645625098260799e+000	 1.477766032466580e+000	 1.052426848939888e+001
 4.630938493319944e+000	 1.523165674303032e+000	 1.052015227881783e+001
 4.615772356879540e+000	 1.568524959868940e+000	 1.052013761364609e+001
 4.600125671677106e+000	 1.613836672347345e+000	 1.052445120015403e+001
 4.583997558387378e+000	 1.659093543142779e+000	 1.053333277033958e+001
 4.567387277643729e+000	 1.704288255012651e+000	 1.054703729423036e+001
 4.550294231979255e+000	 1.749413445278477e+000	 1.056583720177660e+001
 4.532717967684180e+000	 1.794461709114747e+000	 1.059002460684559e+001
 4.710854895142822e+000	 1.348275252747503e+000	 1.055970823163652e+001
 4.697531456941334e+000	 1.393986445888689e+000	 1.054872934167884e+001
 4.683729905952809e+000	 1.439678494790811e+000	 1.054037836634859e+001
 4.669448816710744e+000	 1.485344319811581e+000	 1.053483132317245e+001
 4.654686895847889e+000	 1.530976780323879e+000	 1.053227166616902e+001
 4.639442984349548e+000	 1.576568677610583e+000	 1.053289250346905e+001
 4.623716059736504e+000	 1.622112757845418e+000	 1.053689884558976e+001
 4.607505238174135e+000	 1.667601715158070e+000	 1.054450987745800e+001
 4.590809776504189e+000	 1.713028194781626e+000	 1.055596124699669e+001
 4.573629074195829e+000	 1.758384796280278e+000	 1.057150736282844e+001
 4.555962675212561e+000	 1.803664076855054e+000	 1.059142369340990e+001
 4.734889869090889e+000	 1.355154208119483e+000	 1.055427464308368e+001
 4.721498454164894e+000	 1.401098621633065e+000	 1.054789310077521e+001
 4.707626487100888e+000	 1.447023793233083e+000	 1.054329634266722e+001
 4.693272535159570e+000	 1.492922607156626e+000	 1.054063518802012e+001
 4.678435298374886e+000	 1.538787886344804e+000	 1.054006880662385e+001
 4.663113611818793e+000	 1.584612395352349e+000	 1.054176701381789e+001
 4.647306447795349e+000	 1.630388843343668e+000	 1.054591259627551e+001
 4.631012917960569e+000	 1.676109887173602e+000	 1.055270366146186e+001
 4.614232275364574e+000	 1.721768134550916e+000	 1.056235600339037e+001
 4.596963916412597e+000	 1.767356147282479e+000	 1.057510547703658e+001
 4.579207382741428e+000	 1.812866444595856e+000	 1.059121037352391e+001
 4.758924843037452e+000	 1.362033163491464e+000	 1.054294766429419e+001
 4.745465451387058e+000	 1.408210797377446e+000	 1.054158692382170e+001
 4.731523068247697e+000	 1.454369091675374e+000	 1.054117432563944e+001
 4.717096253607279e+000	 1.500500894501714e+000	 1.054183496892715e+001
 4.702183700900933e+000	 1.546598992365808e+000	 1.054370321267016e+001
 4.686784239287278e+000	 1.592656113094236e+000	 1.054692504892114e+001
 4.670896835853644e+000	 1.638664928842095e+000	 1.055166050695530e+001
 4.654520597746679e+000	 1.684618059189375e+000	 1.055808608104176e+001
 4.637654774224886e+000	 1.730508074320522e+000	 1.056639717426412e+001
 4.620298758629560e+000	 1.776327498285080e+000	 1.057681055055237e+001
 4.602452090270778e+000	 1.822068812337153e+000	 1.058956678684019e+001
 4.782959816982506e+000	 1.368912118863444e+000	 1.052586802429262e+001
 4.769432448607826e+000	 1.415322973121832e+000	 1.052995686063594e+001
 4.755419649393240e+000	 1.461714390117685e+000	 1.053416347028034e+001
 4.740919972053868e+000	 1.508079181846847e+000	 1.053858670475248e+001
 4.725932103426031e+000	 1.554410098386889e+000	 1.054333557999149e+001
 4.710454866755005e+000	 1.600699830836247e+000	 1.054853172870288e+001
 4.694487223911384e+000	 1.646941014340699e+000	 1.055431188375405e+001
 4.678028277532465e+000	 1.693126231205388e+000	 1.056083038514598e+001
 4.661077273085121e+000	 1.739248014090443e+000	 1.056826170280047e+001
 4.643633600846719e+000	 1.785298849288082e+000	 1.057680296712657e+001
 4.625696797800613e+000	 1.831271180078945e+000	 1.058667649907786e+001
 4.806994790926056e+000	 1.375791074235425e+000	 1.050317750985179e+001
 4.793399445827198e+000	 1.422435148866224e+000	 1.051315003814053e+001
 4.779316230537516e+000	 1.469059688560016e+000	 1.052241603113190e+001
 4.764743690499341e+000	 1.515657469192023e+000	 1.053104755938188e+001
 4.749680505950179e+000	 1.562221204408049e+000	 1.053912775788722e+001
 4.734125494221968e+000	 1.608743548578380e+000	 1.054675335839034e+001
 4.718077611968575e+000	 1.655217099839480e+000	 1.055403725289309e+001
 4.701535957317928e+000	 1.701634403221643e+000	 1.056111108072407e+001
 4.684499771945284e+000	 1.747987953860680e+000	 1.056812783120354e+001
 4.666968443064073e+000	 1.794270200291484e+000	 1.057526445366941e+001
 4.648941505330933e+000	 1.840473547821232e+000	 1.058272446637102e+001
 4.416494430049541e+000	 1.748449870420633e+000	 1.055257274262855e+001
 4.398897710511125e+000	 1.792260843862486e+000	 1.061916802639352e+001
 4.380829705437297e+000	 1.835982323416120e+000	 1.070038461492067e+001
 4.362290402960451e+000	 1.879606990872976e+000	 1.070801957983810e+001
 4.343279937644680e+000	 1.923127500484416e+000	 1.061045735375659e+001
 4.323798591841205e+000	 1.966536482506963e+000	 1.053899983994373e+001
 4.303846796944171e+000	 2.009826546807196e+000	 1.049347262854480e+001
 4.283425134544102e+000	 2.052990286523143e+000	 1.047363405743051e+001
 4.262534337476437e+000	 2.096020281778891e+000	 1.047917513658549e+001
 4.241175290762652e+000	 2.138909103449004e+000	 1.050971961169779e+001
 4.219349032441642e+000	 2.181649316969236e+000	 1.056482416874337e+001
 4.439739137575500e+000	 1.757652238158466e+000	 1.056471340593397e+001
 4.422049803722750e+000	 1.801693795671522e+000	 1.062502413954930e+001
 4.403886703884518e+000	 1.845645388275808e+000	 1.069905797278284e+001
 4.385249826130742e+000	 1.889499659245881e+000	 1.075444007781787e+001
 4.366139305733747e+000	 1.933249224171265e+000	 1.070687258948180e+001
 4.346555426530813e+000	 1.976886674520360e+000	 1.062268951747747e+001
 4.326498622186581e+000	 2.020404581264306e+000	 1.056419429736829e+001
 4.305969477352579e+000	 2.063795498557646e+000	 1.053112896580274e+001
 4.284968728721273e+000	 2.107051967472486e+000	 1.052316778912572e+001
 4.263497265972154e+000	 2.150166519782732e+000	 1.053991734951345e+001
 4.241556132607472e+000	 2.193131681794851e+000	 1.058091677375137e+001
 4.462983845101943e+000	 1.766854605896794e+000	 1.057435368280441e+001
 4.445201896935138e+000	 1.811126747481146e+000	 1.062850872198484e+001
 4.426943702332746e+000	 1.855308453136171e+000	 1.069548915901828e+001
 4.408209249302243e+000	 1.899392327619536e+000	 1.072384019863064e+001
 4.388998673824186e+000	 1.943370947858931e+000	 1.072341768263910e+001
 4.369312261221915e+000	 1.987236866534629e+000	 1.070608778480128e+001
 4.349150447430567e+000	 2.030982615722333e+000	 1.063447649474490e+001
 4.328513820162675e+000	 2.074600710593101e+000	 1.058805564364239e+001
 4.307403119967733e+000	 2.118083653167060e+000	 1.056648270712092e+001
 4.285819241183236e+000	 2.161423936117454e+000	 1.056934703680650e+001
 4.263763232774805e+000	 2.204614046621467e+000	 1.059617011327475e+001
 4.486228552628871e+000	 1.776056973635617e+000	 1.058166800775720e+001
 4.468353990148293e+000	 1.820559699291361e+000	 1.062980375817863e+001
 4.450000700781982e+000	 1.864971517997210e+000	 1.068986745592458e+001
 4.431168672474953e+000	 1.909284995993942e+000	 1.069389036257700e+001
 4.411858041915995e+000	 1.953492671547412e+000	 1.068997882963385e+001
 4.392069095914512e+000	 1.997587058549771e+000	 1.069852487007908e+001
 4.371802272676131e+000	 2.041560650181278e+000	 1.070420978746289e+001
 4.351058162974391e+000	 2.085405922629510e+000	 1.064430664917351e+001
 4.329837511215814e+000	 2.129115338862614e+000	 1.060901435941371e+001
 4.308141216395904e+000	 2.172681352453172e+000	 1.059790496979746e+001
 4.285970332943644e+000	 2.216096411449083e+000	 1.061048222524166e+001
 4.509473260156283e+000	 1.785259341374934e+000	 1.058683243699930e+001
 4.491506083362213e+000	 1.829992651102166e+000	 1.062909281073577e+001
 4.473057699232222e+000	 1.874634582858924e+000	 1.068238368324428e+001
 4.454128095648869e+000	 1.919177664369099e+000	 1.066464682472600e+001
 4.434717410009177e+000	 1.963614395236710e+000	 1.065724587323060e+001
 4.414825930608602e+000	 2.007937250565785e+000	 1.066135416945658e+001
 4.394454097923273e+000	 2.052138684641142e+000	 1.067748991494154e+001
 4.373602505787726e+000	 2.096211134666874e+000	 1.069977591907209e+001
 4.352271902465517e+000	 2.140147024559147e+000	 1.065065857060071e+001
 4.330463191610156e+000	 2.183938768789885e+000	 1.062548878086117e+001
 4.308177433113985e+000	 2.227578776277698e+000	 1.062375246725772e+001
 4.532717967684180e+000	 1.794461709114747e+000	 1.059002460684559e+001
 4.514658176576894e+000	 1.839425602913561e+000	 1.062656097992322e+001
 4.496114697683471e+000	 1.884297647721313e+000	 1.065713402744821e+001
 4.477087518823998e+000	 1.929070332745008e+000	 1.063616730137354e+001
 4.457576778103730e+000	 1.973736118926826e+000	 1.062528009243786e+001
 4.437582765304188e+000	 2.018287442582671e+000	 1.062495592936377e+001
 4.417105923171993e+000	 2.062716719101925e+000	 1.063570224384199e+001
 4.396146848602683e+000	 2.107016346705191e+000	 1.065805084108461e+001
 4.374706293716842e+000	 2.151178710256659e+000	 1.069131248626957e+001
 4.352785166825990e+000	 2.195196185127592e+000	 1.065199740426645e+001
 4.330384533285831e+000	 2.239061141107313e+000	 1.063588148276829e+001
 4.555962675212561e+000	 1.803664076855054e+000	 1.059142369340990e+001
 4.537810269792344e+000	 1.848858554725545e+000	 1.062239486444374e+001
 4.519171696135725e+000	 1.893960712584378e+000	 1.063202509495897e+001
 4.500046942000333e+000	 1.938963001121667e+000	 1.060851093276617e+001
 4.480436146199654e+000	 1.983857842617758e+000	 1.059414415715926e+001
 4.460339600001268e+000	 2.028637634600431e+000	 1.058939613585455e+001
 4.439757748422287e+000	 2.073294753563625e+000	 1.059476348151471e+001
 4.418691191419258e+000	 2.117821558744462e+000	 1.061076856236097e+001
 4.397140684969790e+000	 2.162210395955151e+000	 1.063795994721342e+001
 4.375107142043407e+000	 2.206453601466294e+000	 1.067691278144120e+001
 4.352591633459181e+000	 2.250543505937929e+000	 1.064677116825637e+001
 4.579207382741428e+000	 1.812866444595856e+000	 1.059121037352391e+001
 4.560962363008558e+000	 1.858291506538120e+000	 1.061678252340447e+001
 4.542228694588986e+000	 1.903623777448118e+000	 1.060779141433553e+001
 4.523006365177878e+000	 1.948855669499077e+000	 1.058173824696027e+001
 4.503295514296952e+000	 1.993979566309507e+000	 1.056390209289169e+001
 4.483096434699842e+000	 2.038987826619062e+000	 1.055474210112076e+001
 4.462409573674162e+000	 2.083872788026244e+000	 1.055474401314273e+001
 4.441235534237454e+000	 2.128626770784687e+000	 1.056442071388294e+001
 4.419575076224358e+000	 2.173242081654623e+000	 1.058431271516272e+001
 4.397429117262409e+000	 2.217711017805991e+000	 1.061498856806698e+001
 4.374798733634036e+000	 2.262025870769545e+000	 1.065632464143961e+001
 4.602452090270778e+000	 1.822068812337153e+000	 1.058956678684019e+001
 4.584114456225539e+000	 1.867724458351285e+000	 1.060991343943810e+001
 4.565285693043254e+000	 1.913286842312534e+000	 1.058449119537570e+001
 4.545965788356632e+000	 1.958748337877238e+000	 1.055591112477625e+001
 4.526154882395619e+000	 2.004101290002073e+000	 1.053461924649310e+001
 4.505853269399911e+000	 2.049338018638566e+000	 1.052106243000382e+001
 4.485061398927613e+000	 2.094450822489781e+000	 1.051571549056683e+001
 4.463779877057269e+000	 2.139431982825866e+000	 1.051908178071993e+001
 4.442009467480551e+000	 2.184273767355074e+000	 1.053169371242021e+001
 4.419751092482994e+000	 2.228968434146683e+000	 1.055411320606541e+001
 4.397005833810392e+000	 2.273508235602161e+000	 1.058693206278190e+001
 4.625696797800613e+000	 1.831271180078945e+000	 1.058667649907786e+001
 4.607266549443284e+000	 1.877157410165040e+000	 1.059923003432486e+001
 4.588342691498529e+000	 1.922949907177625e+000	 1.056218399986157e+001
 4.568925211536594e+000	 1.968641006256150e+000	 1.053109276580959e+001
 4.549014250495659e+000	 2.014223013695455e+000	 1.050636225298248e+001
 4.528610104101475e+000	 2.059688210658943e+000	 1.048842698751617e+001
 4.507713224182639e+000	 2.105028856954236e+000	 1.047775080045995e+001
 4.486324219878705e+000	 2.150237194867999e+000	 1.047482746011186e+001
 4.464443858738363e+000	 2.195305453056505e+000	 1.048018123308551e+001
 4.442073067705161e+000	 2.240225850488371e+000	 1.049436737022590e+001
 4.419212933988254e+000	 2.284990600435776e+000	 1.051797251364032e+001
 4.648941505330933e+000	 1.840473547821232e+000	 1.058272446637102e+001
 4.630418642661795e+000	 1.886590361979385e+000	 1.057955597182269e+001
 4.611399689954811e+000	 1.932612972043392e+000	 1.054093070775980e+001
 4.591884634717767e+000	 1.978533674635814e+000	 1.050734765546145e+001
 4.571873618597071e+000	 2.024344737389654e+000	 1.047919900333587e+001
 4.551366938804533e+000	 2.070038402680192e+000	 1.045690686733693e+001
 4.530365049439246e+000	 2.115606891419609e+000	 1.044092403345635e+001
 4.508868562701761e+000	 2.161042406911086e+000	 1.043173463116493e+001
 4.486878249997798e+000	 2.206337138758915e+000	 1.042985473366356e+001
 4.464395042928914e+000	 2.251483266831053e+000	 1.043583288093882e+001
 4.441420034167620e+000	 2.296472965270393e+000	 1.045025052176894e+001
 4.219349032441642e+000	 2.181649316969236e+000	 1.056482416874337e+001
 4.197056754289153e+000	 2.224233486189214e+000	 1.059472975163997e+001
 4.174299802423162e+000	 2.266654177265143e+000	 1.062608629933614e+001
 4.151079677793085e+000	 2.308903962587824e+000	 1.065857677534855e+001
 4.127398036551244e+000	 2.350975424740407e+000	 1.069184257950425e+001
 4.103256690304888e+000	 2.392861160483732e+000	 1.072548433540655e+001
 4.078657606247211e+000	 2.434553784764503e+000	 1.075906278966124e+001
 4.053602907166103e+000	 2.476045934742122e+000	 1.079209982178260e+001
 4.028094871329415e+000	 2.517330273829837e+000	 1.078258383431750e+001
 4.002135932245784e+000	 2.558399495745879e+000	 1.071212303545891e+001
 3.975728678300154e+000	 2.599246328570120e+000	 1.063709165351373e+001
 4.241556132607472e+000	 2.193131681794851e+000	 1.058091677375137e+001
 4.219146526675409e+000	 2.235939978220896e+000	 1.060411469209789e+001
 4.196269801378701e+000	 2.278583936091637e+000	 1.063110326924627e+001
 4.172927465566494e+000	 2.321056088705192e+000	 1.066152166513899e+001
 4.149121184107708e+000	 2.363348979605680e+000	 1.069496451145068e+001
 4.124852778144358e+000	 2.405455166589519e+000	 1.073098273378500e+001
 4.100124225223292e+000	 2.447367225734717e+000	 1.076908449061564e+001
 4.074937659304965e+000	 2.489077755448879e+000	 1.080873622786750e+001
 4.049295370648115e+000	 2.530579380531643e+000	 1.077780300714081e+001
 4.023199805569314e+000	 2.571864756247122e+000	 1.071878466723469e+001
 3.996653566076591e+000	 2.612926572401926e+000	 1.065678811108435e+001
 4.263763232774805e+000	 2.204614046621467e+000	 1.059617011327475e+001
 4.241236299063069e+000	 2.247646470253574e+000	 1.061200075294198e+001
 4.218239800335543e+000	 2.290513694919109e+000	 1.063395171751770e+001
 4.194775253341109e+000	 2.333208214823516e+000	 1.066161838357082e+001
 4.170844331665274e+000	 2.375722534471873e+000	 1.069454863434519e+001
 4.146448865984832e+000	 2.418049172696183e+000	 1.073224371683622e+001
 4.121590844200275e+000	 2.460180666705753e+000	 1.077415922060661e+001
 4.096272411444630e+000	 2.502109576156394e+000	 1.081501013156839e+001
 4.070495869967516e+000	 2.543828487234131e+000	 1.076817149222803e+001
 4.044263678893448e+000	 2.585330016748961e+000	 1.071985658915061e+001
 4.017578453853528e+000	 2.626606816234234e+000	 1.067013806825297e+001
 4.285970332943644e+000	 2.216096411449083e+000	 1.061048222524166e+001
 4.263326071452134e+000	 2.259352962287246e+000	 1.061829706704993e+001
 4.240209799293691e+000	 2.302443453747564e+000	 1.063455223058722e+001
 4.216623041116927e+000	 2.345360340942795e+000	 1.065879932422405e+001
 4.192567479223944e+000	 2.388096089338986e+000	 1.069053949717622e+001
 4.168044953826307e+000	 2.430643178803723e+000	 1.072922433161285e+001
 4.143057463178162e+000	 2.472994107677609e+000	 1.077425686151036e+001
 4.117607163585099e+000	 2.515141396864667e+000	 1.079225269912552e+001
 4.091696369287622e+000	 2.557077593937302e+000	 1.075378366809554e+001
 4.065327552218185e+000	 2.598795277251399e+000	 1.071544676940439e+001
 4.038503341630969e+000	 2.640287060067045e+000	 1.067726331957124e+001
 4.308177433113985e+000	 2.227578776277698e+000	 1.062375246725772e+001
 4.285415843842603e+000	 2.271059454321914e+000	 1.062291387897874e+001
 4.262179798253142e+000	 2.314373212576999e+000	 1.063282629247823e+001
 4.238470828893949e+000	 2.357512467063031e+000	 1.065299755815064e+001
 4.214290626783717e+000	 2.400469644207022e+000	 1.068288210034434e+001
 4.189641041668788e+000	 2.443237184912141e+000	 1.072188184465564e+001
 4.164524082156952e+000	 2.485807548650289e+000	 1.076934727698821e+001
 4.138941915726370e+000	 2.528173217573696e+000	 1.076552748878500e+001
 4.112896868608430e+000	 2.570326700641154e+000	 1.073473340266425e+001
 4.086391425543523e+000	 2.612260537754435e+000	 1.070566241111182e+001
 4.059428229408913e+000	 2.653967303900358e+000	 1.067828463462602e+001
 4.330384533285831e+000	 2.239061141107313e+000	 1.063588148276829e+001
 4.307505616234475e+000	 2.282765946357576e+000	 1.062576251646014e+001
 4.284149797213895e+000	 2.326302971407412e+000	 1.062869626178572e+001
 4.260318616672174e+000	 2.369664593184222e+000	 1.064414681650347e+001
 4.236013774344594e+000	 2.412843199075978e+000	 1.067152188408753e+001
 4.211237129512270e+000	 2.455831191021433e+000	 1.071017373636544e+001
 4.185990701136645e+000	 2.498620989623789e+000	 1.075940031295366e+001
 4.160276667868445e+000	 2.541205038283481e+000	 1.073491501589837e+001
 4.134097367929940e+000	 2.583575807345689e+000	 1.071111406635182e+001
 4.107455298869464e+000	 2.625725798258067e+000	 1.069060997192437e+001
 4.080353117187359e+000	 2.667647547734174e+000	 1.067332178432045e+001
 4.352591633459181e+000	 2.250543505937929e+000	 1.064677116825637e+001
 4.329595388627752e+000	 2.294472438394234e+000	 1.062675536276863e+001
 4.306119796175953e+000	 2.338232730238808e+000	 1.062208534936579e+001
 4.282166404451603e+000	 2.381816719306368e+000	 1.063218147369700e+001
 4.257736921906573e+000	 2.425216753945855e+000	 1.065640471726084e+001
 4.232833217356757e+000	 2.468425197131603e+000	 1.069405769554774e+001
 4.207457320117240e+000	 2.511434430598111e+000	 1.072295266756627e+001
 4.181611420011321e+000	 2.554236858994024e+000	 1.070049554742039e+001
 4.155297867252154e+000	 2.596824914050907e+000	 1.068301854476408e+001
 4.128519172196009e+000	 2.639191058762298e+000	 1.067039518304602e+001
 4.101278004966307e+000	 2.681327791568492e+000	 1.066249356635068e+001
 4.374798733634036e+000	 2.262025870769545e+000	 1.065632464143961e+001
 4.351685161022432e+000	 2.306178930431887e+000	 1.062580582993098e+001
 4.328089795139315e+000	 2.350162489071183e+000	 1.061291759670467e+001
 4.304014192232236e+000	 2.393968845429471e+000	 1.061703653108079e+001
 4.279460069469657e+000	 2.437590308816653e+000	 1.063747688645779e+001
 4.254429305202247e+000	 2.481019203242649e+000	 1.067349161412302e+001
 4.228923939098740e+000	 2.524247871573255e+000	 1.068072825769998e+001
 4.202946172155001e+000	 2.567268679705325e+000	 1.066234910821350e+001
 4.176498366575070e+000	 2.610074020756807e+000	 1.065053925099988e+001
 4.149583045523156e+000	 2.652656319267126e+000	 1.064512306767105e+001
 4.122202892745759e+000	 2.695008035403313e+000	 1.064591782990649e+001
 4.397005833810392e+000	 2.273508235602161e+000	 1.058693206278190e+001
 4.373774933418516e+000	 2.317885422470535e+000	 1.062282833274766e+001
 4.350059794103981e+000	 2.362092247904538e+000	 1.060111785494314e+001
 4.325861980014071e+000	 2.406120971553528e+000	 1.059864760110789e+001
 4.301183217033842e+000	 2.449963863688371e+000	 1.061468508546146e+001
 4.276025393048739e+000	 2.493613209354571e+000	 1.064843358199776e+001
 4.250390558081143e+000	 2.537061312549222e+000	 1.063548467103672e+001
 4.224280924299484e+000	 2.580300500417383e+000	 1.062055548716129e+001
 4.197698865898689e+000	 2.623323127463389e+000	 1.061376813758307e+001
 4.170646918850905e+000	 2.666121579772552e+000	 1.061489795886315e+001
 4.143127780525714e+000	 2.708688279238637e+000	 1.062371149962350e+001
 4.419212933988254e+000	 2.284990600435776e+000	 1.051797251364032e+001
 4.395864705816003e+000	 2.329591914510178e+000	 1.055079953663224e+001
 4.372029793069951e+000	 2.374022006738874e+000	 1.058661176453351e+001
 4.347709767797112e+000	 2.418273097678542e+000	 1.057695089198044e+001
 4.322906364599133e+000	 2.462337418561011e+000	 1.058797640501351e+001
 4.297621480896234e+000	 2.506207215467370e+000	 1.060934536967097e+001
 4.271857177064447e+000	 2.549874753526010e+000	 1.058728973940786e+001
 4.245615676444771e+000	 2.593332321130198e+000	 1.057519424309761e+001
 4.218899365223010e+000	 2.636572234170654e+000	 1.057279670803480e+001
 4.191710792179259e+000	 2.679586840278576e+000	 1.057982351689523e+001
 4.164052668306169e+000	 2.722368523074463e+000	 1.059599059881315e+001
 4.441420034167620e+000	 2.296472965270393e+000	 1.045025052176894e+001
 4.417954478214896e+000	 2.341298406550817e+000	 1.047549010949958e+001
 4.393999792037225e+000	 2.385951765574191e+000	 1.051402217577128e+001
 4.369557555581356e+000	 2.430425223804511e+000	 1.055188319275592e+001
 4.344629512165529e+000	 2.474710973434573e+000	 1.055729832289032e+001
 4.319217568744735e+000	 2.518801221581046e+000	 1.055762507067448e+001
 4.293323796048657e+000	 2.562688194503620e+000	 1.053621127902760e+001
 4.266950428590861e+000	 2.606364141843770e+000	 1.052634471055776e+001
 4.240099864548036e+000	 2.649821340878601e+000	 1.052771602809850e+001
 4.212774665508213e+000	 2.693052100785196e+000	 1.054000274606934e+001
 4.184977556087130e+000	 2.736048766910793e+000	 1.056287027199583e+001
 3.975728678300154e+000	 2.599246328570120e+000	 1.063709165351373e+001
 3.948875852262866e+000	 2.639863538801905e+000	 1.059164784497537e+001
 3.921580350673420e+000	 2.680243935414237e+000	 1.056259811699164e+001
 3.893845223097610e+000	 2.720380373899949e+000	 1.054963787631410e+001
 3.865673671256817e+000	 2.760265760305474e+000	 1.055244741282147e+001
 3.837069048031190e+000	 2.799893055247307e+000	 1.057069280332502e+001
 3.808034856336499e+000	 2.839255277906679e+000	 1.060402683061642e+001
 3.778574747875074e+000	 2.878345509997804e+000	 1.065208991512466e+001
 3.748692521761567e+000	 2.917156899705098e+000	 1.070843882816376e+001
 3.718392123024358e+000	 2.955682665584793e+000	 1.064502363969630e+001
 3.687677640983678e+000	 2.993916100426382e+000	 1.059558520661229e+001
 3.996653566076591e+000	 2.612926572401926e+000	 1.065678811108435e+001
 3.969659409375954e+000	 2.653757557424342e+000	 1.061596442452049e+001
 3.942220247251892e+000	 2.694350482439861e+000	 1.058944849110442e+001
 3.914339145320548e+000	 2.734698165338652e+000	 1.057695303667021e+001
 3.886019322154460e+000	 2.774793474830545e+000	 1.057817786138022e+001
 3.857264148280525e+000	 2.814629334482651e+000	 1.059281074695833e+001
 3.828077145050904e+000	 2.854198726735047e+000	 1.062052837608454e+001
 3.798461983387418e+000	 2.893494696889920e+000	 1.066099726127453e+001
 3.768422482400057e+000	 2.932510357069494e+000	 1.071387468054335e+001
 3.737962607880510e+000	 2.971238890138198e+000	 1.072529107023223e+001
 3.707086470671743e+000	 3.009673553584413e+000	 1.066637864590057e+001
 4.017578453853528e+000	 2.626606816234234e+000	 1.067013806825297e+001
 3.990442966489449e+000	 2.667651576047185e+000	 1.063452062582461e+001
 3.962860143830687e+000	 2.708457029465810e+000	 1.061114590501519e+001
 3.934833067543729e+000	 2.749015956777602e+000	 1.059974358647893e+001
 3.906364973052286e+000	 2.789321189355798e+000	 1.060003260347835e+001
 3.877459248529986e+000	 2.829365613718120e+000	 1.061172205295086e+001
 3.848119433765392e+000	 2.869142175563498e+000	 1.063451211567103e+001
 3.818349218899808e+000	 2.908643883782080e+000	 1.066809498278827e+001
 3.788152443038568e+000	 2.947863814433913e+000	 1.071215578600225e+001
 3.757533092736664e+000	 2.986795114691607e+000	 1.076637352863014e+001
 3.726495300359807e+000	 3.025431006742444e+000	 1.073091582480381e+001
 4.038503341630969e+000	 2.640287060067045e+000	 1.067726331957124e+001
 4.011226523603352e+000	 2.681545594670439e+000	 1.064743115193848e+001
 3.983500040409803e+000	 2.722563576492080e+000	 1.062779759168673e+001
 3.955326989767160e+000	 2.763333748216800e+000	 1.061810891174251e+001
 3.926710623950293e+000	 2.803848903881233e+000	 1.061810280325848e+001
 3.897654348779573e+000	 2.844101892953717e+000	 1.062750929091953e+001
 3.868161722479959e+000	 2.884085624392028e+000	 1.064605165429355e+001
 3.838236454412243e+000	 2.923793070674288e+000	 1.067344735246250e+001
 3.807882403677098e+000	 2.963217271798351e+000	 1.070940894915805e+001
 3.777103577592825e+000	 3.002351339245024e+000	 1.075364503562479e+001
 3.745904130047871e+000	 3.041188459900474e+000	 1.078922726459906e+001
 4.059428229408913e+000	 2.653967303900358e+000	 1.067828463462602e+001
 4.032010080717662e+000	 2.695439613294097e+000	 1.065480985181560e+001
 4.004139936989244e+000	 2.736670123518674e+000	 1.063951010808394e+001
 3.975820911990837e+000	 2.777651539656244e+000	 1.063214790773305e+001
 3.947056274848482e+000	 2.818376618406849e+000	 1.063247932650113e+001
 3.917849449029286e+000	 2.858838172189438e+000	 1.064025493151435e+001
 3.888204011194608e+000	 2.899029073220639e+000	 1.065522070424727e+001
 3.858123689924725e+000	 2.938942257566539e+000	 1.067711896368232e+001
 3.827612364315648e+000	 2.978570729162808e+000	 1.070568928685376e+001
 3.796674062448990e+000	 3.017907563798444e+000	 1.074066942396712e+001
 3.765312959735935e+000	 3.056945913058504e+000	 1.078179620530109e+001
 4.080353117187359e+000	 2.667647547734174e+000	 1.067332178432045e+001
 4.052793637832379e+000	 2.709333631918165e+000	 1.065676974221203e+001
 4.024779833569006e+000	 2.750776670545588e+000	 1.064638935250702e+001
 3.996314834214760e+000	 2.791969331095935e+000	 1.064195899157546e+001
 3.967401925746854e+000	 2.832904332932648e+000	 1.064325274827517e+001
 3.938044549279125e+000	 2.873574451425288e+000	 1.065004134895610e+001
 3.908246299909337e+000	 2.913972522049331e+000	 1.066209308245161e+001
 3.878010925437251e+000	 2.954091444458837e+000	 1.067917472220115e+001
 3.847342324954219e+000	 2.993924186527287e+000	 1.070105244265027e+001
 3.816244547305162e+000	 3.033463788351870e+000	 1.072749272708563e+001
 3.784721789423999e+000	 3.072703366216536e+000	 1.075826326408622e+001
 4.101278004966307e+000	 2.681327791568492e+000	 1.066249356635068e+001
 4.073577194947506e+000	 2.723227650542639e+000	 1.065342302891605e+001
 4.045419730149088e+000	 2.764883217572826e+000	 1.064854058139420e+001
 4.016808756438932e+000	 2.806287122535875e+000	 1.064764011444496e+001
 3.987747576645406e+000	 2.847432047458628e+000	 1.065051336035379e+001
 3.958239649529090e+000	 2.888310730661262e+000	 1.065695082349619e+001
 3.928288588624146e+000	 2.928915970878103e+000	 1.066674270778123e+001
 3.897898160949822e+000	 2.969240631351180e+000	 1.067967983817219e+001
 3.867072285592811e+000	 3.009277643891787e+000	 1.069555457338964e+001
 3.835815032161338e+000	 3.049020012905300e+000	 1.071416170692113e+001
 3.804130619112063e+000	 3.088460819374566e+000	 1.073529935349092e+001
 4.122202892745759e+000	 2.695008035403313e+000	 1.064591782990649e+001
 4.094360752063038e+000	 2.737121669167521e+000	 1.064488112733094e+001
 4.066059626729495e+000	 2.778989764600385e+000	 1.064606842561268e+001
 4.037302678663351e+000	 2.820604913976060e+000	 1.064928877339332e+001
 4.008093227544140e+000	 2.861959761984789e+000	 1.065435117840486e+001
 3.978434749779183e+000	 2.903047009897364e+000	 1.066106554380175e+001
 3.948330877339038e+000	 2.943859419706957e+000	 1.066924359847839e+001
 3.917785396462439e+000	 2.984389818243568e+000	 1.067869981842241e+001
 3.886802246231422e+000	 3.024631101256305e+000	 1.068925233616768e+001
 3.855385517017518e+000	 3.064576237458736e+000	 1.070072383543659e+001
 3.823539448800127e+000	 3.104218272532597e+000	 1.071294242809704e+001
 4.143127780525714e+000	 2.708688279238637e+000	 1.062371149962350e+001
 4.115144309178978e+000	 2.751015687792811e+000	 1.063125468243436e+001
 4.086699523310224e+000	 2.793096311628269e+000	 1.063907690625578e+001
 4.057796600888016e+000	 2.834922705416492e+000	 1.064700202281657e+001
 4.028438878443054e+000	 2.876487476511132e+000	 1.065485594896324e+001
 3.998629850029400e+000	 2.917783289133591e+000	 1.066246760926830e+001
 3.968373166054010e+000	 2.958802868535892e+000	 1.066966986964362e+001
 3.937672631975102e+000	 2.999539005136003e+000	 1.067630045896094e+001
 3.906532206870054e+000	 3.039984558620844e+000	 1.068220287570129e+001
 3.874956001873705e+000	 3.080132462012176e+000	 1.068722727668733e+001
 3.842948278488191e+000	 3.119975725690628e+000	 1.069123134499523e+001
 4.164052668306169e+000	 2.722368523074463e+000	 1.059599059881315e+001
 4.135927866295327e+000	 2.764909706418508e+000	 1.061265358813566e+001
 4.107339419891274e+000	 2.807202858656472e+000	 1.062766944996401e+001
 4.078290523112928e+000	 2.849240496857172e+000	 1.064087648557701e+001
 4.048784529342152e+000	 2.891015191037656e+000	 1.065211715619289e+001
 4.018824950279745e+000	 2.932519568369945e+000	 1.066123903226275e+001
 3.988415454769063e+000	 2.973746317364907e+000	 1.066809573080210e+001
 3.957559867487811e+000	 3.014688192028483e+000	 1.067254783771307e+001
 3.926262167508706e+000	 3.055338015985404e+000	 1.067446381207660e+001
 3.894526486729896e+000	 3.095688686565622e+000	 1.067372086943172e+001
 3.862357108176255e+000	 3.135733178848658e+000	 1.066890159323854e+001
 4.184977556087130e+000	 2.736048766910793e+000	 1.056287027199583e+001
 4.156711423412083e+000	 2.778803725044614e+000	 1.058918700605266e+001
 4.127979316472650e+000	 2.821309405685000e+000	 1.061194890378630e+001
 4.098784445338088e+000	 2.863558288298099e+000	 1.063100836379156e+001
 4.069130180241432e+000	 2.905542905564363e+000	 1.064622402844618e+001
 4.039020050530216e+000	 2.947255847606425e+000	 1.065746174029921e+001
 4.008457743484196e+000	 2.988689766194003e+000	 1.066459548354306e+001
 3.977447103000566e+000	 3.029837378921008e+000	 1.066750830747242e+001
 3.945992128147379e+000	 3.070691473349984e+000	 1.066609322886487e+001
 3.914096971586093e+000	 3.111244911119073e+000	 1.066025411026359e+001
 3.881765937864321e+000	 3.151490632006690e+000	 1.064677565144644e+001
 3.687677640983678e+000	 2.993916100426382e+000	 1.059558520661229e+001
 3.656553307508218e+000	 3.031850575069264e+000	 1.058356700474161e+001
 3.625023495149993e+000	 3.069479542170489e+000	 1.056844278818674e+001
 3.593092715160352e+000	 3.106796539918756e+000	 1.055086688358101e+001
 3.560765615389834e+000	 3.143795195690242e+000	 1.053263829973126e+001
 3.528046978072291e+000	 3.180469229642300e+000	 1.051641648080610e+001
 3.494941717495988e+000	 3.216812458240655e+000	 1.050241317614261e+001
 3.461454877564024e+000	 3.252818797715964e+000	 1.049130790306835e+001
 3.427591629246610e+000	 3.288482267445716e+000	 1.048382322674799e+001
 3.393357267927864e+000	 3.323796993257524e+000	 1.048072348405664e+001
 3.358757210650000e+000	 3.358757210650000e+000	 1.048281334904646e+001
 3.707086470671743e+000	 3.009673553584413e+000	 1.066637864590057e+001
 3.675798324915369e+000	 3.047807683357208e+000	 1.064744990270647e+001
 3.644102566176766e+000	 3.085634697653921e+000	 1.062674570739885e+001
 3.612003729450707e+000	 3.123148100653718e+000	 1.060489547773988e+001
 3.579506487050102e+000	 3.160341486192651e+000	 1.058342185823416e+001
 3.546615646378458e+000	 3.197208541376272e+000	 1.056447654752565e+001
 3.513336147588712e+000	 3.233743050125383e+000	 1.054867774158282e+001
 3.479673061130823e+000	 3.269938896650808e+000	 1.053667334312744e+001
 3.445631585190633e+000	 3.305790068853071e+000	 1.052915461297219e+001
 3.411217043022705e+000	 3.341290661643093e+000	 1.052685491941600e+001
 3.376434880180000e+000	 3.376434880180000e+000	 1.053054832708021e+001
 3.726495300359807e+000	 3.025431006742444e+000	 1.073091582480381e+001
 3.695043342322521e+000	 3.063764791645150e+000	 1.070440497413624e+001
 3.663181637203538e+000	 3.101789853137353e+000	 1.067743412196563e+001
 3.630914743741060e+000	 3.139499661388680e+000	 1.065011868866591e+001
 3.598247358710371e+000	 3.176887776695061e+000	 1.062428326173290e+001
 3.565184314684625e+000	 3.213947853110242e+000	 1.060192485892045e+001
 3.531730577681437e+000	 3.250673642010112e+000	 1.058361546949370e+001
 3.497891244697622e+000	 3.287058995585652e+000	 1.056997184409836e+001
 3.463671541134656e+000	 3.323097870260428e+000	 1.056165443451097e+001
 3.429076818117546e+000	 3.358784330028661e+000	 1.055936616803757e+001
 3.394112549710000e+000	 3.394112549710000e+000	 1.056385105913953e+001
 3.745904130047871e+000	 3.041188459900474e+000	 1.078922726459906e+001
 3.714288359729673e+000	 3.079721899933094e+000	 1.075447221220937e+001
 3.682260708230310e+000	 3.117945008620784e+000	 1.072055764385786e+001
 3.649825758031414e+000	 3.155851222123642e+000	 1.068639412964772e+001
 3.616988230370638e+000	 3.193434067197471e+000	 1.065555876948868e+001
 3.583752982990792e+000	 3.230687164844213e+000	 1.062910849317534e+001
 3.550125007774161e+000	 3.267604233894841e+000	 1.060758424673202e+001
 3.516109428264421e+000	 3.304179094520495e+000	 1.059157208675086e+001
 3.481711497078680e+000	 3.340405671667783e+000	 1.058170214687109e+001
 3.446936593212388e+000	 3.376277998414229e+000	 1.057864743666531e+001
 3.411790219240000e+000	 3.411790219240000e+000	 1.058312247547865e+001
 3.765312959735935e+000	 3.056945913058504e+000	 1.078179620530109e+001
 3.733533377136824e+000	 3.095679008221037e+000	 1.079769240095916e+001
 3.701339779257082e+000	 3.134100164104215e+000	 1.075534311143330e+001
 3.668736772321767e+000	 3.172202782858603e+000	 1.071406233355628e+001
 3.635729102030907e+000	 3.209980357699881e+000	 1.067758477861981e+001
 3.602321651296959e+000	 3.247426476578185e+000	 1.064637444100412e+001
 3.568519437866884e+000	 3.284534825779570e+000	 1.062094164369754e+001
 3.534327611831220e+000	 3.321299193455340e+000	 1.060184220286187e+001
 3.499751453022704e+000	 3.357713473075139e+000	 1.058967642059075e+001
 3.464796368307229e+000	 3.393771666799797e+000	 1.058508790777152e+001
 3.429467888769999e+000	 3.429467888769999e+000	 1.058876223956437e+001
 3.784721789423999e+000	 3.072703366216536e+000	 1.075826326408622e+001
 3.752778394543975e+000	 3.111636116508981e+000	 1.082395065201313e+001
 3.720418850283854e+000	 3.150255319587648e+000	 1.078189108108309e+001
 3.687647786612122e+000	 3.188554343593566e+000	 1.073344944469918e+001
 3.654469973691175e+000	 3.226526648202292e+000	 1.069069782056681e+001
 3.620890319603125e+000	 3.264165788312155e+000	 1.065406960789231e+001
 3.586913867959608e+000	 3.301465417664299e+000	 1.062404492244729e+001
 3.552545795398019e+000	 3.338419292390184e+000	 1.060114978929212e+001
 3.517791408966728e+000	 3.375021274482495e+000	 1.058595516136687e+001
 3.482656143402070e+000	 3.411265335185366e+000	 1.057907576582018e+001
 3.447145558300000e+000	 3.447145558300000e+000	 1.058116878055780e+001
 3.804130619112063e+000	 3.088460819374566e+000	 1.073529935349092e+001
 3.772023411951127e+000	 3.127593224796924e+000	 1.078682596833758e+001
 3.739497921310627e+000	 3.166410475071078e+000	 1.080107980765936e+001
 3.706558800902476e+000	 3.204905904328529e+000	 1.074488194865635e+001
 3.673210845351445e+000	 3.243072938704701e+000	 1.069523455766592e+001
 3.639458987909292e+000	 3.280905100046127e+000	 1.065254081627141e+001
 3.605308298052333e+000	 3.318396009549027e+000	 1.061725104456148e+001
 3.570763978964818e+000	 3.355539391325027e+000	 1.058986192163197e+001
 3.535831364910752e+000	 3.392329075889852e+000	 1.057091552956647e+001
 3.500515918496912e+000	 3.428759003570934e+000	 1.056099822272637e+001
 3.464823227830000e+000	 3.464823227830000e+000	 1.056073932480169e+001
 3.823539448800127e+000	 3.104218272532597e+000	 1.071294242809704e+001
 3.791268429358279e+000	 3.143550333084867e+000	 1.074828164744051e+001
 3.758576992337398e+000	 3.182565630554509e+000	 1.078540825273935e+001
 3.725469815192831e+000	 3.221257465063491e+000	 1.074868666361836e+001
 3.691951717011712e+000	 3.259619229207111e+000	 1.069153177982681e+001
 3.658027656215458e+000	 3.297644411780098e+000	 1.064213480762685e+001
 3.623702728145057e+000	 3.335326601433756e+000	 1.060091667876983e+001
 3.588982162531616e+000	 3.372659490259871e+000	 1.056834516743170e+001
 3.553871320854775e+000	 3.409636877297207e+000	 1.054493395914355e+001
 3.518375693591752e+000	 3.446252671956502e+000	 1.053124154254022e+001
 3.482500897360000e+000	 3.482500897360000e+000	 1.052786992634892e+001
 3.842948278488191e+000	 3.119975725690628e+000	 1.069123134499523e+001
 3.810513446765430e+000	 3.159507441372810e+000	 1.070990723916400e+001
 3.777656063364171e+000	 3.198720786037942e+000	 1.073350207575943e+001
 3.744380829483185e+000	 3.237609025798454e+000	 1.074519073198716e+001
 3.710692588671980e+000	 3.276165519709520e+000	 1.067992640131108e+001
 3.676596324521626e+000	 3.314383723514069e+000	 1.062319824454206e+001
 3.642097158237782e+000	 3.352257193318485e+000	 1.057539820834673e+001
 3.607200346098415e+000	 3.389779589194715e+000	 1.053696559903078e+001
 3.571911276798799e+000	 3.426944678704563e+000	 1.050838617598295e+001
 3.536235468686593e+000	 3.463746340342071e+000	 1.049019106538291e+001
 3.500178566889999e+000	 3.500178566889999e+000	 1.048295549656567e+001
 3.862357108176255e+000	 3.135733178848658e+000	 1.066890159323854e+001
 3.829758464172582e+000	 3.175464549660754e+000	 1.067176497944505e+001
 3.796735134390942e+000	 3.214875941521374e+000	 1.068126864289394e+001
 3.763291843773539e+000	 3.253960586533416e+000	 1.069682501899131e+001
 3.729433460332249e+000	 3.292711810211931e+000	 1.066075545760779e+001
 3.695164992827793e+000	 3.331123035248041e+000	 1.059607771268097e+001
 3.660491588330505e+000	 3.369187785203213e+000	 1.054105173828352e+001
 3.625418529665214e+000	 3.406899688129558e+000	 1.049608880600027e+001
 3.589951232742823e+000	 3.444252480111920e+000	 1.046164721569102e+001
 3.554095243781435e+000	 3.481240008727639e+000	 1.043823123066100e+001
 3.517856236419999e+000	 3.517856236419999e+000	 1.042638983284220e+001
 3.881765937864321e+000	 3.151490632006690e+000	 1.064677565144644e+001
 3.849003481579734e+000	 3.191421657948697e+000	 1.063391778228904e+001
 3.815814205417716e+000	 3.231031097004806e+000	 1.062878065877289e+001
 3.782202858063894e+000	 3.270312147268379e+000	 1.063073310457975e+001
 3.748174331992518e+000	 3.309258100714341e+000	 1.063435610240282e+001
 3.713733661133960e+000	 3.347862346982012e+000	 1.056111972271097e+001
 3.678886018423230e+000	 3.386118377087943e+000	 1.049823310224557e+001
 3.643636713232014e+000	 3.424019787064403e+000	 1.044607990721212e+001
 3.607991188686847e+000	 3.461560281519276e+000	 1.040509144085249e+001
 3.571955018876276e+000	 3.498733677113208e+000	 1.037574559958424e+001
 3.535533905950000e+000	 3.535533905950000e+000	 1.035856564644224e+001
 3.358757210650000e+000	 3.358757210650000e+000	 1.048281334904646e+001
 3.323796993257525e+000	 3.393357267927863e+000	 1.048086789211578e+001
 3.288482267445717e+000	 3.427591629246607e+000	 1.047853406876370e+001
 3.252818797715966e+000	 3.461454877564024e+000	 1.047624737125089e+001
 3.216812458240656e+000	 3.494941717495987e+000	 1.047448377977733e+001
 3.180469229642302e+000	 3.528046978072290e+000	 1.047375809710579e+001
 3.143795195690242e+000	 3.560765615389833e+000	 1.047462214100031e+001
 3.106796539918757e+000	 3.593092715160351e+000	 1.046002692344817e+001
 3.069479542170491e+000	 3.625023495149992e+000	 1.043215366144616e+001
 3.031850575069266e+000	 3.656553307508217e+000	 1.041224419335186e+001
 2.993916100426382e+000	 3.687677640983678e+000	 1.040276324806182e+001
 3.376434880180000e+000	 3.376434880180000e+000	 1.053054832708021e+001
 3.341290661643093e+000	 3.411217043022703e+000	 1.052390147920695e+001
 3.305790068853073e+000	 3.445631585190631e+000	 1.051778184025580e+001
 3.269938896650809e+000	 3.479673061130822e+000	 1.051270545348407e+001
 3.233743050125385e+000	 3.513336147588712e+000	 1.050922900816912e+001
 3.197208541376273e+000	 3.546615646378457e+000	 1.050794806985092e+001
 3.160341486192652e+000	 3.579506487050101e+000	 1.050949516683570e+001
 3.123148100653719e+000	 3.612003729450704e+000	 1.051254614981329e+001
 3.085634697653922e+000	 3.644102566176764e+000	 1.048367601234345e+001
 3.047807683357208e+000	 3.675798324915367e+000	 1.046493524542063e+001
 3.009673553584413e+000	 3.707086470671743e+000	 1.045889645628305e+001
 3.394112549710000e+000	 3.394112549710000e+000	 1.056385105913953e+001
 3.358784330028662e+000	 3.429076818117545e+000	 1.055346964286332e+001
 3.323097870260429e+000	 3.463671541134656e+000	 1.054450726936411e+001
 3.287058995585653e+000	 3.497891244697621e+000	 1.053756031510527e+001
 3.250673642010114e+000	 3.531730577681436e+000	 1.053326599140083e+001
 3.213947853110243e+000	 3.565184314684624e+000	 1.053230047018355e+001
 3.176887776695063e+000	 3.598247358710369e+000	 1.053537686442379e+001
 3.139499661388681e+000	 3.630914743741059e+000	 1.054324306911722e+001
 3.101789853137354e+000	 3.663181637203536e+000	 1.053108512409073e+001
 3.063764791645151e+000	 3.695043342322519e+000	 1.051422240812729e+001
 3.025431006742444e+000	 3.726495300359807e+000	 1.051233491039823e+001
 3.411790219240000e+000	 3.411790219240000e+000	 1.058312247547865e+001
 3.376277998414230e+000	 3.446936593212386e+000	 1.056995599885023e+001
 3.340405671667785e+000	 3.481711497078680e+000	 1.055907664503944e+001
 3.304179094520497e+000	 3.516109428264420e+000	 1.055116091549814e+001
 3.267604233894843e+000	 3.550125007774160e+000	 1.054692636618608e+001
 3.230687164844215e+000	 3.583752982990790e+000	 1.054712962876106e+001
 3.193434067197472e+000	 3.616988230370637e+000	 1.055256428475277e+001
 3.155851222123644e+000	 3.649825758031413e+000	 1.056405859885679e+001
 3.117945008620786e+000	 3.682260708230309e+000	 1.057416940640756e+001
 3.079721899933096e+000	 3.714288359729672e+000	 1.055987654503224e+001
 3.041188459900474e+000	 3.745904130047871e+000	 1.056283226361800e+001
 3.429467888769999e+000	 3.429467888769999e+000	 1.058876223956437e+001
 3.393771666799799e+000	 3.464796368307228e+000	 1.057374322798024e+001
 3.357713473075141e+000	 3.499751453022703e+000	 1.056185564965158e+001
 3.321299193455341e+000	 3.534327611831218e+000	 1.055385593221672e+001
 3.284534825779570e+000	 3.568519437866883e+000	 1.055054180838478e+001
 3.247426476578187e+000	 3.602321651296957e+000	 1.055275023243473e+001
 3.209980357699883e+000	 3.635729102030906e+000	 1.056135514797430e+001
 3.172202782858606e+000	 3.668736772321767e+000	 1.057726511331405e+001
 3.134100164104217e+000	 3.701339779257082e+000	 1.060142079130796e+001
 3.095679008221039e+000	 3.733533377136823e+000	 1.060167010184276e+001
 3.056945913058505e+000	 3.765312959735935e+000	 1.055110046672158e+001
 3.447145558300000e+000	 3.447145558300000e+000	 1.058116878055780e+001
 3.411265335185366e+000	 3.482656143402068e+000	 1.056521310008616e+001
 3.375021274482497e+000	 3.517791408966727e+000	 1.055320937454263e+001
 3.338419292390184e+000	 3.552545795398016e+000	 1.054599376821179e+001
 3.301465417664300e+000	 3.586913867959607e+000	 1.054444403199927e+001
 3.264165788312157e+000	 3.620890319603124e+000	 1.054947731511657e+001
 3.226526648202292e+000	 3.654469973691175e+000	 1.056204782624544e+001
 3.188554343593569e+000	 3.687647786612121e+000	 1.058314435075592e+001
 3.150255319587648e+000	 3.720418850283852e+000	 1.061378763105589e+001
 3.111636116508982e+000	 3.752778394543974e+000	 1.063002674553855e+001
 3.072703366216536e+000	 3.784721789423999e+000	 1.052621270603358e+001
 3.464823227830000e+000	 3.464823227830000e+000	 1.056073932480169e+001
 3.428759003570936e+000	 3.500515918496910e+000	 1.054474649726047e+001
 3.392329075889854e+000	 3.535831364910751e+000	 1.053350233510427e+001
 3.355539391325028e+000	 3.570763978964817e+000	 1.052792255883613e+001
 3.318396009549028e+000	 3.605308298052331e+000	 1.052896478820131e+001
 3.280905100046128e+000	 3.639458987909290e+000	 1.053762624892572e+001
 3.243072938704702e+000	 3.673210845351442e+000	 1.055494132709590e+001
 3.204905904328530e+000	 3.706558800902476e+000	 1.058197897797552e+001
 3.166410475071081e+000	 3.739497921310626e+000	 1.061983999656252e+001
 3.127593224796926e+000	 3.772023411951126e+000	 1.059927035342527e+001
 3.088460819374566e+000	 3.804130619112063e+000	 1.050451800020851e+001
 3.482500897360000e+000	 3.482500897360000e+000	 1.052786992634892e+001
 3.446252671956504e+000	 3.518375693591751e+000	 1.051272343638669e+001
 3.409636877297208e+000	 3.553871320854773e+000	 1.050309848539574e+001
 3.372659490259872e+000	 3.588982162531616e+000	 1.049999017863625e+001
 3.335326601433758e+000	 3.623702728145056e+000	 1.050443586438877e+001
 3.297644411780099e+000	 3.658027656215457e+000	 1.051751273560450e+001
 3.259619229207112e+000	 3.691951717011711e+000	 1.054033527730182e+001
 3.221257465063492e+000	 3.725469815192829e+000	 1.057405256672556e+001
 3.182565630554512e+000	 3.758576992337398e+000	 1.059610510910098e+001
 3.143550333084868e+000	 3.791268429358277e+000	 1.055387233822624e+001
 3.104218272532596e+000	 3.823539448800127e+000	 1.048586500885070e+001
 3.500178566889999e+000	 3.500178566889999e+000	 1.048295549656567e+001
 3.463746340342071e+000	 3.536235468686592e+000	 1.046952309098816e+001
 3.426944678704565e+000	 3.571911276798797e+000	 1.046236123231898e+001
 3.389779589194716e+000	 3.607200346098414e+000	 1.046254424793849e+001
 3.352257193318486e+000	 3.642097158237780e+000	 1.047118908327075e+001
 3.314383723514070e+000	 3.676596324521623e+000	 1.048945279819462e+001
 3.276165519709522e+000	 3.710692588671980e+000	 1.051852990724825e+001
 3.237609025798454e+000	 3.744380829483183e+000	 1.055964957086591e+001
 3.198720786037943e+000	 3.777656063364170e+000	 1.054186370942631e+001
 3.159507441372812e+000	 3.810513446765429e+000	 1.050956355890504e+001
 3.119975725690628e+000	 3.842948278488191e+000	 1.047010408501137e+001
 3.517856236419999e+000	 3.517856236419999e+000	 1.042638983284220e+001
 3.481240008727641e+000	 3.554095243781433e+000	 1.041552381241793e+001
 3.444252480111921e+000	 3.589951232742822e+000	 1.041165344936620e+001
 3.406899688129559e+000	 3.625418529665213e+000	 1.041593213923640e+001
 3.369187785203215e+000	 3.660491588330504e+000	 1.042955630198043e+001
 3.331123035248041e+000	 3.695164992827790e+000	 1.045376277296434e+001
 3.292711810211932e+000	 3.729433460332248e+000	 1.048982603576302e+001
 3.253960586533417e+000	 3.763291843773537e+000	 1.050947411718644e+001
 3.214875941521374e+000	 3.796735134390942e+000	 1.048795776818281e+001
 3.175464549660755e+000	 3.829758464172581e+000	 1.046642348526381e+001
 3.135733178848659e+000	 3.862357108176256e+000	 1.044464952083074e+001
 3.535533905950000e+000	 3.535533905950000e+000	 1.035856564644224e+001
 3.498733677113209e+000	 3.571955018876275e+000	 1.035110315041306e+001
 3.461560281519278e+000	 3.607991188686845e+000	 1.035133748995523e+001
 3.424019787064404e+000	 3.643636713232012e+000	 1.036050098338663e+001
 3.386118377087944e+000	 3.678886018423229e+000	 1.037986941121439e+001
 3.347862346982013e+000	 3.713733661133958e+000	 1.041075930157773e+001
 3.309258100714343e+000	 3.748174331992517e+000	 1.045452505540578e+001
 3.270312147268379e+000	 3.782202858063892e+000	 1.044555064531415e+001
 3.231031097004808e+000	 3.815814205417715e+000	 1.043448075149359e+001
 3.191421657948699e+000	 3.849003481579733e+000	 1.042453294361622e+001
 3.151490632006690e+000	 3.881765937864321e+000	 1.041552955892390e+001
 2.993916100426382e+000	 3.687677640983678e+000	 1.040276324806182e+001
 2.955682665584793e+000	 3.718392123024356e+000	 1.039560536593542e+001
 2.917156899705098e+000	 3.748692521761566e+000	 1.043122415954665e+001
 2.878345509997806e+000	 3.778574747875073e+000	 1.034485329395697e+001
 2.839255277906680e+000	 3.808034856336499e+000	 1.027028844272052e+001
 2.799893055247309e+000	 3.837069048031190e+000	 1.021351554093038e+001
 2.760265760305475e+000	 3.865673671256816e+000	 1.017349137387251e+001
 2.720380373899951e+000	 3.893845223097609e+000	 1.014917268607975e+001
 2.680243935414238e+000	 3.921580350673420e+000	 1.013951901854714e+001
 2.639863538801907e+000	 3.948875852262866e+000	 1.014349550553837e+001
 2.599246328570120e+000	 3.975728678300154e+000	 1.016007562386482e+001
 3.009673553584413e+000	 3.707086470671743e+000	 1.045889645628305e+001
 2.971238890138199e+000	 3.737962607880507e+000	 1.046547599946357e+001
 2.932510357069496e+000	 3.768422482400055e+000	 1.041895804808778e+001
 2.893494696889921e+000	 3.798461983387418e+000	 1.033396583529326e+001
 2.854198726735049e+000	 3.828077145050905e+000	 1.026667962127850e+001
 2.814629334482652e+000	 3.857264148280524e+000	 1.021599283853184e+001
 2.774793474830547e+000	 3.886019322154459e+000	 1.018079752294349e+001
 2.734698165338654e+000	 3.914339145320546e+000	 1.015998727250300e+001
 2.694350482439863e+000	 3.942220247251891e+000	 1.015246017001971e+001
 2.653757557424343e+000	 3.969659409375954e+000	 1.015712166237987e+001
 2.612926572401926e+000	 3.996653566076591e+000	 1.017288738906277e+001
 3.025431006742444e+000	 3.726495300359807e+000	 1.051233491039823e+001
 2.986795114691609e+000	 3.757533092736663e+000	 1.049727574720568e+001
 2.947863814433914e+000	 3.788152443038567e+000	 1.040240984155468e+001
 2.908643883782081e+000	 3.818349218899807e+000	 1.032530753583600e+001
 2.869142175563499e+000	 3.848119433765391e+000	 1.026479876721811e+001
 2.829365613718122e+000	 3.877459248529985e+000	 1.021971050503607e+001
 2.789321189355800e+000	 3.906364973052285e+000	 1.018886982947467e+001
 2.749015956777604e+000	 3.934833067543729e+000	 1.017110697923665e+001
 2.708457029465811e+000	 3.962860143830687e+000	 1.016525836034847e+001
 2.667651576047188e+000	 3.990442966489447e+000	 1.017016950844789e+001
 2.626606816234234e+000	 4.017578453853528e+000	 1.018469799711570e+001
 3.041188459900474e+000	 3.745904130047871e+000	 1.056283226361800e+001
 3.002351339245025e+000	 3.777103577592825e+000	 1.047492019724517e+001
 2.963217271798352e+000	 3.807882403677097e+000	 1.038847222767705e+001
 2.923793070674289e+000	 3.838236454412242e+000	 1.031875706617224e+001
 2.884085624392029e+000	 3.868161722479958e+000	 1.026453657165750e+001
 2.844101892953719e+000	 3.897654348779573e+000	 1.022457104356250e+001
 2.803848903881235e+000	 3.926710623950291e+000	 1.019762239276598e+001
 2.763333748216801e+000	 3.955326989767159e+000	 1.018245727882135e+001
 2.722563576492082e+000	 3.983500040409803e+000	 1.017785020543490e+001
 2.681545594670439e+000	 4.011226523603351e+000	 1.018258656637105e+001
 2.640287060067045e+000	 4.038503341630969e+000	 1.019546563418477e+001
 3.056945913058505e+000	 3.765312959735935e+000	 1.055110046672158e+001
 3.017907563798445e+000	 3.796674062448990e+000	 1.045554749562657e+001
 2.978570729162810e+000	 3.827612364315648e+000	 1.037701311821439e+001
 2.938942257566541e+000	 3.858123689924723e+000	 1.031419435860318e+001
 2.899029073220639e+000	 3.888204011194606e+000	 1.026578479063467e+001
 2.858838172189440e+000	 3.917849449029285e+000	 1.023047782971079e+001
 2.818376618406851e+000	 3.947056274848481e+000	 1.020696999659468e+001
 2.777651539656246e+000	 3.975820911990836e+000	 1.019396414478732e+001
 2.736670123518675e+000	 4.004139936989242e+000	 1.019017264327307e+001
 2.695439613294099e+000	 4.032010080717660e+000	 1.019432050663653e+001
 2.653967303900358e+000	 4.059428229408913e+000	 1.020514846478769e+001
 3.072703366216536e+000	 3.784721789423999e+000	 1.052621270603358e+001
 3.033463788351870e+000	 3.816244547305160e+000	 1.043901496954114e+001
 2.993924186527289e+000	 3.847342324954219e+000	 1.036790185019759e+001
 2.954091444458838e+000	 3.878010925437250e+000	 1.031150057479260e+001
 2.913972522049332e+000	 3.908246299909336e+000	 1.026843621780171e+001
 2.873574451425290e+000	 3.938044549279125e+000	 1.023733508918950e+001
 2.832904332932649e+000	 3.967401925746852e+000	 1.021682809166449e+001
 2.791969331095938e+000	 3.996314834214760e+000	 1.020555403880839e+001
 2.750776670545590e+000	 4.024779833569004e+000	 1.020216292569083e+001
 2.709333631918166e+000	 4.052793637832379e+000	 1.020531914379891e+001
 2.667647547734174e+000	 4.080353117187359e+000	 1.021370463235372e+001
 3.088460819374566e+000	 3.804130619112063e+000	 1.050451800020851e+001
 3.049020012905300e+000	 3.835815032161337e+000	 1.042518152997451e+001
 3.009277643891787e+000	 3.867072285592808e+000	 1.036100914956997e+001
 2.969240631351181e+000	 3.897898160949821e+000	 1.031055807440547e+001
 2.928915970878105e+000	 3.928288588624145e+000	 1.027238465795512e+001
 2.888310730661264e+000	 3.958239649529089e+000	 1.024504787612960e+001
 2.847432047458629e+000	 3.987747576645404e+000	 1.022711277859224e+001
 2.806287122535876e+000	 4.016808756438931e+000	 1.021715389824942e+001
 2.764883217572828e+000	 4.045419730149088e+000	 1.021375861034387e+001
 2.723227650542640e+000	 4.073577194947505e+000	 1.021553043280491e+001
 2.681327791568492e+000	 4.101278004966307e+000	 1.022109225976160e+001
 3.104218272532596e+000	 3.823539448800127e+000	 1.048586500885070e+001
 3.064576237458737e+000	 3.855385517017518e+000	 1.041390763150904e+001
 3.024631101256306e+000	 3.886802246231421e+000	 1.035620709593566e+001
 2.984389818243570e+000	 3.917785396462439e+000	 1.031125038470190e+001
 2.943859419706958e+000	 3.948330877339037e+000	 1.027752490137220e+001
 2.903047009897366e+000	 3.978434749779182e+000	 1.025352205205863e+001
 2.861959761984791e+000	 4.008093227544138e+000	 1.023774079141261e+001
 2.820604913976061e+000	 4.037302678663349e+000	 1.022869112409287e+001
 2.778989764600388e+000	 4.066059626729494e+000	 1.022489755295361e+001
 2.737121669167522e+000	 4.094360752063037e+000	 1.022490246543023e+001
 2.695008035403313e+000	 4.122202892745759e+000	 1.022726944986120e+001
 3.119975725690628e+000	 3.842948278488191e+000	 1.047010408501137e+001
 3.080132462012176e+000	 3.874956001873703e+000	 1.040505523334398e+001
 3.039984558620846e+000	 3.906532206870053e+000	 1.035336908837628e+001
 2.999539005136004e+000	 3.937672631975101e+000	 1.031346217105238e+001
 2.958802868535893e+000	 3.968373166054009e+000	 1.028375269892524e+001
 2.917783289133593e+000	 3.998629850029400e+000	 1.026266426551181e+001
 2.876487476511134e+000	 4.028438878443055e+000	 1.024862948158270e+001
 2.834922705416494e+000	 4.057796600888015e+000	 1.024009356923132e+001
 2.793096311628269e+000	 4.086699523310223e+000	 1.023551789978021e+001
 2.751015687792812e+000	 4.115144309178977e+000	 1.023338346682415e+001
 2.708688279238637e+000	 4.143127780525714e+000	 1.023219428597919e+001
 3.135733178848659e+000	 3.862357108176256e+000	 1.044464952083074e+001
 3.095688686565623e+000	 3.894526486729895e+000	 1.039848776149110e+001
 3.055338015985406e+000	 3.926262167508705e+000	 1.035236981229824e+001
 3.014688192028484e+000	 3.957559867487809e+000	 1.031707920834206e+001
 2.973746317364908e+000	 3.988415454769061e+000	 1.029096473794588e+001
 2.932519568369946e+000	 4.018824950279744e+000	 1.027238193225797e+001
 2.891015191037658e+000	 4.048784529342151e+000	 1.025969680246895e+001
 2.849240496857173e+000	 4.078290523112926e+000	 1.025128952711294e+001
 2.807202858656474e+000	 4.107339419891273e+000	 1.024555808032270e+001
 2.764909706418509e+000	 4.135927866295326e+000	 1.024092179215855e+001
 2.722368523074464e+000	 4.164052668306170e+000	 1.023582483240969e+001
 3.151490632006690e+000	 3.881765937864321e+000	 1.041552955892390e+001
 3.111244911119075e+000	 3.914096971586092e+000	 1.039407007210433e+001
 3.070691473349985e+000	 3.945992128147378e+000	 1.035308520727456e+001
 3.029837378921010e+000	 3.977447103000564e+000	 1.032198835323287e+001
 2.988689766194006e+000	 4.008457743484195e+000	 1.029905861881369e+001
 2.947255847606427e+000	 4.039020050530215e+000	 1.028258321611879e+001
 2.905542905564365e+000	 4.069130180241431e+000	 1.027086129429936e+001
 2.863558288298100e+000	 4.098784445338087e+000	 1.026220772072758e+001
 2.821309405685001e+000	 4.127979316472648e+000	 1.025495680023792e+001
 2.778803725044615e+000	 4.156711423412083e+000	 1.024746592337726e+001
 2.736048766910793e+000	 4.184977556087130e+000	 1.023811913489002e+001
 2.599246328570120e+000	 3.975728678300154e+000	 1.016007562386482e+001
 2.558399495745880e+000	 4.002135932245784e+000	 1.014200206674982e+001
 2.517330273829839e+000	 4.028094871329415e+000	 1.011650006238537e+001
 2.476045934742124e+000	 4.053602907166102e+000	 1.012656828348189e+001
 2.434553784764505e+000	 4.078657606247210e+000	 1.015836791922129e+001
 2.392861160483733e+000	 4.103256690304887e+000	 1.017868075533651e+001
 2.350975424740408e+000	 4.127398036551243e+000	 1.018631846576934e+001
 2.308903962587825e+000	 4.151079677793084e+000	 1.018017464333089e+001
 2.266654177265145e+000	 4.174299802423161e+000	 1.015922653833205e+001
 2.224233486189215e+000	 4.197056754289152e+000	 1.012253657719193e+001
 2.181649316969235e+000	 4.219349032441642e+000	 1.006925366014617e+001
 2.612926572401926e+000	 3.996653566076591e+000	 1.017288738906277e+001
 2.571864756247123e+000	 4.023199805569313e+000	 1.015564771387755e+001
 2.530579380531644e+000	 4.049295370648115e+000	 1.013108810913511e+001
 2.489077755448881e+000	 4.074937659304963e+000	 1.011790760955882e+001
 2.447367225734719e+000	 4.100124225223291e+000	 1.014946018855349e+001
 2.405455166589521e+000	 4.124852778144357e+000	 1.016917390883553e+001
 2.363348979605680e+000	 4.149121184107707e+000	 1.017581704524312e+001
 2.321056088705193e+000	 4.172927465566493e+000	 1.016824143323510e+001
 2.278583936091637e+000	 4.196269801378699e+000	 1.014538425771674e+001
 2.235939978220897e+000	 4.219146526675409e+000	 1.010626961765265e+001
 2.193131681794851e+000	 4.241556132607472e+000	 1.005000986554602e+001
 2.626606816234234e+000	 4.017578453853528e+000	 1.018469799711570e+001
 2.585330016748962e+000	 4.044263678893447e+000	 1.016818911980112e+001
 2.543828487234133e+000	 4.070495869967516e+000	 1.014446266115935e+001
 2.502109576156395e+000	 4.096272411444629e+000	 1.011267048721485e+001
 2.460180666705754e+000	 4.121590844200274e+000	 1.014012394356114e+001
 2.418049172696184e+000	 4.146448865984830e+000	 1.015904305002569e+001
 2.375722534471874e+000	 4.170844331665273e+000	 1.016447929708899e+001
 2.333208214823518e+000	 4.194775253341109e+000	 1.015524250687433e+001
 2.290513694919111e+000	 4.218239800335542e+000	 1.013022956878917e+001
 2.247646470253575e+000	 4.241236299063068e+000	 1.008842605037875e+001
 2.204614046621467e+000	 4.263763232774805e+000	 1.002890757876120e+001
 2.640287060067045e+000	 4.038503341630969e+000	 1.019546563418477e+001
 2.598795277251401e+000	 4.065327552218183e+000	 1.017959010499414e+001
 2.557077593937302e+000	 4.091696369287622e+000	 1.015659320049313e+001
 2.515141396864668e+000	 4.117607163585099e+000	 1.012558589089205e+001
 2.472994107677612e+000	 4.143057463178161e+000	 1.013048275212767e+001
 2.430643178803725e+000	 4.168044953826306e+000	 1.014841676068763e+001
 2.388096089338988e+000	 4.192567479223942e+000	 1.015243873214875e+001
 2.345360340942797e+000	 4.216623041116927e+000	 1.014131621513610e+001
 2.302443453747565e+000	 4.240209799293689e+000	 1.011390556944101e+001
 2.259352962287248e+000	 4.263326071452133e+000	 1.006915362335544e+001
 2.216096411449083e+000	 4.285970332943644e+000	 1.000609909725076e+001
 2.653967303900358e+000	 4.059428229408913e+000	 1.020514846478769e+001
 2.612260537754436e+000	 4.086391425543521e+000	 1.018981440213202e+001
 2.570326700641156e+000	 4.112896868608430e+000	 1.016744905424422e+001
 2.528173217573697e+000	 4.138941915726369e+000	 1.013712217231667e+001
 2.485807548650290e+000	 4.164524082156952e+000	 1.012065989016814e+001
 2.443237184912142e+000	 4.189641041668787e+000	 1.013742326079276e+001
 2.400469644207023e+000	 4.214290626783716e+000	 1.013982842878204e+001
 2.357512467063032e+000	 4.238470828893949e+000	 1.012660040495712e+001
 2.314373212577000e+000	 4.262179798253141e+000	 1.009655478138545e+001
 2.271059454321915e+000	 4.285415843842602e+000	 1.004859943543959e+001
 2.227578776277698e+000	 4.308177433113985e+000	 9.981735995710709e+000
 2.667647547734174e+000	 4.080353117187359e+000	 1.021370463235372e+001
 2.625725798258069e+000	 4.107455298869463e+000	 1.019882565834334e+001
 2.583575807345691e+000	 4.134097367929940e+000	 1.017699939856560e+001
 2.541205038283483e+000	 4.160276667868444e+000	 1.014725405727350e+001
 2.498620989623791e+000	 4.185990701136644e+000	 1.011077834911562e+001
 2.455831191021435e+000	 4.211237129512270e+000	 1.012619041778052e+001
 2.412843199075979e+000	 4.236013774344592e+000	 1.012678104395573e+001
 2.369664593184223e+000	 4.260318616672174e+000	 1.011123243224512e+001
 2.326302971407415e+000	 4.284149797213895e+000	 1.007831916493096e+001
 2.282765946357579e+000	 4.307505616234475e+000	 1.002690995300405e+001
 2.239061141107313e+000	 4.330384533285831e+000	 9.955969144606206e+000
 2.681327791568492e+000	 4.101278004966307e+000	 1.022109225976160e+001
 2.639191058762300e+000	 4.128519172196009e+000	 1.020658743739203e+001
 2.596824914050908e+000	 4.155297867252152e+000	 1.018521326250634e+001
 2.554236858994026e+000	 4.181611420011321e+000	 1.015595605981209e+001
 2.511434430598113e+000	 4.207457320117239e+000	 1.011783903021389e+001
 2.468425197131605e+000	 4.232833217356756e+000	 1.011484575555147e+001
 2.425216753945856e+000	 4.257736921906572e+000	 1.011342882399356e+001
 2.381816719306370e+000	 4.282166404451602e+000	 1.009534917440505e+001
 2.338232730238809e+000	 4.306119796175953e+000	 1.005934013330286e+001
 2.294472438394236e+000	 4.329595388627751e+000	 1.000423102607245e+001
 2.250543505937929e+000	 4.352591633459181e+000	 9.928948728136721e+000
 2.695008035403313e+000	 4.122202892745759e+000	 1.022726944986120e+001
 2.652656319267128e+000	 4.149583045523155e+000	 1.021306322179333e+001
 2.610074020756808e+000	 4.176498366575068e+000	 1.019205953174527e+001
 2.567268679705327e+000	 4.202946172155001e+000	 1.016320248762083e+001
 2.524247871573258e+000	 4.228923939098740e+000	 1.012547359719103e+001
 2.481019203242650e+000	 4.254429305202245e+000	 1.010351646318657e+001
 2.437590308816654e+000	 4.279460069469655e+000	 1.009990361499875e+001
 2.393968845429472e+000	 4.304014192232234e+000	 1.007908704248393e+001
 2.350162489071185e+000	 4.328089795139315e+000	 1.003975856652868e+001
 2.306178930431889e+000	 4.351685161022431e+000	 9.980707903962562e+000
 2.262025870769545e+000	 4.374798733634035e+000	 9.900824261653906e+000
 2.708688279238637e+000	 4.143127780525714e+000	 1.023219428597919e+001
 2.666121579772554e+000	 4.170646918850905e+000	 1.021821641486546e+001
 2.623323127463390e+000	 4.197698865898687e+000	 1.019750695221136e+001
 2.580300500417384e+000	 4.224280924299484e+000	 1.016896744723805e+001
 2.537061312549223e+000	 4.250390558081141e+000	 1.013153738242733e+001
 2.493613209354573e+000	 4.276025393048738e+000	 1.009232940340223e+001
 2.449963863688373e+000	 4.301183217033842e+000	 1.008633687296041e+001
 2.406120971553530e+000	 4.325861980014071e+000	 1.006258199294745e+001
 2.362092247904540e+000	 4.350059794103980e+000	 1.001971482490278e+001
 2.317885422470537e+000	 4.373774933418515e+000	 9.956485250455691e+000
 2.273508235602161e+000	 4.397005833810392e+000	 9.943094693774688e+000
 2.722368523074464e+000	 4.164052668306170e+000	 1.023582483240969e+001
 2.679586840278577e+000	 4.191710792179257e+000	 1.022201034271952e+001
 2.636572234170655e+000	 4.218899365223009e+000	 1.020152413359507e+001
 2.593332321130199e+000	 4.245615676444769e+000	 1.017322484910605e+001
 2.549874753526011e+000	 4.271857177064447e+000	 1.013600960973314e+001
 2.506207215467371e+000	 4.297621480896234e+000	 1.008881665374834e+001
 2.462337418561013e+000	 4.322906364599133e+000	 1.007285967355554e+001
 2.418273097678543e+000	 4.347709767797110e+000	 1.004596953910171e+001
 2.374022006738876e+000	 4.372029793069950e+000	 9.999348762044889e+000
 2.329591914510180e+000	 4.395864705816003e+000	 9.990857475505107e+000
 2.284990600435776e+000	 4.419212933988255e+000	 9.985156510412907e+000
 2.736048766910793e+000	 4.184977556087130e+000	 1.023811913489002e+001
 2.693052100785198e+000	 4.212774665508213e+000	 1.022440825618970e+001
 2.649821340878603e+000	 4.240099864548034e+000	 1.020407955275429e+001
 2.606364141843772e+000	 4.266950428590860e+000	 1.017594841247351e+001
 2.562688194503621e+000	 4.293323796048655e+000	 1.013886925258903e+001
 2.518801221581047e+000	 4.319217568744734e+000	 1.009173822902795e+001
 2.474710973434575e+000	 4.344629512165526e+000	 1.005960272165673e+001
 2.430425223804513e+000	 4.369557555581356e+000	 1.002938476217211e+001
 2.385951765574192e+000	 4.393999792037223e+000	 1.002537031667107e+001
 2.341298406550818e+000	 4.417954478214896e+000	 1.002794776539713e+001
 2.296472965270393e+000	 4.441420034167621e+000	 1.002629765486865e+001
 2.181649316969235e+000	 4.219349032441642e+000	 1.006925366014617e+001
 2.138909103449004e+000	 4.241175290762651e+000	 1.006488881753356e+001
 2.096020281778892e+000	 4.262534337476436e+000	 1.003966049692600e+001
 2.052990286523145e+000	 4.283425134544102e+000	 9.992804394558249e+000
 2.009826546807198e+000	 4.303846796944171e+000	 9.923649992946519e+000
 1.966536482506964e+000	 4.323798591841205e+000	 9.831620892220901e+000
 1.923127500484418e+000	 4.343279937644680e+000	 9.716234921538687e+000
 1.879606990872978e+000	 4.362290402960450e+000	 9.577104033978481e+000
 1.835982323416121e+000	 4.380829705437296e+000	 9.547005802389782e+000
 1.792260843862488e+000	 4.398897710511126e+000	 9.609539911949780e+000
 1.748449870420633e+000	 4.416494430049542e+000	 9.670638771891134e+000
 2.193131681794851e+000	 4.241556132607472e+000	 1.005000986554602e+001
 2.150166519782733e+000	 4.263497265972152e+000	 1.003846988068510e+001
 2.107051967472487e+000	 4.284968728721272e+000	 1.000533587653371e+001
 2.063795498557647e+000	 4.305969477352576e+000	 9.949769594478948e+000
 2.020404581264307e+000	 4.326498622186580e+000	 9.871029034217740e+000
 1.976886674520361e+000	 4.346555426530813e+000	 9.768468843414830e+000
 1.933249224171267e+000	 4.366139305733747e+000	 9.641540481941343e+000
 1.889499659245882e+000	 4.385249826130742e+000	 9.557762885495450e+000
 1.845645388275810e+000	 4.403886703884519e+000	 9.585561934574070e+000
 1.801693795671523e+000	 4.422049803722749e+000	 9.642387188284795e+000
 1.757652238158466e+000	 4.439739137575500e+000	 9.697392603217088e+000
 2.204614046621467e+000	 4.263763232774805e+000	 1.002890757876120e+001
 2.161423936117456e+000	 4.285819241183235e+000	 1.000915473778087e+001
 2.118083653167060e+000	 4.307403119967731e+000	 9.967061627278763e+000
 2.074600710593102e+000	 4.328513820162674e+000	 9.901716263576738e+000
 2.030982615722334e+000	 4.349150447430566e+000	 9.812305415729695e+000
 1.987236866534631e+000	 4.369312261221914e+000	 9.698115053201276e+000
 1.943370947858931e+000	 4.388998673824185e+000	 9.643918199416907e+000
 1.899392327619538e+000	 4.408209249302242e+000	 9.615107987344926e+000
 1.855308453136172e+000	 4.426943702332745e+000	 9.619874015760599e+000
 1.811126747481148e+000	 4.445201896935138e+000	 9.670360487198874e+000
 1.766854605896794e+000	 4.462983845101943e+000	 9.718651730344838e+000
 2.216096411449083e+000	 4.285970332943644e+000	 1.000609909725076e+001
 2.172681352453174e+000	 4.308141216395904e+000	 9.977111602985405e+000
 2.129115338862615e+000	 4.329837511215812e+000	 9.925021737480652e+000
 2.085405922629511e+000	 4.351058162974391e+000	 9.848844013466454e+000
 2.041560650181280e+000	 4.371802272676131e+000	 9.747694213458034e+000
 1.997587058549772e+000	 4.392069095914510e+000	 9.716060681476874e+000
 1.953492671547414e+000	 4.411858041915995e+000	 9.693989576560883e+000
 1.909284995993944e+000	 4.431168672474952e+000	 9.665659297853326e+000
 1.864971517997211e+000	 4.450000700781981e+000	 9.649810330507220e+000
 1.820559699291362e+000	 4.468353990148292e+000	 9.693349569500660e+000
 1.776056973635617e+000	 4.486228552628871e+000	 9.734327417254178e+000
 2.227578776277698e+000	 4.308177433113985e+000	 9.981735995710709e+000
 2.183938768789886e+000	 4.330463191610154e+000	 9.942507656893875e+000
 2.140147024559148e+000	 4.352271902465517e+000	 9.879398851194742e+000
 2.096211134666875e+000	 4.373602505787726e+000	 9.791350801058057e+000
 2.052138684641144e+000	 4.394454097923272e+000	 9.776199494436607e+000
 2.007937250565786e+000	 4.414825930608600e+000	 9.760514017148354e+000
 1.963614395236712e+000	 4.434717410009177e+000	 9.738185190306350e+000
 1.919177664369101e+000	 4.454128095648869e+000	 9.709471986827106e+000
 1.874634582858925e+000	 4.473057699232221e+000	 9.675235965170330e+000
 1.829992651102168e+000	 4.491506083362212e+000	 9.711240691797300e+000
 1.785259341374934e+000	 4.509473260156284e+000	 9.744327118934333e+000
 2.239061141107313e+000	 4.330384533285831e+000	 9.955969144606206e+000
 2.195196185127593e+000	 4.352785166825989e+000	 9.905509073033832e+000
 2.151178710256661e+000	 4.374706293716842e+000	 9.830374302680534e+000
 2.107016346705192e+000	 4.396146848602681e+000	 9.826521260160341e+000
 2.062716719101926e+000	 4.417105923171991e+000	 9.816714861395106e+000
 2.018287442582673e+000	 4.437582765304187e+000	 9.799982162280221e+000
 1.973736118926828e+000	 4.457576778103729e+000	 9.776541759999576e+000
 1.929070332745010e+000	 4.477087518823997e+000	 9.746598407082155e+000
 1.884297647721314e+000	 4.496114697683469e+000	 9.710343452355344e+000
 1.839425602913563e+000	 4.514658176576896e+000	 9.723916696345766e+000
 1.794461709114746e+000	 4.532717967684179e+000	 9.748554579050406e+000
 2.250543505937929e+000	 4.352591633459181e+000	 9.928948728136721e+000
 2.206453601466296e+000	 4.375107142043407e+000	 9.866673483146791e+000
 2.162210395955153e+000	 4.397140684969789e+000	 9.869389348184456e+000
 2.117821558744463e+000	 4.418691191419258e+000	 9.864803447115492e+000
 2.073294753563626e+000	 4.439757748422286e+000	 9.853108836069184e+000
 2.028637634600432e+000	 4.460339600001268e+000	 9.834484053666209e+000
 1.983857842617759e+000	 4.480436146199653e+000	 9.809093552329294e+000
 1.938963001121668e+000	 4.500046942000332e+000	 9.777088166305727e+000
 1.893960712584380e+000	 4.519171696135725e+000	 9.738605613925532e+000
 1.848858554725547e+000	 4.537810269792344e+000	 9.731257098153602e+000
 1.803664076855054e+000	 4.555962675212561e+000	 9.746909924619995e+000
 2.262025870769545e+000	 4.374798733634035e+000	 9.900824261653906e+000
 2.217711017805993e+000	 4.397429117262409e+000	 9.907342772508473e+000
 2.173242081654625e+000	 4.419575076224358e+000	 9.907168109573236e+000
 2.128626770784688e+000	 4.441235534237453e+000	 9.899801936338646e+000
 2.083872788026245e+000	 4.462409573674161e+000	 9.885383225584723e+000
 2.038987826619064e+000	 4.483096434699841e+000	 9.864036523490894e+000
 1.993979566309509e+000	 4.503295514296950e+000	 9.835872443576827e+000
 1.948855669499079e+000	 4.523006365177877e+000	 9.800988196729813e+000
 1.903623777448120e+000	 4.542228694588985e+000	 9.759468154732375e+000
 1.858291506538122e+000	 4.560962363008558e+000	 9.733138169426914e+000
 1.812866444595856e+000	 4.579207382741427e+000	 9.739289757806322e+000
 2.273508235602161e+000	 4.397005833810392e+000	 9.943094693774688e+000
 2.228968434146685e+000	 4.419751092482993e+000	 9.946373000345233e+000
 2.184273767355075e+000	 4.442009467480548e+000	 9.942475425350516e+000
 2.139431982825867e+000	 4.463779877057269e+000	 9.931502043543851e+000
 2.094450822489782e+000	 4.485061398927611e+000	 9.913538064793919e+000
 2.049338018638568e+000	 4.505853269399911e+000	 9.888654352476282e+000
 2.004101290002075e+000	 4.526154882395619e+000	 9.856907979979953e+000
 1.958748337877240e+000	 4.545965788356630e+000	 9.818342822693115e+000
 1.913286842312536e+000	 4.565285693043254e+000	 9.772990182771219e+000
 1.867724458351287e+000	 4.584114456225539e+000	 9.729433021459295e+000
 1.822068812337153e+000	 4.602452090270778e+000	 9.725587244929642e+000
 2.284990600435776e+000	 4.419212933988255e+000	 9.985156510412907e+000
 2.240225850488372e+000	 4.442073067705161e+000	 9.983719243828132e+000
 2.195305453056506e+000	 4.464443858738362e+000	 9.975280743821292e+000
 2.150237194868001e+000	 4.486324219878704e+000	 9.959887629345817e+000
 2.105028856954238e+000	 4.507713224182639e+000	 9.937571660804798e+000
 2.059688210658945e+000	 4.528610104101473e+000	 9.908350321426161e+000
 2.014223013695456e+000	 4.549014250495659e+000	 9.872227436276694e+000
 1.968641006256152e+000	 4.568925211536593e+000	 9.829193826166005e+000
 1.922949907177626e+000	 4.588342691498529e+000	 9.779227993632338e+000
 1.877157410165042e+000	 4.607266549443283e+000	 9.722296838155797e+000
 1.831271180078945e+000	 4.625696797800614e+000	 9.705692202795010e+000
 2.296472965270393e+000	 4.441420034167621e+000	 1.002629765486865e+001
 2.251483266831054e+000	 4.464395042928913e+000	 1.001933569395970e+001
 2.206337138758916e+000	 4.486878249997798e+000	 1.000555236073651e+001
 2.161042406911088e+000	 4.508868562701760e+000	 9.984941135637440e+000
 2.115606891419611e+000	 4.530365049439245e+000	 9.957480636174887e+000
 2.070038402680194e+000	 4.551366938804532e+000	 9.923135261224042e+000
 2.024344737389656e+000	 4.571873618597071e+000	 9.881855872492805e+000
 1.978533674635815e+000	 4.591884634717766e+000	 9.833580510309728e+000
 1.932612972043393e+000	 4.611399689954809e+000	 9.778235140811106e+000
 1.886590361979387e+000	 4.630418642661793e+000	 9.715734431563618e+000
 1.840473547821232e+000	 4.648941505330933e+000	 9.679491182430125e+000
 1.748449870420633e+000	 4.416494430049542e+000	 9.670638771891134e+000
 1.704556690275469e+000	 4.433620020899308e+000	 9.712360261196670e+000
 1.660588556172508e+000	 4.450274783340313e+000	 9.743177661256967e+000
 1.616552683069940e+000	 4.466459159448742e+000	 9.762614858823845e+000
 1.572456244859625e+000	 4.482173731371831e+000	 9.770217010699573e+000
 1.528306371162559e+000	 4.497419219518087e+000	 9.765553221359410e+000
 1.484110144199971e+000	 4.512196480665968e+000	 9.748219128079612e+000
 1.439874595742234e+000	 4.526506505994299e+000	 9.717839387234841e+000
 1.395606704137588e+000	 4.540350419037734e+000	 9.674070055875250e+000
 1.351313391422534e+000	 4.553729473570638e+000	 9.616600863149998e+000
 1.307001520515620e+000	 4.566645051422786e+000	 9.545157366608999e+000
 1.757652238158466e+000	 4.439739137575500e+000	 9.697392603217088e+000
 1.713528041275271e+000	 4.456954863114908e+000	 9.723862462101071e+000
 1.669328495939905e+000	 4.473697282201146e+000	 9.741076638235509e+000
 1.625060855084026e+000	 4.489966839237116e+000	 9.748608471341031e+000
 1.580732330356816e+000	 4.505764119433992e+000	 9.746050032826336e+000
 1.536350088903591e+000	 4.521089846991900e+000	 9.733014836298704e+000
 1.491921250220428e+000	 4.535944883198664e+000	 9.709140457989271e+000
 1.447452883087016e+000	 4.550330224449836e+000	 9.674091060591744e+000
 1.402952002579744e+000	 4.564247000193415e+000	 9.627559814458941e+000
 1.358425567166881e+000	 4.577696470802579e+000	 9.569271210561096e+000
 1.313880475887600e+000	 4.590680025379892e+000	 9.498983260075573e+000
 1.766854605896794e+000	 4.462983845101943e+000	 9.718651730344838e+000
 1.722499392275472e+000	 4.480289705330701e+000	 9.731810889705825e+000
 1.678068435707619e+000	 4.497119781061904e+000	 9.737343929507691e+000
 1.633569027098352e+000	 4.513474519025166e+000	 9.734872410093692e+000
 1.589008415854183e+000	 4.529354507495596e+000	 9.724034106099749e+000
 1.544393806644745e+000	 4.544760474464951e+000	 9.704485751156737e+000
 1.499732356240962e+000	 4.559693285730408e+000	 9.675905694868710e+000
 1.455031170431842e+000	 4.574153942904253e+000	 9.637996465397615e+000
 1.410297301021918e+000	 4.588143581347828e+000	 9.590487231432698e+000
 1.365537742911233e+000	 4.601663468033122e+000	 9.533136157783197e+000
 1.320759431259581e+000	 4.614714999335489e+000	 9.465732649300845e+000
 1.776056973635617e+000	 4.486228552628871e+000	 9.734327417254178e+000
 1.731470743276074e+000	 4.503624547546692e+000	 9.736098646041130e+000
 1.686808375475648e+000	 4.520542279922586e+000	 9.731854904888520e+000
 1.642077199112921e+000	 4.536982198812894e+000	 9.721264745006462e+000
 1.597284501351727e+000	 4.552944895556653e+000	 9.704010435163051e+000
 1.552437524386021e+000	 4.568431101937240e+000	 9.679790741887194e+000
 1.507543462261574e+000	 4.583441688261203e+000	 9.648323624260067e+000
 1.462609457776711e+000	 4.597977661357553e+000	 9.609348836456331e+000
 1.417642599464113e+000	 4.612040162500974e+000	 9.562630431644942e+000
 1.372649918655590e+000	 4.625630465262270e+000	 9.507959161321583e+000
 1.327638386631561e+000	 4.638749973289583e+000	 9.445154764614781e+000
 1.785259341374934e+000	 4.509473260156284e+000	 9.744327118934333e+000
 1.740442094277075e+000	 4.526959389762877e+000	 9.736615538835308e+000
 1.695548315243992e+000	 4.543964778783195e+000	 9.724482147233404e+000
 1.650585371127730e+000	 4.560489878600299e+000	 9.707641258860564e+000
 1.605560586849447e+000	 4.576535283617155e+000	 9.685818429632903e+000
 1.560481242127419e+000	 4.592101729408769e+000	 9.658753273667610e+000
 1.515354568282265e+000	 4.607190090791048e+000	 9.626202197153155e+000
 1.470187745121624e+000	 4.621801379809735e+000	 9.587941042062647e+000
 1.424987897906327e+000	 4.635936743652855e+000	 9.543767633150244e+000
 1.379762094399952e+000	 4.649597462490021e+000	 9.493504222134380e+000
 1.334517342003541e+000	 4.662784947242169e+000	 9.436999823444253e+000
 1.794461709114746e+000	 4.532717967684179e+000	 9.748554579050406e+000
 1.749413445278476e+000	 4.550294231979255e+000	 9.733248165984142e+000
 1.704288255012651e+000	 4.567387277643729e+000	 9.715095523898714e+000
 1.659093543142780e+000	 4.583997558387378e+000	 9.693855505938602e+000
 1.613836672347345e+000	 4.600125671677105e+000	 9.669295750125730e+000
 1.568524959868940e+000	 4.615772356879539e+000	 9.641195534509089e+000
 1.523165674303034e+000	 4.630938493319944e+000	 9.609348551384246e+000
 1.477766032466581e+000	 4.645625098260799e+000	 9.573565593399877e+000
 1.432333196348560e+000	 4.659833324803466e+000	 9.533677144819471e+000
 1.386874270144318e+000	 4.673564459716376e+000	 9.489535871672240e+000
 1.341396297375522e+000	 4.686819921193250e+000	 9.441019005002701e+000
 1.803664076855054e+000	 4.555962675212561e+000	 9.746909924619995e+000
 1.758384796280277e+000	 4.573629074195829e+000	 9.725879997434284e+000
 1.713028194781627e+000	 4.590809776504190e+000	 9.703562256014678e+000
 1.667601715158070e+000	 4.607505238174134e+000	 9.679758868873870e+000
 1.622112757845418e+000	 4.623716059736503e+000	 9.654278352874998e+000
 1.576568677610583e+000	 4.639442984349548e+000	 9.626938467837043e+000
 1.530976780323880e+000	 4.654686895847889e+000	 9.597569032379786e+000
 1.485344319811582e+000	 4.669448816710744e+000	 9.566014653649832e+000
 1.439678494790812e+000	 4.683729905952810e+000	 9.532137364022953e+000
 1.393986445888690e+000	 4.697531456941333e+000	 9.495819158345331e+000
 1.348275252747503e+000	 4.710854895142822e+000	 9.456964425754862e+000
 1.812866444595856e+000	 4.579207382741427e+000	 9.739289757806322e+000
 1.767356147282479e+000	 4.596963916412597e+000	 9.714391454572928e+000
 1.721768134550916e+000	 4.614232275364574e+000	 9.689746985648467e+000
 1.676109887173602e+000	 4.631012917960568e+000	 9.665200613768500e+000
 1.630388843343669e+000	 4.647306447795349e+000	 9.640600532989696e+000
 1.584612395352349e+000	 4.663113611818793e+000	 9.615801804079656e+000
 1.538787886344805e+000	 4.678435298374885e+000	 9.590669213268322e+000
 1.492922607156627e+000	 4.693272535159570e+000	 9.565080046825399e+000
 1.447023793233084e+000	 4.707626487100888e+000	 9.538926774384365e+000
 1.401098621633067e+000	 4.721498454164895e+000	 9.512119634402561e+000
 1.355154208119483e+000	 4.734889869090891e+000	 9.484589115628616e+000
 1.822068812337153e+000	 4.602452090270778e+000	 9.725587244929642e+000
 1.776327498285080e+000	 4.620298758629560e+000	 9.698659987211547e+000
 1.730508074320522e+000	 4.637654774224886e+000	 9.673511840932102e+000
 1.684618059189375e+000	 4.654520597746679e+000	 9.650027943641142e+000
 1.638664928842096e+000	 4.670896835853643e+000	 9.628094966401950e+000
 1.592656113094237e+000	 4.686784239287278e+000	 9.607604091299152e+000
 1.546598992365808e+000	 4.702183700900933e+000	 9.588453914382935e+000
 1.500500894501715e+000	 4.717096253607278e+000	 9.570553266335372e+000
 1.454369091675375e+000	 4.731523068247697e+000	 9.553823943602669e+000
 1.408210797377448e+000	 4.745465451387059e+000	 9.538203343208394e+000
 1.362033163491464e+000	 4.758924843037452e+000	 9.523646994947798e+000
 1.831271180078945e+000	 4.625696797800614e+000	 9.705692202795010e+000
 1.785298849288082e+000	 4.643633600846719e+000	 9.678560148248632e+000
 1.739248014090443e+000	 4.661077273085121e+000	 9.654716499226639e+000
 1.693126231205388e+000	 4.678028277532464e+000	 9.634086050263258e+000
 1.646941014340700e+000	 4.694487223911384e+000	 9.616592750549831e+000
 1.600699830836248e+000	 4.710454866755004e+000	 9.602162724899461e+000
 1.554410098386890e+000	 4.725932103426030e+000	 9.590727222175756e+000
 1.508079181846848e+000	 4.740919972053868e+000	 9.582225483291140e+000
 1.461714390117686e+000	 4.755419649393240e+000	 9.576607521339549e+000
 1.415322973121834e+000	 4.769432448607827e+000	 9.573836806903222e+000
 1.368912118863444e+000	 4.782959816982506e+000	 9.573892852060389e+000
 1.840473547821232e+000	 4.648941505330933e+000	 9.679491182430125e+000
 1.794270200291483e+000	 4.666968443064073e+000	 9.653963666092531e+000
 1.747987953860680e+000	 4.684499771945285e+000	 9.633218248391398e+000
 1.701634403221643e+000	 4.701535957317928e+000	 9.617218164440278e+000
 1.655217099839480e+000	 4.718077611968574e+000	 9.605923443839725e+000
 1.608743548578381e+000	 4.734125494221969e+000	 9.599293976442676e+000
 1.562221204408049e+000	 4.749680505950178e+000	 9.597292507564974e+000
 1.515657469192024e+000	 4.764743690499340e+000	 9.599887554564061e+000
 1.469059688560017e+000	 4.779316230537516e+000	 9.607056237170433e+000
 1.422435148866225e+000	 4.793399445827198e+000	 9.618787014434000e+000
 1.375791074235425e+000	 4.806994790926056e+000	 9.635082321637883e+000
 1.307001520515620e+000	 4.566645051422786e+000	 9.545157366608999e+000
 1.262677892496843e+000	 4.579098660229949e+000	 9.557361171027608e+000
 1.218349243971802e+000	 4.591091931124016e+000	 9.469093410088503e+000
 1.174022244523953e+000	 4.602626616365185e+000	 9.355674273057824e+000
 1.129703494256914e+000	 4.613704586919089e+000	 9.271092687484961e+000
 1.085399521425691e+000	 4.624327829983526e+000	 9.215285124282602e+000
 1.041116780158474e+000	 4.634498446467842e+000	 9.188126360720100e+000
 9.968616482696650e-001	 4.644218648428490e+000	 9.189424274195979e+000
 9.526404251647149e-001	 4.653490756464190e+000	 9.218914955818917e+000
 9.084593298371448e-001	 4.662317197074184e+000	 9.276258151283699e+000
 8.643244989580522e-001	 4.670700499982988e+000	 9.361033035267933e+000
 1.313880475887600e+000	 4.590680025379892e+000	 9.498983260075573e+000
 1.269323565616884e+000	 4.603199179496159e+000	 9.510900406942744e+000
 1.224761608415979e+000	 4.615255572868285e+000	 9.460322238568121e+000
 1.180201308971415e+000	 4.626850966978888e+000	 9.363260555252758e+000
 1.135649302124197e+000	 4.637987242640786e+000	 9.291065492113001e+000
 1.091112150488572e+000	 4.648666397510717e+000	 9.243781235610362e+000
 1.046596342161823e+000	 4.658890543555442e+000	 9.221391872685871e+000
 1.002108288525804e+000	 4.668661904473817e+000	 9.223815941296865e+000
 9.576543221407293e-001	 4.677982813078234e+000	 9.250901306069178e+000
 9.132406947316675e-001	 4.686855708638987e+000	 9.302420366915106e+000
 8.688735752679867e-001	 4.695283134194933e+000	 9.378065607180414e+000
 1.320759431259581e+000	 4.614714999335489e+000	 9.465732649300845e+000
 1.275969238736935e+000	 4.627299698760772e+000	 9.477481953461448e+000
 1.231173972860197e+000	 4.639419214610888e+000	 9.456617524747028e+000
 1.186380373418968e+000	 4.651075317590874e+000	 9.374551547176743e+000
 1.141595109991644e+000	 4.662269898360744e+000	 9.313423552192056e+000
 1.096824779551708e+000	 4.673004965036161e+000	 9.273387025911706e+000
 1.052075904165543e+000	 4.683282640641307e+000	 9.254536900501750e+000
 1.007354928782445e+000	 4.693105160517438e+000	 9.256903859653850e+000
 9.626682191173969e-001	 4.702474869690625e+000	 9.280448974601921e+000
 9.180220596270147e-001	 4.711394220202211e+000	 9.325058678894004e+000
 8.734226515789358e-001	 4.719865768405385e+000	 9.390540088820108e+000
 1.327638386631561e+000	 4.638749973289583e+000	 9.445154764614781e+000
 1.282614911856997e+000	 4.651400218023791e+000	 9.456865832395893e+000
 1.237586337304457e+000	 4.663582856351826e+000	 9.458508788672432e+000
 1.192559437866615e+000	 4.675299668201150e+000	 9.390057439847391e+000
 1.147540917859257e+000	 4.686552554078959e+000	 9.338657006406612e+000
 1.102537408615102e+000	 4.697343532559855e+000	 9.304571879635821e+000
 1.057555466169632e+000	 4.707674737725434e+000	 9.288009394009610e+000
 1.012601569039587e+000	 4.717548416559352e+000	 9.289113885761415e+000
 9.676821160947181e-001	 4.726966926301362e+000	 9.307961087532350e+000
 9.228034245231862e-001	 4.735932731763849e+000	 9.344552867683026e+000
 8.779717278908999e-001	 4.744448402614344e+000	 9.398812321507988e+000
 1.334517342003541e+000	 4.662784947242169e+000	 9.436999823444253e+000
 1.289260584977069e+000	 4.675500737285212e+000	 9.448812979863826e+000
 1.243998701748758e+000	 4.687746498091098e+000	 9.466526406005761e+000
 1.198738502314356e+000	 4.699524018809712e+000	 9.410289235222356e+000
 1.153486725727035e+000	 4.710835209795433e+000	 9.367256773633024e+000
 1.108250037678754e+000	 4.721682100081798e+000	 9.337805944504035e+000
 1.063035028174090e+000	 4.732066834807823e+000	 9.322258063127416e+000
 1.017848209297231e+000	 4.741991672599561e+000	 9.320872646606565e+000
 9.726960130726919e-001	 4.751458982910445e+000	 9.333841565379087e+000
 9.275847894201817e-001	 4.760471243323905e+000	 9.361283545429473e+000
 8.825208042038785e-001	 4.769031036821811e+000	 9.403239028771116e+000
 1.341396297375522e+000	 4.686819921193250e+000	 9.441019005002701e+000
 1.295906258097151e+000	 4.699601256545038e+000	 9.453085222844640e+000
 1.250411066193101e+000	 4.711910139828708e+000	 9.480435585299055e+000
 1.204917566762190e+000	 4.723748369416562e+000	 9.435758725405892e+000
 1.159432533594978e+000	 4.735117865510165e+000	 9.399714532934631e+000
 1.113962666742663e+000	 4.746020667601992e+000	 9.373560111938792e+000
 1.068514590178918e+000	 4.756458931888473e+000	 9.357732358360183e+000
 1.023094849555376e+000	 4.766434928638065e+000	 9.352607519912551e+000
 9.777099100513192e-001	 4.775951039517873e+000	 9.358495102694796e+000
 9.323661543180016e-001	 4.785009754882376e+000	 9.375632134640011e+000
 8.870698805178715e-001	 4.793613671027785e+000	 9.404177793721935e+000
 1.348275252747503e+000	 4.710854895142822e+000	 9.456964425754862e+000
 1.302551931217244e+000	 4.723701775803268e+000	 9.469445256453412e+000
 1.256823430637485e+000	 4.736073781564651e+000	 9.492937967152757e+000
 1.211096631210117e+000	 4.747972720021697e+000	 9.466978472492098e+000
 1.165378341463086e+000	 4.759400521223156e+000	 9.436522704169155e+000
 1.119675295806829e+000	 4.770359235120437e+000	 9.412305998091618e+000
 1.073994152184115e+000	 4.780851028967387e+000	 9.394882451907332e+000
 1.028341489814023e+000	 4.790878184674864e+000	 9.384746614987490e+000
 9.827238070305994e-001	 4.800443096123646e+000	 9.382327148320380e+000
 9.371475192166460e-001	 4.809548266439266e+000	 9.387980847508263e+000
 8.916189568328796e-001	 4.818196305232266e+000	 9.401987037130127e+000
 1.355154208119483e+000	 4.734889869090891e+000	 9.484589115628616e+000
 1.309197604337347e+000	 4.747802295059902e+000	 9.497656621906975e+000
 1.263235795081911e+000	 4.760237423298930e+000	 9.517502061914758e+000
 1.217275695658136e+000	 4.772197070625118e+000	 9.504461789022029e+000
 1.171324149331359e+000	 4.783683176934406e+000	 9.478174429186932e+000
 1.125387924871253e+000	 4.794697802637132e+000	 9.454515925448995e+000
 1.079473714189682e+000	 4.805243126044562e+000	 9.434159219345766e+000
 1.033588130073171e+000	 4.815321440709956e+000	 9.417718754156162e+000
 9.877377040105332e-001	 4.824935152727766e+000	 9.405743886240726e+000
 9.419288841161144e-001	 4.834086777994571e+000	 9.398712665871985e+000
 8.961680331489021e-001	 4.842778939435253e+000	 9.397025996162249e+000
 1.362033163491464e+000	 4.758924843037452e+000	 9.523646994947798e+000
 1.315843277457460e+000	 4.771902814314941e+000	 9.537483685157740e+000
 1.269648159526378e+000	 4.784401065031544e+000	 9.553902077508738e+000
 1.223454760106249e+000	 4.796421421226826e+000	 9.548722719032954e+000
 1.177269957199798e+000	 4.807965832643914e+000	 9.525163553598624e+000
 1.131100553935933e+000	 4.819036370152078e+000	 9.500662904995657e+000
 1.084953276195619e+000	 4.829635223120001e+000	 9.476014221867581e+000
 1.038834770332820e+000	 4.839764696743343e+000	 9.451953454754621e+000
 9.927516009911197e-001	 4.849427209330234e+000	 9.429152217020315e+000
 9.467102490164072e-001	 4.858625289548295e+000	 9.408211321777641e+000
 9.007171094659395e-001	 4.867361573636750e+000	 9.389654703765638e+000
 1.368912118863444e+000	 4.782959816982506e+000	 9.573892852060389e+000
 1.322488950577584e+000	 4.796003333568383e+000	 9.588691616171689e+000
 1.276060523970887e+000	 4.808564706762494e+000	 9.601912974260717e+000
 1.229633824554455e+000	 4.820645771826822e+000	 9.600276019679102e+000
 1.183215765068401e+000	 4.832248488351681e+000	 9.577984609092948e+000
 1.136813183000871e+000	 4.843374937665274e+000	 9.551220618915590e+000
 1.090432838201924e+000	 4.854027320193702e+000	 9.520899689053760e+000
 1.044081410592971e+000	 4.864207952775023e+000	 9.487880911667487e+000
 9.977654979723596e-001	 4.873919265931045e+000	 9.452959739798857e+000
 9.514916139175242e-001	 4.883163801100436e+000	 9.416861278630901e+000
 9.052661857839915e-001	 4.891944207836753e+000	 9.380233968673965e+000
 1.375791074235425e+000	 4.806994790926056e+000	 9.635082321637883e+000
 1.329134623697719e+000	 4.820103852820232e+000	 9.651046368828002e+000
 1.282472888415437e+000	 4.832728348491778e+000	 9.661310446088990e+000
 1.235812889002754e+000	 4.844870122425104e+000	 9.659637143403767e+000
 1.189161572937170e+000	 4.856531144057705e+000	 9.637132796284595e+000
 1.142525812066067e+000	 4.867713505176722e+000	 9.606663403812076e+000
 1.095912400208600e+000	 4.878419417265667e+000	 9.569268502164247e+000
 1.049328050853624e+000	 4.888651208805000e+000	 9.525931980389311e+000
 1.002779394954253e+000	 4.898411322530204e+000	 9.477574734826758e+000
 9.562729788194657e-001	 4.907702312650993e+000	 9.425047712912654e+000
 9.098152621030583e-001	 4.916526842035265e+000	 9.369125356012534e+000
 8.643244989580522e-001	 4.670700499982988e+000	 9.361033035267933e+000
 8.202419850585254e-001	 4.678643295435927e+000	 9.339252882030136e+000
 7.762177548042755e-001	 4.686148311466118e+000	 9.302402336161016e+000
 7.322576873625165e-001	 4.693218371138125e+000	 9.250744985336231e+000
 6.883675728617015e-001	 4.699856389773194e+000	 9.184468715301556e+000
 6.445531109429856e-001	 4.706065372156695e+000	 9.103681917899090e+000
 6.008199094031392e-001	 4.711848409731800e+000	 9.064480296785872e+000
 5.571734829283334e-001	 4.717208677782531e+000	 9.072865714123397e+000
 5.136192519181071e-001	 4.722149432609214e+000	 9.087756477114626e+000
 4.701625413987239e-001	 4.726674008699353e+000	 9.108534425701683e+000
 4.268085800250276e-001	 4.730785815896795e+000	 9.134700186358526e+000
 8.688735752679867e-001	 4.695283134194933e+000	 9.378065607180414e+000
 8.245590481363796e-001	 4.703267733834722e+000	 9.357234262806292e+000
 7.803031114062362e-001	 4.710812249949480e+000	 9.323772987369013e+000
 7.361116751877546e-001	 4.717919520462003e+000	 9.278014558654435e+000
 6.919905600837472e-001	 4.724592476037333e+000	 9.220211980317332e+000
 6.479454957334779e-001	 4.730834137275504e+000	 9.150534620207113e+000
 6.039821194484371e-001	 4.736647611890441e+000	 9.106234908800944e+000
 5.601059749394577e-001	 4.742036091878187e+000	 9.105327521213150e+000
 5.163225111344961e-001	 4.747002850677490e+000	 9.111781192997254e+000
 4.726370810862681e-001	 4.751551240325787e+000	 9.124907079881456e+000
 4.290549409688527e-001	 4.755684688613479e+000	 9.144137267279561e+000
 8.734226515789358e-001	 4.719865768405385e+000	 9.390540088820108e+000
 8.288761112154275e-001	 4.727892172232124e+000	 9.369819916084781e+000
 7.843884680095284e-001	 4.735476188431549e+000	 9.338905507934181e+000
 7.399656630144206e-001	 4.742620669784688e+000	 9.298200469348227e+000
 6.956135473072760e-001	 4.749328562300383e+000	 9.248024525315936e+000
 6.513378805254695e-001	 4.755602902393323e+000	 9.188609587724439e+000
 6.071443294952095e-001	 4.761446814048191e+000	 9.142863792081913e+000
 5.630384669519922e-001	 4.766863505973046e+000	 9.134198840525233e+000
 5.190257703521917e-001	 4.771856268745071e+000	 9.133710995785759e+000
 4.751116207749768e-001	 4.776428471951628e+000	 9.140639378031697e+000
 4.313013019136611e-001	 4.780583561329669e+000	 9.154346244548465e+000
 8.779717278908999e-001	 4.744448402614344e+000	 9.398812321507988e+000
 8.331931742956691e-001	 4.752516610628134e+000	 9.377338930171847e+000
 7.884738246141516e-001	 4.760140126912325e+000	 9.348102589100861e+000
 7.438196508425145e-001	 4.767321819106181e+000	 9.311579381718966e+000
 6.992365345322885e-001	 4.774064648562337e+000	 9.268157371466753e+000
 6.547302653189601e-001	 4.780371667510148e+000	 9.218132595509193e+000
 6.103065395434563e-001	 4.786246016205046e+000	 9.174027684506894e+000
 5.659709589659370e-001	 4.791690920067117e+000	 9.159157475286483e+000
 5.217290295711939e-001	 4.796709686811961e+000	 9.153240832619165e+000
 4.775861604648496e-001	 4.801305703576881e+000	 9.155443476239764e+000
 4.335476628594530e-001	 4.805482434045368e+000	 9.165056534986880e+000
 8.825208042038785e-001	 4.769031036821811e+000	 9.403239028771116e+000
 8.375102373771048e-001	 4.777141049022752e+000	 9.380121385435640e+000
 7.925591812201065e-001	 4.784804065391811e+000	 9.351668018315147e+000
 7.476736386720361e-001	 4.792022968426481e+000	 9.318429154702180e+000
 7.028595217587850e-001	 4.798800734823201e+000	 9.280862827309861e+000
 6.581226501139499e-001	 4.805140432625982e+000	 9.239330793045697e+000
 6.134687495931775e-001	 4.811045218361012e+000	 9.199388779771610e+000
 5.689034509812920e-001	 4.816518334160397e+000	 9.179882760290317e+000
 5.244322887915028e-001	 4.821563104878160e+000	 9.170067252332736e+000
 4.800607001558868e-001	 4.826182935201539e+000	 9.169033196825851e+000
 4.357940238062281e-001	 4.830381306760575e+000	 9.175999280621706e+000
 8.870698805178715e-001	 4.793613671027785e+000	 9.404177793721935e+000
 8.418273004597338e-001	 4.801765487415977e+000	 9.378498328868680e+000
 7.966445378273929e-001	 4.809468003870001e+000	 9.349906651117140e+000
 7.515276265029860e-001	 4.816724117745588e+000	 9.319028811235897e+000
 7.064825089867651e-001	 4.823536821082972e+000	 9.286394455746592e+000
 6.615150349104386e-001	 4.829909197740823e+000	 9.252432669002650e+000
 6.166309596443732e-001	 4.835844420516084e+000	 9.218610690060627e+000
 5.718359429980570e-001	 4.841345748252883e+000	 9.196055522625803e+000
 5.271355480131184e-001	 4.846416522943665e+000	 9.183888364388873e+000
 4.825352398480882e-001	 4.851060166825606e+000	 9.181123985619028e+000
 4.380403847539867e-001	 4.855280179475290e+000	 9.186907304449010e+000
 8.916189568328796e-001	 4.818196305232266e+000	 9.401987037130127e+000
 8.461443635435570e-001	 4.826389925807810e+000	 9.372801749429105e+000
 8.007298944360106e-001	 4.834131942346899e+000	 9.343124383893631e+000
 7.553816143353638e-001	 4.841425267063504e+000	 9.313658508566750e+000
 7.101054962162290e-001	 4.848272907341652e+000	 9.285007042040450e+000
 6.649074197084265e-001	 4.854677962854673e+000	 9.257668017070353e+000
 6.197931696970432e-001	 4.860643622670264e+000	 9.231358409861519e+000
 5.747684350162322e-001	 4.866173162344578e+000	 9.207358043608915e+000
 5.298388072360406e-001	 4.871269941008480e+000	 9.194403799065206e+000
 4.850097795414539e-001	 4.875937398449081e+000	 9.191432870541194e+000
 4.402867457027287e-001	 4.880179052189514e+000	 9.197515067552208e+000
 8.961680331489021e-001	 4.842778939435253e+000	 9.397025996162249e+000
 8.504614266285739e-001	 4.851014364198250e+000	 9.363364554132886e+000
 8.048152510459596e-001	 4.858795880822506e+000	 9.331628127460704e+000
 7.592356021691694e-001	 4.866126416380226e+000	 9.302599509460370e+000
 7.137284834471765e-001	 4.873008993599238e+000	 9.276956562792803e+000
 6.682998045079135e-001	 4.879446727967530e+000	 9.255267902838321e+000
 6.229553797511880e-001	 4.885442824823553e+000	 9.237298280880932e+000
 5.777009270358176e-001	 4.891000576435481e+000	 9.213474021873219e+000
 5.325420664602696e-001	 4.896123359072604e+000	 9.201314668855149e+000
 4.874843192359838e-001	 4.900814630071966e+000	 9.199678421452457e+000
 4.425331066524542e-001	 4.905077924903247e+000	 9.207558627526209e+000
 9.007171094659395e-001	 4.867361573636750e+000	 9.389654703765638e+000
 8.547784897147843e-001	 4.875638802587297e+000	 9.350520544870571e+000
 8.089006076572401e-001	 4.883459819296819e+000	 9.315725781446849e+000
 7.630895900044030e-001	 4.890827565695759e+000	 9.286134154284257e+000
 7.173514706796077e-001	 4.897745079855731e+000	 9.262500155858495e+000
 6.716921893088994e-001	 4.904215493079393e+000	 9.245464631676603e+000
 6.261175898068071e-001	 4.910242026975949e+000	 9.235550812497761e+000
 5.806334190568133e-001	 4.915827990525592e+000	 9.214088537578952e+000
 5.352453256858051e-001	 4.920976777136034e+000	 9.204323531038288e+000
 4.899588589316778e-001	 4.925691861694258e+000	 9.205580711213278e+000
 4.447794676031630e-001	 4.929976797616488e+000	 9.216775598161464e+000
 9.052661857839915e-001	 4.891944207836753e+000	 9.380233968673965e+000
 8.590955528021887e-001	 4.900263240974951e+000	 9.334604395923018e+000
 8.129859642698522e-001	 4.908123757769840e+000	 9.295726209448382e+000
 7.669435778410646e-001	 4.915528715010095e+000	 9.264545833932393e+000
 7.209744579135228e-001	 4.922481166111133e+000	 9.241896091168677e+000
 6.750845741113848e-001	 4.928984258190267e+000	 9.228491717585522e+000
 6.292797998639005e-001	 4.935041229127454e+000	 9.224925322763239e+000
 5.835659110792189e-001	 4.940655404614910e+000	 9.208888017701383e+000
 5.379485849126473e-001	 4.945830195198774e+000	 9.203134351379163e+000
 4.924333986285364e-001	 4.950569093315958e+000	 9.208861277920658e+000
 4.470258285548553e-001	 4.954875670329237e+000	 9.224905110343629e+000
 9.098152621030583e-001	 4.916526842035265e+000	 9.369125356012534e+000
 8.634126158907872e-001	 4.924887679361214e+000	 9.315951632151592e+000
 8.170713208837958e-001	 4.932787696241570e+000	 9.271939214930308e+000
 7.707975656791543e-001	 4.940229864323243e+000	 9.238118963562066e+000
 7.245974451489217e-001	 4.947217252365443e+000	 9.215403742428901e+000
 6.784769589153692e-001	 4.953753023300148e+000	 9.204583852979967e+000
 6.324420099224686e-001	 4.959840431278067e+000	 9.206322916858310e+000
 5.864984031030350e-001	 4.965482818703439e+000	 9.197560202360403e+000
 5.406518441407963e-001	 4.970683613260823e+000	 9.197452468915159e+000
 4.949079383265592e-001	 4.975446324937067e+000	 9.209243088277219e+000
 4.492721895075311e-001	 4.979774543041494e+000	 9.231687774126128e+000
 4.268085800250276e-001	 4.730785815896795e+000	 9.134700186358526e+000
 3.835624991689582e-001	 4.734488336571500e+000	 9.165551751161859e+000
 3.404293320962267e-001	 4.737785122794405e+000	 9.188122274158452e+000
 2.974140132282684e-001	 4.740679793518914e+000	 9.202586762804515e+000
 2.545213774864993e-001	 4.743176031770457e+000	 9.209248810885127e+000
 2.117561597201596e-001	 4.745277581848414e+000	 9.208540664140688e+000
 1.691229942154843e-001	 4.746988246542276e+000	 9.201022939463353e+000
 1.266264142847402e-001	 4.748311884364385e+000	 9.187384008611851e+000
 8.427085193360903e-002	 4.749252406801554e+000	 9.168439057979361e+000
 4.206063760533519e-002	 4.749813775587759e+000	 9.145128836475466e+000
 0.000000000000000e+000	 4.750000000000000e+000	 9.118518104050684e+000
 4.290549409688527e-001	 4.755684688613479e+000	 9.144137267279561e+000
 3.855812491613293e-001	 4.759406696238825e+000	 9.171964212483680e+000
 3.422210654202023e-001	 4.762720833967920e+000	 9.192386804195557e+000
 2.989793501375459e-001	 4.765630739801289e+000	 9.205474740998497e+000
 2.558609636817313e-001	 4.768140116148705e+000	 9.211429431891443e+000
 2.128706658222577e-001	 4.770252727016391e+000	 9.210584142071655e+000
 1.700131152363402e-001	 4.771972395208514e+000	 9.203403783456380e+000
 1.272928690957841e-001	 4.773302999545376e+000	 9.190484361048600e+000
 8.471438273261697e-002	 4.774248472100563e+000	 9.172552086853285e+000
 4.228200938188972e-002	 4.774812795459289e+000	 9.150462173592111e+000
 0.000000000000000e+000	 4.775000000000001e+000	 9.125197320945821e+000
 4.313013019136611e-001	 4.780583561329669e+000	 9.154346244548465e+000
 3.875999991544945e-001	 4.784325055905754e+000	 9.179653493649314e+000
 3.440127987448031e-001	 4.787656545141123e+000	 9.198388007750802e+000
 3.005446870473006e-001	 4.790581686083425e+000	 9.210513424726036e+000
 2.572005498773125e-001	 4.793104200526779e+000	 9.216128277538772e+000
 2.139851719245974e-001	 4.795227872184246e+000	 9.215466220134827e+000
 1.709032362573503e-001	 4.796956543874675e+000	 9.208895889141454e+000
 1.279593239069144e-001	 4.798294114726323e+000	 9.196920412638837e+000
 8.515791353166319e-002	 4.799244537399557e+000	 9.180176577885639e+000
 4.250338115845378e-002	 4.799811815330812e+000	 9.159433670436652e+000
 0.000000000000000e+000	 4.800000000000001e+000	 9.135591997585753e+000
 4.335476628594530e-001	 4.805482434045368e+000	 9.165056534986880e+000
 3.896187491484534e-001	 4.809243415572285e+000	 9.188379738010218e+000
 3.458045320700291e-001	 4.812592256314011e+000	 9.205916786858435e+000
 3.021100239575324e-001	 4.815532632365326e+000	 9.217524489214329e+000
 2.585401360732431e-001	 4.818068284904680e+000	 9.223197793506033e+000
 2.150996780271788e-001	 4.820203017351980e+000	 9.223070094868714e+000
 1.717933572785144e-001	 4.821940692540756e+000	 9.217413167881670e+000
 1.286257787181312e-001	 4.823285229907228e+000	 9.206636737507822e+000
 8.560144433074766e-002	 4.824240602698530e+000	 9.191287700295666e+000
 4.272475293502739e-002	 4.824810835202331e+000	 9.172049008475629e+000
 0.000000000000000e+000	 4.825000000000000e+000	 9.149738230091307e+000
 4.357940238062281e-001	 4.830381306760575e+000	 9.175999280621706e+000
 3.916374991432063e-001	 4.834161775238420e+000	 9.197904590718281e+000
 3.475962653958803e-001	 4.837527967486588e+000	 9.214765316326304e+000
 3.036753608682411e-001	 4.840483578646984e+000	 9.226330647960836e+000
 2.598797222695229e-001	 4.843032369282406e+000	 9.232491223908941e+000
 2.162141841300019e-001	 4.845178162519593e+000	 9.233279516231610e+000
 1.726834782998328e-001	 4.846924841206762e+000	 9.228869834406872e+000
 1.292922335294343e-001	 4.848276345088091e+000	 9.219577958206067e+000
 8.604497512987042e-002	 4.849236667997483e+000	 9.205860412045892e+000
 4.294612471161052e-002	 4.849809855073844e+000	 9.188313393644467e+000
 0.000000000000000e+000	 4.850000000000000e+000	 9.167671370333341e+000
 4.380403847539867e-001	 4.855280179475290e+000	 9.186907304449010e+000
 3.936562491387531e-001	 4.859080134904158e+000	 9.207991160218075e+000
 3.493879987223567e-001	 4.862463678658854e+000	 9.224727011100654e+000
 3.052406977794268e-001	 4.865434524928404e+000	 9.236755626111055e+000
 2.612193084661519e-001	 4.867996453659957e+000	 9.243862590827206e+000
 2.173286902330668e-001	 4.870153307687086e+000	 9.245978773411427e+000
 1.735735993213052e-001	 4.871908989872692e+000	 9.243180399035023e+000
 1.299586883408239e-001	 4.873267460268909e+000	 9.235688744467717e+000
 8.648850592903142e-002	 4.874232733296418e+000	 9.223869465259011e+000
 4.316749648820319e-002	 4.874808874945354e+000	 9.208231568540652e+000
 0.000000000000000e+000	 4.875000000000000e+000	 9.189426045016200e+000
 4.402867457027287e-001	 4.880179052189514e+000	 9.197515067552208e+000
 3.956749991350939e-001	 4.883998494569498e+000	 9.218403980917996e+000
 3.511797320494583e-001	 4.887399389830808e+000	 9.235596494629926e+000
 3.068060346910895e-001	 4.890385471209586e+000	 9.248624134651129e+000
 2.625588946631303e-001	 4.892960538037332e+000	 9.257166674458622e+000
 2.184431963363733e-001	 4.895128452854459e+000	 9.261052681069714e+000
 1.744637203429319e-001	 4.896893138538543e+000	 9.260259660131680e+000
 1.306251431522999e-001	 4.898258575449685e+000	 9.254913812006828e+000
 8.693203672823067e-002	 4.899228798595333e+000	 9.245289411468878e+000
 4.338886826480538e-002	 4.899807894816859e+000	 9.231807824243489e+000
 0.000000000000000e+000	 4.900000000000000e+000	 9.215036174176751e+000
 4.425331066524542e-001	 4.905077924903247e+000	 9.207558627526209e+000
 3.976937491322284e-001	 4.908916854234440e+000	 9.228908976998314e+000
 3.529714653771849e-001	 4.912335101002447e+000	 9.247169568192103e+000
 3.083713716032294e-001	 4.915336417490532e+000	 9.261761845386511e+000
 2.638984808604579e-001	 4.917924622414533e+000	 9.272258993877335e+000
 2.195577024399215e-001	 4.920103598021710e+000	 9.278386566004855e+000
 1.753538413647127e-001	 4.921877287204318e+000	 9.280022696799174e+000
 1.312915979638622e-001	 4.923249690630416e+000	 9.277197921350417e+000
 8.737556752746820e-002	 4.924224863894231e+000	 9.270094606711618e+000
 4.361024004141711e-002	 4.924806914688358e+000	 9.259046011773966e+000
 0.000000000000000e+000	 4.925000000000000e+000	 9.244534989120155e+000
 4.447794676031630e-001	 4.929976797616488e+000	 9.216775598161464e+000
 3.997124991301571e-001	 4.933835213898987e+000	 9.239273427315823e+000
 3.547631987055368e-001	 4.937270812173773e+000	 9.259243181151607e+000
 3.099367085158461e-001	 4.940287363771236e+000	 9.275995366678860e+000
 2.652380670581347e-001	 4.942888706791560e+000	 9.288995788375475e+000
 2.206722085437114e-001	 4.945078743188839e+000	 9.297866254219292e+000
 1.762439623866476e-001	 4.946861435870014e+000	 9.302384861787234e+000
 1.319580527755109e-001	 4.948240805811105e+000	 9.302485876706797e+000
 8.781909832674401e-002	 4.949220929193109e+000	 9.298259216462403e+000
 4.383161181803836e-002	 4.949805934559854e+000	 9.289949553207386e+000
 0.000000000000000e+000	 4.949999999999999e+000	 9.277955049812089e+000
 4.470258285548553e-001	 4.954875670329237e+000	 9.224905110343629e+000
 4.017312491288794e-001	 4.958753573563137e+000	 9.249265931366848e+000
 3.565549320345138e-001	 4.962206523344788e+000	 9.271615402112799e+000
 3.115020454289399e-001	 4.965238310051704e+000	 9.291152219914471e+000
 2.665776532561608e-001	 4.967852791168412e+000	 9.307233999367188e+000
 2.217867146477431e-001	 4.970053888355849e+000	 9.319378058376698e+000
 1.771340834087366e-001	 4.971845584535635e+000	 9.327261774617506e+000
 1.326245075872461e-001	 4.973231920991751e+000	 9.330722524868055e+000
 8.826262912605805e-002	 4.974216994491967e+000	 9.329757220423453e+000
 4.405298359466915e-002	 4.974804954431344e+000	 9.324521452450869e+000
 0.000000000000000e+000	 4.975000000000000e+000	 9.315328261746565e+000
 4.492721895075311e-001	 4.979774543041494e+000	 9.231687774126128e+000
 4.037499991283959e-001	 4.983671933226891e+000	 9.258656376271217e+000
 3.583466653641162e-001	 4.987142234515491e+000	 9.284085390939080e+000
 3.130673823425109e-001	 4.990189256331933e+000	 9.307060816678686e+000
 2.679172394545363e-001	 4.992816875545092e+000	 9.326831252835559e+000
 2.229012207520164e-001	 4.995029033522738e+000	 9.342808765635438e+000
 1.780242044309799e-001	 4.996829733201179e+000	 9.354569314914169e+000
 1.332909623990677e-001	 4.998223036172353e+000	 9.361852754145444e+000
 8.870615992541038e-002	 4.999213059790806e+000	 9.364562417168308e+000
 4.427435537130947e-002	 4.999803974302830e+000	 9.362764305697553e+000
 0.000000000000000e+000	 5.000000000000000e+000	 9.356685892307693e+000
