x	y	stress_xx
 1.0000000000e+000	 0.0000000000e+000	 1.4689205860e+000
 9.9996079486e-001	 8.8548710816e-003	 1.4706336829e+000
 9.9984261196e-001	 1.7741231999e-002	 1.4767687911e+000
 9.9964460724e-001	 2.6658192499e-002	 1.4873558161e+000
 9.9936594664e-001	 3.5604840910e-002	 1.5024184159e+000
 9.9900580671e-001	 4.4580244178e-002	 1.5219738014e+000
 9.9856337512e-001	 5.3583447921e-002	 1.5460325408e+000
 9.9803785128e-001	 6.2613476500e-002	 1.5745983676e+000
 9.9742844692e-001	 7.1669333105e-002	 1.6076679949e+000
 9.9673438666e-001	 8.0749999857e-002	 1.6452309332e+000
 9.9595490863e-001	 8.9854437932e-002	 1.6872693156e+000
 1.0250000000e+000	 0.0000000000e+000	 1.3921451999e+000
 1.0249598147e+000	 9.0762428582e-003	 1.3946880499e+000
 1.0248386773e+000	 1.8184762798e-002	 1.4004690150e+000
 1.0246357224e+000	 2.7324647310e-002	 1.4095062539e+000
 1.0243500953e+000	 3.6494961931e-002	 1.4218122633e+000
 1.0239809519e+000	 4.5694750280e-002	 1.4373937018e+000
 1.0235274595e+000	 5.4923034116e-002	 1.4562512178e+000
 1.0229887976e+000	 6.4178813409e-002	 1.4783792821e+000
 1.0223641581e+000	 7.3461066429e-002	 1.5037660247e+000
 1.0216527463e+000	 8.2768749849e-002	 1.5323930772e+000
 1.0208537813e+000	 9.2100798875e-002	 1.5642354211e+000
 1.0500000000e+000	 0.0000000000e+000	 1.4031452842e+000
 1.0499588346e+000	 9.2976146348e-003	 1.4066708404e+000
 1.0498347426e+000	 1.8628293597e-002	 1.4123306768e+000
 1.0496268376e+000	 2.7991102121e-002	 1.4201319358e+000
 1.0493342440e+000	 3.7385082952e-002	 1.4300766431e+000
 1.0489560970e+000	 4.6809256382e-002	 1.4421615545e+000
 1.0484915439e+000	 5.6262620311e-002	 1.4563780055e+000
 1.0479397438e+000	 6.5744150319e-002	 1.4727117662e+000
 1.0472998693e+000	 7.5252799753e-002	 1.4911429007e+000
 1.0465711060e+000	 8.4787499842e-002	 1.5116456317e+000
 1.0457526541e+000	 9.4347159819e-002	 1.5341882112e+000
 1.0750000000e+000	 0.0000000000e+000	 1.4959314009e+000
 1.0749578545e+000	 9.5189864113e-003	 1.5005875698e+000
 1.0748308079e+000	 1.9071824396e-002	 1.5063499517e+000
 1.0746179528e+000	 2.8657556932e-002	 1.5132153588e+000
 1.0743183926e+000	 3.8275203973e-002	 1.5211759936e+000
 1.0739312422e+000	 4.7923762484e-002	 1.5302193164e+000
 1.0734556282e+000	 5.7602206507e-002	 1.5403279163e+000
 1.0728906901e+000	 6.7309487228e-002	 1.5514793866e+000
 1.0722355804e+000	 7.7044533077e-002	 1.5636462057e+000
 1.0714894657e+000	 8.6806249835e-002	 1.5767956224e+000
 1.0706515268e+000	 9.6593520764e-002	 1.5908895474e+000
 1.1000000000e+000	 0.0000000000e+000	 1.6650586068e+000
 1.0999568743e+000	 9.7403581879e-003	 1.6709891146e+000
 1.0998268732e+000	 1.9515355195e-002	 1.6770696717e+000
 1.0996090680e+000	 2.9324011743e-002	 1.6832874052e+000
 1.0993025413e+000	 3.9165324994e-002	 1.6896253029e+000
 1.0989063874e+000	 4.9038268587e-002	 1.6960620994e+000
 1.0984197126e+000	 5.8941792703e-002	 1.7025721672e+000
 1.0978416364e+000	 6.8874824138e-002	 1.7091254120e+000
 1.0971712916e+000	 7.8836266402e-002	 1.7156871726e+000
 1.0964078253e+000	 8.8824999828e-002	 1.7222181267e+000
 1.0955503995e+000	 9.8839881709e-002	 1.7286742019e+000
 1.1250000000e+000	 0.0000000000e+000	 1.9055659536e+000
 1.1249558942e+000	 9.9617299645e-003	 1.9129111173e+000
 1.1248229385e+000	 1.9958885994e-002	 1.9195185859e+000
 1.1246001831e+000	 2.9990466555e-002	 1.9253664106e+000
 1.1242866900e+000	 4.0055446015e-002	 1.9304289367e+000
 1.1238815325e+000	 5.0152774689e-002	 1.9346767088e+000
 1.1233837970e+000	 6.0281378898e-002	 1.9380763796e+000
 1.1227925827e+000	 7.0440161048e-002	 1.9405906236e+000
 1.1221070028e+000	 8.0627999727e-002	 1.9421780562e+000
 1.1213261850e+000	 9.0843749822e-002	 1.9427931572e+000
 1.1204492722e+000	 1.0108624265e-001	 1.9423862011e+000
 1.1500000000e+000	 0.0000000000e+000	 2.2129238795e+000
 1.1499549141e+000	 1.0183101741e-002	 2.2218212941e+000
 1.1498190038e+000	 2.0402416793e-002	 2.2291585441e+000
 1.1495912983e+000	 3.0656921366e-002	 2.2349051801e+000
 1.1492708386e+000	 4.0945567036e-002	 2.2390274456e+000
 1.1488566777e+000	 5.1267280792e-002	 2.2414881989e+000
 1.1483478814e+000	 6.1620965094e-002	 2.2422468393e+000
 1.1477435290e+000	 7.2005497959e-002	 2.2412592381e+000
 1.1470427139e+000	 8.2419733053e-002	 2.2384776744e+000
 1.1462445446e+000	 9.2862499816e-002	 2.2338507770e+000
 1.1453481449e+000	 1.0333260360e-001	 2.2273234716e+000
 1.1750000000e+000	 0.0000000000e+000	 2.5829883176e+000
 1.1749539340e+000	 1.0404473518e-002	 2.5935734697e+000
 1.1748150691e+000	 2.0845947592e-002	 2.6018384214e+000
 1.1745824135e+000	 3.1323376177e-002	 2.6077447680e+000
 1.1742549873e+000	 4.1835688057e-002	 2.6112511617e+000
 1.1738318229e+000	 5.2381786895e-002	 2.6123132502e+000
 1.1733119658e+000	 6.2960551291e-002	 2.6108836178e+000
 1.1726944752e+000	 7.3570834869e-002	 2.6069117332e+000
 1.1719784251e+000	 8.4211466378e-002	 2.6003439016e+000
 1.1711629043e+000	 9.4881249811e-002	 2.5911232224e+000
 1.1702470176e+000	 1.0557896455e-001	 2.5791895530e+000
 1.2000000000e+000	 0.0000000000e+000	 3.0119605398e+000
 1.1999529538e+000	 1.0625845294e-002	 3.0243673576e+000
 1.1998111344e+000	 2.1289478391e-002	 3.0337538037e+000
 1.1995735287e+000	 3.1989830989e-002	 3.0400740351e+000
 1.1992391360e+000	 4.2725809079e-002	 3.0432795971e+000
 1.1988069680e+000	 5.3496292997e-002	 3.0433193752e+000
 1.1982760501e+000	 6.4300137487e-002	 3.0401395523e+000
 1.1976454215e+000	 7.5136171780e-002	 3.0336835710e+000
 1.1969141363e+000	 8.6003199704e-002	 3.0238921004e+000
 1.1960812640e+000	 9.6899999806e-002	 3.0107030095e+000
 1.1951458903e+000	 1.0782532549e-001	 2.9940513467e+000
 1.2250000000e+000	 0.0000000000e+000	 3.4963519184e+000
 1.2249519737e+000	 1.0847217071e-002	 3.5107132655e+000
 1.2248071996e+000	 2.1733009191e-002	 3.5214116087e+000
 1.2245646439e+000	 3.2656285800e-002	 3.5283941587e+000
 1.2242232846e+000	 4.3615930100e-002	 3.5316058126e+000
 1.2237821132e+000	 5.4610799100e-002	 3.5309891192e+000
 1.2232401345e+000	 6.5639723683e-002	 3.5264842499e+000
 1.2225963678e+000	 7.6701508691e-002	 3.5180289745e+000
 1.2218498475e+000	 8.7794933031e-002	 3.5055586427e+000
 1.2209996236e+000	 9.8918749801e-002	 3.4890061713e+000
 1.2200447631e+000	 1.1007168644e-001	 3.4683020380e+000
 1.2500000000e+000	 0.0000000000e+000	 4.0329529157e+000
 1.2499509936e+000	 1.1068588847e-002	 4.0494010358e+000
 1.2498032649e+000	 2.2176539990e-002	 4.0615989528e+000
 1.2495557590e+000	 3.3322740611e-002	 4.0694874003e+000
 1.2492074333e+000	 4.4506051122e-002	 4.0730050635e+000
 1.2487572584e+000	 5.5725305204e-002	 4.0720885574e+000
 1.2482042189e+000	 6.6979309880e-002	 4.0666724102e+000
 1.2475473141e+000	 7.8266845602e-002	 4.0566890521e+000
 1.2467855586e+000	 8.9586666357e-002	 4.0420688095e+000
 1.2459179833e+000	 1.0093749980e-001	 4.0227399057e+000
 1.2449436358e+000	 1.1231804739e-001	 3.9986284678e+000
 9.9595490863e-001	 8.9854437932e-002	 1.6872693156e+000
 9.9508926501e-001	 9.8981587693e-002	 1.7328910501e+000
 9.9413672268e-001	 1.0813036885e-001	 1.7823399937e+000
 9.9309656377e-001	 1.1729968064e-001	 1.8356353207e+000
 9.9196808628e-001	 1.2648840201e-001	 1.8927898225e+000
 9.9075060469e-001	 1.3569539180e-001	 1.9538097441e+000
 9.8944345050e-001	 1.4491948905e-001	 2.0186946266e+000
 9.8804597288e-001	 1.5415951315e-001	 2.0874371579e+000
 9.8655753926e-001	 1.6341426419e-001	 2.1600230287e+000
 9.8497753588e-001	 1.7268252319e-001	 2.2364307974e+000
 9.8330536841e-001	 1.8196305243e-001	 2.3166317628e+000
 1.0208537813e+000	 9.2100798875e-002	 1.5642354211e+000
 1.0199664966e+000	 1.0145612738e-001	 1.6043641797e+000
 1.0189901407e+000	 1.1083362807e-001	 1.6471242381e+000
 1.0179239779e+000	 1.2023217266e-001	 1.6925222318e+000
 1.0167672884e+000	 1.2965061205e-001	 1.7405590429e+000
 1.0155193698e+000	 1.3908777659e-001	 1.7912296626e+000
 1.0141795368e+000	 1.4854247627e-001	 1.8445230607e+000
 1.0127471222e+000	 1.5801350098e-001	 1.9004220609e+000
 1.0112214777e+000	 1.6749962079e-001	 1.9589032240e+000
 1.0096019743e+000	 1.7699958627e-001	 2.0199367385e+000
 1.0078880026e+000	 1.8651212874e-001	 2.0834863186e+000
 1.0457526541e+000	 9.4347159819e-002	 1.5341882112e+000
 1.0448437283e+000	 1.0393066707e-001	 1.5689593221e+000
 1.0438435588e+000	 1.1353688729e-001	 1.6052456543e+000
 1.0427513919e+000	 1.2316466467e-001	 1.6430418584e+000
 1.0415664906e+000	 1.3281282210e-001	 1.6823374154e+000
 1.0402881349e+000	 1.4248016138e-001	 1.7231165242e+000
 1.0389156230e+000	 1.5216546349e-001	 1.7653579955e+000
 1.0374482715e+000	 1.6186748880e-001	 1.8090351523e+000
 1.0358854162e+000	 1.7158497739e-001	 1.8541157378e+000
 1.0342264127e+000	 1.8131664935e-001	 1.9005618309e+000
 1.0324706368e+000	 1.9106120505e-001	 1.9483297689e+000
 1.0706515268e+000	 9.6593520764e-002	 1.5908895474e+000
 1.0697209599e+000	 1.0640520676e-001	 1.6204475616e+000
 1.0686969769e+000	 1.1624014650e-001	 1.6504802697e+000
 1.0675788060e+000	 1.2609715668e-001	 1.6809708441e+000
 1.0663656927e+000	 1.3597503214e-001	 1.7118978271e+000
 1.0650569000e+000	 1.4587254618e-001	 1.7432350418e+000
 1.0636517093e+000	 1.5578845071e-001	 1.7749515095e+000
 1.0621494208e+000	 1.6572147663e-001	 1.8070113746e+000
 1.0605493547e+000	 1.7567033400e-001	 1.8393738356e+000
 1.0588508511e+000	 1.8563371242e-001	 1.8719930846e+000
 1.0570532710e+000	 1.9561028136e-001	 1.9048182538e+000
 1.0955503995e+000	 9.8839881709e-002	 1.7286742019e+000
 1.0945981915e+000	 1.0887974645e-001	 1.7531728456e+000
 1.0935503949e+000	 1.1894340572e-001	 1.7771773542e+000
 1.0924062201e+000	 1.2902964869e-001	 1.8006598853e+000
 1.0911648949e+000	 1.3913724219e-001	 1.8235884624e+000
 1.0898256651e+000	 1.4926493097e-001	 1.8459269084e+000
 1.0883877955e+000	 1.5941143794e-001	 1.8676347860e+000
 1.0868505702e+000	 1.6957546445e-001	 1.8886673446e+000
 1.0852132932e+000	 1.7975569060e-001	 1.9089754749e+000
 1.0834752895e+000	 1.8995077550e-001	 1.9285056703e+000
 1.0816359052e+000	 2.0015935767e-001	 1.9471999968e+000
 1.1204492722e+000	 1.0108624265e-001	 1.9423862011e+000
 1.1194754231e+000	 1.1135428614e-001	 1.9619883333e+000
 1.1184038130e+000	 1.2164666494e-001	 1.9801957269e+000
 1.1172336342e+000	 1.3196214071e-001	 1.9969699475e+000
 1.1159640970e+000	 1.4229945224e-001	 2.0122688810e+000
 1.1145944303e+000	 1.5265731576e-001	 2.0260466885e+000
 1.1131238818e+000	 1.6303442516e-001	 2.0382537680e+000
 1.1115517195e+000	 1.7342945228e-001	 2.0488367232e+000
 1.1098772317e+000	 1.8384104720e-001	 2.0577383397e+000
 1.1080997279e+000	 1.9426783858e-001	 2.0648975685e+000
 1.1062185395e+000	 2.0470843398e-001	 2.0702495175e+000
 1.1453481449e+000	 1.0333260360e-001	 2.2273234716e+000
 1.1443526547e+000	 1.1382882583e-001	 2.2422010469e+000
 1.1432572311e+000	 1.2434992416e-001	 2.2548483700e+000
 1.1420610483e+000	 1.3489463272e-001	 2.2652168009e+000
 1.1407632992e+000	 1.4546166229e-001	 2.2732544336e+000
 1.1393631954e+000	 1.5604970055e-001	 2.2789060707e+000
 1.1378599681e+000	 1.6665741239e-001	 2.2821132061e+000
 1.1362528688e+000	 1.7728344011e-001	 2.2828140147e+000
 1.1345411701e+000	 1.8792640381e-001	 2.2809433486e+000
 1.1327241663e+000	 1.9858490166e-001	 2.2764327425e+000
 1.1308011737e+000	 2.0925751029e-001	 2.2692104257e+000
 1.1702470176e+000	 1.0557896455e-001	 2.5791895530e+000
 1.1692298864e+000	 1.1630336552e-001	 2.5895235879e+000
 1.1681106491e+000	 1.2705318338e-001	 2.5968541136e+000
 1.1668884624e+000	 1.3782712473e-001	 2.6011226374e+000
 1.1655625014e+000	 1.4862387233e-001	 2.6022677735e+000
 1.1641319605e+000	 1.5944208535e-001	 2.6002252378e+000
 1.1625960543e+000	 1.7028039961e-001	 2.5949278495e+000
 1.1609540181e+000	 1.8113742794e-001	 2.5863055410e+000
 1.1592051086e+000	 1.9201176041e-001	 2.5742853742e+000
 1.1573486046e+000	 2.0290196474e-001	 2.5587915654e+000
 1.1553838079e+000	 2.1380658660e-001	 2.5397455183e+000
 1.1951458903e+000	 1.0782532549e-001	 2.9940513467e+000
 1.1941071180e+000	 1.1877790521e-001	 3.0000318893e+000
 1.1929640672e+000	 1.2975644260e-001	 3.0022953602e+000
 1.1917158765e+000	 1.4075961675e-001	 3.0007737347e+000
 1.1903617035e+000	 1.5178608238e-001	 2.9953964295e+000
 1.1889007256e+000	 1.6283447014e-001	 2.9860903152e+000
 1.1873321406e+000	 1.7390338684e-001	 2.9727797372e+000
 1.1856551674e+000	 1.8499141576e-001	 2.9553865440e+000
 1.1838690471e+000	 1.9609711701e-001	 2.9338301230e+000
 1.1819730430e+000	 2.0721902781e-001	 2.9080274443e+000
 1.1799664421e+000	 2.1835566291e-001	 2.8778931137e+000
 1.2200447631e+000	 1.1007168644e-001	 3.4683020380e+000
 1.2189843496e+000	 1.2125244490e-001	 3.4701281413e+000
 1.2178174853e+000	 1.3245970182e-001	 3.4675809850e+000
 1.2165432906e+000	 1.4369210877e-001	 3.4605833048e+000
 1.2151609057e+000	 1.5494829243e-001	 3.4490555732e+000
 1.2136694907e+000	 1.6622685494e-001	 3.4329160299e+000
 1.2120682268e+000	 1.7752637406e-001	 3.4120807200e+000
 1.2103563168e+000	 1.8884540359e-001	 3.3864635408e+000
 1.2085329856e+000	 2.0018247362e-001	 3.3559762953e+000
 1.2065974814e+000	 2.1153609089e-001	 3.3205287556e+000
 1.2045490763e+000	 2.2290473922e-001	 3.2800287334e+000
 1.2449436358e+000	 1.1231804739e-001	 3.9986284678e+000
 1.2438615812e+000	 1.2372698459e-001	 3.9965081653e+000
 1.2426709033e+000	 1.3516296104e-001	 3.9894136891e+000
 1.2413707047e+000	 1.4662460078e-001	 3.9772588005e+000
 1.2399601078e+000	 1.5811050249e-001	 3.9599552553e+000
 1.2384382558e+000	 1.6961923973e-001	 3.9374128502e+000
 1.2368043131e+000	 1.8114936129e-001	 3.9095394790e+000
 1.2350574661e+000	 1.9269939142e-001	 3.8762411956e+000
 1.2331969241e+000	 2.0426783022e-001	 3.8374222858e+000
 1.2312219198e+000	 2.1585315397e-001	 3.7929853479e+000
 1.2291317105e+000	 2.2745381553e-001	 3.7428313818e+000
 9.8330536841e-001	 1.8196305243e-001	 2.3166317628e+000
 9.8154046252e-001	 1.9125459577e-001	 2.4036160798e+000
 9.7968226449e-001	 2.0055587900e-001	 2.4925058637e+000
 9.7773024174e-001	 2.0986561017e-001	 2.5832870868e+000
 9.7568388343e-001	 2.1918248004e-001	 2.6759402237e+000
 9.7354270101e-001	 2.2850516241e-001	 2.7704401732e+000
 9.7130622879e-001	 2.3783231458e-001	 2.8667561884e+000
 9.6897402446e-001	 2.4716257779e-001	 2.9648518141e+000
 9.6654566967e-001	 2.5649457767e-001	 3.0646848342e+000
 9.6402077054e-001	 2.6582692472e-001	 3.1662072268e+000
 9.6139895816e-001	 2.7515821483e-001	 3.2693651290e+000
 1.0078880026e+000	 1.8651212874e-001	 2.0834863186e+000
 1.0060789741e+000	 1.9603596067e-001	 2.1572234950e+000
 1.0041743211e+000	 2.0556977597e-001	 2.2320699259e+000
 1.0021734978e+000	 2.1511225043e-001	 2.3080044734e+000
 1.0000759805e+000	 2.2466204205e-001	 2.3850009459e+000
 9.9788126854e-001	 2.3421779148e-001	 2.4630280388e+000
 9.9558888451e-001	 2.4377812245e-001	 2.5420492823e+000
 9.9319837507e-001	 2.5334164224e-001	 2.6220229980e+000
 9.9070931141e-001	 2.6290694212e-001	 2.7029022642e+000
 9.8812128980e-001	 2.7247259785e-001	 2.7846348897e+000
 9.8543393212e-001	 2.8203717021e-001	 2.8671633966e+000
 1.0324706368e+000	 1.9106120505e-001	 1.9483297689e+000
 1.0306174856e+000	 2.0081732556e-001	 2.0092015860e+000
 1.0286663777e+000	 2.1058367295e-001	 2.0704450281e+000
 1.0266167538e+000	 2.2035889069e-001	 2.1320319270e+000
 1.0244680776e+000	 2.3014160405e-001	 2.1939294627e+000
 1.0222198361e+000	 2.3993042054e-001	 2.2561001224e+000
 1.0198715402e+000	 2.4972393032e-001	 2.3185016657e+000
 1.0174227257e+000	 2.5952070669e-001	 2.3810870999e+000
 1.0148729532e+000	 2.6931930657e-001	 2.4438046625e+000
 1.0122218091e+000	 2.7911827098e-001	 2.5065978134e+000
 1.0094689061e+000	 2.8891612559e-001	 2.5694052355e+000
 1.0570532710e+000	 1.9561028136e-001	 1.9048182538e+000
 1.0551559972e+000	 2.0559869045e-001	 1.9532108141e+000
 1.0531584343e+000	 2.1559756992e-001	 2.0012929886e+000
 1.0510600099e+000	 2.2560553094e-001	 2.0490296257e+000
 1.0488601747e+000	 2.3562116605e-001	 2.0963812841e+000
 1.0465584036e+000	 2.4564304960e-001	 2.1433042080e+000
 1.0441541959e+000	 2.5566973819e-001	 2.1897503103e+000
 1.0416470763e+000	 2.6569977114e-001	 2.2356671653e+000
 1.0390365949e+000	 2.7573167102e-001	 2.2809980084e+000
 1.0363223283e+000	 2.8576394410e-001	 2.3256817463e+000
 1.0335038800e+000	 2.9579508097e-001	 2.3696529753e+000
 1.0816359052e+000	 2.0015935767e-001	 1.9471999968e+000
 1.0796945088e+000	 2.1038005535e-001	 1.9835044809e+000
 1.0776504909e+000	 2.2061146690e-001	 2.0188695242e+000
 1.0755032659e+000	 2.3085217120e-001	 2.0532530097e+000
 1.0732522718e+000	 2.4110072806e-001	 2.0866088520e+000
 1.0708969711e+000	 2.5135567866e-001	 2.1188869899e+000
 1.0684368517e+000	 2.6161554606e-001	 2.1500333864e+000
 1.0658714269e+000	 2.7187883559e-001	 2.1799900380e+000
 1.0632002366e+000	 2.8214403546e-001	 2.2086949923e+000
 1.0604228476e+000	 2.9240961722e-001	 2.2360823752e+000
 1.0575388540e+000	 3.0267403634e-001	 2.2620824260e+000
 1.1062185395e+000	 2.0470843398e-001	 2.0702495175e+000
 1.1042330203e+000	 2.1516142024e-001	 2.0948628566e+000
 1.1021425476e+000	 2.2562536387e-001	 2.1179582622e+000
 1.0999465220e+000	 2.3609881145e-001	 2.1394866410e+000
 1.0976443689e+000	 2.4658029006e-001	 2.1593952144e+000
 1.0952355386e+000	 2.5706830773e-001	 2.1776275268e+000
 1.0927195074e+000	 2.6756135392e-001	 2.1941234624e+000
 1.0900957775e+000	 2.7805790004e-001	 2.2088192712e+000
 1.0873638784e+000	 2.8855639991e-001	 2.2216476035e+000
 1.0845233669e+000	 2.9905529035e-001	 2.2325375538e+000
 1.0815738279e+000	 3.0955299172e-001	 2.2414147136e+000
 1.1308011737e+000	 2.0925751029e-001	 2.2692104257e+000
 1.1287715319e+000	 2.1994278513e-001	 2.2825359010e+000
 1.1266346042e+000	 2.3063926085e-001	 2.2938133581e+000
 1.1243897780e+000	 2.4134545170e-001	 2.3029866905e+000
 1.1220364660e+000	 2.5205985206e-001	 2.3099963512e+000
 1.1195741062e+000	 2.6278093679e-001	 2.3147793764e+000
 1.1170021631e+000	 2.7350716179e-001	 2.3172694189e+000
 1.1143201281e+000	 2.8423696448e-001	 2.3173967899e+000
 1.1115275201e+000	 2.9496876435e-001	 2.3150885106e+000
 1.1086238861e+000	 3.0570096347e-001	 2.3102683722e+000
 1.1056088019e+000	 3.1643194709e-001	 2.3028570066e+000
 1.1553838079e+000	 2.1380658660e-001	 2.5397455183e+000
 1.1533100435e+000	 2.2472415003e-001	 2.5421932967e+000
 1.1511266608e+000	 2.3565315782e-001	 2.5421094397e+000
 1.1488330341e+000	 2.4659209196e-001	 2.5394307663e+000
 1.1464285630e+000	 2.5753941406e-001	 2.5340908616e+000
 1.1439126737e+000	 2.6849356585e-001	 2.5260201165e+000
 1.1412848188e+000	 2.7945296965e-001	 2.5151457766e+000
 1.1385444787e+000	 2.9041602893e-001	 2.5013919999e+000
 1.1356911619e+000	 3.0138112879e-001	 2.4846799252e+000
 1.1327244054e+000	 3.1234663659e-001	 2.4649277483e+000
 1.1296437758e+000	 3.2331090246e-001	 2.4420508096e+000
 1.1799664421e+000	 2.1835566291e-001	 2.8778931137e+000
 1.1778485550e+000	 2.2950551492e-001	 2.8698807274e+000
 1.1756187174e+000	 2.4066705479e-001	 2.8588978080e+000
 1.1732762901e+000	 2.5183873221e-001	 2.8448740145e+000
 1.1708206601e+000	 2.6301897606e-001	 2.8277359421e+000
 1.1682512412e+000	 2.7420619490e-001	 2.8074071766e+000
 1.1655674746e+000	 2.8539877752e-001	 2.7838083589e+000
 1.1627688294e+000	 2.9659509337e-001	 2.7568572587e+000
 1.1598548036e+000	 3.0779349323e-001	 2.7264688583e+000
 1.1568249247e+000	 3.1899230970e-001	 2.6925554459e+000
 1.1536787498e+000	 3.3018985783e-001	 2.6550267196e+000
 1.2045490763e+000	 2.2290473922e-001	 3.2800287334e+000
 1.2023870666e+000	 2.3428687981e-001	 3.2619815113e+000
 1.2001107740e+000	 2.4568095177e-001	 3.2405680010e+000
 1.1977195461e+000	 2.5708537246e-001	 3.2157105946e+000
 1.1952127572e+000	 2.6849853806e-001	 3.1873287533e+000
 1.1925898088e+000	 2.7991882396e-001	 3.1553390771e+000
 1.1898501303e+000	 2.9134458538e-001	 3.1196553838e+000
 1.1869931800e+000	 3.0277415782e-001	 3.0801887988e+000
 1.1840184454e+000	 3.1420585767e-001	 3.0368478546e+000
 1.1809254439e+000	 3.2563798282e-001	 2.9895386006e+000
 1.1777137238e+000	 3.3706881320e-001	 2.9381647229e+000
 1.2291317105e+000	 2.2745381553e-001	 3.7428313818e+000
 1.2269255782e+000	 2.3906824470e-001	 3.7151828367e+000
 1.2246028306e+000	 2.5069484874e-001	 3.6838139700e+000
 1.2221628022e+000	 2.6233201271e-001	 3.6486397783e+000
 1.2196048543e+000	 2.7397810005e-001	 3.6095724242e+000
 1.2169283763e+000	 2.8563145302e-001	 3.5665213204e+000
 1.2141327860e+000	 2.9729039324e-001	 3.5193932239e+000
 1.2112175306e+000	 3.0895322226e-001	 3.4680923402e+000
 1.2081820871e+000	 3.2061822211e-001	 3.4125204397e+000
 1.2050259632e+000	 3.3228365593e-001	 3.3525769825e+000
 1.2017486977e+000	 3.4394776857e-001	 3.2881592560e+000
 9.6139895816e-001	 2.7515821483e-001	 3.2693651290e+000
 9.5867988915e-001	 2.8448702975e-001	 3.3733706921e+000
 9.5586324609e-001	 2.9381193769e-001	 3.4785193250e+000
 9.5294873809e-001	 3.0313149381e-001	 3.5848002543e+000
 9.4993610118e-001	 3.1244424085e-001	 3.6921979408e+000
 9.4682509884e-001	 3.2174870969e-001	 3.8006920478e+000
 9.4361552239e-001	 3.3104341994e-001	 3.9102574190e+000
 9.4030719147e-001	 3.4032688062e-001	 4.0208640637e+000
 9.3689995439e-001	 3.4959759075e-001	 4.1324771507e+000
 9.3339368862e-001	 3.5885404004e-001	 4.2450570119e+000
 9.2978830108e-001	 3.6809470955e-001	 4.3585591531e+000
 9.8543393212e-001	 2.8203717021e-001	 2.8671633966e+000
 9.8264688638e-001	 2.9159920551e-001	 2.9548710414e+000
 9.7975982724e-001	 3.0115723614e-001	 3.0430268586e+000
 9.7677245654e-001	 3.1070978117e-001	 3.1316107226e+000
 9.7368450371e-001	 3.2025534689e-001	 3.2205981381e+000
 9.7049572631e-001	 3.2979242744e-001	 3.3099602304e+000
 9.6720591045e-001	 3.3931950545e-001	 3.3996637440e+000
 9.6381487125e-001	 3.4883505265e-001	 3.4896710487e+000
 9.6032245325e-001	 3.5833753053e-001	 3.5799401554e+000
 9.5672853083e-001	 3.6782539105e-001	 3.6704247403e+000
 9.5303300860e-001	 3.7729707730e-001	 3.7610741770e+000
 1.0094689061e+000	 2.8891612559e-001	 2.5694052355e+000
 1.0066138836e+000	 2.9871138126e-001	 2.6410167845e+000
 1.0036564084e+000	 3.0850253459e-001	 2.7124305104e+000
 1.0005961750e+000	 3.1828806852e-001	 2.7836168503e+000
 9.9743290624e-001	 3.2806645292e-001	 2.8545422313e+000
 9.9416635378e-001	 3.3783614519e-001	 2.9251690809e+000
 9.9079629851e-001	 3.4759559096e-001	 2.9954558468e+000
 9.8732255103e-001	 3.5734322467e-001	 3.0653570246e+000
 9.8374495210e-001	 3.6707747030e-001	 3.1348231944e+000
 9.8006337304e-001	 3.7679674206e-001	 3.2038010656e+000
 9.7627771612e-001	 3.8649944504e-001	 3.2722335314e+000
 1.0335038800e+000	 2.9579508097e-001	 2.3696529753e+000
 1.0305808808e+000	 3.0582355701e-001	 2.4253969410e+000
 1.0275529895e+000	 3.1584783304e-001	 2.4803433544e+000
 1.0244198934e+000	 3.2586635588e-001	 2.5344530932e+000
 1.0211813088e+000	 3.3587755895e-001	 2.5876833474e+000
 1.0178369812e+000	 3.4587986295e-001	 2.6399876511e+000
 1.0143866866e+000	 3.5587167647e-001	 2.6913159231e+000
 1.0108302308e+000	 3.6585139669e-001	 2.7416145157e+000
 1.0071674510e+000	 3.7581741008e-001	 2.7908262727e+000
 1.0033982153e+000	 3.8576809306e-001	 2.8388905952e+000
 9.9952242364e-001	 3.9570181278e-001	 2.8857435172e+000
 1.0575388540e+000	 3.0267403634e-001	 2.2620824260e+000
 1.0545478781e+000	 3.1293573276e-001	 2.3022130220e+000
 1.0514495707e+000	 3.2319313149e-001	 2.3409902309e+000
 1.0482436119e+000	 3.3344464323e-001	 2.3783652120e+000
 1.0449297113e+000	 3.4368866498e-001	 2.4142857243e+000
 1.0415076087e+000	 3.5392358070e-001	 2.4486961788e+000
 1.0379770746e+000	 3.6414776197e-001	 2.4815377002e+000
 1.0343379106e+000	 3.7435956871e-001	 2.5127481967e+000
 1.0305899498e+000	 3.8455734985e-001	 2.5422624389e+000
 1.0267330575e+000	 3.9473944407e-001	 2.5700121479e+000
 1.0227671312e+000	 4.0490418052e-001	 2.5959260914e+000
 1.0815738279e+000	 3.0955299172e-001	 2.2414147136e+000
 1.0785148753e+000	 3.2004790851e-001	 2.2662109760e+000
 1.0753461519e+000	 3.3053842994e-001	 2.2891397716e+000
 1.0720673303e+000	 3.4102293058e-001	 2.3101423491e+000
 1.0686781138e+000	 3.5149977101e-001	 2.3291568094e+000
 1.0651782362e+000	 3.6196729844e-001	 2.3461181784e+000
 1.0615674627e+000	 3.7242384748e-001	 2.3609584896e+000
 1.0578455904e+000	 3.8286774073e-001	 2.3736068757e+000
 1.0540124487e+000	 3.9329728963e-001	 2.3839896683e+000
 1.0500678997e+000	 4.0371079507e-001	 2.3920305079e+000
 1.0460118387e+000	 4.1410654826e-001	 2.3976504613e+000
 1.1056088019e+000	 3.1643194709e-001	 2.3028570066e+000
 1.1024818725e+000	 3.2716008426e-001	 2.3126220105e+000
 1.0992427330e+000	 3.3788372839e-001	 2.3200452924e+000
 1.0958910488e+000	 3.4860121793e-001	 2.3250579660e+000
 1.0924265164e+000	 3.5931087703e-001	 2.3275882153e+000
 1.0888488637e+000	 3.7001101619e-001	 2.3275613884e+000
 1.0851578507e+000	 3.8069993298e-001	 2.3249001013e+000
 1.0813532702e+000	 3.9137591275e-001	 2.3195243499e+000
 1.0774349475e+000	 4.0203722940e-001	 2.3113516328e+000
 1.0734027419e+000	 4.1268214607e-001	 2.3002970813e+000
 1.0692565462e+000	 4.2330891600e-001	 2.2862736002e+000
 1.1296437758e+000	 3.2331090246e-001	 2.4420508096e+000
 1.1264488698e+000	 3.3427226000e-001	 2.4371109692e+000
 1.1231393142e+000	 3.4522902683e-001	 2.4293932312e+000
 1.1197147673e+000	 3.5617950528e-001	 2.4188183195e+000
 1.1161749189e+000	 3.6712198306e-001	 2.4053042127e+000
 1.1125194911e+000	 3.7805473393e-001	 2.3887662592e+000
 1.1087482388e+000	 3.8897601848e-001	 2.3691173015e+000
 1.1048609500e+000	 3.9988408477e-001	 2.3462678107e+000
 1.1008574464e+000	 4.1077716917e-001	 2.3201260299e+000
 1.0967375841e+000	 4.2165349708e-001	 2.2905981273e+000
 1.0925012537e+000	 4.3251128374e-001	 2.2575883582e+000
 1.1536787498e+000	 3.3018985783e-001	 2.6550267196e+000
 1.1504158670e+000	 3.4138443575e-001	 2.6357311610e+000
 1.1470358953e+000	 3.5257432527e-001	 2.6132580309e+000
 1.1435384857e+000	 3.6375779263e-001	 2.5875173792e+000
 1.1399233214e+000	 3.7493308908e-001	 2.5584166620e+000
 1.1361901186e+000	 3.8609845168e-001	 2.5258608779e+000
 1.1323386269e+000	 3.9725210398e-001	 2.4897527132e+000
 1.1283686297e+000	 4.0839225679e-001	 2.4499926983e+000
 1.1242799453e+000	 4.1951710894e-001	 2.4064793727e+000
 1.1200724263e+000	 4.3062484808e-001	 2.3591094612e+000
 1.1157459613e+000	 4.4171365148e-001	 2.3077780576e+000
 1.1777137238e+000	 3.3706881320e-001	 2.9381647229e+000
 1.1743828642e+000	 3.4849661149e-001	 2.9048847211e+000
 1.1709324765e+000	 3.5991962372e-001	 2.8680625470e+000
 1.1673622042e+000	 3.7133607997e-001	 2.8275972645e+000
 1.1636717239e+000	 3.8274419510e-001	 2.7833854631e+000
 1.1598607461e+000	 3.9414216942e-001	 2.7353214143e+000
 1.1559290149e+000	 4.0552818948e-001	 2.6832972388e+000
 1.1518763095e+000	 4.1690042880e-001	 2.6272030846e+000
 1.1477024441e+000	 4.2825704871e-001	 2.5669273143e+000
 1.1434072685e+000	 4.3959619908e-001	 2.5023567037e+000
 1.1389906688e+000	 4.5091601922e-001	 2.4333766491e+000
 1.2017486977e+000	 3.4394776857e-001	 3.2881592560e+000
 1.1983498614e+000	 3.5560878723e-001	 3.2412877284e+000
 1.1948290576e+000	 3.6726492216e-001	 3.1905432065e+000
 1.1911859226e+000	 3.7891436731e-001	 3.1358134303e+000
 1.1874201265e+000	 3.9055530112e-001	 3.0769837517e+000
 1.1835313736e+000	 4.0218588716e-001	 3.0139373124e+000
 1.1795194030e+000	 4.1380427497e-001	 2.9465552323e+000
 1.1753839893e+000	 4.2540860082e-001	 2.8747168103e+000
 1.1711249430e+000	 4.3699698847e-001	 2.7982997339e+000
 1.1667421108e+000	 4.4856755008e-001	 2.7171803006e+000
 1.1622353763e+000	 4.6011838696e-001	 2.6312336492e+000
 9.2978830108e-001	 3.6809470955e-001	 4.3585591531e+000
 9.2608372854e-001	 3.7731807239e-001	 4.4659068789e+000
 9.2227993800e-001	 3.8652259441e-001	 4.5679824986e+000
 9.1837692696e-001	 3.9570673493e-001	 4.6647768965e+000
 9.1437472374e-001	 4.0486894748e-001	 4.7562823873e+000
 9.1027338778e-001	 4.1400768054e-001	 4.8424927950e+000
 9.0607300991e-001	 4.2312137829e-001	 4.9234035335e+000
 9.0177371256e-001	 4.3220848139e-001	 4.9990116882e+000
 8.9737565002e-001	 4.4126742776e-001	 5.0693160988e+000
 8.9287900861e-001	 4.5029665337e-001	 5.1343174428e+000
 8.8828400685e-001	 4.5929459305e-001	 5.1940183193e+000
 9.5303300860e-001	 3.7729707730e-001	 3.7610741770e+000
 9.4923582175e-001	 3.8675102420e-001	 3.8516754912e+000
 9.4533693645e-001	 3.9618565927e-001	 3.9377478678e+000
 9.4133635013e-001	 4.0559940330e-001	 4.0192749847e+000
 9.3723409182e-001	 4.1499067117e-001	 4.0962412031e+000
 9.3303022247e-001	 4.2435787255e-001	 4.1686316524e+000
 9.2872483515e-001	 4.3369941274e-001	 4.2364323181e+000
 9.2431805537e-001	 4.4301369342e-001	 4.2996301327e+000
 9.1981004127e-001	 4.5229911345e-001	 4.3582130676e+000
 9.1520098382e-001	 4.6155406970e-001	 4.4121702279e+000
 9.1049110702e-001	 4.7077695788e-001	 4.4614919485e+000
 9.7627771612e-001	 3.8649944504e-001	 3.2722335314e+000
 9.7238791496e-001	 3.9618397601e-001	 3.3458517790e+000
 9.6839393489e-001	 4.0584872413e-001	 3.4156573386e+000
 9.6429577330e-001	 4.1549207167e-001	 3.4816262339e+000
 9.6009345991e-001	 4.2511239485e-001	 3.5437344332e+000
 9.5578705716e-001	 4.3470806456e-001	 3.6019579413e+000
 9.5137666039e-001	 4.4427744720e-001	 3.6562728963e+000
 9.4686239818e-001	 4.5381890545e-001	 3.7066556690e+000
 9.4224443251e-001	 4.6333079914e-001	 3.7530829664e+000
 9.3752295903e-001	 4.7281148603e-001	 3.7955319377e+000
 9.3269820719e-001	 4.8225932270e-001	 3.8339802839e+000
 9.9952242364e-001	 3.9570181278e-001	 2.8857435172e+000
 9.9554000817e-001	 4.0561692782e-001	 2.9422049275e+000
 9.9145093334e-001	 4.1551178899e-001	 2.9955451285e+000
 9.8725519647e-001	 4.2538474004e-001	 3.0457320153e+000
 9.8295282800e-001	 4.3523411854e-001	 3.0927326957e+000
 9.7854389185e-001	 4.4505825657e-001	 3.1365135904e+000
 9.7402848564e-001	 4.5485548165e-001	 3.1770405387e+000
 9.6940674099e-001	 4.6462411748e-001	 3.2142789086e+000
 9.6467882376e-001	 4.7436248483e-001	 3.2481937114e+000
 9.5984493424e-001	 4.8406890236e-001	 3.2787497208e+000
 9.5490530736e-001	 4.9374168753e-001	 3.3059115963e+000
 1.0227671312e+000	 4.0490418052e-001	 2.5959260914e+000
 1.0186921014e+000	 4.1504987963e-001	 2.6351156711e+000
 1.0145079318e+000	 4.2517485385e-001	 2.6718527113e+000
 1.0102146196e+000	 4.3527740842e-001	 2.7060964782e+000
 1.0058121961e+000	 4.4535584222e-001	 2.7378047245e+000
 1.0013007265e+000	 4.5540844858e-001	 2.7669337982e+000
 9.9668031088e-001	 4.6543351611e-001	 2.7934387586e+000
 9.9195108380e-001	 4.7542932951e-001	 2.8172734972e+000
 9.8711321501e-001	 4.8539417052e-001	 2.8383908657e+000
 9.8216690946e-001	 4.9532631870e-001	 2.8567428078e+000
 9.7711240753e-001	 5.0522405235e-001	 2.8722804977e+000
 1.0460118387e+000	 4.1410654826e-001	 2.3976504613e+000
 1.0418441946e+000	 4.2448283144e-001	 2.4195083435e+000
 1.0375649302e+000	 4.3483791871e-001	 2.4395613440e+000
 1.0331740428e+000	 4.4517007679e-001	 2.4577595748e+000
 1.0286715642e+000	 4.5547756591e-001	 2.4740509119e+000
 1.0240575612e+000	 4.6575864059e-001	 2.4883811144e+000
 1.0193321361e+000	 4.7601155056e-001	 2.5006939510e+000
 1.0144954266e+000	 4.8623454155e-001	 2.5109313333e+000
 1.0095476063e+000	 4.9642585621e-001	 2.5190334565e+000
 1.0044888847e+000	 5.0658373503e-001	 2.5249389468e+000
 9.9931950770e-001	 5.1670641718e-001	 2.5285850149e+000
 1.0692565462e+000	 4.2330891600e-001	 2.2862736002e+000
 1.0649962878e+000	 4.3391578325e-001	 2.2907917912e+000
 1.0606219287e+000	 4.4450098357e-001	 2.2941333950e+000
 1.0561334660e+000	 4.5506274516e-001	 2.2962388202e+000
 1.0515309323e+000	 4.6559928959e-001	 2.2970455192e+000
 1.0468143959e+000	 4.7610883261e-001	 2.2964881190e+000
 1.0419839614e+000	 4.8658958502e-001	 2.2944985586e+000
 1.0370397694e+000	 4.9703975358e-001	 2.2910062361e+000
 1.0319819975e+000	 5.0745754190e-001	 2.2859381635e+000
 1.0268108599e+000	 5.1784115136e-001	 2.2792191296e+000
 1.0215266079e+000	 5.2818878200e-001	 2.2707718701e+000
 1.0925012537e+000	 4.3251128374e-001	 2.2575883582e+000
 1.0881483810e+000	 4.4334873506e-001	 2.2448078288e+000
 1.0836789271e+000	 4.5416404842e-001	 2.2314611618e+000
 1.0790928892e+000	 4.6495541353e-001	 2.2174784884e+000
 1.0743903004e+000	 4.7572101328e-001	 2.2027862658e+000
 1.0695712306e+000	 4.8645902462e-001	 2.1873074190e+000
 1.0646357866e+000	 4.9716761947e-001	 2.1709614914e+000
 1.0595841122e+000	 5.0784496561e-001	 2.1536648053e+000
 1.0544163888e+000	 5.1848922760e-001	 2.1353306329e+000
 1.0491328351e+000	 5.2909856769e-001	 2.1158693746e+000
 1.0437337080e+000	 5.3967114683e-001	 2.0951887475e+000
 1.1157459613e+000	 4.4171365148e-001	 2.3077780576e+000
 1.1113004742e+000	 4.5278168687e-001	 2.2777861392e+000
 1.1067359256e+000	 4.6382711328e-001	 2.2478220868e+000
 1.1020523123e+000	 4.7484808190e-001	 2.2178051579e+000
 1.0972496685e+000	 4.8584273696e-001	 2.1876502183e+000
 1.0923280653e+000	 4.9680921663e-001	 2.1572678958e+000
 1.0872876119e+000	 5.0774565393e-001	 2.1265647451e+000
 1.0821284551e+000	 5.1865017764e-001	 2.0954434232e+000
 1.0768507800e+000	 5.2952091329e-001	 2.0638028763e+000
 1.0714548103e+000	 5.4035598403e-001	 2.0315385360e+000
 1.0659408082e+000	 5.5115351165e-001	 1.9985425265e+000
 1.1389906688e+000	 4.5091601922e-001	 2.4333766491e+000
 1.1344525674e+000	 4.6221463868e-001	 2.3863046941e+000
 1.1297929240e+000	 4.7349017814e-001	 2.3398394567e+000
 1.1250117355e+000	 4.8474075028e-001	 2.2938887014e+000
 1.1201090366e+000	 4.9596446065e-001	 2.2483550821e+000
 1.1150849000e+000	 5.0715940864e-001	 2.2031363097e+000
 1.1099394371e+000	 5.1832368838e-001	 2.1581253311e+000
 1.1046727979e+000	 5.2945538968e-001	 2.1132105213e+000
 1.0992851713e+000	 5.4055259898e-001	 2.0682758866e+000
 1.0937767855e+000	 5.5161340036e-001	 2.0232012804e+000
 1.0881479084e+000	 5.6263587648e-001	 1.9778626288e+000
 1.1622353763e+000	 4.6011838696e-001	 2.6312336492e+000
 1.1576046607e+000	 4.7164759049e-001	 2.5672549260e+000
 1.1528499225e+000	 4.8315324300e-001	 2.5044478183e+000
 1.1479711587e+000	 4.9463341865e-001	 2.4427079558e+000
 1.1429684047e+000	 5.0608618433e-001	 2.3819251372e+000
 1.1378417347e+000	 5.1750960065e-001	 2.3219835119e+000
 1.1325912624e+000	 5.2890172284e-001	 2.2627617750e+000
 1.1272171407e+000	 5.4026060171e-001	 2.2041333759e+000
 1.1217195625e+000	 5.5158428467e-001	 2.1459667402e+000
 1.1160987607e+000	 5.6287081669e-001	 2.0881255048e+000
 1.1103550086e+000	 5.7411824131e-001	 2.0304687648e+000
 8.8828400685e-001	 4.5929459305e-001	 5.1940183193e+000
 8.8359089566e-001	 4.6825968131e-001	 5.2554981026e+000
 8.7879995843e-001	 4.7719035311e-001	 5.3142427930e+000
 8.7391151114e-001	 4.8608504475e-001	 5.3703186807e+000
 8.6892590245e-001	 4.9494219467e-001	 5.4237924546e+000
 8.6384351377e-001	 5.0376024430e-001	 5.4747312080e+000
 8.5866475923e-001	 5.1253763888e-001	 5.5232024448e+000
 8.5339008574e-001	 5.2127282835e-001	 5.5692740871e+000
 8.4801997294e-001	 5.2996426816e-001	 5.6130144827e+000
 8.4255493313e-001	 5.3861042014e-001	 5.6544924124e+000
 8.3699551125e-001	 5.4720975336e-001	 5.6937770984e+000
 9.1049110702e-001	 4.7077695788e-001	 4.4614919485e+000
 9.0568066805e-001	 4.7996617334e-001	 4.5159654580e+000
 9.0076995739e-001	 4.8912011194e-001	 4.5677917941e+000
 8.9575929892e-001	 4.9823717087e-001	 4.6169961596e+000
 8.9064905002e-001	 5.0731574954e-001	 4.6636037937e+000
 8.8543960162e-001	 5.1635425041e-001	 4.7076400256e+000
 8.8013137822e-001	 5.2535107986e-001	 4.7491303303e+000
 8.7472483789e-001	 5.3430464906e-001	 4.7881003852e+000
 8.6922047226e-001	 5.4321337486e-001	 4.8245761287e+000
 8.6361880646e-001	 5.5207568064e-001	 4.8585838187e+000
 8.5792039903e-001	 5.6088999720e-001	 4.8901500930e+000
 9.3269820719e-001	 4.8225932270e-001	 3.8339802839e+000
 9.2777044045e-001	 4.9167266537e-001	 3.8789805626e+000
 9.2273995635e-001	 5.0104987077e-001	 3.9214137696e+000
 9.1760708670e-001	 5.1038929699e-001	 3.9612646959e+000
 9.1237219758e-001	 5.1968930441e-001	 3.9985178155e+000
 9.0703568946e-001	 5.2894825652e-001	 4.0331573872e+000
 9.0159799720e-001	 5.3816452084e-001	 4.0651675587e+000
 8.9605959003e-001	 5.4733646978e-001	 4.0945324734e+000
 8.9042097158e-001	 5.5646248157e-001	 4.1212363788e+000
 8.8468267979e-001	 5.6554094115e-001	 4.1452637374e+000
 8.7884528681e-001	 5.7457024104e-001	 4.1665993375e+000
 9.5490530736e-001	 4.9374168753e-001	 3.3059115963e+000
 9.4986021284e-001	 5.0337915740e-001	 3.3391901603e+000
 9.4470995531e-001	 5.1297962959e-001	 3.3699741352e+000
 9.3945487447e-001	 5.2254142311e-001	 3.3982084640e+000
 9.3409534514e-001	 5.3206285928e-001	 3.4238374275e+000
 9.2863177731e-001	 5.4154226263e-001	 3.4468047937e+000
 9.2306461618e-001	 5.5097796181e-001	 3.4670539708e+000
 9.1739434218e-001	 5.6036829049e-001	 3.4845281639e+000
 9.1162147091e-001	 5.6971158828e-001	 3.4991705338e+000
 9.0574655311e-001	 5.7900620166e-001	 3.5109243588e+000
 8.9977017459e-001	 5.8825048487e-001	 3.5197331977e+000
 9.7711240753e-001	 5.0522405235e-001	 2.8722804977e+000
 9.7194998523e-001	 5.1508564944e-001	 2.8917891032e+000
 9.6667995427e-001	 5.2490938842e-001	 2.9088681563e+000
 9.6130266225e-001	 5.3469354923e-001	 2.9234232122e+000
 9.5581849270e-001	 5.4443641415e-001	 2.9353588259e+000
 9.5022786515e-001	 5.5413626874e-001	 2.9445787495e+000
 9.4453123516e-001	 5.6379140279e-001	 2.9509861342e+000
 9.3872909432e-001	 5.7340011120e-001	 2.9544837364e+000
 9.3282197023e-001	 5.8296069499e-001	 2.9549741275e+000
 9.2681042644e-001	 5.9247146216e-001	 2.9523599067e+000
 9.2069506237e-001	 6.0193072871e-001	 2.9465439159e+000
 9.9931950770e-001	 5.1670641718e-001	 2.5285850149e+000
 9.9403975762e-001	 5.2679214147e-001	 2.5324594510e+000
 9.8864995323e-001	 5.3683914725e-001	 2.5339620756e+000
 9.8315045003e-001	 5.4684567535e-001	 2.5329594207e+000
 9.7754164026e-001	 5.5680996902e-001	 2.5293166859e+000
 9.7182395300e-001	 5.6673027485e-001	 2.5228979850e+000
 9.6599785414e-001	 5.7660484376e-001	 2.5135665963e+000
 9.6006384646e-001	 5.8643193191e-001	 2.5011852192e+000
 9.5402246955e-001	 5.9620980169e-001	 2.4856162343e+000
 9.4787429977e-001	 6.0593672267e-001	 2.4667219678e+000
 9.4161995015e-001	 6.1561097254e-001	 2.4443649584e+000
 1.0215266079e+000	 5.2818878200e-001	 2.2707718701e+000
 1.0161295300e+000	 5.3849863350e-001	 2.2573175132e+000
 1.0106199522e+000	 5.4876890608e-001	 2.2415419202e+000
 1.0049982378e+000	 5.5899780147e-001	 2.2232728743e+000
 9.9926478782e-001	 5.6918352389e-001	 2.2023365008e+000
 9.9342004084e-001	 5.7932428096e-001	 2.1785575617e+000
 9.8746447312e-001	 5.8941828473e-001	 2.1517597559e+000
 9.8139859860e-001	 5.9946375262e-001	 2.1217660254e+000
 9.7522296887e-001	 6.0945890840e-001	 2.0883988671e+000
 9.6893817309e-001	 6.1940198317e-001	 2.0514806481e+000
 9.6254483793e-001	 6.2929121638e-001	 2.0438046113e+000
 1.0437337080e+000	 5.3967114683e-001	 2.0951887475e+000
 1.0382193024e+000	 5.5020512553e-001	 2.0628676527e+000
 1.0325899511e+000	 5.6069866491e-001	 2.0282688434e+000
 1.0268460256e+000	 5.7114992759e-001	 1.9911815452e+000
 1.0209879354e+000	 5.8155707876e-001	 1.9513930058e+000
 1.0150161287e+000	 5.9191828707e-001	 1.9086888376e+000
 1.0089310921e+000	 6.0223172571e-001	 1.8628533682e+000
 1.0027333507e+000	 6.1249557333e-001	 1.8136699970e+000
 9.9642346820e-001	 6.2270801510e-001	 1.7609215580e+000
 9.9000204642e-001	 6.3286724368e-001	 1.7665235183e+000
 9.8346972570e-001	 6.4297146022e-001	 1.7850350690e+000
 1.0659408082e+000	 5.5115351165e-001	 1.9985425265e+000
 1.0603090748e+000	 5.6191161756e-001	 1.9459618633e+000
 1.0545599501e+000	 5.7262842373e-001	 1.8911400490e+000
 1.0486938134e+000	 5.8330205371e-001	 1.8338278648e+000
 1.0427110829e+000	 5.9393063362e-001	 1.7737737985e+000
 1.0366122165e+000	 6.0451229318e-001	 1.7107244360e+000
 1.0303977111e+000	 6.1504516668e-001	 1.6444248622e+000
 1.0240681029e+000	 6.2552739404e-001	 1.5789109770e+000
 1.0176239675e+000	 6.3595712181e-001	 1.5897714191e+000
 1.0110659197e+000	 6.4633250419e-001	 1.5953144868e+000
 1.0043946135e+000	 6.5665170405e-001	 1.5952635600e+000
 1.0881479084e+000	 5.6263587648e-001	 1.9778626288e+000
 1.0823988472e+000	 5.7361810960e-001	 1.9037642974e+000
 1.0765299491e+000	 5.8455818256e-001	 1.8274545008e+000
 1.0705416011e+000	 5.9545417983e-001	 1.7486456158e+000
 1.0644342305e+000	 6.0630418849e-001	 1.6670474142e+000
 1.0582083044e+000	 6.1710629929e-001	 1.5823675042e+000
 1.0518643301e+000	 6.2785860765e-001	 1.5181004648e+000
 1.0454028550e+000	 6.3855921475e-001	 1.5148782013e+000
 1.0388244668e+000	 6.4920622851e-001	 1.5063825731e+000
 1.0321297931e+000	 6.5979776469e-001	 1.4922987988e+000
 1.0253195013e+000	 6.7033194789e-001	 1.4723120363e+000
 1.1103550086e+000	 5.7411824131e-001	 2.0304687648e+000
 1.1044886196e+000	 5.8532460163e-001	 1.9337200499e+000
 1.0984999480e+000	 5.9648794139e-001	 1.8347827463e+000
 1.0923893889e+000	 6.0760630594e-001	 1.7333307970e+000
 1.0861573781e+000	 6.1867774335e-001	 1.6290352321e+000
 1.0798043922e+000	 6.2970030539e-001	 1.5614745151e+000
 1.0733309490e+000	 6.4067204862e-001	 1.5430378484e+000
 1.0667376072e+000	 6.5159103546e-001	 1.5194443656e+000
 1.0600249662e+000	 6.6245533522e-001	 1.4903419470e+000
 1.0531936664e+000	 6.7326302520e-001	 1.4553778545e+000
 1.0462443890e+000	 6.8401219173e-001	 1.4141992127e+000
 8.3699551125e-001	 5.4720975336e-001	 5.6937770984e+000
 8.3134228471e-001	 5.5576074499e-001	 5.7257636424e+000
 8.2559586333e-001	 5.6426188112e-001	 5.7522236636e+000
 8.1975688910e-001	 5.7271165764e-001	 5.7729762432e+000
 8.1382603608e-001	 5.8110858109e-001	 5.7878429064e+000
 8.0780401013e-001	 5.8945116950e-001	 5.7966479079e+000
 8.0169154872e-001	 5.9773795322e-001	 5.7992185152e+000
 7.9548942062e-001	 6.0596747576e-001	 5.7953852889e+000
 7.8919842564e-001	 6.1413829464e-001	 5.7849823602e+000
 7.8281939432e-001	 6.2224898220e-001	 5.7678477047e+000
 7.7635318757e-001	 6.3029812637e-001	 5.7749528166e+000
 8.5792039903e-001	 5.6088999720e-001	 4.8901500930e+000
 8.5212584183e-001	 5.6965476362e-001	 4.8972424694e+000
 8.4623575991e-001	 5.7836842815e-001	 4.8985794389e+000
 8.4025081132e-001	 5.8702944908e-001	 4.8939980163e+000
 8.3417168698e-001	 5.9563629562e-001	 4.8833380619e+000
 8.2799911038e-001	 6.0418744874e-001	 4.8664425587e+000
 8.2173383744e-001	 6.1268140204e-001	 4.8431578867e+000
 8.1537665613e-001	 6.2111666265e-001	 4.8133340949e+000
 8.0892838628e-001	 6.2949175201e-001	 4.8048397742e+000
 8.0238987918e-001	 6.3780520675e-001	 4.8126876945e+000
 7.9576201726e-001	 6.4605557953e-001	 4.8122994183e+000
 8.7884528681e-001	 5.7457024104e-001	 4.1665993375e+000
 8.7290939895e-001	 5.8354878224e-001	 4.1510023086e+000
 8.6687565649e-001	 5.9247497517e-001	 4.1294201149e+000
 8.6074473355e-001	 6.0134724052e-001	 4.1017062176e+000
 8.5451733788e-001	 6.1016401015e-001	 4.0677173229e+000
 8.4819421063e-001	 6.1892372797e-001	 4.0273136539e+000
 8.4177612615e-001	 6.2762485087e-001	 3.9976297129e+000
 8.3526389165e-001	 6.3626584955e-001	 4.0002871750e+000
 8.2865834692e-001	 6.4484520937e-001	 3.9948590202e+000
 8.2196036404e-001	 6.5336143130e-001	 3.9811991927e+000
 8.1517084695e-001	 6.6181303269e-001	 3.9591665540e+000
 8.9977017459e-001	 5.8825048487e-001	 3.5197331977e+000
 8.9369295606e-001	 5.9744280087e-001	 3.4835376768e+000
 8.8751555307e-001	 6.0658152220e-001	 3.4411254280e+000
 8.8123865577e-001	 6.1566503196e-001	 3.3923649121e+000
 8.7486298878e-001	 6.2469172467e-001	 3.3371282349e+000
 8.6838931088e-001	 6.3366000721e-001	 3.3346671224e+000
 8.6181841487e-001	 6.4256829971e-001	 3.3263401622e+000
 8.5515112716e-001	 6.5141503644e-001	 3.3098804782e+000
 8.4838830756e-001	 6.6019866674e-001	 3.2851542010e+000
 8.4153084889e-001	 6.6891765586e-001	 3.2520324356e+000
 8.3457967664e-001	 6.7757048585e-001	 3.2103914991e+000
 9.2069506237e-001	 6.0193072871e-001	 2.9465439159e+000
 9.1447651318e-001	 6.1133681950e-001	 2.8917387896e+000
 9.0815544965e-001	 6.2068806923e-001	 2.8304826944e+000
 9.0173257800e-001	 6.2998282341e-001	 2.7983557955e+000
 8.9520863967e-001	 6.3921943920e-001	 2.7893643790e+000
 8.8858441113e-001	 6.4839628645e-001	 2.7722878404e+000
 8.8186070358e-001	 6.5751174854e-001	 2.7469980113e+000
 8.7503836267e-001	 6.6656422333e-001	 2.7133715294e+000
 8.6811826820e-001	 6.7555212411e-001	 2.6712900777e+000
 8.6110133375e-001	 6.8447388041e-001	 2.6206406195e+000
 8.5398850633e-001	 6.9332793901e-001	 2.5613156272e+000
 9.4161995015e-001	 6.1561097254e-001	 2.4443649584e+000
 9.3526007029e-001	 6.2523083812e-001	 2.3745682593e+000
 9.2879534623e-001	 6.3479461626e-001	 2.3672164191e+000
 9.2222650022e-001	 6.4430061485e-001	 2.3517848905e+000
 9.1555429057e-001	 6.5374715373e-001	 2.3281496258e+000
 9.0877951138e-001	 6.6313256569e-001	 2.2961912228e+000
 9.0190299230e-001	 6.7245519737e-001	 2.2557951673e+000
 8.9492559818e-001	 6.8171341023e-001	 2.2068520707e+000
 8.8784822884e-001	 6.9090558147e-001	 2.1492579036e+000
 8.8067181861e-001	 7.0003010497e-001	 2.0829142238e+000
 8.7339733601e-001	 7.0908539217e-001	 2.0077283994e+000
 9.6254483793e-001	 6.2929121638e-001	 2.0438046113e+000
 9.5604362741e-001	 6.3912485675e-001	 2.0323348187e+000
 9.4943524281e-001	 6.4890116329e-001	 2.0126361117e+000
 9.4272042245e-001	 6.5861840629e-001	 1.9845914878e+000
 9.3589994147e-001	 6.6827486826e-001	 1.9480886742e+000
 9.2897461163e-001	 6.7786884493e-001	 1.9030203705e+000
 9.2194528101e-001	 6.8739864620e-001	 1.8492844862e+000
 9.1481283370e-001	 6.9686259713e-001	 1.7867843755e+000
 9.0757818948e-001	 7.0625903884e-001	 1.7154290657e+000
 9.0024230346e-001	 7.1558632953e-001	 1.6351334807e+000
 8.9280616570e-001	 7.2484284533e-001	 1.5458186587e+000
 9.8346972570e-001	 6.4297146022e-001	 1.7850350690e+000
 9.7682718452e-001	 6.5301887538e-001	 1.7631983574e+000
 9.7007513939e-001	 6.6300771033e-001	 1.7328539298e+000
 9.6321434467e-001	 6.7293619774e-001	 1.6938950392e+000
 9.5624559237e-001	 6.8280258279e-001	 1.6462199932e+000
 9.4916971188e-001	 6.9260512417e-001	 1.5897323938e+000
 9.4198756973e-001	 7.0234209504e-001	 1.5243413744e+000
 9.3470006921e-001	 7.1201178402e-001	 1.4499618304e+000
 9.2730815011e-001	 7.2161249621e-001	 1.3665146454e+000
 9.1981278832e-001	 7.3114255408e-001	 1.2739269117e+000
 9.1221499539e-001	 7.4060029849e-001	 1.1721321430e+000
 1.0043946135e+000	 6.5665170405e-001	 1.5952635600e+000
 9.9761074164e-001	 6.6691289401e-001	 1.5646900175e+000
 9.9071503597e-001	 6.7711425736e-001	 1.5253284061e+000
 9.8370826689e-001	 6.8725398918e-001	 1.4770810691e+000
 9.7659124327e-001	 6.9733029732e-001	 1.4198557242e+000
 9.6936481213e-001	 7.0734140341e-001	 1.3535657037e+000
 9.6202985844e-001	 7.1728554387e-001	 1.2781301896e+000
 9.5458730472e-001	 7.2716097092e-001	 1.1934744441e+000
 9.4703811075e-001	 7.3696595358e-001	 1.0995300337e+000
 9.3938327317e-001	 7.4669877864e-001	 9.9623504750e-001
 9.3162382508e-001	 7.5635775165e-001	 8.8353430828e-001
 1.0253195013e+000	 6.7033194789e-001	 1.4723120363e+000
 1.0183942987e+000	 6.8080691263e-001	 1.4345662993e+000
 1.0113549325e+000	 6.9122080439e-001	 1.3877501985e+000
 1.0042021891e+000	 7.0157178063e-001	 1.3317740239e+000
 9.9693689417e-001	 7.1185801186e-001	 1.2665537560e+000
 9.8955991238e-001	 7.2207768265e-001	 1.1920113068e+000
 9.8207214715e-001	 7.3222899270e-001	 1.1080747557e+000
 9.7447454023e-001	 7.4231015782e-001	 1.0146785799e+000
 9.6676807139e-001	 7.5231941095e-001	 9.1176387863e-001
 9.5895375803e-001	 7.6225500320e-001	 7.9927859070e-001
 9.5103265477e-001	 7.7211520481e-001	 6.7717770431e-001
 1.0462443890e+000	 6.8401219173e-001	 1.4141992127e+000
 1.0391778559e+000	 6.9470093126e-001	 1.3707865255e+000
 1.0319948291e+000	 7.0532735142e-001	 1.3180188770e+000
 1.0246961113e+000	 7.1588957207e-001	 1.2558133799e+000
 1.0172825451e+000	 7.2638572639e-001	 1.1840931493e+000
 1.0097550126e+000	 7.3681396190e-001	 1.1027875465e+000
 1.0021144359e+000	 7.4717244154e-001	 1.0118324166e+000
 9.9436177575e-001	 7.5745934472e-001	 9.1117032045e-001
 9.8649803203e-001	 7.6767286832e-001	 8.0075076039e-001
 9.7852424289e-001	 7.7781122776e-001	 6.8053039818e-001
 9.7044148445e-001	 7.8787265798e-001	 5.5047326543e-001
 7.7635318757e-001	 6.3029812637e-001	 5.7749528166e+000
 7.6980069631e-001	 6.3828433156e-001	 5.7319941239e+000
 7.6316284107e-001	 6.4620621937e-001	 5.6735058416e+000
 7.5644057159e-001	 6.5406242942e-001	 5.5998195016e+000
 7.4963486637e-001	 6.6185162011e-001	 5.5112799383e+000
 7.4274673220e-001	 6.6957246936e-001	 5.4082450220e+000
 7.3577720365e-001	 6.7722367538e-001	 5.2910853726e+000
 7.2872734261e-001	 6.8480395737e-001	 5.1601840569e+000
 7.2159823770e-001	 6.9231205626e-001	 5.0159362675e+000
 7.1439100374e-001	 6.9974673538e-001	 4.8587489850e+000
 7.0710678115e-001	 7.0710678115e-001	 4.6890406232e+000
 7.9576201726e-001	 6.4605557953e-001	 4.8122994183e+000
 7.8904571372e-001	 6.5424143985e-001	 4.7810956894e+000
 7.8224191210e-001	 6.6236137485e-001	 4.7359827418e+000
 7.7535158588e-001	 6.7041399015e-001	 4.6772339018e+000
 7.6837573803e-001	 6.7839791061e-001	 4.6051343482e+000
 7.6131540050e-001	 6.8631178109e-001	 4.5199809090e+000
 7.5417163374e-001	 6.9415426726e-001	 4.4220818418e+000
 7.4694552618e-001	 7.0192405631e-001	 4.3117565981e+000
 7.3963819364e-001	 7.0961985767e-001	 4.1893355719e+000
 7.3225077883e-001	 7.1724040377e-001	 4.0551598327e+000
 7.2478445068e-001	 7.2478445068e-001	 3.9095808436e+000
 8.1517084695e-001	 6.6181303269e-001	 3.9591665540e+000
 8.0829073112e-001	 6.7019854813e-001	 3.9355032752e+000
 8.0132098312e-001	 6.7851653033e-001	 3.8994543888e+000
 7.9426260017e-001	 6.8676555089e-001	 3.8512366239e+000
 7.8711660969e-001	 6.9494420111e-001	 3.7910771786e+000
 7.7988406881e-001	 7.0305109283e-001	 3.7192135796e+000
 7.7256606384e-001	 7.1108485915e-001	 3.6358935274e+000
 7.6516370974e-001	 7.1904415524e-001	 3.5413747267e+000
 7.5767814959e-001	 7.2692765908e-001	 3.4359247036e+000
 7.5011055393e-001	 7.3473407215e-001	 3.3198206078e+000
 7.4246212021e-001	 7.4246212021e-001	 3.1933490021e+000
 8.3457967664e-001	 6.7757048585e-001	 3.2103914991e+000
 8.2753574853e-001	 6.8615565642e-001	 3.1903739372e+000
 8.2040005415e-001	 6.9467168582e-001	 3.1594033452e+000
 8.1317361446e-001	 7.0311711162e-001	 3.1176413065e+000
 8.0585748135e-001	 7.1149049161e-001	 3.0652585528e+000
 7.9845273712e-001	 7.1979040456e-001	 3.0024348857e+000
 7.9096049393e-001	 7.2801545103e-001	 2.9293590856e+000
 7.8338189331e-001	 7.3616425418e-001	 2.8462288077e+000
 7.7571810553e-001	 7.4423546049e-001	 2.7532504660e+000
 7.6797032902e-001	 7.5222774054e-001	 2.6506391041e+000
 7.6013978974e-001	 7.6013978974e-001	 2.5386182541e+000
 8.5398850633e-001	 6.9332793901e-001	 2.5613156272e+000
 8.4678076594e-001	 7.0211276471e-001	 2.5413406308e+000
 8.3947912518e-001	 7.1082684130e-001	 2.5117593409e+000
 8.3208462875e-001	 7.1946867236e-001	 2.4726795028e+000
 8.2459835301e-001	 7.2803678212e-001	 2.4242167487e+000
 8.1702140542e-001	 7.3652971630e-001	 2.3664945807e+000
 8.0935492402e-001	 7.4494604292e-001	 2.2996443423e+000
 8.0160007688e-001	 7.5328435311e-001	 2.2238051793e+000
 7.9375806148e-001	 7.6154326189e-001	 2.1391239897e+000
 7.8583010412e-001	 7.6972140893e-001	 2.0457553616e+000
 7.7781745927e-001	 7.7781745927e-001	 1.9438615010e+000
 8.7339733601e-001	 7.0908539217e-001	 2.0077283994e+000
 8.6602578334e-001	 7.1806987300e-001	 1.9844593328e+000
 8.5855819620e-001	 7.2698199679e-001	 1.9528495872e+000
 8.5099564304e-001	 7.3582023310e-001	 1.9129542450e+000
 8.4333922467e-001	 7.4458307262e-001	 1.8648350703e+000
 8.3559007373e-001	 7.5326902803e-001	 1.8085605528e+000
 8.2774935411e-001	 7.6187663480e-001	 1.7442059410e+000
 8.1981826044e-001	 7.7040445205e-001	 1.6718532673e+000
 8.1179801742e-001	 7.7885106330e-001	 1.5915913628e+000
 8.0368987921e-001	 7.8721507731e-001	 1.5035158617e+000
 7.9549512880e-001	 7.9549512880e-001	 1.4077291966e+000
 8.9280616570e-001	 7.2484284533e-001	 1.5458186587e+000
 8.8527080075e-001	 7.3402698129e-001	 1.5161630612e+000
 8.7763726723e-001	 7.4313715227e-001	 1.4793555729e+000
 8.6990665733e-001	 7.5217179383e-001	 1.4353996665e+000
 8.6208009633e-001	 7.6112936312e-001	 1.3843043450e+000
 8.5415874203e-001	 7.7000833977e-001	 1.3260842450e+000
 8.4614378421e-001	 7.7880722669e-001	 1.2607597319e+000
 8.3803644401e-001	 7.8752455098e-001	 1.1883569881e+000
 8.2983797336e-001	 7.9615886471e-001	 1.1089080918e+000
 8.2154965430e-001	 8.0470874570e-001	 1.0224510875e+000
 8.1317279833e-001	 8.1317279833e-001	 9.2903004785e-001
 9.1221499539e-001	 7.4060029849e-001	 1.1721321430e+000
 9.0451581816e-001	 7.4998408958e-001	 1.1332217644e+000
 8.9671633826e-001	 7.5929230776e-001	 1.0882753747e+000
 8.8881767162e-001	 7.6852335457e-001	 1.0372457782e+000
 8.8082096799e-001	 7.7767565363e-001	 9.8009020817e-001
 8.7272741034e-001	 7.8674765150e-001	 9.1677048979e-001
 8.6453821430e-001	 7.9573781857e-001	 8.4725319721e-001
 8.5625462758e-001	 8.0464464992e-001	 7.7150980347e-001
 8.4787792931e-001	 8.1346666612e-001	 6.8951682354e-001
 8.3940942940e-001	 8.2220241408e-001	 6.0125594975e-001
 8.3085046786e-001	 8.3085046786e-001	 5.0671417932e-001
 9.3162382508e-001	 7.5635775165e-001	 8.8353430828e-001
 9.2376083557e-001	 7.6594119787e-001	 8.3270722389e-001
 9.1579540928e-001	 7.7544746325e-001	 7.7689067989e-001
 9.0772868592e-001	 7.8487491531e-001	 7.1598764832e-001
 8.9956183966e-001	 7.9422194413e-001	 6.4990447753e-001
 8.9129607865e-001	 8.0348696323e-001	 5.7855111449e-001
 8.8293264439e-001	 8.1266841046e-001	 5.0184132233e-001
 8.7447281114e-001	 8.2176474885e-001	 4.1969289248e-001
 8.6591788525e-001	 8.3077446752e-001	 3.3202785100e-001
 8.5726920449e-001	 8.3969608247e-001	 2.3877265836e-001
 8.4852813739e-001	 8.4852813739e-001	 1.3985840231e-001
 9.5103265477e-001	 7.7211520481e-001	 6.7717770431e-001
 9.4300585297e-001	 7.8189830617e-001	 6.1196225541e-001
 9.3487448031e-001	 7.9160261873e-001	 5.4273784579e-001
 9.2663970021e-001	 8.0122647604e-001	 4.6935835501e-001
 9.1830271132e-001	 8.1076823464e-001	 3.9168003237e-001
 9.0986474695e-001	 8.2022627497e-001	 3.0956177829e-001
 9.0132707449e-001	 8.2959900235e-001	 2.2286542229e-001
 8.9269099471e-001	 8.3888484779e-001	 1.3145599688e-001
 8.8395784120e-001	 8.4808226893e-001	 3.5202006698e-002
 8.7512897959e-001	 8.5718975085e-001	-6.6024307737e-002
 8.6620580692e-001	 8.6620580692e-001	-1.7234671240e-001
 9.7044148445e-001	 7.8787265798e-001	 5.5047326543e-001
 9.6225087038e-001	 7.9785541446e-001	 4.6857360530e-001
 9.5395355134e-001	 8.0775777422e-001	 3.8358243327e-001
 9.4555071450e-001	 8.1757803678e-001	 2.9530518599e-001
 9.3704358298e-001	 8.2731452514e-001	 2.0354870744e-001
 9.2843341526e-001	 8.3696558670e-001	 1.0812158923e-001
 9.1972150458e-001	 8.4652959423e-001	 8.8345087901e-003
 9.1090917828e-001	 8.5600494672e-001	-9.4499435212e-002
 9.0199779714e-001	 8.6539007034e-001	-2.0206439124e-001
 8.9298875468e-001	 8.7468341924e-001	-3.1404142763e-001
 8.8388347645e-001	 8.8388347645e-001	-4.3060821051e-001
 7.0710678115e-001	 7.0710678115e-001	 4.6890406232e+000
 6.9974673538e-001	 7.1439100374e-001	 4.5795334795e+000
 6.9231205626e-001	 7.2159823770e-001	 4.4572785791e+000
 6.8480395737e-001	 7.2872734261e-001	 4.3225708035e+000
 6.7722367538e-001	 7.3577720365e-001	 4.1757164335e+000
 6.6957246936e-001	 7.4274673220e-001	 4.0170328763e+000
 6.6185162011e-001	 7.4963486637e-001	 3.8468483771e+000
 6.5406242942e-001	 7.5644057159e-001	 3.6655017153e+000
 6.4620621937e-001	 7.6316284107e-001	 3.4733418852e+000
 6.3828433156e-001	 7.6980069631e-001	 3.2707277632e+000
 6.3029812637e-001	 7.7635318757e-001	 3.0580277598e+000
 7.2478445068e-001	 7.2478445068e-001	 3.9095808436e+000
 7.1724040377e-001	 7.3225077883e-001	 3.8152916235e+000
 7.0961985767e-001	 7.3963819364e-001	 3.7093004844e+000
 7.0192405631e-001	 7.4694552618e-001	 3.5918658486e+000
 6.9415426726e-001	 7.5417163374e-001	 3.4632567226e+000
 6.8631178109e-001	 7.6131540050e-001	 3.3237524673e+000
 6.7839791061e-001	 7.6837573803e-001	 3.1736425538e+000
 6.7041399015e-001	 7.7535158588e-001	 3.0132263043e+000
 6.6236137485e-001	 7.8224191210e-001	 2.8428126186e+000
 6.5424143985e-001	 7.8904571372e-001	 2.6627196871e+000
 6.4605557953e-001	 7.9576201726e-001	 2.4732746900e+000
 7.4246212021e-001	 7.4246212021e-001	 3.1933490021e+000
 7.3473407215e-001	 7.5011055393e-001	 3.1117522350e+000
 7.2692765908e-001	 7.5767814959e-001	 3.0194188255e+000
 7.1904415524e-001	 7.6516370974e-001	 2.9165717148e+000
 7.1108485915e-001	 7.7256606384e-001	 2.8034436686e+000
 7.0305109283e-001	 7.7988406881e-001	 2.6802770907e+000
 6.9494420111e-001	 7.8711660969e-001	 2.5473238211e+000
 6.8676555089e-001	 7.9426260017e-001	 2.4048449218e+000
 6.7851653033e-001	 8.0132098312e-001	 2.2531104474e+000
 6.7019854813e-001	 8.0829073112e-001	 2.0923992035e+000
 6.6181303269e-001	 8.1517084695e-001	 1.9229984913e+000
 7.6013978974e-001	 7.6013978974e-001	 2.5386182541e+000
 7.5222774054e-001	 7.6797032902e-001	 2.4673782626e+000
 7.4423546049e-001	 7.7571810553e-001	 2.3862905376e+000
 7.3616425418e-001	 7.8338189331e-001	 2.2955434149e+000
 7.2801545103e-001	 7.9096049393e-001	 2.1953343492e+000
 7.1979040456e-001	 7.9845273712e-001	 2.0858697688e+000
 7.1149049161e-001	 8.0585748135e-001	 1.9673649176e+000
 7.0311711162e-001	 8.1317361446e-001	 1.8400436828e+000
 6.9467168582e-001	 8.2040005415e-001	 1.7041384102e+000
 6.8615565642e-001	 8.2753574853e-001	 1.5598897065e+000
 6.7757048585e-001	 8.3457967664e-001	 1.4075462288e+000
 7.7781745927e-001	 7.7781745927e-001	 1.9438615010e+000
 7.6972140893e-001	 7.8583010412e-001	 1.8808158390e+000
 7.6154326189e-001	 7.9375806148e-001	 1.8087387724e+000
 7.5328435311e-001	 8.0160007688e-001	 1.7277848142e+000
 7.4494604292e-001	 8.0935492402e-001	 1.6381169417e+000
 7.3652971630e-001	 8.1702140542e-001	 1.5399064922e+000
 7.2803678212e-001	 8.2459835301e-001	 1.4333330474e+000
 7.1946867236e-001	 8.3208462875e-001	 1.3185843040e+000
 7.1082684130e-001	 8.3947912518e-001	 1.1958559315e+000
 7.0211276471e-001	 8.4678076594e-001	 1.0653514185e+000
 6.9332793901e-001	 8.5398850633e-001	 9.2728190551e-001
 7.9549512880e-001	 7.9549512880e-001	 1.4077291966e+000
 7.8721507731e-001	 8.0368987921e-001	 1.3508739270e+000
 7.7885106330e-001	 8.1179801742e-001	 1.2857344299e+000
 7.7040445205e-001	 8.1981826044e-001	 1.2124320915e+000
 7.6187663480e-001	 8.2774935411e-001	 1.1310961569e+000
 7.5326902803e-001	 8.3559007373e-001	 1.0418636669e+000
 7.4458307262e-001	 8.4333922467e-001	 9.4487938368e-001
 7.3582023310e-001	 8.5099564304e-001	 8.4029570330e-001
 7.2698199679e-001	 8.5855819620e-001	 7.2827255670e-001
 7.1806987300e-001	 8.6602578334e-001	 6.0897729792e-001
 7.0908539217e-001	 8.7339733601e-001	 4.8258458068e-001
 8.1317279833e-001	 8.1317279833e-001	 9.2903004785e-001
 8.0470874570e-001	 8.2154965430e-001	 8.7650662104e-001
 7.9615886471e-001	 8.2983797336e-001	 8.1638009867e-001
 7.8752455098e-001	 8.3803644401e-001	 7.4873935692e-001
 7.7880722669e-001	 8.4614378421e-001	 6.7368057247e-001
 7.7000833977e-001	 8.5415874203e-001	 5.9130720065e-001
 7.6112936312e-001	 8.6208009633e-001	 5.0172994177e-001
 7.5217179383e-001	 8.6990665733e-001	 4.0506669558e-001
 7.4313715227e-001	 8.7763726723e-001	 3.0144250384e-001
 7.3402698129e-001	 8.8527080075e-001	 1.9098948097e-001
 7.2484284533e-001	 8.9280616570e-001	 7.3846732886e-002
 8.3085046786e-001	 8.3085046786e-001	 5.0671417932e-001
 8.2220241408e-001	 8.3940942940e-001	 4.5679770716e-001
 8.1346666612e-001	 8.4787792931e-001	 3.9989604652e-001
 8.0464464992e-001	 8.5625462758e-001	 3.3606610607e-001
 7.9573781857e-001	 8.6453821430e-001	 2.6537158279e-001
 7.8674765150e-001	 8.7272741034e-001	 1.8788298057e-001
 7.7767565363e-001	 8.8082096799e-001	 1.0367761732e-001
 7.6852335457e-001	 8.8881767162e-001	 1.2839620580e-002
 7.5929230776e-001	 8.9671633826e-001	-8.4540088395e-002
 7.4998408958e-001	 9.0451581816e-001	-1.8836382235e-001
 7.4060029849e-001	 9.1221499539e-001	-2.9852716738e-001
 8.4852813739e-001	 8.4852813739e-001	 1.3985840231e-001
 8.3969608247e-001	 8.5726920449e-001	 9.0947153817e-002
 8.3077446752e-001	 8.6591788525e-001	 3.5607962152e-002
 8.2176474885e-001	 8.7447281114e-001	-2.6133757422e-002
 8.1266841046e-001	 8.8293264439e-001	-9.4246269023e-002
 8.0348696323e-001	 8.9129607865e-001	-1.6869145746e-001
 7.9422194413e-001	 8.9956183966e-001	-2.4942478054e-001
 7.8487491531e-001	 9.0772868592e-001	-3.3639523258e-001
 7.7544746325e-001	 9.1579540928e-001	-4.2954531928e-001
 7.6594119787e-001	 9.2376083557e-001	-5.2881104422e-001
 7.5635775165e-001	 9.3162382508e-001	-6.3412190691e-001
 8.6620580692e-001	 8.6620580692e-001	-1.7234671240e-001
 8.5718975085e-001	 8.7512897959e-001	-2.2174074361e-001
 8.4808226893e-001	 8.8395784120e-001	-2.7706380204e-001
 8.3888484779e-001	 8.9269099471e-001	-3.3832155551e-001
 8.2959900235e-001	 9.0132707449e-001	-4.0551377584e-001
 8.2022627497e-001	 9.0986474695e-001	-4.7863424014e-001
 8.1076823464e-001	 9.1830271132e-001	-5.5767064276e-001
 8.0122647604e-001	 9.2663970021e-001	-6.4260451819e-001
 7.9160261873e-001	 9.3487448031e-001	-7.3341117522e-001
 7.8189830617e-001	 9.4300585297e-001	-8.3005964254e-001
 7.7211520481e-001	 9.5103265477e-001	-9.3251262600e-001
 8.8388347645e-001	 8.8388347645e-001	-4.3060821051e-001
 8.7468341924e-001	 8.9298875468e-001	-4.8186779550e-001
 8.6539007034e-001	 9.0199779714e-001	-5.3861369632e-001
 8.5600494672e-001	 9.1090917828e-001	-6.0088231316e-001
 8.4652959423e-001	 9.1972150458e-001	-6.6870453290e-001
 8.3696558670e-001	 9.2843341526e-001	-7.4210559042e-001
 8.2731452514e-001	 9.3704358298e-001	-8.2110494037e-001
 8.1757803678e-001	 9.4555071450e-001	-9.0571613962e-001
 8.0775777422e-001	 9.5395355134e-001	-9.9594674100e-001
 7.9785541446e-001	 9.6225087038e-001	-1.0917981983e+000
 7.8787265798e-001	 9.7044148445e-001	-1.1932657830e+000
 6.3029812637e-001	 7.7635318757e-001	 3.0580277598e+000
 6.2224898220e-001	 7.8281939432e-001	 2.8329157803e+000
 6.1413829464e-001	 7.8919842564e-001	 2.6479247032e+000
 6.0596747576e-001	 7.9548942062e-001	 2.4450396168e+000
 5.9773795322e-001	 8.0169154872e-001	 2.2250217314e+000
 5.8945116950e-001	 8.0780401013e-001	 1.9886470788e+000
 5.8110858109e-001	 8.1382603608e-001	 1.7367056150e+000
 5.7271165764e-001	 8.1975688910e-001	 1.4700003047e+000
 5.6426188112e-001	 8.2559586333e-001	 1.1893461927e+000
 5.5576074499e-001	 8.3134228471e-001	 8.9556946108e-001
 5.4720975336e-001	 8.3699551125e-001	 5.8950647556e-001
 6.4605557953e-001	 7.9576201726e-001	 2.4732746900e+000
 6.3780520675e-001	 8.0238987918e-001	 2.2655248536e+000
 6.2949175201e-001	 8.0892838628e-001	 2.0372081775e+000
 6.2111666265e-001	 8.1537665613e-001	 1.8367488576e+000
 6.1268140204e-001	 8.2173383744e-001	 1.6753585534e+000
 6.0418744874e-001	 8.2799911038e-001	 1.4993567376e+000
 5.9563629562e-001	 8.3417168698e-001	 1.3094549199e+000
 5.8702944908e-001	 8.4025081132e-001	 1.1063766681e+000
 5.7836842815e-001	 8.4623575991e-001	 8.9085676131e-001
 5.6965476362e-001	 8.5212584183e-001	 6.6364032972e-001
 5.6088999720e-001	 8.5792039903e-001	 4.2548198330e-001
 6.6181303269e-001	 8.1517084695e-001	 1.9229984913e+000
 6.5336143130e-001	 8.2196036404e-001	 1.7577143397e+000
 6.4484520937e-001	 8.2865834692e-001	 1.5734828799e+000
 6.3626584955e-001	 8.3526389165e-001	 1.3709135871e+000
 6.2762485087e-001	 8.4177612615e-001	 1.1506323466e+000
 6.1892372797e-001	 8.4819421063e-001	 9.9418787171e-001
 6.1016401015e-001	 8.5451733788e-001	 8.5985900892e-001
 6.0134724052e-001	 8.6074473355e-001	 7.1384135767e-001
 5.9247497517e-001	 8.6687565649e-001	 5.5679289648e-001
 5.8354878224e-001	 8.7290939895e-001	 3.8938122558e-001
 5.7457024104e-001	 8.7884528681e-001	 2.1228277493e-001
 6.7757048585e-001	 8.3457967664e-001	 1.4075462288e+000
 6.6891765586e-001	 8.4153084889e-001	 1.2792226213e+000
 6.6019866674e-001	 8.4838830756e-001	 1.1334582011e+000
 6.5141503644e-001	 8.5515112716e-001	 9.7079120039e-001
 6.4256829971e-001	 8.6181841487e-001	 7.9177533111e-001
 6.3366000721e-001	 8.6838931088e-001	 5.9697918456e-001
 6.2469172467e-001	 8.7486298878e-001	 3.9134709977e-001
 6.1566503196e-001	 8.8123865577e-001	 2.9626144129e-001
 6.0658152220e-001	 8.8751555307e-001	 1.9146464451e-001
 5.9744280087e-001	 8.9369295606e-001	 7.7550079215e-002
 5.8825048487e-001	 8.9977017459e-001	-4.4880653679e-002
 6.9332793901e-001	 8.5398850633e-001	 9.2728190551e-001
 6.8447388041e-001	 8.6110133375e-001	 8.3078750265e-001
 6.7555212411e-001	 8.6811826820e-001	 7.1825176619e-001
 6.6656422333e-001	 8.7503836267e-001	 5.9014414682e-001
 6.5751174854e-001	 8.8186070358e-001	 4.4694871174e-001
 6.4839628645e-001	 8.8858441113e-001	 2.8916362252e-001
 6.3921943920e-001	 8.9520863967e-001	 1.1730059389e-001
 6.2998282341e-001	 9.0173257800e-001	-6.8115665424e-002
 6.2068806923e-001	 9.0815544965e-001	-2.0111317961e-001
 6.1133681950e-001	 9.1447651318e-001	-2.6743188266e-001
 6.0193072871e-001	 9.2069506237e-001	-3.4117645872e-001
 7.0908539217e-001	 8.7339733601e-001	 4.8258458068e-001
 7.0003010497e-001	 8.8067181861e-001	 4.1312901979e-001
 6.9090558147e-001	 8.8784822884e-001	 3.2893004154e-001
 6.8171341023e-001	 8.9492559818e-001	 2.3039059456e-001
 6.7245519737e-001	 9.0190299230e-001	 1.1792744540e-001
 6.6313256569e-001	 9.0877951138e-001	-8.0292676085e-003
 6.5374715373e-001	 9.1555429057e-001	-1.4703649919e-001
 6.4430061485e-001	 9.2222650022e-001	-2.9863877964e-001
 6.3479461626e-001	 9.2879534623e-001	-4.6236871440e-001
 6.2523083812e-001	 9.3526007029e-001	-6.3774749945e-001
 6.1561097254e-001	 9.4161995015e-001	-6.7210937607e-001
 7.2484284533e-001	 8.9280616570e-001	 7.3846732886e-002
 7.1558632953e-001	 9.0024230346e-001	 2.6951372329e-002
 7.0625903884e-001	 9.0757818948e-001	-3.3486104162e-002
 6.9686259713e-001	 9.1481283370e-001	-1.0712713708e-001
 6.8739864620e-001	 9.2194528101e-001	-1.9362008540e-001
 6.7786884493e-001	 9.2897461163e-001	-2.9260059871e-001
 6.6827486826e-001	 9.3589994147e-001	-4.0369200774e-001
 6.5861840629e-001	 9.4272042245e-001	-5.2650573243e-001
 6.4890116329e-001	 9.4943524281e-001	-6.6064170692e-001
 6.3912485675e-001	 9.5604362741e-001	-8.0568882062e-001
 6.2929121638e-001	 9.6254483793e-001	-9.6122537455e-001
 7.4060029849e-001	 9.1221499539e-001	-2.9852716738e-001
 7.3114255408e-001	 9.1981278832e-001	-3.2705539202e-001
 7.2161249621e-001	 9.2730815011e-001	-3.6801654922e-001
 7.1201178402e-001	 9.3470006921e-001	-4.2113450865e-001
 7.0234209504e-001	 9.4198756973e-001	-4.8612073483e-001
 6.9260512417e-001	 9.4916971188e-001	-5.6267458712e-001
 6.8280258279e-001	 9.5624559237e-001	-6.5048363781e-001
 6.7293619774e-001	 9.6321434467e-001	-7.4922400771e-001
 6.6300771033e-001	 9.7007513939e-001	-8.5856071868e-001
 6.5301887538e-001	 9.7682718452e-001	-9.7814806235e-001
 6.4297146022e-001	 9.8346972570e-001	-1.1076299845e+000
 7.5635775165e-001	 9.3162382508e-001	-6.3412190691e-001
 7.4669877864e-001	 9.3938327317e-001	-6.4821390329e-001
 7.3696595358e-001	 9.4703811075e-001	-6.7371767443e-001
 7.2716097092e-001	 9.5458730472e-001	-7.1041770012e-001
 7.1728554387e-001	 9.6202985844e-001	-7.5808667326e-001
 7.0734140341e-001	 9.6936481213e-001	-8.1648572935e-001
 6.9733029732e-001	 9.7659124327e-001	-8.8536469402e-001
 6.8725398918e-001	 9.8370826689e-001	-9.6446234793e-001
 6.7711425736e-001	 9.9071503597e-001	-1.0535067087e+000
 6.6691289401e-001	 9.9761074164e-001	-1.1522153295e+000
 6.5665170405e-001	 1.0043946135e+000	-1.2602956129e+000
 7.7211520481e-001	 9.5103265477e-001	-9.3251262600e-001
 7.6225500320e-001	 9.5895375803e-001	-9.3585817555e-001
 7.5231941095e-001	 9.6676807139e-001	-9.4967863833e-001
 7.4231015782e-001	 9.7447454023e-001	-9.7381741507e-001
 7.3222899270e-001	 9.8207214715e-001	-1.0081066815e+000
 7.2207768265e-001	 9.8955991238e-001	-1.0523675490e+000
 7.1185801186e-001	 9.9693689417e-001	-1.1064102430e+000
 7.0157178063e-001	 1.0042021891e+000	-1.1700342992e+000
 6.9122080439e-001	 1.0113549325e+000	-1.2430287763e+000
 6.8080691263e-001	 1.0183942987e+000	-1.3251724864e+000
 6.7033194789e-001	 1.0253195013e+000	-1.4162342408e+000
 7.8787265798e-001	 9.7044148445e-001	-1.1932657830e+000
 7.7781122776e-001	 9.7852424289e-001	-1.1893324686e+000
 7.6767286832e-001	 9.8649803203e-001	-1.1950180994e+000
 7.5745934472e-001	 9.9436177575e-001	-1.2102234283e+000
 7.4717244154e-001	 1.0021144359e+000	-1.2348384898e+000
 7.3681396190e-001	 1.0097550126e+000	-1.2687426941e+000
 7.2638572639e-001	 1.0172825451e+000	-1.3118049373e+000
 7.1588957207e-001	 1.0246961113e+000	-1.3638837307e+000
 7.0532735142e-001	 1.0319948291e+000	-1.4248273465e+000
 6.9470093126e-001	 1.0391778559e+000	-1.4944739809e+000
 6.8401219173e-001	 1.0462443890e+000	-1.5726519340e+000
 5.4720975336e-001	 8.3699551125e-001	 5.8950647556e-001
 5.3861042014e-001	 8.4255493313e-001	 3.0729424123e-001
 5.2996426816e-001	 8.4801997294e-001	 2.4680394287e-002
 5.2127282835e-001	 8.5339008574e-001	-2.5796729863e-001
 5.1253763888e-001	 8.5866475923e-001	-5.4028077892e-001
 5.0376024430e-001	 8.6384351377e-001	-8.2189211021e-001
 4.9494219467e-001	 8.6892590245e-001	-1.1024338912e+000
 4.8608504475e-001	 8.7391151114e-001	-1.3815396668e+000
 4.7719035311e-001	 8.7879995843e-001	-1.6588443360e+000
 4.6825968131e-001	 8.8359089566e-001	-1.9339845565e+000
 4.5929459305e-001	 8.8828400685e-001	-2.2065991454e+000
 5.6088999720e-001	 8.5792039903e-001	 4.2548198330e-001
 5.5207568064e-001	 8.6361880646e-001	 1.7991355899e-001
 5.4321337486e-001	 8.6922047226e-001	-6.7324333163e-002
 5.3430464906e-001	 8.7472483789e-001	-3.1584013377e-001
 5.2535107986e-001	 8.8013137822e-001	-5.6524095263e-001
 5.1635425041e-001	 8.8543960162e-001	-8.1513302307e-001
 5.0731574954e-001	 8.9064905002e-001	-1.0651221560e+000
 4.9823717087e-001	 8.9575929892e-001	-1.3148141930e+000
 4.8912011194e-001	 9.0076995739e-001	-1.5638154577e+000
 4.7996617334e-001	 9.0568066805e-001	-1.8117332042e+000
 4.7077695788e-001	 9.1049110702e-001	-2.0581760621e+000
 5.7457024104e-001	 8.7884528681e-001	 2.1228277493e-001
 5.6554094115e-001	 8.8468267979e-001	 4.1647161587e-003
 5.5646248157e-001	 8.9042097158e-001	-2.0686162229e-001
 5.4733646978e-001	 8.9605959003e-001	-4.2038125587e-001
 5.3816452084e-001	 9.0159799720e-001	-6.3597683712e-001
 5.2894825652e-001	 9.0703568946e-001	-8.5322914985e-001
 5.1968930441e-001	 9.1237219758e-001	-1.0717176043e+000
 5.1038929699e-001	 9.1760708670e-001	-1.2910207325e+000
 5.0104987077e-001	 9.2273995635e-001	-1.5107166820e+000
 4.9167266537e-001	 9.2777044045e-001	-1.7303837087e+000
 4.8225932270e-001	 9.3269820719e-001	-1.9496006658e+000
 5.8825048487e-001	 8.9977017459e-001	-4.4880653679e-002
 5.7900620166e-001	 9.0574655311e-001	-2.1482455341e-001
 5.6971158828e-001	 9.1162147091e-001	-3.8889001494e-001
 5.6036829049e-001	 9.1739434218e-001	-5.6663894041e-001
 5.5097796181e-001	 9.2306461618e-001	-7.4762984148e-001
 5.4154226263e-001	 9.2863177731e-001	-9.3141837340e-001
 5.3206285928e-001	 9.3409534514e-001	-1.1175578712e+000
 5.2254142311e-001	 9.3945487447e-001	-1.3055998866e+000
 5.1297962959e-001	 9.4470995531e-001	-1.4950947254e+000
 5.0337915740e-001	 9.4986021284e-001	-1.6855919831e+000
 4.9374168753e-001	 9.5490530736e-001	-1.8766410791e+000
 6.0193072871e-001	 9.2069506237e-001	-3.4117645872e-001
 5.9247146216e-001	 9.2681042644e-001	-4.7229849947e-001
 5.8296069499e-001	 9.3282197023e-001	-6.0873309723e-001
 5.7340011120e-001	 9.3872909432e-001	-7.5001930108e-001
 5.6379140279e-001	 9.4453123516e-001	-8.9569174470e-001
 5.5413626874e-001	 9.5022786515e-001	-1.0452812203e+000
 5.4443641415e-001	 9.5581849270e-001	-1.1983152556e+000
 5.3469354923e-001	 9.6130266225e-001	-1.3543186930e+000
 5.2490938842e-001	 9.6667995427e-001	-1.5128142693e+000
 5.1508564944e-001	 9.7194998523e-001	-1.6733231957e+000
 5.0522405235e-001	 9.7711240753e-001	-1.8353657359e+000
 6.1561097254e-001	 9.4161995015e-001	-6.7210937607e-001
 6.0593672267e-001	 9.4787429977e-001	-7.6383202387e-001
 5.9620980169e-001	 9.5402246955e-001	-8.6203893902e-001
 5.8643193191e-001	 9.6006384646e-001	-9.6624652998e-001
 5.7660484376e-001	 9.6599785414e-001	-1.0759657656e+000
 5.6673027485e-001	 9.7182395300e-001	-1.1907027892e+000
 5.5680996902e-001	 9.7754164026e-001	-1.3099595361e+000
 5.4684567535e-001	 9.8315045003e-001	-1.4332343550e+000
 5.3683914725e-001	 9.8864995323e-001	-1.5600226308e+000
 5.2679214147e-001	 9.9403975762e-001	-1.6898174080e+000
 5.1670641718e-001	 9.9931950770e-001	-1.8221100135e+000
 6.2929121638e-001	 9.6254483793e-001	-9.6122537455e-001
 6.1940198317e-001	 9.6893817309e-001	-1.0852947401e+000
 6.0945890840e-001	 9.7522296887e-001	-1.1447448240e+000
 5.9946375262e-001	 9.8139859860e-001	-1.2113283239e+000
 5.8941828473e-001	 9.8746447312e-001	-1.2845327109e+000
 5.7932428096e-001	 9.9342004084e-001	-1.3638396454e+000
 5.6918352389e-001	 9.9926478782e-001	-1.4487256358e+000
 5.5899780147e-001	 1.0049982378e+000	-1.5386627020e+000
 5.4876890608e-001	 1.0106199522e+000	-1.6331190412e+000
 5.3849863350e-001	 1.0161295300e+000	-1.7315596951e+000
 5.2818878200e-001	 1.0215266079e+000	-1.8334472174e+000
 6.4297146022e-001	 9.8346972570e-001	-1.1076299845e+000
 6.3286724368e-001	 9.9000204642e-001	-1.2938186949e+000
 6.2270801510e-001	 9.9642346820e-001	-1.4530464822e+000
 6.1249557333e-001	 1.0027333507e+000	-1.4815257242e+000
 6.0223172571e-001	 1.0089310921e+000	-1.5177214443e+000
 5.9191828707e-001	 1.0150161287e+000	-1.5610909412e+000
 5.8155707876e-001	 1.0209879354e+000	-1.6110854158e+000
 5.7114992759e-001	 1.0268460256e+000	-1.6671506761e+000
 5.6069866491e-001	 1.0325899511e+000	-1.7287278468e+000
 5.5020512553e-001	 1.0382193024e+000	-1.7952540803e+000
 5.3967114683e-001	 1.0437337080e+000	-1.8661632693e+000
 6.5665170405e-001	 1.0043946135e+000	-1.2602956129e+000
 6.4633250419e-001	 1.0110659197e+000	-1.4127825596e+000
 6.3595712181e-001	 1.0176239675e+000	-1.5806985803e+000
 6.2552739404e-001	 1.0240681029e+000	-1.7634587031e+000
 6.1504516668e-001	 1.0303977111e+000	-1.7720830473e+000
 6.0451229318e-001	 1.0366122165e+000	-1.7790731466e+000
 5.9393063362e-001	 1.0427110829e+000	-1.7937229937e+000
 5.8330205371e-001	 1.0486938134e+000	-1.8154522575e+000
 5.7262842373e-001	 1.0545599501e+000	-1.8436750593e+000
 5.6191161756e-001	 1.0603090748e+000	-1.8778007284e+000
 5.5115351165e-001	 1.0659408082e+000	-1.9172345600e+000
 6.7033194789e-001	 1.0253195013e+000	-1.4162342408e+000
 6.5979776469e-001	 1.0321297931e+000	-1.5346488880e+000
 6.4920622851e-001	 1.0388244668e+000	-1.6699035636e+000
 6.3855921475e-001	 1.0454028550e+000	-1.8213935355e+000
 6.2785860765e-001	 1.0518643301e+000	-1.9884999029e+000
 6.1710629929e-001	 1.0582083044e+000	-2.0145978737e+000
 6.0630418849e-001	 1.0644342305e+000	-1.9935130852e+000
 5.9545417983e-001	 1.0705416011e+000	-1.9805073385e+000
 5.8455818256e-001	 1.0765299491e+000	-1.9749677776e+000
 5.7361810960e-001	 1.0823988472e+000	-1.9762759308e+000
 5.6263587648e-001	 1.0881479084e+000	-1.9838085135e+000
 6.8401219173e-001	 1.0462443890e+000	-1.5726519340e+000
 6.7326302520e-001	 1.0531936664e+000	-1.6566623395e+000
 6.6245533522e-001	 1.0600249662e+000	-1.7589216678e+000
 6.5159103546e-001	 1.0667376072e+000	-1.8788057734e+000
 6.4067204862e-001	 1.0733309490e+000	-2.0156750912e+000
 6.2970030539e-001	 1.0798043922e+000	-2.1688753974e+000
 6.1867774335e-001	 1.0861573781e+000	-2.2075019442e+000
 6.0760630594e-001	 1.0923893889e+000	-2.1594231323e+000
 5.9648794139e-001	 1.0984999480e+000	-2.1197760795e+000
 5.8532460163e-001	 1.1044886196e+000	-2.0879144930e+000
 5.7411824131e-001	 1.1103550086e+000	-2.0631864839e+000
 4.5929459305e-001	 8.8828400685e-001	-2.2065991454e+000
 4.5029665337e-001	 8.9287900861e-001	-2.4835700555e+000
 4.4126742776e-001	 8.9737565002e-001	-2.7622983344e+000
 4.3220848139e-001	 9.0177371256e-001	-3.0422501050e+000
 4.2312137829e-001	 9.0607300991e-001	-3.3228923867e+000
 4.1400768054e-001	 9.1027338778e-001	-3.6036936860e+000
 4.0486894748e-001	 9.1437472374e-001	-3.8841245793e+000
 3.9570673493e-001	 9.1837692696e-001	-4.1636582883e+000
 3.8652259441e-001	 9.2227993800e-001	-4.4417712442e+000
 3.7731807239e-001	 9.2608372854e-001	-4.7179436427e+000
 3.6809470955e-001	 9.2978830108e-001	-4.9916599869e+000
 4.7077695788e-001	 9.1049110702e-001	-2.0581760621e+000
 4.6155406970e-001	 9.1520098382e-001	-2.2993597823e+000
 4.5229911345e-001	 9.1981004127e-001	-2.5417624458e+000
 4.4301369342e-001	 9.2431805537e-001	-2.7848869898e+000
 4.3369941274e-001	 9.2872483515e-001	-3.0282372997e+000
 4.2435787255e-001	 9.3303022247e-001	-3.2713187687e+000
 4.1499067117e-001	 9.3723409182e-001	-3.5136388498e+000
 4.0559940330e-001	 9.4133635013e-001	-3.7547075994e+000
 3.9618565927e-001	 9.4533693645e-001	-3.9940382126e+000
 3.8675102420e-001	 9.4923582175e-001	-4.2311475480e+000
 3.7729707730e-001	 9.5303300860e-001	-4.4655566414e+000
 4.8225932270e-001	 9.3269820719e-001	-1.9496006658e+000
 4.7281148603e-001	 9.3752295903e-001	-2.1587584382e+000
 4.6333079914e-001	 9.4224443251e-001	-2.3686382164e+000
 4.5381890545e-001	 9.4686239818e-001	-2.5787775903e+000
 4.4427744720e-001	 9.5137666039e-001	-2.7887151361e+000
 4.3470806456e-001	 9.5578705716e-001	-2.9979909457e+000
 4.2511239485e-001	 9.6009345991e-001	-3.2061471508e+000
 4.1549207167e-001	 9.6429577330e-001	-3.4127284378e+000
 4.0584872413e-001	 9.6839393489e-001	-3.6172825549e+000
 3.9618397601e-001	 9.7238791496e-001	-3.8193608099e+000
 3.8649944504e-001	 9.7627771612e-001	-4.0185185572e+000
 4.9374168753e-001	 9.5490530736e-001	-1.8766410791e+000
 4.8406890236e-001	 9.5984493424e-001	-2.0573115584e+000
 4.7436248483e-001	 9.6467882376e-001	-2.2382468189e+000
 4.6462411748e-001	 9.6940674099e-001	-2.4190170495e+000
 4.5485548165e-001	 9.7402848564e-001	-2.5991934483e+000
 4.4505825657e-001	 9.7854389185e-001	-2.7783487257e+000
 4.3523411854e-001	 9.8295282800e-001	-2.9560576010e+000
 4.2538474004e-001	 9.8725519647e-001	-3.1318972922e+000
 4.1551178899e-001	 9.9145093334e-001	-3.3054479967e+000
 4.0561692782e-001	 9.9554000817e-001	-3.4762933639e+000
 3.9570181278e-001	 9.9952242364e-001	-3.6440209580e+000
 5.0522405235e-001	 9.7711240753e-001	-1.8353657359e+000
 4.9532631870e-001	 9.8216690946e-001	-1.9908865209e+000
 4.8539417052e-001	 9.8711321501e-001	-2.1462530005e+000
 4.7542932951e-001	 9.9195108380e-001	-2.3010660041e+000
 4.6543351611e-001	 9.9668031088e-001	-2.4549273795e+000
 4.5540844858e-001	 1.0013007265e+000	-2.6074404707e+000
 4.4535584222e-001	 1.0058121961e+000	-2.7582105904e+000
 4.3527740842e-001	 1.0102146196e+000	-2.9068454851e+000
 4.2517485385e-001	 1.0145079318e+000	-3.0529557926e+000
 4.1504987963e-001	 1.0186921014e+000	-3.1961554918e+000
 4.0490418052e-001	 1.0227671312e+000	-3.3360623423e+000
 5.1670641718e-001	 9.9931950770e-001	-1.8221100135e+000
 5.0658373503e-001	 1.0044888847e+000	-1.9556367870e+000
 4.9642585621e-001	 1.0095476063e+000	-2.0886269076e+000
 4.8623454155e-001	 1.0144954266e+000	-2.2207099738e+000
 4.7601155056e-001	 1.0193321361e+000	-2.3515165972e+000
 4.6575864059e-001	 1.0240575612e+000	-2.4806788570e+000
 4.5547756591e-001	 1.0286715642e+000	-2.6078307503e+000
 4.4517007679e-001	 1.0331740428e+000	-2.7326086353e+000
 4.3483791871e-001	 1.0375649302e+000	-2.8546516674e+000
 4.2448283144e-001	 1.0418441946e+000	-2.9736022276e+000
 4.1410654826e-001	 1.0460118387e+000	-3.0891063415e+000
 5.2818878200e-001	 1.0215266079e+000	-1.8334472174e+000
 5.1784115136e-001	 1.0268108599e+000	-1.9479708047e+000
 5.0745754190e-001	 1.0319819975e+000	-2.0616108905e+000
 4.9703975358e-001	 1.0370397694e+000	-2.1740240486e+000
 4.8658958502e-001	 1.0419839614e+000	-2.2848678456e+000
 4.7610883261e-001	 1.0468143959e+000	-2.3938012752e+000
 4.6559928959e-001	 1.0515309323e+000	-2.5004851876e+000
 4.5506274516e-001	 1.0561334660e+000	-2.6045827129e+000
 4.4450098357e-001	 1.0606219287e+000	-2.7057596779e+000
 4.3391578325e-001	 1.0649962878e+000	-2.8036850147e+000
 4.2330891600e-001	 1.0692565462e+000	-2.8980311620e+000
 5.3967114683e-001	 1.0437337080e+000	-1.8661632693e+000
 5.2909856769e-001	 1.0491328351e+000	-1.9645248826e+000
 5.1848922760e-001	 1.0544163888e+000	-2.0616905454e+000
 5.0784496561e-001	 1.0595841122e+000	-2.1573420826e+000
 4.9716761947e-001	 1.0646357866e+000	-2.2511622775e+000
 4.8645902462e-001	 1.0695712306e+000	-2.3428352867e+000
 4.7572101328e-001	 1.0743903004e+000	-2.4320470517e+000
 4.6495541353e-001	 1.0790928892e+000	-2.5184857042e+000
 4.5416404842e-001	 1.0836789271e+000	-2.6018419648e+000
 4.4334873506e-001	 1.0881483810e+000	-2.6818095350e+000
 4.3251128374e-001	 1.0925012537e+000	-2.7580854817e+000
 5.5115351165e-001	 1.0659408082e+000	-1.9172345600e+000
 5.4035598403e-001	 1.0714548103e+000	-2.0021394545e+000
 5.2952091329e-001	 1.0768507800e+000	-2.0855693763e+000
 5.1865017764e-001	 1.0821284551e+000	-2.1672297402e+000
 5.0774565393e-001	 1.0872876119e+000	-2.2468268701e+000
 4.9680921663e-001	 1.0923280653e+000	-2.3240683972e+000
 4.8584273696e-001	 1.0972496685e+000	-2.3986636549e+000
 4.7484808190e-001	 1.1020523123e+000	-2.4703240681e+000
 4.6382711328e-001	 1.1067359256e+000	-2.5387635359e+000
 4.5278168687e-001	 1.1113004742e+000	-2.6036988091e+000
 4.4171365148e-001	 1.1157459613e+000	-2.6648498588e+000
 5.6263587648e-001	 1.0881479084e+000	-1.9838085135e+000
 5.5161340036e-001	 1.0937767855e+000	-2.0578382503e+000
 5.4055259898e-001	 1.0992851713e+000	-2.1301465596e+000
 5.2945538968e-001	 1.1046727979e+000	-2.2004608414e+000
 5.1832368838e-001	 1.1099394371e+000	-2.2685093410e+000
 5.0715940864e-001	 1.1150849000e+000	-2.3340215320e+000
 4.9596446065e-001	 1.1201090366e+000	-2.3967284965e+000
 4.8474075028e-001	 1.1250117355e+000	-2.4563633000e+000
 4.7349017814e-001	 1.1297929240e+000	-2.5126613611e+000
 4.6221463868e-001	 1.1344525674e+000	-2.5653608144e+000
 4.5091601922e-001	 1.1389906688e+000	-2.6142028670e+000
 5.7411824131e-001	 1.1103550086e+000	-2.0631864839e+000
 5.6287081669e-001	 1.1160987607e+000	-2.1288099663e+000
 5.5158428467e-001	 1.1217195625e+000	-2.1924973766e+000
 5.4026060171e-001	 1.1272171407e+000	-2.2539965466e+000
 5.2890172284e-001	 1.1325912624e+000	-2.3130560743e+000
 5.1750960065e-001	 1.1378417347e+000	-2.3694256941e+000
 5.0608618433e-001	 1.1429684047e+000	-2.4228566441e+000
 4.9463341865e-001	 1.1479711587e+000	-2.4731020287e+000
 4.8315324300e-001	 1.1528499225e+000	-2.5199171761e+000
 4.7164759049e-001	 1.1576046607e+000	-2.5630599897e+000
 4.6011838696e-001	 1.1622353763e+000	-2.6022912934e+000
 3.6809470955e-001	 9.2978830108e-001	-4.9916599869e+000
 3.5885404004e-001	 9.3339368862e-001	-5.2639593571e+000
 3.4959759075e-001	 9.3689995439e-001	-5.5340654801e+000
 3.4032688062e-001	 9.4030719147e-001	-5.8014863138e+000
 3.3104341994e-001	 9.4361552239e-001	-6.0657348389e+000
 3.2174870969e-001	 9.4682509884e-001	-6.3263295468e+000
 3.1244424085e-001	 9.4993610118e-001	-6.5827949140e+000
 3.0313149381e-001	 9.5294873809e-001	-6.8346618618e+000
 2.9381193769e-001	 9.5586324609e-001	-7.0814682000e+000
 2.8448702975e-001	 9.5867988915e-001	-7.3227590558e+000
 2.7515821483e-001	 9.6139895816e-001	-7.5580872853e+000
 3.7729707730e-001	 9.5303300860e-001	-4.4655566414e+000
 3.6782539105e-001	 9.5672853083e-001	-4.6997183960e+000
 3.5833753053e-001	 9.6032245325e-001	-4.9317552682e+000
 3.4883505265e-001	 9.6381487125e-001	-5.1612045251e+000
 3.3931950545e-001	 9.6720591045e-001	-5.3876080611e+000
 3.2979242744e-001	 9.7049572631e-001	-5.6105128696e+000
 3.2025534689e-001	 9.7368450371e-001	-5.8294715011e+000
 3.1070978117e-001	 9.7677245654e-001	-6.0440425077e+000
 3.0115723614e-001	 9.7975982724e-001	-6.2537908731e+000
 2.9159920551e-001	 9.8264688638e-001	-6.4582884268e+000
 2.8203717021e-001	 9.8543393212e-001	-6.6571142435e+000
 3.8649944504e-001	 9.7627771612e-001	-4.0185185572e+000
 3.7679674206e-001	 9.8006337304e-001	-4.2182064395e+000
 3.6707747030e-001	 9.8374495210e-001	-4.4158465366e+000
 3.5734322467e-001	 9.8732255103e-001	-4.6110034787e+000
 3.4759559096e-001	 9.9079629851e-001	-4.8032461398e+000
 3.3783614519e-001	 9.9416635378e-001	-4.9921480943e+000
 3.2806645292e-001	 9.9743290624e-001	-5.1772880610e+000
 3.1828806852e-001	 1.0005961750e+000	-5.3582503343e+000
 3.0850253459e-001	 1.0036564084e+000	-5.5346252009e+000
 2.9871138126e-001	 1.0066138836e+000	-5.7060093427e+000
 2.8891612559e-001	 1.0094689061e+000	-5.8720062243e+000
 3.9570181278e-001	 9.9952242364e-001	-3.6440209580e+000
 3.8576809306e-001	 1.0033982153e+000	-3.8126920582e+000
 3.7581741008e-001	 1.0071674510e+000	-3.9794012417e+000
 3.6585139669e-001	 1.0108302308e+000	-4.1437386420e+000
 3.5587167647e-001	 1.0143866866e+000	-4.3052982631e+000
 3.4587986295e-001	 1.0178369812e+000	-4.4636784235e+000
 3.3587755895e-001	 1.0211813088e+000	-4.6184821871e+000
 3.2586635588e-001	 1.0244198934e+000	-4.7693177832e+000
 3.1584783304e-001	 1.0275529895e+000	-4.9157990114e+000
 3.0582355701e-001	 1.0305808808e+000	-5.0575456347e+000
 2.9579508097e-001	 1.0335038800e+000	-5.1941837565e+000
 4.0490418052e-001	 1.0227671312e+000	-3.3360623423e+000
 3.9473944407e-001	 1.0267330575e+000	-3.4769875004e+000
 3.8455734985e-001	 1.0305899498e+000	-3.6160454419e+000
 3.7435956871e-001	 1.0343379106e+000	-3.7528500202e+000
 3.6414776197e-001	 1.0379770746e+000	-3.8870185956e+000
 3.5392358070e-001	 1.0415076087e+000	-4.0181724678e+000
 3.4368866498e-001	 1.0449297113e+000	-4.1459372968e+000
 3.3344464323e-001	 1.0482436119e+000	-4.2699435115e+000
 3.2319313149e-001	 1.0514495707e+000	-4.3898267061e+000
 3.1293573276e-001	 1.0545478781e+000	-4.5052280234e+000
 3.0267403634e-001	 1.0575388540e+000	-4.6157945242e+000
 4.1410654826e-001	 1.0460118387e+000	-3.0891063415e+000
 4.0371079507e-001	 1.0500678997e+000	-3.2053882839e+000
 3.9329728963e-001	 1.0540124487e+000	-3.3199066202e+000
 3.8286774073e-001	 1.0578455904e+000	-3.4322972082e+000
 3.7242384748e-001	 1.0615674627e+000	-3.5421990584e+000
 3.6196729844e-001	 1.0651782362e+000	-3.6492547560e+000
 3.5149977101e-001	 1.0686781138e+000	-3.7531108729e+000
 3.4102293058e-001	 1.0720673303e+000	-3.8534183677e+000
 3.3053842994e-001	 1.0753461519e+000	-3.9498329740e+000
 3.2004790851e-001	 1.0785148753e+000	-4.0420155763e+000
 3.0955299172e-001	 1.0815738279e+000	-4.1296325724e+000
 4.2330891600e-001	 1.0692565462e+000	-2.8980311620e+000
 4.1268214607e-001	 1.0734027419e+000	-2.9926206667e+000
 4.0203722940e-001	 1.0774349475e+000	-3.0855591809e+000
 3.9137591275e-001	 1.0813532702e+000	-3.1765029131e+000
 3.8069993298e-001	 1.0851578507e+000	-3.2651108777e+000
 3.7001101619e-001	 1.0888488637e+000	-3.3510453090e+000
 3.5931087703e-001	 1.0924265164e+000	-3.4339720655e+000
 3.4860121793e-001	 1.0958910488e+000	-3.5135610229e+000
 3.3788372839e-001	 1.0992427330e+000	-3.5894864561e+000
 3.2716008426e-001	 1.1024818725e+000	-3.6614274085e+000
 3.1643194709e-001	 1.1056088019e+000	-3.7290680498e+000
 4.3251128374e-001	 1.0925012537e+000	-2.7580854817e+000
 4.2165349708e-001	 1.0967375841e+000	-2.8337958233e+000
 4.1077716917e-001	 1.1008574464e+000	-2.9079769053e+000
 3.9988408477e-001	 1.1048609500e+000	-2.9803036871e+000
 3.8897601848e-001	 1.1087482388e+000	-3.0504535948e+000
 3.7805473393e-001	 1.1125194911e+000	-3.1181069281e+000
 3.6712198306e-001	 1.1161749189e+000	-3.1829472592e+000
 3.5617950528e-001	 1.1197147673e+000	-3.2446618197e+000
 3.4522902683e-001	 1.1231393142e+000	-3.3029418779e+000
 3.3427226000e-001	 1.1264488698e+000	-3.3574831036e+000
 3.2331090246e-001	 1.1296437758e+000	-3.4079859216e+000
 4.4171365148e-001	 1.1157459613e+000	-2.6648498588e+000
 4.3062484808e-001	 1.1200724263e+000	-2.7243697495e+000
 4.1951710894e-001	 1.1242799453e+000	-2.7824913495e+000
 4.0839225679e-001	 1.1283686297e+000	-2.8389068186e+000
 3.9725210398e-001	 1.1323386269e+000	-2.8933104497e+000
 3.8609845168e-001	 1.1361901186e+000	-2.9453990720e+000
 3.7493308908e-001	 1.1399233214e+000	-2.9948724445e+000
 3.6375779263e-001	 1.1435384857e+000	-3.0414336396e+000
 3.5257432527e-001	 1.1470358953e+000	-3.0847894160e+000
 3.4138443575e-001	 1.1504158670e+000	-3.1246505814e+000
 3.3018985783e-001	 1.1536787498e+000	-3.1607323424e+000
 4.5091601922e-001	 1.1389906688e+000	-2.6142028670e+000
 4.3959619908e-001	 1.1434072685e+000	-2.6601080763e+000
 4.2825704871e-001	 1.1477024441e+000	-2.7047553373e+000
 4.1690042880e-001	 1.1518763095e+000	-2.7478525019e+000
 4.0552818948e-001	 1.1559290149e+000	-2.7891092285e+000
 3.9414216942e-001	 1.1598607461e+000	-2.8282373814e+000
 3.8274419510e-001	 1.1636717239e+000	-2.8649514214e+000
 3.7133607997e-001	 1.1673622042e+000	-2.8989687866e+000
 3.5991962372e-001	 1.1709324765e+000	-2.9300102640e+000
 3.4849661149e-001	 1.1743828642e+000	-2.9578003494e+000
 3.3706881320e-001	 1.1777137238e+000	-2.9820675966e+000
 4.6011838696e-001	 1.1622353763e+000	-2.6022912934e+000
 4.4856755008e-001	 1.1667421108e+000	-2.6370551068e+000
 4.3699698847e-001	 1.1711249430e+000	-2.6707108328e+000
 4.2540860082e-001	 1.1753839893e+000	-2.7029805467e+000
 4.1380427497e-001	 1.1795194030e+000	-2.7335878086e+000
 4.0218588716e-001	 1.1835313736e+000	-2.7622580610e+000
 3.9055530112e-001	 1.1874201265e+000	-2.7887190181e+000
 3.7891436731e-001	 1.1911859226e+000	-2.8127010456e+000
 3.6726492216e-001	 1.1948290576e+000	-2.8339375310e+000
 3.5560878723e-001	 1.1983498614e+000	-2.8521652438e+000
 3.4394776857e-001	 1.2017486977e+000	-2.8671246848e+000
 2.7515821483e-001	 9.6139895816e-001	-7.5580872853e+000
 2.6582692472e-001	 9.6402077054e-001	-7.7881408844e+000
 2.5649457767e-001	 9.6654566967e-001	-8.0122342549e+000
 2.4716257779e-001	 9.6897402446e-001	-8.2299986978e+000
 2.3783231458e-001	 9.7130622879e-001	-8.4410730287e+000
 2.2850516241e-001	 9.7354270101e-001	-8.6451038812e+000
 2.1918248004e-001	 9.7568388343e-001	-8.8417459949e+000
 2.0986561017e-001	 9.7773024174e-001	-9.0306624876e+000
 2.0055587900e-001	 9.7968226449e-001	-9.2115251113e+000
 1.9125459577e-001	 9.8154046252e-001	-9.3840144918e+000
 1.8196305243e-001	 9.8330536841e-001	-9.5478203528e+000
 2.8203717021e-001	 9.8543393212e-001	-6.6571142435e+000
 2.7247259785e-001	 9.8812128980e-001	-6.8561145358e+000
 2.6290694212e-001	 9.9070931141e-001	-7.0493954947e+000
 2.5334164224e-001	 9.9319837507e-001	-7.2366084187e+000
 2.4377812245e-001	 9.9558888451e-001	-7.4174117341e+000
 2.3421779148e-001	 9.9788126854e-001	-7.5914712909e+000
 2.2466204205e-001	 1.0000759805e+000	-7.7584606444e+000
 2.1511225043e-001	 1.0021734978e+000	-7.9180613208e+000
 2.0556977597e-001	 1.0041743211e+000	-8.0699630675e+000
 1.9603596067e-001	 1.0060789741e+000	-8.2138640876e+000
 1.8651212874e-001	 1.0078880026e+000	-8.3494712590e+000
 2.8891612559e-001	 1.0094689061e+000	-5.8720062243e+000
 2.7911827098e-001	 1.0122218091e+000	-6.0430890509e+000
 2.6931930657e-001	 1.0148729532e+000	-6.2086889216e+000
 2.5952070669e-001	 1.0174227257e+000	-6.3684755602e+000
 2.4972393032e-001	 1.0198715402e+000	-6.5221254532e+000
 2.3993042054e-001	 1.0222198361e+000	-6.6693221398e+000
 2.3014160405e-001	 1.0244680776e+000	-6.8097564878e+000
 2.2035889069e-001	 1.0266167538e+000	-6.9431269542e+000
 2.1058367295e-001	 1.0286663777e+000	-7.0691398304e+000
 2.0081732556e-001	 1.0306174856e+000	-7.1875094730e+000
 1.9106120505e-001	 1.0324706368e+000	-7.2979585185e+000
 2.9579508097e-001	 1.0335038800e+000	-5.1941837565e+000
 2.8576394410e-001	 1.0363223283e+000	-5.3403193630e+000
 2.7573167102e-001	 1.0390365949e+000	-5.4812043369e+000
 2.6569977114e-001	 1.0416470763e+000	-5.6165253157e+000
 2.5566973819e-001	 1.0441541959e+000	-5.7459753554e+000
 2.4564304960e-001	 1.0465584036e+000	-5.8692542160e+000
 2.3562116605e-001	 1.0488601747e+000	-5.9860686322e+000
 2.2560553094e-001	 1.0510600099e+000	-6.0961325704e+000
 2.1559756992e-001	 1.0531584343e+000	-6.1991674702e+000
 2.0559869045e-001	 1.0551559972e+000	-6.2949024718e+000
 1.9561028136e-001	 1.0570532710e+000	-6.3830746276e+000
 3.0267403634e-001	 1.0575388540e+000	-4.6157945242e+000
 2.9240961722e-001	 1.0604228476e+000	-4.7398044102e+000
 2.8214403546e-001	 1.0632002366e+000	-4.8587923635e+000
 2.7187883559e-001	 1.0658714269e+000	-4.9724604778e+000
 2.6161554606e-001	 1.0684368517e+000	-5.0805169412e+000
 2.5135567866e-001	 1.0708969711e+000	-5.1826763174e+000
 2.4110072806e-001	 1.0732522718e+000	-5.2786598136e+000
 2.3085217120e-001	 1.0755032659e+000	-5.3681955342e+000
 2.2061146690e-001	 1.0776504909e+000	-5.4510187200e+000
 2.1038005535e-001	 1.0796945088e+000	-5.5268719726e+000
 2.0015935767e-001	 1.0816359052e+000	-5.5955054650e+000
 3.0955299172e-001	 1.0815738279e+000	-4.1296325724e+000
 2.9905529035e-001	 1.0845233669e+000	-4.2342044683e+000
 2.8855639991e-001	 1.0873638784e+000	-4.3339799104e+000
 2.7805790004e-001	 1.0900957775e+000	-4.4286750391e+000
 2.6756135392e-001	 1.0927195074e+000	-4.5180117832e+000
 2.5706830773e-001	 1.0952355386e+000	-4.6017181395e+000
 2.4658029006e-001	 1.0976443689e+000	-4.6795284383e+000
 2.3609881145e-001	 1.0999465220e+000	-4.7511835946e+000
 2.2562536387e-001	 1.1021425476e+000	-4.8164313464e+000
 2.1516142024e-001	 1.1042330203e+000	-4.8750264775e+000
 2.0470843398e-001	 1.1062185395e+000	-4.9267310267e+000
 3.1643194709e-001	 1.1056088019e+000	-3.7290680498e+000
 3.0570096347e-001	 1.1086238861e+000	-3.8167692661e+000
 2.9496876435e-001	 1.1115275201e+000	-3.8998966635e+000
 2.8423696448e-001	 1.1143201281e+000	-3.9781790610e+000
 2.7350716179e-001	 1.1170021631e+000	-4.0513507789e+000
 2.6278093679e-001	 1.1195741062e+000	-4.1191519168e+000
 2.5205985206e-001	 1.1220364660e+000	-4.1813286183e+000
 2.4134545170e-001	 1.1243897780e+000	-4.2376333209e+000
 2.3063926085e-001	 1.1266346042e+000	-4.2878249941e+000
 2.1994278513e-001	 1.1287715319e+000	-4.3316693613e+000
 2.0925751029e-001	 1.1308011737e+000	-4.3689391093e+000
 3.2331090246e-001	 1.1296437758e+000	-3.4079859216e+000
 3.1234663659e-001	 1.1327244054e+000	-3.4812752778e+000
 3.0138112879e-001	 1.1356911619e+000	-3.5502109600e+000
 2.9041602893e-001	 1.1385444787e+000	-3.6145331349e+000
 2.7945296965e-001	 1.1412848188e+000	-3.6739872014e+000
 2.6849356585e-001	 1.1439126737e+000	-3.7283240678e+000
 2.5753941406e-001	 1.1464285630e+000	-3.7773004158e+000
 2.4659209196e-001	 1.1488330341e+000	-3.8206789521e+000
 2.3565315782e-001	 1.1511266608e+000	-3.8582286452e+000
 2.2472415003e-001	 1.1533100435e+000	-3.8897249488e+000
 2.1380658660e-001	 1.1553838079e+000	-3.9149500119e+000
 3.3018985783e-001	 1.1536787498e+000	-3.1607323424e+000
 3.1899230970e-001	 1.1568249247e+000	-3.2219708537e+000
 3.0779349323e-001	 1.1598548036e+000	-3.2790736790e+000
 2.9659509337e-001	 1.1627688294e+000	-3.3317910352e+000
 2.8539877752e-001	 1.1655674746e+000	-3.3798781188e+000
 2.7420619490e-001	 1.1682512412e+000	-3.4230953838e+000
 2.6301897606e-001	 1.1708206601e+000	-3.4612088068e+000
 2.5183873221e-001	 1.1732762901e+000	-3.4939901394e+000
 2.4066705479e-001	 1.1756187174e+000	-3.5212171468e+000
 2.2950551492e-001	 1.1778485550e+000	-3.5426738327e+000
 2.1835566291e-001	 1.1799664421e+000	-3.5581506505e+000
 3.3706881320e-001	 1.1777137238e+000	-2.9820675966e+000
 3.2563798282e-001	 1.1809254439e+000	-3.0335280696e+000
 3.1420585767e-001	 1.1840184454e+000	-3.0810690028e+000
 3.0277415782e-001	 1.1869931800e+000	-3.1244493945e+000
 2.9134458538e-001	 1.1898501303e+000	-3.1634329862e+000
 2.7991882396e-001	 1.1925898088e+000	-3.1977885423e+000
 2.6849853806e-001	 1.1952127572e+000	-3.2272901177e+000
 2.5708537246e-001	 1.1977195461e+000	-3.2517173121e+000
 2.4568095177e-001	 1.2001107740e+000	-3.2708555105e+000
 2.3428687981e-001	 1.2023870666e+000	-3.2844961114e+000
 2.2290473922e-001	 1.2045490763e+000	-3.2924367397e+000
 3.4394776857e-001	 1.2017486977e+000	-2.8671246848e+000
 3.3228365593e-001	 1.2050259632e+000	-2.9110003540e+000
 3.2061822211e-001	 1.2081820871e+000	-2.9511710863e+000
 3.0895322226e-001	 1.2112175306e+000	-2.9874034178e+000
 2.9729039324e-001	 1.2141327860e+000	-3.0194684071e+000
 2.8563145302e-001	 1.2169283763e+000	-3.0471419183e+000
 2.7397810005e-001	 1.2196048543e+000	-3.0702048914e+000
 2.6233201271e-001	 1.2221628022e+000	-3.0884436001e+000
 2.5069484874e-001	 1.2246028306e+000	-3.1016498959e+000
 2.3906824470e-001	 1.2269255782e+000	-3.1096214386e+000
 2.2745381553e-001	 1.2291317105e+000	-3.1121619133e+000
 1.8196305243e-001	 9.8330536841e-001	-9.5478203528e+000
 1.7268252319e-001	 9.8497753588e-001	-9.7080303562e+000
 1.6341426419e-001	 9.8655753926e-001	-9.8594969622e+000
 1.5415951315e-001	 9.8804597288e-001	-1.0002057895e+001
 1.4491948905e-001	 9.8944345050e-001	-1.0135557989e+001
 1.3569539180e-001	 9.9075060469e-001	-1.0259849277e+001
 1.2648840201e-001	 9.9196808628e-001	-1.0374791058e+001
 1.1729968064e-001	 9.9309656377e-001	-1.0480249963e+001
 1.0813036885e-001	 9.9413672268e-001	-1.0576100001e+001
 9.8981587693e-002	 9.9508926501e-001	-1.0662222604e+001
 8.9854437932e-002	 9.9595490863e-001	-1.0738506651e+001
 1.8651212874e-001	 1.0078880026e+000	-8.3494712590e+000
 1.7699958627e-001	 1.0096019743e+000	-8.4928131137e+000
 1.6749962079e-001	 1.0112214777e+000	-8.6278043985e+000
 1.5801350098e-001	 1.0127471222e+000	-8.7542788970e+000
 1.4854247627e-001	 1.0141795368e+000	-8.8720774243e+000
 1.3908777659e-001	 1.0155193698e+000	-8.9810479196e+000
 1.2965061205e-001	 1.0167672884e+000	-9.0810455277e+000
 1.2023217266e-001	 1.0179239779e+000	-9.1719326683e+000
 1.1083362807e-001	 1.0189901407e+000	-9.2535790949e+000
 1.0145612738e-001	 1.0199664966e+000	-9.3258619413e+000
 9.2100798875e-002	 1.0208537813e+000	-9.3886657584e+000
 1.9106120505e-001	 1.0324706368e+000	-7.2979585185e+000
 1.8131664935e-001	 1.0342264127e+000	-7.4255243517e+000
 1.7158497739e-001	 1.0358854162e+000	-7.5451186817e+000
 1.6186748880e-001	 1.0374482715e+000	-7.6565707871e+000
 1.5216546349e-001	 1.0389156230e+000	-7.7597169152e+000
 1.4248016138e-001	 1.0402881349e+000	-7.8544003845e+000
 1.3281282210e-001	 1.0415664906e+000	-7.9404716741e+000
 1.2316466467e-001	 1.0427513919e+000	-8.0177885018e+000
 1.1353688729e-001	 1.0438435588e+000	-8.0862158915e+000
 1.0393066707e-001	 1.0448437283e+000	-8.1456262272e+000
 9.4347159819e-002	 1.0457526541e+000	-8.1958992974e+000
 1.9561028136e-001	 1.0570532710e+000	-6.3830746276e+000
 1.8563371242e-001	 1.0588508511e+000	-6.4959329064e+000
 1.7567033400e-001	 1.0605493547e+000	-6.6011856351e+000
 1.6572147663e-001	 1.0621494208e+000	-6.6986570199e+000
 1.5578845071e-001	 1.0636517093e+000	-6.7881781910e+000
 1.4587254618e-001	 1.0650569000e+000	-6.8695873138e+000
 1.3597503214e-001	 1.0663656927e+000	-6.9427296885e+000
 1.2609715668e-001	 1.0675788060e+000	-7.0074578362e+000
 1.1624014650e-001	 1.0686969769e+000	-7.0636315748e+000
 1.0640520676e-001	 1.0697209599e+000	-7.1111180813e+000
 9.6593520764e-002	 1.0706515268e+000	-7.1497919442e+000
 2.0015935767e-001	 1.0816359052e+000	-5.5955054650e+000
 1.8995077550e-001	 1.0834752895e+000	-5.6947049775e+000
 1.7975569060e-001	 1.0852132932e+000	-5.7866523641e+000
 1.6957546445e-001	 1.0868505702e+000	-5.8711661877e+000
 1.5941143794e-001	 1.0883877955e+000	-5.9480719078e+000
 1.4926493097e-001	 1.0898256651e+000	-6.0172020016e+000
 1.3913724219e-001	 1.0911648949e+000	-6.0783960723e+000
 1.2902964869e-001	 1.0924062201e+000	-6.1315009451e+000
 1.1894340572e-001	 1.0935503949e+000	-6.1763707512e+000
 1.0887974645e-001	 1.0945981915e+000	-6.2128669991e+000
 9.8839881709e-002	 1.0955503995e+000	-6.2408586343e+000
 2.0470843398e-001	 1.1062185395e+000	-4.9267310267e+000
 1.9426783858e-001	 1.1080997279e+000	-5.0133044213e+000
 1.8384104720e-001	 1.1098772317e+000	-5.0929671138e+000
 1.7342945228e-001	 1.1115517195e+000	-5.1655314490e+000
 1.6303442516e-001	 1.1131238818e+000	-5.2308166577e+000
 1.5265731576e-001	 1.1145944303e+000	-5.2886489882e+000
 1.4229945224e-001	 1.1159640970e+000	-5.3388618244e+000
 1.3196214071e-001	 1.1172336342e+000	-5.3812957912e+000
 1.2164666494e-001	 1.1184038130e+000	-5.4157988476e+000
 1.1135428614e-001	 1.1194754231e+000	-5.4422263662e+000
 1.0108624265e-001	 1.1204492722e+000	-5.4604412011e+000
 2.0925751029e-001	 1.1308011737e+000	-4.3689391093e+000
 1.9858490166e-001	 1.1327241663e+000	-4.4439060487e+000
 1.8792640381e-001	 1.1345411701e+000	-4.5122921889e+000
 1.7728344011e-001	 1.1362528688e+000	-4.5739030758e+000
 1.6665741239e-001	 1.1378599681e+000	-4.6285511486e+000
 1.5604970055e-001	 1.1393631954e+000	-4.6760558808e+000
 1.4546166229e-001	 1.1407632992e+000	-4.7162439089e+000
 1.3489463272e-001	 1.1420610483e+000	-4.7489491475e+000
 1.2434992416e-001	 1.1432572311e+000	-4.7740128915e+000
 1.1382882583e-001	 1.1443526547e+000	-4.7912839045e+000
 1.0333260360e-001	 1.1453481449e+000	-4.8006184956e+000
 2.1380658660e-001	 1.1553838079e+000	-3.9149500119e+000
 2.0290196474e-001	 1.1573486046e+000	-3.9793199921e+000
 1.9201176041e-001	 1.1592051086e+000	-4.0374279894e+000
 1.8113742794e-001	 1.1609540181e+000	-4.0890721651e+000
 1.7028039961e-001	 1.1625960543e+000	-4.1340575971e+000
 1.5944208535e-001	 1.1641319605e+000	-4.1721964321e+000
 1.4862387233e-001	 1.1655625014e+000	-4.2033080250e+000
 1.3782712473e-001	 1.1668884624e+000	-4.2272190637e+000
 1.2705318338e-001	 1.1681106491e+000	-4.2437636810e+000
 1.1630336552e-001	 1.1692298864e+000	-4.2527835522e+000
 1.0557896455e-001	 1.1702470176e+000	-4.2541279803e+000
 2.1835566291e-001	 1.1799664421e+000	-3.5581506505e+000
 2.0721902781e-001	 1.1819730430e+000	-3.6129255257e+000
 1.9609711701e-001	 1.1838690471e+000	-3.6617465429e+000
 1.8499141576e-001	 1.1856551674e+000	-3.7044038860e+000
 1.7390338684e-001	 1.1873321406e+000	-3.7406946956e+000
 1.6283447014e-001	 1.1889007256e+000	-3.7704232330e+000
 1.5178608238e-001	 1.1903617035e+000	-3.7934010302e+000
 1.4075961675e-001	 1.1917158765e+000	-3.8094470254e+000
 1.2975644260e-001	 1.1929640672e+000	-3.8183876842e+000
 1.1877790521e-001	 1.1941071180e+000	-3.8200571072e+000
 1.0782532549e-001	 1.1951458903e+000	-3.8142971239e+000
 2.2290473922e-001	 1.2045490763e+000	-3.2924367397e+000
 2.1153609089e-001	 1.2065974814e+000	-3.3386129899e+000
 2.0018247362e-001	 1.2085329856e+000	-3.3791331749e+000
 1.8884540359e-001	 1.2103563168e+000	-3.4137789011e+000
 1.7752637406e-001	 1.2120682268e+000	-3.4423387887e+000
 1.6622685494e-001	 1.2136694907e+000	-3.4646086477e+000
 1.5494829243e-001	 1.2151609057e+000	-3.4803916386e+000
 1.4369210877e-001	 1.2165432906e+000	-3.4894984194e+000
 1.3245970182e-001	 1.2178174853e+000	-3.4917472763e+000
 1.2125244490e-001	 1.2189843496e+000	-3.4869642417e+000
 1.1007168644e-001	 1.2200447631e+000	-3.4749831964e+000
 2.2745381553e-001	 1.2291317105e+000	-3.1121619133e+000
 2.1585315397e-001	 1.2312219198e+000	-3.1507326848e+000
 2.0426783022e-001	 1.2331969241e+000	-3.1839351790e+000
 1.9269939142e-001	 1.2350574661e+000	-3.2115418170e+000
 1.8114936129e-001	 1.2368043131e+000	-3.2333321078e+000
 1.6961923973e-001	 1.2384382558e+000	-3.2490928361e+000
 1.5811050249e-001	 1.2399601078e+000	-3.2586182351e+000
 1.4662460078e-001	 1.2413707047e+000	-3.2617101438e+000
 1.3516296104e-001	 1.2426709033e+000	-3.2581781496e+000
 1.2372698459e-001	 1.2438615812e+000	-3.2478397148e+000
 1.1231804739e-001	 1.2449436358e+000	-3.2305202891e+000
 8.9854437932e-002	 9.9595490863e-001	-1.0738506651e+001
 8.0749999857e-002	 9.9673438666e-001	-1.0804963114e+001
 7.1669333105e-002	 9.9742844692e-001	-1.0862808668e+001
 6.2613476500e-002	 9.9803785128e-001	-1.0912104113e+001
 5.3583447921e-002	 9.9856337512e-001	-1.0952913438e+001
 4.4580244178e-002	 9.9900580671e-001	-1.0985303757e+001
 3.5604840910e-002	 9.9936594664e-001	-1.1009345251e+001
 2.6658192499e-002	 9.9964460724e-001	-1.1025111094e+001
 1.7741231999e-002	 9.9984261196e-001	-1.1032677380e+001
 8.8548710816e-003	 9.9996079486e-001	-1.1032123056e+001
 0.0000000000e+000	 1.0000000000e+000	-1.1023529838e+001
 9.2100798875e-002	 1.0208537813e+000	-9.3886657584e+000
 8.2768749849e-002	 1.0216527463e+000	-9.4572927266e+000
 7.3461066429e-002	 1.0223641581e+000	-9.5173564602e+000
 6.4178813409e-002	 1.0229887976e+000	-9.5688923856e+000
 5.4923034116e-002	 1.0235274595e+000	-9.6119397473e+000
 4.5694750280e-002	 1.0239809519e+000	-9.6465415567e+000
 3.6494961931e-002	 1.0243500953e+000	-9.6727445357e+000
 2.7324647310e-002	 1.0246357224e+000	-9.6905990570e+000
 1.8184762798e-002	 1.0248386773e+000	-9.7001590795e+000
 9.0762428582e-003	 1.0249598147e+000	-9.7014820802e+000
 0.0000000000e+000	 1.0250000000e+000	-9.6946289825e+000
 9.4347159819e-002	 1.0457526541e+000	-8.1958992974e+000
 8.4787499842e-002	 1.0465711060e+000	-8.2651351872e+000
 7.5252799753e-002	 1.0472998693e+000	-8.3258569947e+000
 6.5744150319e-002	 1.0479397438e+000	-8.3780751578e+000
 5.6262620311e-002	 1.0484915439e+000	-8.4218045576e+000
 4.6809256382e-002	 1.0489560970e+000	-8.4570644771e+000
 3.7385082952e-002	 1.0493342440e+000	-8.4838785547e+000
 2.7991102121e-002	 1.0496268376e+000	-8.5022747318e+000
 1.8628293597e-002	 1.0498347426e+000	-8.5122851957e+000
 9.2976146348e-003	 1.0499588346e+000	-8.5139463175e+000
 0.0000000000e+000	 1.0500000000e+000	-8.5072985848e+000
 9.6593520764e-002	 1.0706515268e+000	-7.1497919442e+000
 8.6806249835e-002	 1.0714894657e+000	-7.2182317665e+000
 7.7044533077e-002	 1.0722355804e+000	-7.2782073509e+000
 6.7309487228e-002	 1.0728906901e+000	-7.3297044729e+000
 5.7602206507e-002	 1.0734556282e+000	-7.3727139742e+000
 4.7923762484e-002	 1.0739312422e+000	-7.4072317318e+000
 3.8275203973e-002	 1.0743183926e+000	-7.4332586203e+000
 2.8657556932e-002	 1.0746179528e+000	-7.4508004679e+000
 1.9071824396e-002	 1.0748308079e+000	-7.4598680060e+000
 9.5189864113e-003	 1.0749578545e+000	-7.4604768130e+000
 0.0000000000e+000	 1.0750000000e+000	-7.4526472520e+000
 9.8839881709e-002	 1.0955503995e+000	-6.2408586343e+000
 8.8824999828e-002	 1.0964078253e+000	-6.3072414978e+000
 7.8836266402e-002	 1.0971712916e+000	-6.3652099291e+000
 6.8874824138e-002	 1.0978416364e+000	-6.4147253142e+000
 5.8941792703e-002	 1.0984197126e+000	-6.4557547275e+000
 4.9038268587e-002	 1.0989063874e+000	-6.4882709112e+000
 3.9165324994e-002	 1.0993025413e+000	-6.5122522472e+000
 2.9324011743e-002	 1.0996090680e+000	-6.5276827203e+000
 1.9515355195e-002	 1.0998268732e+000	-6.5345518753e+000
 9.7403581879e-003	 1.0999568743e+000	-6.5328547664e+000
 0.0000000000e+000	 1.1000000000e+000	-6.5225918994e+000
 1.0108624265e-001	 1.1204492722e+000	-5.4604412011e+000
 9.0843749822e-002	 1.1213261850e+000	-5.5236392031e+000
 8.0627999727e-002	 1.1221070028e+000	-5.5784718596e+000
 7.0440161048e-002	 1.1227925827e+000	-5.6248763899e+000
 6.0281378898e-002	 1.1233837970e+000	-5.6627963249e+000
 5.0152774689e-002	 1.1238815325e+000	-5.6921814967e+000
 4.0055446015e-002	 1.1242866900e+000	-5.7129880192e+000
 2.9990466555e-002	 1.1246001831e+000	-5.7251782597e+000
 1.9958885994e-002	 1.1248229385e+000	-5.7287208024e+000
 9.9617299645e-003	 1.1249558942e+000	-5.7235904035e+000
 0.0000000000e+000	 1.1250000000e+000	-5.7097679386e+000
 1.0333260360e-001	 1.1453481449e+000	-4.8006184956e+000
 9.2862499816e-002	 1.1462445446e+000	-4.8596268209e+000
 8.2419733053e-002	 1.1470427139e+000	-4.9103175320e+000
 7.2005497959e-002	 1.1477435290e+000	-4.9526038585e+000
 6.1620965094e-002	 1.1483478814e+000	-4.9864059668e+000
 5.1267280792e-002	 1.1488566777e+000	-5.0116509593e+000
 4.0945567036e-002	 1.1492708386e+000	-5.0282728645e+000
 3.0656921366e-002	 1.1495912983e+000	-5.0362126163e+000
 2.0402416793e-002	 1.1498190038e+000	-5.0354180241e+000
 1.0183101741e-002	 1.1499549141e+000	-5.0258437340e+000
 0.0000000000e+000	 1.1500000000e+000	-5.0074511805e+000
 1.0557896455e-001	 1.1702470176e+000	-4.2541279803e+000
 9.4881249811e-002	 1.1711629043e+000	-4.3080560527e+000
 8.4211466378e-002	 1.1719784251e+000	-4.3537122908e+000
 7.3570834869e-002	 1.1726944752e+000	-4.3909860683e+000
 6.2960551291e-002	 1.1733119658e+000	-4.4197743237e+000
 5.2381786895e-002	 1.1738318229e+000	-4.4399815695e+000
 4.1835688057e-002	 1.1742549873e+000	-4.4515198914e+000
 3.1323376177e-002	 1.1745824135e+000	-4.4543089353e+000
 2.0845947592e-002	 1.1748150691e+000	-4.4482758844e+000
 1.0404473518e-002	 1.1749539340e+000	-4.4333554259e+000
 0.0000000000e+000	 1.1750000000e+000	-4.4094897071e+000
 1.0782532549e-001	 1.1951458903e+000	-3.8142971239e+000
 9.6899999806e-002	 1.1960812640e+000	-3.8623606799e+000
 8.6003199704e-002	 1.1969141363e+000	-3.9021956695e+000
 7.5136171780e-002	 1.1976454215e+000	-3.9336677042e+000
 6.4300137487e-002	 1.1982760501e+000	-3.9566505915e+000
 5.3496292997e-002	 1.1988069680e+000	-3.9710263555e+000
 4.2725809079e-002	 1.1992391360e+000	-3.9766852443e+000
 3.1989830989e-002	 1.1995735287e+000	-3.9735257253e+000
 2.1289478391e-002	 1.1998111344e+000	-3.9614544687e+000
 1.0625845294e-002	 1.1999529538e+000	-3.9403863200e+000
 0.0000000000e+000	 1.2000000000e+000	-3.9102442605e+000
 1.1007168644e-001	 1.2200447631e+000	-3.4749831964e+000
 9.8918749801e-002	 1.2209996236e+000	-3.5164971674e+000
 8.7794933031e-002	 1.2218498475e+000	-3.5498228000e+000
 7.6701508691e-002	 1.2225963678e+000	-3.5748019982e+000
 6.5639723683e-002	 1.2232401345e+000	-3.5912854991e+000
 5.4610799100e-002	 1.2237821132e+000	-3.5991329035e+000
 4.3615930100e-002	 1.2242232846e+000	-3.5982126922e+000
 3.2656285800e-002	 1.2245646439e+000	-3.5884022293e+000
 2.1733009191e-002	 1.2248071996e+000	-3.5695877526e+000
 1.0847217071e-002	 1.2249519737e+000	-3.5416643510e+000
 0.0000000000e+000	 1.2250000000e+000	-3.5045359302e+000
 1.1231804739e-001	 1.2449436358e+000	-3.2305202891e+000
 1.0093749980e-001	 1.2459179833e+000	-3.2648923959e+000
 8.9586666357e-002	 1.2467855586e+000	-3.2911128525e+000
 7.8266845602e-002	 1.2475473141e+000	-3.3089998748e+000
 6.6979309880e-002	 1.2482042189e+000	-3.3183811550e+000
 5.5725305204e-002	 1.2487572584e+000	-3.3190939017e+000
 4.4506051122e-002	 1.2492074333e+000	-3.3109848658e+000
 3.3322740611e-002	 1.2495557590e+000	-3.2939103515e+000
 2.2176539990e-002	 1.2498032649e+000	-3.2677362130e+000
 1.1068588847e-002	 1.2499509936e+000	-3.2323378383e+000
 0.0000000000e+000	 1.2500000000e+000	-3.1876001186e+000
 1.2500000000e+000	 0.0000000000e+000	 4.0329529157e+000
 1.2499509936e+000	 1.1068588847e-002	 4.0494010358e+000
 1.2498032649e+000	 2.2176539990e-002	 4.0615989528e+000
 1.2495557590e+000	 3.3322740611e-002	 4.0694874003e+000
 1.2492074333e+000	 4.4506051122e-002	 4.0730050635e+000
 1.2487572584e+000	 5.5725305204e-002	 4.0720885574e+000
 1.2482042189e+000	 6.6979309880e-002	 4.0666724102e+000
 1.2475473141e+000	 7.8266845602e-002	 4.0566890521e+000
 1.2467855586e+000	 8.9586666357e-002	 4.0420688095e+000
 1.2459179833e+000	 1.0093749980e-001	 4.0227399057e+000
 1.2449436358e+000	 1.1231804739e-001	 3.9986284678e+000
 1.2750000000e+000	 0.0000000000e+000	 3.9370849183e+000
 1.2749500134e+000	 1.1289960624e-002	 3.9538253376e+000
 1.2747993302e+000	 2.2620070789e-002	 3.9656677141e+000
 1.2745468742e+000	 3.3989195423e-002	 3.9725914495e+000
 1.2741915820e+000	 4.5396172143e-002	 3.9745777345e+000
 1.2737324036e+000	 5.6839811307e-002	 3.9716095649e+000
 1.2731683033e+000	 6.8318896077e-002	 3.9636717580e+000
 1.2724982604e+000	 7.9832182514e-002	 3.9507509672e+000
 1.2717212698e+000	 9.1378399684e-002	 3.9328356957e+000
 1.2708363430e+000	 1.0295624979e-001	 3.9099163093e+000
 1.2698425085e+000	 1.1456440834e-001	 3.8819850479e+000
 1.3000000000e+000	 0.0000000000e+000	 3.8702004432e+000
 1.2999490333e+000	 1.1511332401e-002	 3.8867009954e+000
 1.2997953955e+000	 2.3063601588e-002	 3.8981318705e+000
 1.2995379894e+000	 3.4655650234e-002	 3.9044674858e+000
 1.2991757306e+000	 4.6286293165e-002	 3.9056840956e+000
 1.2987075487e+000	 5.7954317410e-002	 3.9017598129e+000
 1.2981323876e+000	 6.9658482273e-002	 3.8926746296e+000
 1.2974492067e+000	 8.1397519425e-002	 3.8784104370e+000
 1.2966569810e+000	 9.3170133010e-002	 3.8589510436e+000
 1.2957547027e+000	 1.0497499979e-001	 3.8342821934e+000
 1.2947413812e+000	 1.1681076929e-001	 3.8043915825e+000
 1.3250000000e+000	 0.0000000000e+000	 3.8310600415e+000
 1.3249480532e+000	 1.1732704177e-002	 3.8465698101e+000
 1.3247914608e+000	 2.3507132387e-002	 3.8568569573e+000
 1.3245291046e+000	 3.5322105045e-002	 3.8618914566e+000
 1.3241598793e+000	 4.7176414186e-002	 3.8616451620e+000
 1.3236826939e+000	 5.9068823513e-002	 3.8560918336e+000
 1.3230964720e+000	 7.0998068470e-002	 3.8452071622e+000
 1.3224001529e+000	 8.2962856336e-002	 3.8289687936e+000
 1.3215926922e+000	 9.4961866336e-002	 3.8073563509e+000
 1.3206730623e+000	 1.0699374978e-001	 3.7803514573e+000
 1.3196402539e+000	 1.1905713023e-001	 3.7479377574e+000
 1.3500000000e+000	 0.0000000000e+000	 3.8185160751e+000
 1.3499470731e+000	 1.1954075954e-002	 3.8323055149e+000
 1.3497875261e+000	 2.3950663186e-002	 3.8407375342e+000
 1.3495202198e+000	 3.5988559857e-002	 3.8437781912e+000
 1.3491440280e+000	 4.8066535207e-002	 3.8413954628e+000
 1.3486578391e+000	 6.0183329615e-002	 3.8335592741e+000
 1.3480605564e+000	 7.2337654666e-002	 3.8202415258e+000
 1.3473510992e+000	 8.4528193246e-002	 3.8014161228e+000
 1.3465284033e+000	 9.6753599662e-002	 3.7770589997e+000
 1.3455914220e+000	 1.0901249978e-001	 3.7471481476e+000
 1.3445391266e+000	 1.2130349118e-001	 3.7116636390e+000
 1.3750000000e+000	 0.0000000000e+000	 3.8315043710e+000
 1.3749460929e+000	 1.2175447730e-002	 3.8428633667e+000
 1.3747835914e+000	 2.4394193985e-002	 3.8487477936e+000
 1.3745113349e+000	 3.6655014668e-002	 3.8491203112e+000
 1.3741281766e+000	 4.8956656228e-002	 3.8439455315e+000
 1.3736329842e+000	 6.1297835718e-002	 3.8331900505e+000
 1.3730246408e+000	 7.3677240862e-002	 3.8168224794e+000
 1.3723020455e+000	 8.6093530156e-002	 3.7948134748e+000
 1.3714641145e+000	 9.8545332987e-002	 3.7671357689e+000
 1.3705097816e+000	 1.1103124977e-001	 3.7337641980e+000
 1.3694379994e+000	 1.2354985212e-001	 3.6946757312e+000
 1.4000000000e+000	 0.0000000000e+000	 3.8690367680e+000
 1.3999451128e+000	 1.2396819507e-002	 3.8772728674e+000
 1.3997796567e+000	 2.4837724784e-002	 3.8799344504e+000
 1.3995024501e+000	 3.7321469479e-002	 3.8769812848e+000
 1.3991123253e+000	 4.9846777250e-002	 3.8683751193e+000
 1.3986081294e+000	 6.2412341821e-002	 3.8540797170e+000
 1.3979887252e+000	 7.5016827058e-002	 3.8340608892e+000
 1.3972529918e+000	 8.7658867067e-002	 3.8082865279e+000
 1.3963998257e+000	 1.0033706631e-001	 3.7767266378e+000
 1.3954281413e+000	 1.1304999977e-001	 3.7393533680e+000
 1.3943368721e+000	 1.2579621307e-001	 3.6961410430e+000
 1.4250000000e+000	 0.0000000000e+000	 3.9301944499e+000
 1.4249441327e+000	 1.2618191283e-002	 3.9346312511e+000
 1.4247757220e+000	 2.5281255584e-002	 3.9334103805e+000
 1.4244935653e+000	 3.7987924290e-002	 3.9264892120e+000
 1.4240964740e+000	 5.0736898271e-002	 3.9138271235e+000
 1.4235832746e+000	 6.3526847923e-002	 3.8953855323e+000
 1.4229528095e+000	 7.6356413254e-002	 3.8711279305e+000
 1.4222039381e+000	 8.9224203976e-002	 3.8410199192e+000
 1.4213355368e+000	 1.0212879964e-001	 3.8050292423e+000
 1.4203465010e+000	 1.1506874976e-001	 3.7631258200e+000
 1.4192357448e+000	 1.2804257402e-001	 3.7152817815e+000
 1.4500000000e+000	 0.0000000000e+000	 4.0141219671e+000
 1.4499431525e+000	 1.2839563060e-002	 4.0140976448e+000
 1.4497717873e+000	 2.5724786383e-002	 4.0083489170e+000
 1.4494846805e+000	 3.8654379101e-002	 3.9968312530e+000
 1.4490806226e+000	 5.1627019292e-002	 3.9795021441e+000
 1.4485584197e+000	 6.4641354025e-002	 3.9563211407e+000
 1.4479168939e+000	 7.7695999449e-002	 3.9272498881e+000
 1.4471548843e+000	 9.0789540886e-002	 3.8922521622e+000
 1.4462712480e+000	 1.0392053296e-001	 3.8512939045e+000
 1.4452648606e+000	 1.1708749975e-001	 3.8043432563e+000
 1.4441346175e+000	 1.3028893496e-001	 3.7513705931e+000
 1.4750000000e+000	 0.0000000000e+000	 4.1200218665e+000
 1.4749421724e+000	 1.3060934837e-002	 4.1148878237e+000
 1.4747678526e+000	 2.6168317182e-002	 4.1039787271e+000
 1.4744757957e+000	 3.9320833912e-002	 4.0872486230e+000
 1.4740647713e+000	 5.2517140313e-002	 4.0646535935e+000
 1.4735335649e+000	 6.5755860127e-002	 4.0361517932e+000
 1.4728809783e+000	 7.9035585644e-002	 4.0017034861e+000
 1.4721058306e+000	 9.2354877796e-002	 3.9612710810e+000
 1.4712069592e+000	 1.0571226629e-001	 3.9148191678e+000
 1.4701832203e+000	 1.1910624974e-001	 3.8623145518e+000
 1.4690334902e+000	 1.3253529590e-001	 3.8037262891e+000
 1.5000000000e+000	 0.0000000000e+000	 4.2471498585e+000
 1.4999411923e+000	 1.3282306613e-002	 4.2362694903e+000
 1.4997639179e+000	 2.6611847981e-002	 4.2195792005e+000
 1.4994669109e+000	 3.9987288723e-002	 4.1970320879e+000
 1.4990489200e+000	 5.3407261333e-002	 4.1685832957e+000
 1.4985087101e+000	 6.6870366229e-002	 4.1341900476e+000
 1.4978450627e+000	 8.0375171839e-002	 4.0938116847e+000
 1.4970567769e+000	 9.3920214705e-002	 4.0474097008e+000
 1.4961426704e+000	 1.0750399961e-001	 3.9949477784e+000
 1.4951015800e+000	 1.2112499974e-001	 3.9363918230e+000
 1.4939323629e+000	 1.3478165685e-001	 3.8717099987e+000
 1.2449436358e+000	 1.1231804739e-001	 3.9986284678e+000
 1.2438615812e+000	 1.2372698459e-001	 3.9965081653e+000
 1.2426709033e+000	 1.3516296104e-001	 3.9894136891e+000
 1.2413707047e+000	 1.4662460078e-001	 3.9772588005e+000
 1.2399601078e+000	 1.5811050249e-001	 3.9599552553e+000
 1.2384382558e+000	 1.6961923973e-001	 3.9374128502e+000
 1.2368043131e+000	 1.8114936129e-001	 3.9095394790e+000
 1.2350574661e+000	 1.9269939142e-001	 3.8762411956e+000
 1.2331969241e+000	 2.0426783022e-001	 3.8374222858e+000
 1.2312219198e+000	 2.1585315397e-001	 3.7929853479e+000
 1.2291317105e+000	 2.2745381553e-001	 3.7428313818e+000
 1.2698425085e+000	 1.1456440834e-001	 3.8819850479e+000
 1.2687388129e+000	 1.2620152428e-001	 3.8759461647e+000
 1.2675243214e+000	 1.3786622027e-001	 3.8649532776e+000
 1.2661981188e+000	 1.4955709280e-001	 3.8490034601e+000
 1.2647593100e+000	 1.6127271254e-001	 3.8280957046e+000
 1.2632070210e+000	 1.7301162453e-001	 3.8022309295e+000
 1.2615403994e+000	 1.8477234852e-001	 3.7714119857e+000
 1.2597586154e+000	 1.9655337925e-001	 3.7356436630e+000
 1.2578608626e+000	 2.0835318683e-001	 3.6949326945e+000
 1.2558463582e+000	 2.2017021705e-001	 3.6492877617e+000
 1.2537143447e+000	 2.3200289184e-001	 3.5987194986e+000
 1.2947413812e+000	 1.1681076929e-001	 3.8043915825e+000
 1.2936160445e+000	 1.2867606398e-001	 3.7965679586e+000
 1.2923777395e+000	 1.4056947949e-001	 3.7836740917e+000
 1.2910255329e+000	 1.5248958481e-001	 3.7657079531e+000
 1.2895585122e+000	 1.6443492259e-001	 3.7426695433e+000
 1.2879757861e+000	 1.7640400932e-001	 3.7145609001e+000
 1.2862764856e+000	 1.8839533574e-001	 3.6813861067e+000
 1.2844597647e+000	 2.0040736708e-001	 3.6431512973e+000
 1.2825248010e+000	 2.1243854343e-001	 3.5998646640e+000
 1.2804707966e+000	 2.2448728013e-001	 3.5515364611e+000
 1.2782969789e+000	 2.3655196814e-001	 3.4981790104e+000
 1.3196402539e+000	 1.1905713023e-001	 3.7479377574e+000
 1.3184932761e+000	 1.3115060367e-001	 3.7380988367e+000
 1.3172311575e+000	 1.4327273871e-001	 3.7230944824e+000
 1.3158529470e+000	 1.5542207683e-001	 3.7029238748e+000
 1.3143577143e+000	 1.6759713264e-001	 3.6775883220e+000
 1.3127445512e+000	 1.7979639412e-001	 3.6470912684e+000
 1.3110125719e+000	 1.9201832297e-001	 3.6114383019e+000
 1.3091609141e+000	 2.0426135491e-001	 3.5706371613e+000
 1.3071887395e+000	 2.1652390003e-001	 3.5246977417e+000
 1.3050952350e+000	 2.2880434321e-001	 3.4736321001e+000
 1.3028796131e+000	 2.4110104445e-001	 3.4174544603e+000
 1.3445391266e+000	 1.2130349118e-001	 3.7116636390e+000
 1.3433705078e+000	 1.3362514336e-001	 3.6995770147e+000
 1.3420845756e+000	 1.4597599793e-001	 3.6822502980e+000
 1.3406803611e+000	 1.5835456884e-001	 3.6596841867e+000
 1.3391569165e+000	 1.7075934268e-001	 3.6318815925e+000
 1.3375133163e+000	 1.8318877891e-001	 3.5988476490e+000
 1.3357486582e+000	 1.9564131019e-001	 3.5605897195e+000
 1.3338620634e+000	 2.0811534273e-001	 3.5171174028e+000
 1.3318526780e+000	 2.2060925664e-001	 3.4684425392e+000
 1.3297196734e+000	 2.3312140629e-001	 3.4145792152e+000
 1.3274622474e+000	 2.4565012076e-001	 3.3555437682e+000
 1.3694379994e+000	 1.2354985212e-001	 3.6946757312e+000
 1.3682477394e+000	 1.3609968305e-001	 3.6801070077e+000
 1.3669379937e+000	 1.4867925715e-001	 3.6602436000e+000
 1.3655077752e+000	 1.6128706086e-001	 3.6350880280e+000
 1.3639561186e+000	 1.7392155273e-001	 3.6046450995e+000
 1.3622820814e+000	 1.8658116370e-001	 3.5689219181e+000
 1.3604847444e+000	 1.9926429742e-001	 3.5279278891e+000
 1.3585632127e+000	 2.1196933056e-001	 3.4816747252e+000
 1.3565166165e+000	 2.2469461324e-001	 3.4301764508e+000
 1.3543441118e+000	 2.3743846937e-001	 3.3734494067e+000
 1.3520448816e+000	 2.5019919707e-001	 3.3115122527e+000
 1.3943368721e+000	 1.2579621307e-001	 3.6961410430e+000
 1.3931249710e+000	 1.3857422274e-001	 3.6788537113e+000
 1.3917914117e+000	 1.5138251636e-001	 3.6562367509e+000
 1.3903351893e+000	 1.6421955287e-001	 3.6282948059e+000
 1.3887553208e+000	 1.7708376278e-001	 3.5950348707e+000
 1.3870508465e+000	 1.8997354850e-001	 3.5564662965e+000
 1.3852208307e+000	 2.0288728464e-001	 3.5126007953e+000
 1.3832643620e+000	 2.1582331839e-001	 3.4634524448e+000
 1.3811805550e+000	 2.2877996984e-001	 3.4090376909e+000
 1.3789685502e+000	 2.4175553244e-001	 3.3493753507e+000
 1.3766275158e+000	 2.5474827338e-001	 3.2844866138e+000
 1.4192357448e+000	 1.2804257402e-001	 3.7152817815e+000
 1.4180022026e+000	 1.4104876243e-001	 3.6950371046e+000
 1.4166448298e+000	 1.5408577558e-001	 3.6694471246e+000
 1.4151626033e+000	 1.6715204489e-001	 3.6385189097e+000
 1.4135545229e+000	 1.8024597283e-001	 3.6022619290e+000
 1.4118196117e+000	 1.9336593329e-001	 3.5606880566e+000
 1.4099569169e+000	 2.0651027186e-001	 3.5138115745e+000
 1.4079655113e+000	 2.1967730621e-001	 3.4616491743e+000
 1.4058444934e+000	 2.3286532645e-001	 3.4042199586e+000
 1.4035929886e+000	 2.4607259552e-001	 3.3415454414e+000
 1.4012101500e+000	 2.5929734969e-001	 3.2736495482e+000
 1.4441346175e+000	 1.3028893496e-001	 3.7513705931e+000
 1.4428794342e+000	 1.4352330212e-001	 3.7279275018e+000
 1.4414982479e+000	 1.5678903480e-001	 3.6991423642e+000
 1.4399900174e+000	 1.7008453690e-001	 3.6650249706e+000
 1.4383537251e+000	 1.8340818287e-001	 3.6255875511e+000
 1.4365883768e+000	 1.9675831808e-001	 3.5808447768e+000
 1.4346930032e+000	 2.1013325909e-001	 3.5308137603e+000
 1.4326666607e+000	 2.2353129404e-001	 3.4755140552e+000
 1.4305084319e+000	 2.3695068305e-001	 3.4149676545e+000
 1.4282174270e+000	 2.5038965860e-001	 3.3491989884e+000
 1.4257927842e+000	 2.6384642600e-001	 3.2782349223e+000
 1.4690334902e+000	 1.3253529590e-001	 3.8037262891e+000
 1.4677566659e+000	 1.4599784180e-001	 3.7768412864e+000
 1.4663516659e+000	 1.5949229402e-001	 3.7446361218e+000
 1.4648174315e+000	 1.7301702891e-001	 3.7071236041e+000
 1.4631529272e+000	 1.8657039292e-001	 3.6643190091e+000
 1.4613571419e+000	 2.0015070287e-001	 3.6162400777e+000
 1.4594290895e+000	 2.1375624631e-001	 3.5629070129e+000
 1.4573678100e+000	 2.2738528187e-001	 3.5043424765e+000
 1.4551723704e+000	 2.4103603965e-001	 3.4405715844e+000
 1.4528418654e+000	 2.5470672168e-001	 3.3716219013e+000
 1.4503754184e+000	 2.6839550231e-001	 3.2975234354e+000
 1.4939323629e+000	 1.3478165685e-001	 3.8717099987e+000
 1.4926338975e+000	 1.4847238149e-001	 3.8411370722e+000
 1.4912050840e+000	 1.6219555323e-001	 3.8052842243e+000
 1.4896448456e+000	 1.7594952092e-001	 3.7641675777e+000
 1.4879521294e+000	 1.8973260296e-001	 3.7178057375e+000
 1.4861259070e+000	 2.0354308766e-001	 3.6662197857e+000
 1.4841651757e+000	 2.1737923353e-001	 3.6094332747e+000
 1.4820689593e+000	 2.3123926969e-001	 3.5474722200e+000
 1.4798363089e+000	 2.4512139625e-001	 3.4803650917e+000
 1.4774663038e+000	 2.5902378476e-001	 3.4081428065e+000
 1.4749580526e+000	 2.7294457862e-001	 3.3308387176e+000
 1.2291317105e+000	 2.2745381553e-001	 3.7428313818e+000
 1.2269255782e+000	 2.3906824470e-001	 3.7151828367e+000
 1.2246028306e+000	 2.5069484874e-001	 3.6838139700e+000
 1.2221628022e+000	 2.6233201271e-001	 3.6486397783e+000
 1.2196048543e+000	 2.7397810005e-001	 3.6095724242e+000
 1.2169283763e+000	 2.8563145302e-001	 3.5665213204e+000
 1.2141327860e+000	 2.9729039324e-001	 3.5193932239e+000
 1.2112175306e+000	 3.0895322226e-001	 3.4680923402e+000
 1.2081820871e+000	 3.2061822211e-001	 3.4125204397e+000
 1.2050259632e+000	 3.3228365593e-001	 3.3525769825e+000
 1.2017486977e+000	 3.4394776857e-001	 3.2881592560e+000
 1.2537143447e+000	 2.3200289184e-001	 3.5987194986e+000
 1.2514640897e+000	 2.4384960960e-001	 3.5717978077e+000
 1.2490948872e+000	 2.5570874571e-001	 3.5422735032e+000
 1.2466060582e+000	 2.6757865297e-001	 3.5096014572e+000
 1.2439969514e+000	 2.7945766205e-001	 3.4725650570e+000
 1.2412669438e+000	 2.9134408208e-001	 3.4310643401e+000
 1.2384154417e+000	 3.0323620110e-001	 3.3849968522e+000
 1.2354418812e+000	 3.1513228670e-001	 3.3342577694e+000
 1.2323457289e+000	 3.2703058655e-001	 3.2787400312e+000
 1.2291264825e+000	 3.3892932905e-001	 3.2183344845e+000
 1.2257836717e+000	 3.5082672394e-001	 3.1529300389e+000
 1.2782969789e+000	 2.3655196814e-001	 3.4981790104e+000
 1.2760026013e+000	 2.4863097449e-001	 3.4686198308e+000
 1.2735869439e+000	 2.6072264268e-001	 3.4355606983e+000
 1.2710493143e+000	 2.7282529322e-001	 3.3990334340e+000
 1.2683890485e+000	 2.8493722405e-001	 3.3590707595e+000
 1.2656055113e+000	 2.9705671113e-001	 3.3157062625e+000
 1.2626980974e+000	 3.0918200896e-001	 3.2689743621e+000
 1.2596662318e+000	 3.2131135114e-001	 3.2189102759e+000
 1.2565093706e+000	 3.3344295099e-001	 3.1655499862e+000
 1.2532270017e+000	 3.4557500216e-001	 3.1089302092e+000
 1.2498186456e+000	 3.5770567931e-001	 3.0487337662e+000
 1.3028796131e+000	 2.4110104445e-001	 3.4174544603e+000
 1.3005411129e+000	 2.5341233938e-001	 3.3852703911e+000
 1.2980790005e+000	 2.6573653966e-001	 3.3491773584e+000
 1.2954925703e+000	 2.7807193347e-001	 3.3092070890e+000
 1.2927811456e+000	 2.9041678605e-001	 3.2653925515e+000
 1.2899440789e+000	 3.0276934019e-001	 3.2177679276e+000
 1.2869807532e+000	 3.1512781682e-001	 3.1663685844e+000
 1.2838905824e+000	 3.2749041558e-001	 3.1112310470e+000
 1.2806730123e+000	 3.3985531543e-001	 3.0523929716e+000
 1.2773275210e+000	 3.5222067528e-001	 2.9898931194e+000
 1.2738536196e+000	 3.6458463467e-001	 2.9237713311e+000
 1.3274622474e+000	 2.4565012076e-001	 3.3555437682e+000
 1.3250796244e+000	 2.5819370428e-001	 3.3207391235e+000
 1.3225710571e+000	 2.7075043663e-001	 3.2816518321e+000
 1.3199358264e+000	 2.8331857372e-001	 3.2383137826e+000
 1.3171732427e+000	 2.9589634805e-001	 3.1907584224e+000
 1.3142826464e+000	 3.0848196925e-001	 3.1390207355e+000
 1.3112634089e+000	 3.2107362469e-001	 3.0831372204e+000
 1.3081149330e+000	 3.3366948003e-001	 3.0231458681e+000
 1.3048366541e+000	 3.4626767987e-001	 2.9590861406e+000
 1.3014280403e+000	 3.5886634840e-001	 2.8909989501e+000
 1.2978885935e+000	 3.7146359004e-001	 2.8189266387e+000
 1.3520448816e+000	 2.5019919707e-001	 3.3115122527e+000
 1.3496181360e+000	 2.6297506917e-001	 3.2740835331e+000
 1.3470631137e+000	 2.7576433361e-001	 3.2320326473e+000
 1.3443790824e+000	 2.8856521398e-001	 3.1853918943e+000
 1.3415653397e+000	 3.0137591005e-001	 3.1341954262e+000
 1.3386212139e+000	 3.1419459831e-001	 3.0784792316e+000
 1.3355460646e+000	 3.2701943255e-001	 3.0182811180e+000
 1.3323392837e+000	 3.3984854447e-001	 2.9536406956e+000
 1.3290002958e+000	 3.5268004431e-001	 2.8845993601e+000
 1.3255285595e+000	 3.6551202151e-001	 2.8112002768e+000
 1.3219235675e+000	 3.7834254541e-001	 2.7334883645e+000
 1.3766275158e+000	 2.5474827338e-001	 3.2844866138e+000
 1.3741566475e+000	 2.6775643406e-001	 3.2444229359e+000
 1.3715551703e+000	 2.8077823058e-001	 3.1994306702e+000
 1.3688223385e+000	 2.9381185423e-001	 3.1495427683e+000
 1.3659574368e+000	 3.0685547205e-001	 3.0947943070e+000
 1.3629597814e+000	 3.1990722737e-001	 3.0352224760e+000
 1.3598287203e+000	 3.3296524041e-001	 2.9708665651e+000
 1.3565636343e+000	 3.4602760891e-001	 2.9017679522e+000
 1.3531639376e+000	 3.5909240875e-001	 2.8279700904e+000
 1.3496290788e+000	 3.7215769463e-001	 2.7495184965e+000
 1.3459585415e+000	 3.8522150078e-001	 2.6664607389e+000
 1.4012101500e+000	 2.5929734969e-001	 3.2736495482e+000
 1.3986951591e+000	 2.7253779896e-001	 3.2309330365e+000
 1.3960472269e+000	 2.8579212755e-001	 3.1830136367e+000
 1.3932655945e+000	 2.9905849449e-001	 3.1299251898e+000
 1.3903495339e+000	 3.1233503405e-001	 3.0717039116e+000
 1.3872983490e+000	 3.2561985643e-001	 3.0083883847e+000
 1.3841113760e+000	 3.3891104828e-001	 2.9400195497e+000
 1.3807879849e+000	 3.5220667336e-001	 2.8666406965e+000
 1.3773275793e+000	 3.6550477319e-001	 2.7882974560e+000
 1.3737295980e+000	 3.7880336775e-001	 2.7050377913e+000
 1.3699935154e+000	 3.9210045615e-001	 2.6169119900e+000
 1.4257927842e+000	 2.6384642600e-001	 3.2782349223e+000
 1.4232336707e+000	 2.7731916385e-001	 3.2328410671e+000
 1.4205392835e+000	 2.9080602453e-001	 3.1820012502e+000
 1.4177088505e+000	 3.0430513474e-001	 3.1257504332e+000
 1.4147416310e+000	 3.1781459605e-001	 3.0641261808e+000
 1.4116369165e+000	 3.3133248549e-001	 2.9971686556e+000
 1.4083940318e+000	 3.4485685614e-001	 2.9249206130e+000
 1.4050123355e+000	 3.5838573780e-001	 2.8474273959e+000
 1.4014912211e+000	 3.7191713763e-001	 2.7647369294e+000
 1.3978301173e+000	 3.8544904087e-001	 2.6768997154e+000
 1.3940284894e+000	 3.9897941152e-001	 2.5839688271e+000
 1.4503754184e+000	 2.6839550231e-001	 3.2975234354e+000
 1.4477721822e+000	 2.8210052874e-001	 3.2494214209e+000
 1.4450313401e+000	 2.9581992150e-001	 3.1956607776e+000
 1.4421521066e+000	 3.0955177499e-001	 3.1362778145e+000
 1.4391337281e+000	 3.2329415806e-001	 3.0713116502e+000
 1.4359754840e+000	 3.3704511455e-001	 3.0008042106e+000
 1.4326766875e+000	 3.5080266401e-001	 2.9248002265e+000
 1.4292366861e+000	 3.6456480225e-001	 2.8433472308e+000
 1.4256548628e+000	 3.7832950208e-001	 2.7564955565e+000
 1.4219306366e+000	 3.9209471399e-001	 2.6642983330e+000
 1.4180634633e+000	 4.0585836689e-001	 2.5668114846e+000
 1.4749580526e+000	 2.7294457862e-001	 3.3308387176e+000
 1.4723106938e+000	 2.8688189364e-001	 3.2799917217e+000
 1.4695233968e+000	 3.0083381848e-001	 3.2233030851e+000
 1.4665953626e+000	 3.1479841525e-001	 3.1608106867e+000
 1.4635258252e+000	 3.2877372006e-001	 3.0925554002e+000
 1.4603140515e+000	 3.4275774362e-001	 3.0185810940e+000
 1.4569593432e+000	 3.5674847188e-001	 2.9389346310e+000
 1.4534610367e+000	 3.7074386670e-001	 2.8536658686e+000
 1.4498185045e+000	 3.8474186652e-001	 2.7628276579e+000
 1.4460311558e+000	 3.9874038711e-001	 2.6664758432e+000
 1.4420984373e+000	 4.1273732227e-001	 2.5646692613e+000
 1.2017486977e+000	 3.4394776857e-001	 3.2881592560e+000
 1.1983498614e+000	 3.5560878723e-001	 3.2412877284e+000
 1.1948290576e+000	 3.6726492216e-001	 3.1905432065e+000
 1.1911859226e+000	 3.7891436731e-001	 3.1358134303e+000
 1.1874201265e+000	 3.9055530112e-001	 3.0769837517e+000
 1.1835313736e+000	 4.0218588716e-001	 3.0139373124e+000
 1.1795194030e+000	 4.1380427497e-001	 2.9465552323e+000
 1.1753839893e+000	 4.2540860082e-001	 2.8747168103e+000
 1.1711249430e+000	 4.3699698847e-001	 2.7982997339e+000
 1.1667421108e+000	 4.4856755008e-001	 2.7171803006e+000
 1.1622353763e+000	 4.6011838696e-001	 2.6312336492e+000
 1.2257836717e+000	 3.5082672394e-001	 3.1529300389e+000
 1.2223168587e+000	 3.6272096297e-001	 3.1044653821e+000
 1.2187256388e+000	 3.7461022059e-001	 3.0517906478e+000
 1.2150096411e+000	 3.8649265466e-001	 2.9947935650e+000
 1.2111685290e+000	 3.9836640714e-001	 2.9333596953e+000
 1.2072020010e+000	 4.1022960490e-001	 2.8673726216e+000
 1.2031097911e+000	 4.2208036047e-001	 2.7967141480e+000
 1.1988916691e+000	 4.3391677283e-001	 2.7212645109e+000
 1.1945474418e+000	 4.4573692824e-001	 2.6409026009e+000
 1.1900769530e+000	 4.5753890108e-001	 2.5555061947e+000
 1.1854800839e+000	 4.6932075469e-001	 2.4649521984e+000
 1.2498186456e+000	 3.5770567931e-001	 3.0487337662e+000
 1.2462838559e+000	 3.6983313871e-001	 3.0000238926e+000
 1.2426222199e+000	 3.8195551903e-001	 2.9467995286e+000
 1.2388333595e+000	 3.9407094200e-001	 2.8889476115e+000
 1.2349169315e+000	 4.0617751316e-001	 2.8263530958e+000
 1.2308726285e+000	 4.1827332264e-001	 2.7588991522e+000
 1.2267001791e+000	 4.3035644597e-001	 2.6864673799e+000
 1.2223993489e+000	 4.4242494484e-001	 2.6089380286e+000
 1.2179699407e+000	 4.5447686801e-001	 2.5261902329e+000
 1.2134117952e+000	 4.6651025208e-001	 2.4381022563e+000
 1.2087247914e+000	 4.7852312243e-001	 2.3445517468e+000
 1.2738536196e+000	 3.6458463467e-001	 2.9237713311e+000
 1.2702508531e+000	 3.7694531445e-001	 2.8772078336e+000
 1.2665188011e+000	 3.8930081747e-001	 2.8285086218e+000
 1.2626570780e+000	 4.0164922934e-001	 2.7777346382e+000
 1.2586653341e+000	 4.1398861918e-001	 2.7249466751e+000
 1.2545432560e+000	 4.2631704038e-001	 2.6702053171e+000
 1.2502905672e+000	 4.3863253146e-001	 2.6135708865e+000
 1.2459070287e+000	 4.5093311686e-001	 2.5366634995e+000
 1.2413924396e+000	 4.6321680778e-001	 2.4530502755e+000
 1.2367466374e+000	 4.7548160308e-001	 2.3638166118e+000
 1.2319694989e+000	 4.8772549017e-001	 2.2688398742e+000
 1.2978885935e+000	 3.7146359004e-001	 2.8189266387e+000
 1.2942178504e+000	 3.8405749020e-001	 2.7671679839e+000
 1.2904153822e+000	 3.9664611591e-001	 2.7131009741e+000
 1.2864807964e+000	 4.0922751669e-001	 2.6567970244e+000
 1.2824137366e+000	 4.2179972519e-001	 2.5983276805e+000
 1.2782138834e+000	 4.3436075812e-001	 2.5377645567e+000
 1.2738809552e+000	 4.4690861696e-001	 2.4751792752e+000
 1.2694147085e+000	 4.5944128887e-001	 2.4106434089e+000
 1.2648149384e+000	 4.7195674754e-001	 2.3442284257e+000
 1.2600814796e+000	 4.8445295408e-001	 2.2760056357e+000
 1.2552142064e+000	 4.9692785791e-001	 2.2060461412e+000
 1.3219235675e+000	 3.7834254541e-001	 2.7334883645e+000
 1.3181848476e+000	 3.9116966594e-001	 2.6772344792e+000
 1.3143119634e+000	 4.0399141435e-001	 2.6185294839e+000
 1.3103045149e+000	 4.1680580403e-001	 2.5574550666e+000
 1.3061621391e+000	 4.2961083121e-001	 2.4940932994e+000
 1.3018845109e+000	 4.4240447586e-001	 2.4285265719e+000
 1.2974713433e+000	 4.5518470246e-001	 2.3608375257e+000
 1.2929223883e+000	 4.6794946089e-001	 2.2911089916e+000
 1.2882374373e+000	 4.8069668731e-001	 2.2194239285e+000
 1.2834163219e+000	 4.9342430508e-001	 2.1458653647e+000
 1.2784589140e+000	 5.0613022564e-001	 2.0705163424e+000
 1.3459585415e+000	 3.8522150078e-001	 2.6664607389e+000
 1.3421518448e+000	 3.9828184168e-001	 2.6063743398e+000
 1.3382085446e+000	 4.1133671280e-001	 2.5437231569e+000
 1.3341282333e+000	 4.2438409137e-001	 2.4785989593e+000
 1.3299105417e+000	 4.3742193723e-001	 2.4110941279e+000
 1.3255551384e+000	 4.5044819360e-001	 2.3413015834e+000
 1.3210617314e+000	 4.6346078795e-001	 2.2693147159e+000
 1.3164300681e+000	 4.7645763290e-001	 2.1952273165e+000
 1.3116599362e+000	 4.8943662708e-001	 2.1191335104e+000
 1.3067511641e+000	 5.0239565608e-001	 2.0411276931e+000
 1.3017036215e+000	 5.1533259338e-001	 1.9613044684e+000
 1.3699935154e+000	 3.9210045615e-001	 2.6169119900e+000
 1.3661188421e+000	 4.0539401742e-001	 2.5536212194e+000
 1.3621051257e+000	 4.1868201124e-001	 2.4876803385e+000
 1.3579519518e+000	 4.3196237872e-001	 2.4191910146e+000
 1.3536589442e+000	 4.4523304325e-001	 2.3482557279e+000
 1.3492257659e+000	 4.5849191134e-001	 2.2749776953e+000
 1.3446521194e+000	 4.7173687345e-001	 2.1994607936e+000
 1.3399377478e+000	 4.8496580491e-001	 2.1218094864e+000
 1.3350824350e+000	 4.9817656684e-001	 2.0421287513e+000
 1.3300860063e+000	 5.1136700707e-001	 1.9605240100e+000
 1.3249483290e+000	 5.2453496112e-001	 1.8771010604e+000
 1.3940284894e+000	 3.9897941152e-001	 2.5839688271e+000
 1.3900858393e+000	 4.1250619317e-001	 2.5180696606e+000
 1.3860017069e+000	 4.2602730968e-001	 2.4494627367e+000
 1.3817756702e+000	 4.3954066606e-001	 2.3782594451e+000
 1.3774073467e+000	 4.5304414927e-001	 2.3045721646e+000
 1.3728963933e+000	 4.6653562908e-001	 2.2285141808e+000
 1.3682425075e+000	 4.8001295895e-001	 2.1501996049e+000
 1.3634454276e+000	 4.9347397693e-001	 2.0697432939e+000
 1.3585049339e+000	 5.0691650661e-001	 1.9872607728e+000
 1.3534208485e+000	 5.2033835807e-001	 1.9028681586e+000
 1.3481930365e+000	 5.3373732886e-001	 1.8166820865e+000
 1.4180634633e+000	 4.0585836689e-001	 2.5668114846e+000
 1.4140528365e+000	 4.1961836891e-001	 2.4988699348e+000
 1.4098982880e+000	 4.3337260812e-001	 2.4281900518e+000
 1.4055993887e+000	 4.4711895341e-001	 2.3548927794e+000
 1.4011557493e+000	 4.6085525529e-001	 2.2791002008e+000
 1.3965670208e+000	 4.7457934682e-001	 2.2009354515e+000
 1.3918328955e+000	 4.8828904444e-001	 2.1205226318e+000
 1.3869531074e+000	 5.0198214894e-001	 2.0379867219e+000
 1.3819274327e+000	 5.1565644638e-001	 1.9534534977e+000
 1.3767556907e+000	 5.2930970907e-001	 1.8670494493e+000
 1.3714377441e+000	 5.4293969659e-001	 1.7789017014e+000
 1.4420984373e+000	 4.1273732227e-001	 2.5646692613e+000
 1.4380198337e+000	 4.2673054465e-001	 2.4952233978e+000
 1.4337948692e+000	 4.4071790656e-001	 2.4230351441e+000
 1.4294231071e+000	 4.5469724075e-001	 2.3482348353e+000
 1.4249041518e+000	 4.6866636131e-001	 2.2709540725e+000
 1.4202376483e+000	 4.8262306456e-001	 2.1913256286e+000
 1.4154232836e+000	 4.9656512994e-001	 2.1094833558e+000
 1.4104607872e+000	 5.1049032095e-001	 2.0255620942e+000
 1.4053499316e+000	 5.2439638615e-001	 1.9396975826e+000
 1.4000905329e+000	 5.3828106007e-001	 1.8520263703e+000
 1.3946824516e+000	 5.5214206433e-001	 1.7626857318e+000
 1.1622353763e+000	 4.6011838696e-001	 2.6312336492e+000
 1.1576046607e+000	 4.7164759049e-001	 2.5672549260e+000
 1.1528499225e+000	 4.8315324300e-001	 2.5044478183e+000
 1.1479711587e+000	 4.9463341865e-001	 2.4427079558e+000
 1.1429684047e+000	 5.0608618433e-001	 2.3819251372e+000
 1.1378417347e+000	 5.1750960065e-001	 2.3219835119e+000
 1.1325912624e+000	 5.2890172284e-001	 2.2627617750e+000
 1.1272171407e+000	 5.4026060171e-001	 2.2041333759e+000
 1.1217195625e+000	 5.5158428467e-001	 2.1459667402e+000
 1.1160987607e+000	 5.6287081669e-001	 2.0881255048e+000
 1.1103550086e+000	 5.7411824131e-001	 2.0304687648e+000
 1.1854800839e+000	 4.6932075469e-001	 2.4649521984e+000
 1.1807567539e+000	 4.8108054230e-001	 2.3944350937e+000
 1.1759069209e+000	 4.9281630786e-001	 2.3242601434e+000
 1.1709305819e+000	 5.0452608702e-001	 2.2542899684e+000
 1.1658277727e+000	 5.1620790802e-001	 2.1843816818e+000
 1.1605985694e+000	 5.2785979267e-001	 2.1143871186e+000
 1.1552430876e+000	 5.3947975730e-001	 2.0441530796e+000
 1.1497614835e+000	 5.5106581375e-001	 1.9735215882e+000
 1.1441539538e+000	 5.6261597037e-001	 1.9023301625e+000
 1.1384207360e+000	 5.7412823303e-001	 1.8304120985e+000
 1.1325621087e+000	 5.8560060613e-001	 1.7575967668e+000
 1.2087247914e+000	 4.7852312243e-001	 2.3445517468e+000
 1.2039088471e+000	 4.9051349411e-001	 2.2670220535e+000
 1.1989639194e+000	 5.0247937272e-001	 2.1890429078e+000
 1.1938900050e+000	 5.1441875539e-001	 2.1104438394e+000
 1.1886871408e+000	 5.2632963171e-001	 2.0310491648e+000
 1.1833554041e+000	 5.3820998468e-001	 1.9506782646e+000
 1.1778949129e+000	 5.5005779175e-001	 1.8691458758e+000
 1.1723058263e+000	 5.6187102578e-001	 1.7862623990e+000
 1.1665883450e+000	 5.7364765606e-001	 1.7018342183e+000
 1.1607427112e+000	 5.8538564936e-001	 1.6156640353e+000
 1.1547692089e+000	 5.9708297096e-001	 1.5275512156e+000
 1.2319694989e+000	 4.8772549017e-001	 2.2688398742e+000
 1.2270609403e+000	 4.9994644592e-001	 2.1839012152e+000
 1.2220209178e+000	 5.1214243758e-001	 2.0977575036e+000
 1.2168494282e+000	 5.2431142377e-001	 2.0102050415e+000
 1.2115465089e+000	 5.3645135539e-001	 1.9210351824e+000
 1.2061122388e+000	 5.4856017669e-001	 1.8300346581e+000
 1.2005467381e+000	 5.6063582621e-001	 1.7369859195e+000
 1.1948501691e+000	 5.7267623781e-001	 1.6416674935e+000
 1.1890227363e+000	 5.8467934175e-001	 1.5438543528e+000
 1.1830646864e+000	 5.9664306569e-001	 1.4433183002e+000
 1.1769763091e+000	 6.0856533578e-001	 1.3398283649e+000
 1.2552142064e+000	 4.9692785791e-001	 2.2060461412e+000
 1.2502130335e+000	 5.0937939773e-001	 2.1427430882e+000
 1.2450779163e+000	 5.2180550244e-001	 2.0494803339e+000
 1.2398088514e+000	 5.3420409214e-001	 1.9527198960e+000
 1.2344058770e+000	 5.4657307908e-001	 1.8535541673e+000
 1.2288690735e+000	 5.5891036871e-001	 1.7517369845e+000
 1.2231985634e+000	 5.7121386067e-001	 1.6470182389e+000
 1.2173945119e+000	 5.8348144985e-001	 1.5391442832e+000
 1.2114571275e+000	 5.9571102745e-001	 1.4278583515e+000
 1.2053866616e+000	 6.0790048203e-001	 1.3129009942e+000
 1.1991834092e+000	 6.2004770061e-001	 1.1940105254e+000
 1.2784589140e+000	 5.0613022564e-001	 2.0705163424e+000
 1.2733651267e+000	 5.1881234953e-001	 1.9924236211e+000
 1.2681349147e+000	 5.3146856730e-001	 1.9165775134e+000
 1.2627682746e+000	 5.4409676051e-001	 1.8429145380e+000
 1.2572652451e+000	 5.5669480277e-001	 1.7713652846e+000
 1.2516259082e+000	 5.6926056072e-001	 1.7018544524e+000
 1.2458503886e+000	 5.8179189512e-001	 1.5986781102e+000
 1.2399388547e+000	 5.9428666188e-001	 1.4781872033e+000
 1.2338915188e+000	 6.0674271314e-001	 1.3533979448e+000
 1.2277086368e+000	 6.1915789836e-001	 1.2240192329e+000
 1.2213905094e+000	 6.3153006543e-001	 1.1493159510e+000
 1.3017036215e+000	 5.1533259338e-001	 1.9613044684e+000
 1.2965172200e+000	 5.2824530134e-001	 1.8676820596e+000
 1.2911919132e+000	 5.4113163216e-001	 1.7758646567e+000
 1.2857276977e+000	 5.5398942888e-001	 1.6857698170e+000
 1.2801246132e+000	 5.6681652645e-001	 1.5973093263e+000
 1.2743827429e+000	 5.7961075273e-001	 1.5103892636e+000
 1.2685022138e+000	 5.9236992958e-001	 1.4249100770e+000
 1.2624831976e+000	 6.0509187392e-001	 1.3407666731e+000
 1.2563259100e+000	 6.1777439883e-001	 1.2578485181e+000
 1.2500306120e+000	 6.3041531469e-001	 1.2258843263e+000
 1.2435976096e+000	 6.4301243026e-001	 1.1919044007e+000
 1.3249483290e+000	 5.2453496112e-001	 1.8771010604e+000
 1.3196693132e+000	 5.3767825315e-001	 1.7672559650e+000
 1.3142489116e+000	 5.5079469702e-001	 1.6588106082e+000
 1.3086871209e+000	 5.6388209726e-001	 1.5516639232e+000
 1.3029839813e+000	 5.7693825014e-001	 1.4457092034e+000
 1.2971395776e+000	 5.8996094475e-001	 1.3408341917e+000
 1.2911540391e+000	 6.0294796403e-001	 1.2369211827e+000
 1.2850275404e+000	 6.1589708595e-001	 1.1338471375e+000
 1.2787603012e+000	 6.2880608453e-001	 1.0667456284e+000
 1.2723525872e+000	 6.4167273103e-001	 1.0833654171e+000
 1.2658047097e+000	 6.5449479508e-001	 1.0989967210e+000
 1.3481930365e+000	 5.3373732886e-001	 1.8166820865e+000
 1.3428214064e+000	 5.4711120496e-001	 1.6899652513e+000
 1.3373059101e+000	 5.6045776188e-001	 1.5642780825e+000
 1.3316465441e+000	 5.7377476563e-001	 1.4395011972e+000
 1.3258433494e+000	 5.8705997383e-001	 1.3155096783e+000
 1.3198964122e+000	 6.0031113676e-001	 1.1921731885e+000
 1.3138058643e+000	 6.1352599849e-001	 1.0693560980e+000
 1.3075718832e+000	 6.2670229798e-001	 9.6275880877e-001
 1.3011946925e+000	 6.3983777022e-001	 9.6185330771e-001
 1.2946745624e+000	 6.5293014736e-001	 9.5918949143e-001
 1.2880118099e+000	 6.6597715991e-001	 9.5490254753e-001
 1.3714377441e+000	 5.4293969659e-001	 1.7789017014e+000
 1.3659734996e+000	 5.5654415677e-001	 1.6347052062e+000
 1.3603629085e+000	 5.7012082674e-001	 1.4912024459e+000
 1.3546059672e+000	 5.8366743400e-001	 1.3482560021e+000
 1.3487027175e+000	 5.9718169751e-001	 1.2057230016e+000
 1.3426532469e+000	 6.1066132877e-001	 1.0634552558e+000
 1.3364576896e+000	 6.2410403295e-001	 9.2129941300e-001
 1.3301162260e+000	 6.3750751002e-001	 8.9479978961e-001
 1.3236290837e+000	 6.5086945591e-001	 8.7414851461e-001
 1.3169965376e+000	 6.6418756369e-001	 8.5112950752e-001
 1.3102189101e+000	 6.7745952473e-001	 8.2588931343e-001
 1.3946824516e+000	 5.5214206433e-001	 1.7626857318e+000
 1.3891255928e+000	 5.6597710858e-001	 1.6004402101e+000
 1.3834199070e+000	 5.7978389160e-001	 1.4385856624e+000
 1.3775653904e+000	 5.9356010237e-001	 1.2769668882e+000
 1.3715620856e+000	 6.0730342120e-001	 1.1154232878e+000
 1.3654100816e+000	 6.2101152078e-001	 9.5378902445e-001
 1.3591095148e+000	 6.3468206740e-001	 8.8138019551e-001
 1.3526605688e+000	 6.4831272205e-001	 8.4297029981e-001
 1.3460634750e+000	 6.6190114160e-001	 8.0146172827e-001
 1.3393185129e+000	 6.7544498003e-001	 7.5701002669e-001
 1.3324260102e+000	 6.8894188956e-001	 7.0977471042e-001
 1.1103550086e+000	 5.7411824131e-001	 2.0304687648e+000
 1.1044886196e+000	 5.8532460163e-001	 1.9337200499e+000
 1.0984999480e+000	 5.9648794139e-001	 1.8347827463e+000
 1.0923893889e+000	 6.0760630594e-001	 1.7333307970e+000
 1.0861573781e+000	 6.1867774335e-001	 1.6290352321e+000
 1.0798043922e+000	 6.2970030539e-001	 1.5614745151e+000
 1.0733309490e+000	 6.4067204862e-001	 1.5430378484e+000
 1.0667376072e+000	 6.5159103546e-001	 1.5194443656e+000
 1.0600249662e+000	 6.6245533522e-001	 1.4903419470e+000
 1.0531936664e+000	 6.7326302520e-001	 1.4553778545e+000
 1.0462443890e+000	 6.8401219173e-001	 1.4141992127e+000
 1.1325621087e+000	 5.8560060613e-001	 1.7575967668e+000
 1.1265783920e+000	 5.9703109366e-001	 1.6349563476e+000
 1.1204699470e+000	 6.0841770021e-001	 1.5101711003e+000
 1.1142371767e+000	 6.1975843206e-001	 1.3829183100e+000
 1.1078805256e+000	 6.3105129822e-001	 1.3051885376e+000
 1.1014004800e+000	 6.4229431150e-001	 1.2685495446e+000
 1.0947975680e+000	 6.5348548960e-001	 1.2271378690e+000
 1.0880723593e+000	 6.6462285617e-001	 1.1806075906e+000
 1.0812254655e+000	 6.7570444192e-001	 1.1286116084e+000
 1.0742575397e+000	 6.8672828570e-001	 1.0708021174e+000
 1.0671692768e+000	 6.9769243556e-001	 1.0068310930e+000
 1.1547692089e+000	 5.9708297096e-001	 1.5275512156e+000
 1.1486681643e+000	 6.0873758569e-001	 1.3806660318e+000
 1.1424399459e+000	 6.2034745904e-001	 1.2316724101e+000
 1.1360849645e+000	 6.3191055818e-001	 1.1409626416e+000
 1.1296036732e+000	 6.4342485309e-001	 1.0872370419e+000
 1.1229965679e+000	 6.5488831761e-001	 1.0291033247e+000
 1.1162641870e+000	 6.6629893057e-001	 9.6622127859e-001
 1.1094071114e+000	 6.7765467688e-001	 8.9824894809e-001
 1.1024259648e+000	 6.8895354863e-001	 8.2484310461e-001
 1.0953214130e+000	 7.0019354621e-001	 7.4565972746e-001
 1.0880941646e+000	 7.1137267940e-001	 6.6035449278e-001
 1.1769763091e+000	 6.0856533578e-001	 1.3398283649e+000
 1.1707579367e+000	 6.2044407772e-001	 1.1703032623e+000
 1.1644099449e+000	 6.3227721786e-001	 1.0635483567e+000
 1.1579327522e+000	 6.4406268430e-001	 9.9383946337e-001
 1.1513268207e+000	 6.5579840795e-001	 9.2007041060e-001
 1.1445926557e+000	 6.6748232371e-001	 8.4190623953e-001
 1.1377308060e+000	 6.7911237154e-001	 7.5900967872e-001
 1.1307418636e+000	 6.9068649759e-001	 6.7104161081e-001
 1.1236264641e+000	 7.0220265533e-001	 5.7766154938e-001
 1.1163852864e+000	 7.1365880671e-001	 4.7852812531e-001
 1.1090190524e+000	 7.2505292324e-001	 3.7329958164e-001
 1.1991834092e+000	 6.2004770061e-001	 1.1940105254e+000
 1.1928477091e+000	 6.3215056975e-001	 1.0679316785e+000
 1.1863799439e+000	 6.4420697669e-001	 9.8332776678e-001
 1.1797805400e+000	 6.5621481041e-001	 8.9499788459e-001
 1.1730499683e+000	 6.6817196282e-001	 8.0261190563e-001
 1.1661887436e+000	 6.8007632982e-001	 7.0583681688e-001
 1.1591974249e+000	 6.9192581251e-001	 6.0433717991e-001
 1.1520766157e+000	 7.0371831829e-001	 4.9777560356e-001
 1.1448269634e+000	 7.1545176204e-001	 3.8581322745e-001
 1.1374491597e+000	 7.2712406721e-001	 2.6811021520e-001
 1.1299439401e+000	 7.3873316707e-001	 1.4432625651e-001
 1.2213905094e+000	 6.3153006543e-001	 1.1493159510e+000
 1.2149374815e+000	 6.4385706178e-001	 1.0508875382e+000
 1.2083499428e+000	 6.5613673552e-001	 9.4905628747e-001
 1.2016283278e+000	 6.6836693653e-001	 8.4349652658e-001
 1.1947731158e+000	 6.8054551768e-001	 7.3387911447e-001
 1.1877848314e+000	 6.9267033592e-001	 6.1987189666e-001
 1.1806640439e+000	 7.0473925348e-001	 5.0114017353e-001
 1.1734113679e+000	 7.1675013900e-001	 3.7734718045e-001
 1.1660274628e+000	 7.2870086874e-001	 2.4815457915e-001
 1.1585130330e+000	 7.4058932772e-001	 1.1322295909e-001
 1.1508688279e+000	 7.5241341090e-001	-2.7787651833e-002
 1.2435976096e+000	 6.4301243026e-001	 1.1919044007e+000
 1.2370272539e+000	 6.5556355381e-001	 1.0776132865e+000
 1.2303199418e+000	 6.6806649434e-001	 9.5991244652e-001
 1.2234761156e+000	 6.8051906265e-001	 8.3847626834e-001
 1.2164962634e+000	 6.9291907255e-001	 7.1297552801e-001
 1.2093809192e+000	 7.0526434203e-001	 5.8307785317e-001
 1.2021306629e+000	 7.1755269445e-001	 4.4844819961e-001
 1.1947461200e+000	 7.2978195971e-001	 3.0874934013e-001
 1.1872279621e+000	 7.4194997544e-001	 1.6364236499e-001
 1.1795769063e+000	 7.5405458822e-001	 1.2787192881e-002
 1.1717937157e+000	 7.6609365474e-001	-1.4415690855e-001
 1.2658047097e+000	 6.5449479508e-001	 1.0989967210e+000
 1.2591170263e+000	 6.6727004585e-001	 1.0408006952e+000
 1.2522899407e+000	 6.7999625317e-001	 9.8724673354e-001
 1.2453239033e+000	 6.9267118877e-001	 8.7915303094e-001
 1.2382194110e+000	 7.0529262741e-001	 7.3908300520e-001
 1.2309770071e+000	 7.1785834814e-001	 5.9460274120e-001
 1.2235972819e+000	 7.3036613542e-001	 4.4537577589e-001
 1.2160808721e+000	 7.4281378042e-001	 2.9106333938e-001
 1.2084284614e+000	 7.5519908214e-001	 1.3132486572e-001
 1.2006407797e+000	 7.6751984872e-001	-3.4181485263e-002
 1.1927186035e+000	 7.7977389857e-001	-2.0579829615e-001
 1.2880118099e+000	 6.6597715991e-001	 9.5490254753e-001
 1.2812067987e+000	 6.7897653788e-001	 8.7694496360e-001
 1.2742599397e+000	 6.9192601199e-001	 8.0394273352e-001
 1.2671716911e+000	 7.0482331488e-001	 7.3608523380e-001
 1.2599425585e+000	 7.1766618228e-001	 6.7355647499e-001
 1.2525730949e+000	 7.3045235424e-001	 6.1653442868e-001
 1.2450639008e+000	 7.4317957639e-001	 4.9111507217e-001
 1.2374156243e+000	 7.5584560112e-001	 3.2345108470e-001
 1.2296289607e+000	 7.6844818885e-001	 1.5033399258e-001
 1.2217046530e+000	 7.8098510922e-001	-2.8580884118e-002
 1.2136434913e+000	 7.9345414240e-001	-2.1363906130e-001
 1.3102189101e+000	 6.7745952473e-001	 8.2588931343e-001
 1.3032965711e+000	 6.9068302991e-001	 7.2836283525e-001
 1.2962299386e+000	 7.0385577082e-001	 6.3611541493e-001
 1.2890194789e+000	 7.1697544100e-001	 5.4937391550e-001
 1.2816657061e+000	 7.3003973714e-001	 4.6835964392e-001
 1.2741691828e+000	 7.4304636035e-001	 3.9328761522e-001
 1.2665305198e+000	 7.5599301736e-001	 3.2436581975e-001
 1.2587503764e+000	 7.6887742183e-001	 2.6179449526e-001
 1.2508294600e+000	 7.8169729555e-001	 2.0576540606e-001
 1.2427685263e+000	 7.9445036972e-001	 2.8770442220e-002
 1.2345683790e+000	 8.0713438624e-001	-1.6852450256e-001
 1.3324260102e+000	 6.8894188956e-001	 7.0977471042e-001
 1.3253863434e+000	 7.0238952194e-001	 5.9280472016e-001
 1.3181999376e+000	 7.1578552965e-001	 4.8144844979e-001
 1.3108672667e+000	 7.2912756712e-001	 3.7597116715e-001
 1.3033888536e+000	 7.4241329201e-001	 2.7663238393e-001
 1.2957652706e+000	 7.5564036645e-001	 1.8368505531e-001
 1.2879971388e+000	 7.6880645833e-001	 9.7374782360e-002
 1.2800851286e+000	 7.8190924254e-001	 1.7939019358e-002
 1.2720299594e+000	 7.9494640225e-001	-5.4393711753e-002
 1.2638323996e+000	 8.0791563023e-001	-1.1940459752e-001
 1.2554932668e+000	 8.2081463007e-001	-1.7688529751e-001
 1.0462443890e+000	 6.8401219173e-001	 1.4141992127e+000
 1.0391778559e+000	 6.9470093126e-001	 1.3707865255e+000
 1.0319948291e+000	 7.0532735142e-001	 1.3180188770e+000
 1.0246961113e+000	 7.1588957207e-001	 1.2558133799e+000
 1.0172825451e+000	 7.2638572639e-001	 1.1840931493e+000
 1.0097550126e+000	 7.3681396190e-001	 1.1027875465e+000
 1.0021144359e+000	 7.4717244154e-001	 1.0118324166e+000
 9.9436177575e-001	 7.5745934472e-001	 9.1117032045e-001
 9.8649803203e-001	 7.6767286832e-001	 8.0075076039e-001
 9.7852424289e-001	 7.7781122776e-001	 6.8053039818e-001
 9.7044148445e-001	 7.8787265798e-001	 5.5047326543e-001
 1.0671692768e+000	 6.9769243556e-001	 1.0068310930e+000
 1.0599614130e+000	 7.0859494989e-001	 9.5749388933e-001
 1.0526347257e+000	 7.1943389845e-001	 9.0160483537e-001
 1.0451900336e+000	 7.3020736352e-001	 8.3903784099e-001
 1.0376281960e+000	 7.4091344092e-001	 7.6966991248e-001
 1.0299501129e+000	 7.5155024114e-001	 6.9338143464e-001
 1.0221567246e+000	 7.6211589037e-001	 6.1005645179e-001
 1.0142490113e+000	 7.7260853162e-001	 5.1958294673e-001
 1.0062279927e+000	 7.8302632569e-001	 4.2185311735e-001
 9.9809472774e-001	 7.9336745232e-001	 3.1676364976e-001
 9.8985031414e-001	 8.0363011114e-001	 2.0421598753e-001
 1.0880941646e+000	 7.1137267940e-001	 6.6035449278e-001
 1.0807449701e+000	 7.2248896852e-001	 6.0313599596e-001
 1.0732746223e+000	 7.3354044548e-001	 5.4204433560e-001
 1.0656839558e+000	 7.4452515496e-001	 4.7691042329e-001
 1.0579738469e+000	 7.5544115545e-001	 4.0756544003e-001
 1.0501452131e+000	 7.6628652038e-001	 3.3384115773e-001
 1.0421990133e+000	 7.7705933921e-001	 2.5557026362e-001
 1.0341362468e+000	 7.8775771852e-001	 1.7258668670e-001
 1.0259579533e+000	 7.9837978306e-001	 8.4725925628e-002
 1.0176652126e+000	 8.0892367688e-001	-8.1746228521e-003
 1.0092591438e+000	 8.1938756430e-001	-1.0627533572e-001
 1.1090190524e+000	 7.2505292324e-001	 3.7329958164e-001
 1.1015285272e+000	 7.3638298714e-001	 3.0638864027e-001
 1.0939145189e+000	 7.4764699251e-001	 2.3816538844e-001
 1.0861778780e+000	 7.5884294641e-001	 1.6841788278e-001
 1.0783194978e+000	 7.6996886998e-001	 9.6931697069e-002
 1.0703403134e+000	 7.8102279962e-001	 2.3490283713e-002
 1.0622413020e+000	 7.9200278804e-001	-5.2124657904e-002
 1.0540234823e+000	 8.0290690541e-001	-1.3013280705e-001
 1.0456879139e+000	 8.1373324043e-001	-2.1075484210e-001
 1.0372356975e+000	 8.2447990144e-001	-2.9421205662e-001
 1.0286679735e+000	 8.3514501747e-001	-3.8072597202e-001
 1.1299439401e+000	 7.3873316707e-001	 1.4432625651e-001
 1.1223120843e+000	 7.5027700577e-001	 6.6047319731e-002
 1.1145544154e+000	 7.6175353954e-001	-1.1094806412e-002
 1.1066718002e+000	 7.7316073785e-001	-8.7354834561e-002
 1.0986651487e+000	 7.8449658451e-001	-1.6299264189e-001
 1.0905354136e+000	 7.9575907886e-001	-2.3827286798e-001
 1.0822835907e+000	 8.0694623688e-001	-3.1346450194e-001
 1.0739107178e+000	 8.1805609231e-001	-3.8884045968e-001
 1.0654178746e+000	 8.2908669780e-001	-4.6467715228e-001
 1.0568061823e+000	 8.4003612600e-001	-5.4125404628e-001
 1.0480768032e+000	 8.5090247063e-001	-6.1885321699e-001
 1.1508688279e+000	 7.5241341090e-001	-2.7787651833e-002
 1.1430956414e+000	 7.6417102439e-001	-1.1898364762e-001
 1.1351943120e+000	 7.7586008657e-001	-2.0669978652e-001
 1.1271657225e+000	 7.8747852929e-001	-2.9123351917e-001
 1.1190107996e+000	 7.9902429904e-001	-3.7289007564e-001
 1.1107305139e+000	 8.1049535810e-001	-4.5198202201e-001
 1.1023258794e+000	 8.2188968571e-001	-5.2882880232e-001
 1.0937979533e+000	 8.3320527921e-001	-6.0375626701e-001
 1.0851478352e+000	 8.4444015517e-001	-6.7709618870e-001
 1.0763766672e+000	 8.5559235055e-001	-7.4918576634e-001
 1.0674856329e+000	 8.6665992379e-001	-8.2036711885e-001
 1.1717937157e+000	 7.6609365474e-001	-1.4415690855e-001
 1.1638791986e+000	 7.7806504302e-001	-2.4970083932e-001
 1.1558342086e+000	 7.8996663360e-001	-3.4952268949e-001
 1.1476596447e+000	 8.0179632073e-001	-4.4396266786e-001
 1.1393564505e+000	 8.1355201357e-001	-5.3337131436e-001
 1.1309256141e+000	 8.2523163734e-001	-6.1810901461e-001
 1.1223681682e+000	 8.3683313454e-001	-6.9854549609e-001
 1.1136851888e+000	 8.4835446610e-001	-7.7505930712e-001
 1.1048777959e+000	 8.5979361254e-001	-8.4803727958e-001
 1.0959471520e+000	 8.7114857511e-001	-9.1787397647e-001
 1.0868944626e+000	 8.8241737695e-001	-9.8497112557e-001
 1.1927186035e+000	 7.7977389857e-001	-2.0579829615e-001
 1.1846627557e+000	 7.9195906164e-001	-3.2701042187e-001
 1.1764741052e+000	 8.0407318063e-001	-4.4035418281e-001
 1.1681535669e+000	 8.1611411218e-001	-5.4621261485e-001
 1.1597021014e+000	 8.2807972810e-001	-6.4498157685e-001
 1.1511207144e+000	 8.3996791658e-001	-7.3706922240e-001
 1.1424104569e+000	 8.5177658338e-001	-8.2289544953e-001
 1.1335724243e+000	 8.6350365300e-001	-9.0289132959e-001
 1.1246077565e+000	 8.7514706991e-001	-9.7749851642e-001
 1.1155176369e+000	 8.8670479967e-001	-1.0471686368e+000
 1.1063032923e+000	 8.9817483012e-001	-1.1123626638e+000
 1.2136434913e+000	 7.9345414240e-001	-2.1363906130e-001
 1.2054463128e+000	 8.0585308027e-001	-3.5173594476e-001
 1.1971140018e+000	 8.1817972766e-001	-4.7990957330e-001
 1.1886474891e+000	 8.3043190362e-001	-5.9858592509e-001
 1.1800477523e+000	 8.4260744262e-001	-7.0820623639e-001
 1.1713158147e+000	 8.5470419582e-001	-8.0922642962e-001
 1.1624527456e+000	 8.6672003221e-001	-9.0211651596e-001
 1.1534596599e+000	 8.7865283990e-001	-9.8735997349e-001
 1.1443377172e+000	 8.9050052728e-001	-1.0654531021e+000
 1.1350881218e+000	 9.0226102423e-001	-1.1369043563e+000
 1.1257121220e+000	 9.1393228328e-001	-1.2022336579e+000
 1.2345683790e+000	 8.0713438624e-001	-1.6852450256e-001
 1.2262298699e+000	 8.1974709889e-001	-3.2462534193e-001
 1.2177538984e+000	 8.3228627468e-001	-4.6883519362e-001
 1.2091414114e+000	 8.4474969506e-001	-6.0162313741e-001
 1.2003934032e+000	 8.5713515715e-001	-7.2347589232e-001
 1.1915109149e+000	 8.6944047506e-001	-8.3489720032e-001
 1.1824950343e+000	 8.8166348104e-001	-9.3640718096e-001
 1.1733468954e+000	 8.9380202679e-001	-1.0285416581e+000
 1.1640676778e+000	 9.0585398465e-001	-1.1118514598e+000
 1.1546586066e+000	 9.1781724879e-001	-1.1869016935e+000
 1.1451209517e+000	 9.2968973644e-001	-1.2542709964e+000
 1.2554932668e+000	 8.2081463007e-001	-1.7688529751e-001
 1.2470134270e+000	 8.3364111751e-001	-2.4635723305e-001
 1.2383937949e+000	 8.4639282171e-001	-4.0771415015e-001
 1.2296353336e+000	 8.5906748650e-001	-5.5580793338e-001
 1.2207390541e+000	 8.7166287168e-001	-6.9117093460e-001
 1.2117060152e+000	 8.8417675429e-001	-8.1435481341e-001
 1.2025373230e+000	 8.9660692987e-001	-9.2592984295e-001
 1.1932341309e+000	 9.0895121369e-001	-1.0264841844e+000
 1.1837976384e+000	 9.2120744201e-001	-1.1166231318e+000
 1.1742290915e+000	 9.3337347334e-001	-1.1969683274e+000
 1.1645297814e+000	 9.4544718961e-001	-1.2681569515e+000
 9.7044148445e-001	 7.8787265798e-001	 5.5047326543e-001
 9.6225087038e-001	 7.9785541446e-001	 4.6857360530e-001
 9.5395355134e-001	 8.0775777422e-001	 3.8358243327e-001
 9.4555071450e-001	 8.1757803678e-001	 2.9530518599e-001
 9.3704358298e-001	 8.2731452514e-001	 2.0354870744e-001
 9.2843341526e-001	 8.3696558670e-001	 1.0812158923e-001
 9.1972150458e-001	 8.4652959423e-001	 8.8345087901e-003
 9.1090917828e-001	 8.5600494672e-001	-9.4499435212e-002
 9.0199779714e-001	 8.6539007034e-001	-2.0206439124e-001
 8.9298875468e-001	 8.7468341924e-001	-3.1404142763e-001
 8.8388347645e-001	 8.8388347645e-001	-4.3060821051e-001
 9.8985031414e-001	 8.0363011114e-001	 2.0421598753e-001
 9.8149588779e-001	 8.1381252275e-001	 1.3164671659e-001
 9.7303262236e-001	 8.2391292970e-001	 5.5211024055e-002
 9.6446172879e-001	 8.3392959752e-001	-2.5296434556e-002
 9.5578445464e-001	 8.4386081564e-001	-1.1007897212e-001
 9.4700208356e-001	 8.5370489844e-001	-1.9933751028e-001
 9.3811593467e-001	 8.6346018612e-001	-2.9327022274e-001
 9.2912736184e-001	 8.7312504566e-001	-3.9207218237e-001
 9.2003775308e-001	 8.8269787175e-001	-4.9593501285e-001
 9.1084852978e-001	 8.9217708762e-001	-6.0504654576e-001
 9.0156114598e-001	 9.0156114598e-001	-7.1959048390e-001
 1.0092591438e+000	 8.1938756430e-001	-1.0627533572e-001
 1.0007409052e+000	 8.2976963104e-001	-1.6896569722e-001
 9.9211169339e-001	 8.4006808519e-001	-2.3629764186e-001
 9.8337274308e-001	 8.5028115826e-001	-3.0848797546e-001
 9.7452532630e-001	 8.6040710615e-001	-3.8575084577e-001
 9.6557075187e-001	 8.7044421018e-001	-4.6829736262e-001
 9.5651036476e-001	 8.8039077800e-001	-5.5633522177e-001
 9.4734554541e-001	 8.9024514460e-001	-6.5006833338e-001
 9.3807770903e-001	 9.0000567316e-001	-7.4969645610e-001
 9.2870830487e-001	 9.0967075601e-001	-8.5541483754e-001
 9.1923881551e-001	 9.1923881551e-001	-9.6741386196e-001
 1.0286679735e+000	 8.3514501747e-001	-3.8072597202e-001
 1.0199859226e+000	 8.4572673933e-001	-4.3299182492e-001
 1.0111907644e+000	 8.5622324068e-001	-4.9067559869e-001
 1.0022837574e+000	 8.6663271899e-001	-5.5400624815e-001
 9.9326619796e-001	 8.7695339665e-001	-6.2320944095e-001
 9.8413942018e-001	 8.8718352191e-001	-6.9850715634e-001
 9.7490479486e-001	 8.9732136989e-001	-7.8011728856e-001
 9.6556372898e-001	 9.0736524353e-001	-8.6825325579e-001
 9.5611766497e-001	 9.1731347456e-001	-9.6312361566e-001
 9.4656807997e-001	 9.2716442440e-001	-1.0649316881e+000
 9.3691648504e-001	 9.3691648504e-001	-1.1738751863e+000
 1.0480768032e+000	 8.5090247063e-001	-6.1885321699e-001
 1.0392309400e+000	 8.6168384763e-001	-6.6015095626e-001
 1.0302698354e+000	 8.7237839617e-001	-7.0764499665e-001
 1.0211947717e+000	 8.8298427973e-001	-7.6157713768e-001
 1.0120070696e+000	 8.9349968716e-001	-8.2218525923e-001
 1.0027080885e+000	 9.0392283365e-001	-8.8970289792e-001
 9.9329922495e-001	 9.1425196178e-001	-9.6435882907e-001
 9.8378191255e-001	 9.2448534247e-001	-1.0463766551e+000
 9.7415762092e-001	 9.3462127597e-001	-1.1359744013e+000
 9.6442785507e-001	 9.4465809279e-001	-1.2333641203e+000
 9.5459415457e-001	 9.5459415457e-001	-1.3387515056e+000
 1.0674856329e+000	 8.6665992379e-001	-8.2036711885e-001
 1.0584759574e+000	 8.7764095592e-001	-8.5015429089e-001
 1.0493489065e+000	 8.8853355166e-001	-8.8691900051e-001
 1.0401057860e+000	 8.9933584047e-001	-9.3091659599e-001
 1.0307479413e+000	 9.1004597767e-001	-9.8239786949e-001
 1.0212767568e+000	 9.2066214539e-001	-1.0416086102e+000
 1.0116936550e+000	 9.3118255367e-001	-1.1087891635e+000
 1.0020000961e+000	 9.4160544141e-001	-1.1841739983e+000
 9.9219757686e-001	 9.5192907738e-001	-1.2679912818e+000
 9.8228763016e-001	 9.6215176117e-001	-1.3604624643e+000
 9.7227182411e-001	 9.7227182411e-001	-1.4618018746e+000
 1.0868944626e+000	 8.8241737695e-001	-9.8497112557e-001
 1.0777209748e+000	 8.9359806421e-001	-1.0027056607e+000
 1.0684279775e+000	 9.0468870714e-001	-1.0282025919e+000
 1.0590168002e+000	 9.1568740121e-001	-1.0617315288e+000
 1.0494888129e+000	 9.2659226817e-001	-1.1035568841e+000
 1.0398454251e+000	 9.3740145713e-001	-1.1539374021e+000
 1.0300880851e+000	 9.4811314556e-001	-1.2131256948e+000
 1.0202182797e+000	 9.5872554035e-001	-1.2813677857e+000
 1.0102375328e+000	 9.6923687880e-001	-1.3589026638e+000
 1.0001474053e+000	 9.7964542956e-001	-1.4459618477e+000
 9.8994949364e-001	 9.8994949364e-001	-1.5427689612e+000
 1.1063032923e+000	 8.9817483012e-001	-1.1123626638e+000
 1.0969659922e+000	 9.0955517251e-001	-1.1175021762e+000
 1.0875070485e+000	 9.2084386263e-001	-1.1311932872e+000
 1.0779278145e+000	 9.3203896195e-001	-1.1537205892e+000
 1.0682296846e+000	 9.4313855868e-001	-1.1853628323e+000
 1.0584140934e+000	 9.5414076887e-001	-1.2263924266e+000
 1.0484825152e+000	 9.6504373745e-001	-1.2770749537e+000
 1.0384364633e+000	 9.7584563929e-001	-1.3376686876e+000
 1.0282774888e+000	 9.8654468021e-001	-1.4084241253e+000
 1.0180071804e+000	 9.9713909795e-001	-1.4895835294e+000
 1.0076271632e+000	 1.0076271632e+000	-1.5813804833e+000
 1.1257121220e+000	 9.1393228328e-001	-1.2022336579e+000
 1.1162110097e+000	 9.2551228080e-001	-1.1942348058e+000
 1.1065861196e+000	 9.3699901812e-001	-1.1955817807e+000
 1.0968388288e+000	 9.4839052269e-001	-1.2065748891e+000
 1.0869705563e+000	 9.5968484919e-001	-1.2275079433e+000
 1.0769827617e+000	 9.7088008061e-001	-1.2586677381e+000
 1.0668769453e+000	 9.8197432934e-001	-1.3003335364e+000
 1.0566546468e+000	 9.9296573823e-001	-1.3527765650e+000
 1.0463174447e+000	 1.0038524816e+000	-1.4162595215e+000
 1.0358669555e+000	 1.0146327663e+000	-1.4910360947e+000
 1.0253048327e+000	 1.0253048327e+000	-1.5773504982e+000
 1.1451209517e+000	 9.2968973644e-001	-1.2542709964e+000
 1.1354560271e+000	 9.4146938909e-001	-1.2325888964e+000
 1.1256651906e+000	 9.5315417361e-001	-1.2210525234e+000
 1.1157498431e+000	 9.6474208344e-001	-1.2199786380e+000
 1.1057114279e+000	 9.7623113970e-001	-1.2296768493e+000
 1.0955514300e+000	 9.8761939235e-001	-1.2504490643e+000
 1.0852713754e+000	 9.9890492123e-001	-1.2825889463e+000
 1.0748728304e+000	 1.0100858372e+000	-1.3263813847e+000
 1.0643574006e+000	 1.0211602830e+000	-1.3821019781e+000
 1.0537267306e+000	 1.0321264347e+000	-1.4500165300e+000
 1.0429825022e+000	 1.0429825022e+000	-1.5303805598e+000
 1.1645297814e+000	 9.4544718961e-001	-1.2681569515e+000
 1.1547010445e+000	 9.5742649739e-001	-1.2322446420e+000
 1.1447442616e+000	 9.6930932910e-001	-1.2072842428e+000
 1.1346608574e+000	 9.8109364418e-001	-1.1936097186e+000
 1.1244522996e+000	 9.9277743021e-001	-1.1915472192e+000
 1.1141200983e+000	 1.0043587041e+000	-1.2014144998e+000
 1.1036658055e+000	 1.0158355131e+000	-1.2235203514e+000
 1.0930910140e+000	 1.0272059361e+000	-1.2581640447e+000
 1.0823973566e+000	 1.0384680844e+000	-1.3056347859e+000
 1.0715865057e+000	 1.0496201031e+000	-1.3662111886e+000
 1.0606601718e+000	 1.0606601718e+000	-1.4401607611e+000
 8.8388347645e-001	 8.8388347645e-001	-4.3060821051e-001
 8.7468341924e-001	 8.9298875468e-001	-4.8186779550e-001
 8.6539007034e-001	 9.0199779714e-001	-5.3861369632e-001
 8.5600494672e-001	 9.1090917828e-001	-6.0088231316e-001
 8.4652959423e-001	 9.1972150458e-001	-6.6870453290e-001
 8.3696558670e-001	 9.2843341526e-001	-7.4210559042e-001
 8.2731452514e-001	 9.3704358298e-001	-8.2110494037e-001
 8.1757803678e-001	 9.4555071450e-001	-9.0571613962e-001
 8.0775777422e-001	 9.5395355134e-001	-9.9594674100e-001
 7.9785541446e-001	 9.6225087038e-001	-1.0917981983e+000
 7.8787265798e-001	 9.7044148445e-001	-1.1932657830e+000
 9.0156114598e-001	 9.0156114598e-001	-7.1959048390e-001
 8.9217708762e-001	 9.1084852978e-001	-7.6156741025e-001
 8.8269787175e-001	 9.2003775308e-001	-8.1009573111e-001
 8.7312504566e-001	 9.2912736184e-001	-8.6522770338e-001
 8.6346018612e-001	 9.3811593467e-001	-9.2700905809e-001
 8.5370489844e-001	 9.4700208356e-001	-9.9547884078e-001
 8.4386081564e-001	 9.5578445464e-001	-1.0706692640e+000
 8.3392959752e-001	 9.6446172879e-001	-1.1526055721e+000
 8.2391292970e-001	 9.7303262236e-001	-1.2413059188e+000
 8.1381252275e-001	 9.8149588779e-001	-1.3367812581e+000
 8.0363011114e-001	 9.8985031414e-001	-1.4390352480e+000
 9.1923881551e-001	 9.1923881551e-001	-9.6741386196e-001
 9.0967075601e-001	 9.2870830487e-001	-1.0004093496e+000
 9.0000567316e-001	 9.3807770903e-001	-1.0410200547e+000
 8.9024514460e-001	 9.4734554541e-001	-1.0893143181e+000
 8.8039077800e-001	 9.5651036476e-001	-1.1453529362e+000
 8.7044421018e-001	 9.6557075187e-001	-1.2091889801e+000
 8.6040710615e-001	 9.7452532630e-001	-1.2808676282e+000
 8.5028115826e-001	 9.8337274308e-001	-1.3604260128e+000
 8.4006808519e-001	 9.9211169339e-001	-1.4478930814e+000
 8.2976963104e-001	 1.0007409052e+000	-1.5432894724e+000
 8.1938756430e-001	 1.0092591438e+000	-1.6466274061e+000
 9.3691648504e-001	 9.3691648504e-001	-1.1738751863e+000
 9.2716442440e-001	 9.4656807997e-001	-1.1981566304e+000
 9.1731347456e-001	 9.5611766497e-001	-1.2311172871e+000
 9.0736524353e-001	 9.6556372898e-001	-1.2728418308e+000
 8.9732136989e-001	 9.7490479486e-001	-1.3234063661e+000
 8.8718352191e-001	 9.8413942018e-001	-1.3828782250e+000
 8.7695339665e-001	 9.9326619796e-001	-1.4513157787e+000
 8.6663271899e-001	 1.0022837574e+000	-1.5287682666e+000
 8.5622324068e-001	 1.0111907644e+000	-1.6152756392e+000
 8.4572673933e-001	 1.0199859226e+000	-1.7108684199e+000
 8.3514501747e-001	 1.0286679735e+000	-1.8155675816e+000
 9.5459415457e-001	 9.5459415457e-001	-1.3387515056e+000
 9.4465809279e-001	 9.6442785507e-001	-1.3545544185e+000
 9.3462127597e-001	 9.7415762092e-001	-1.3801020527e+000
 9.2448534247e-001	 9.8378191255e-001	-1.4154956879e+000
 9.1425196178e-001	 9.9329922495e-001	-1.4608270003e+000
 9.0392283365e-001	 1.0027080885e+000	-1.5161778373e+000
 8.9349968716e-001	 1.0120070696e+000	-1.5816200093e+000
 8.8298427973e-001	 1.0211947717e+000	-1.6572150984e+000
 8.7237839617e-001	 1.0302698354e+000	-1.7430142847e+000
 8.6168384763e-001	 1.0392309400e+000	-1.8390581919e+000
 8.5090247063e-001	 1.0480768032e+000	-1.9453767498e+000
 9.7227182411e-001	 9.7227182411e-001	-1.4618018746e+000
 9.6215176117e-001	 9.8228763016e-001	-1.4693316512e+000
 9.5192907738e-001	 9.9219757686e-001	-1.4876744347e+000
 9.4160544141e-001	 1.0020000961e+000	-1.5169484024e+000
 9.3118255367e-001	 1.0116936550e+000	-1.5572610852e+000
 9.2066214539e-001	 1.0212767568e+000	-1.6087091203e+000
 9.1004597767e-001	 1.0307479413e+000	-1.6713780206e+000
 8.9933584047e-001	 1.0401057860e+000	-1.7453419643e+000
 8.8853355166e-001	 1.0493489065e+000	-1.8306636030e+000
 8.7764095592e-001	 1.0584759574e+000	-1.9273938908e+000
 8.6665992379e-001	 1.0674856329e+000	-2.0355719330e+000
 9.8994949364e-001	 9.8994949364e-001	-1.5427689612e+000
 9.7964542956e-001	 1.0001474053e+000	-1.5422024866e+000
 9.6923687880e-001	 1.0102375328e+000	-1.5535212733e+000
 9.5872554035e-001	 1.0202182797e+000	-1.5768607082e+000
 9.4811314556e-001	 1.0300880851e+000	-1.6123444801e+000
 9.3740145713e-001	 1.0398454251e+000	-1.6600843078e+000
 9.2659226817e-001	 1.0494888129e+000	-1.7201796880e+000
 9.1568740121e-001	 1.0590168002e+000	-1.7927176642e+000
 9.0468870714e-001	 1.0684279775e+000	-1.8777726170e+000
 8.9359806421e-001	 1.0777209748e+000	-1.9754060758e+000
 8.8241737695e-001	 1.0868944626e+000	-2.0856665528e+000
 1.0076271632e+000	 1.0076271632e+000	-1.5813804833e+000
 9.9713909795e-001	 1.0180071804e+000	-1.5728676000e+000
 9.8654468021e-001	 1.0282774888e+000	-1.5773173272e+000
 9.7584563929e-001	 1.0384364633e+000	-1.5948825940e+000
 9.6504373745e-001	 1.0484825152e+000	-1.6257035680e+000
 9.5414076887e-001	 1.0584140934e+000	-1.6699073596e+000
 9.4313855868e-001	 1.0682296846e+000	-1.7276077472e+000
 9.3203896195e-001	 1.0779278145e+000	-1.7989049254e+000
 9.2084386263e-001	 1.0875070485e+000	-1.8838852757e+000
 9.0955517251e-001	 1.0969659922e+000	-1.9826211615e+000
 8.9817483012e-001	 1.1063032923e+000	-2.0951707464e+000
 1.0253048327e+000	 1.0253048327e+000	-1.5773504982e+000
 1.0146327663e+000	 1.0358669555e+000	-1.5610153458e+000
 1.0038524816e+000	 1.0463174447e+000	-1.5587263154e+000
 9.9296573823e-001	 1.0566546468e+000	-1.5706542289e+000
 9.8197432934e-001	 1.0668769453e+000	-1.5969560723e+000
 9.7088008061e-001	 1.0769827617e+000	-1.6377746748e+000
 9.5968484919e-001	 1.0869705563e+000	-1.6932384107e+000
 9.4839052269e-001	 1.0968388288e+000	-1.7634609263e+000
 9.3699901812e-001	 1.1065861196e+000	-1.8485408912e+000
 9.2551228080e-001	 1.1162110097e+000	-1.9485617749e+000
 9.1393228328e-001	 1.1257121220e+000	-2.0635916496e+000
 1.0429825022e+000	 1.0429825022e+000	-1.5303805598e+000
 1.0321264347e+000	 1.0537267306e+000	-1.5063228022e+000
 1.0211602830e+000	 1.0643574006e+000	-1.4974018526e+000
 1.0100858372e+000	 1.0748728304e+000	-1.5038067952e+000
 9.9890492123e-001	 1.0852713754e+000	-1.5257117913e+000
 9.8761939235e-001	 1.0955514300e+000	-1.5632757326e+000
 9.7623113970e-001	 1.1057114279e+000	-1.6166419198e+000
 9.6474208344e-001	 1.1157498431e+000	-1.6859377668e+000
 9.5315417361e-001	 1.1256651906e+000	-1.7712745319e+000
 9.4146938909e-001	 1.1354560271e+000	-1.8727470766e+000
 9.2968973644e-001	 1.1451209517e+000	-1.9904336511e+000
 1.0606601718e+000	 1.0606601718e+000	-1.4401607611e+000
 1.0496201031e+000	 1.0715865057e+000	-1.4084567104e+000
 1.0384680844e+000	 1.0823973566e+000	-1.3929882911e+000
 1.0272059361e+000	 1.0930910140e+000	-1.3939632368e+000
 1.0158355131e+000	 1.1036658055e+000	-1.4115732579e+000
 1.0043587041e+000	 1.1141200983e+000	-1.4459936690e+000
 9.9277743021e-001	 1.1244522996e+000	-1.4973830427e+000
 9.8109364418e-001	 1.1346608574e+000	-1.5658828910e+000
 9.6930932910e-001	 1.1447442616e+000	-1.6516173761e+000
 9.5742649739e-001	 1.1547010445e+000	-1.7546930495e+000
 9.4544718961e-001	 1.1645297814e+000	-1.8751986216e+000
 7.8787265798e-001	 9.7044148445e-001	-1.1932657830e+000
 7.7781122776e-001	 9.7852424289e-001	-1.1893324686e+000
 7.6767286832e-001	 9.8649803203e-001	-1.1950180994e+000
 7.5745934472e-001	 9.9436177575e-001	-1.2102234283e+000
 7.4717244154e-001	 1.0021144359e+000	-1.2348384898e+000
 7.3681396190e-001	 1.0097550126e+000	-1.2687426941e+000
 7.2638572639e-001	 1.0172825451e+000	-1.3118049373e+000
 7.1588957207e-001	 1.0246961113e+000	-1.3638837307e+000
 7.0532735142e-001	 1.0319948291e+000	-1.4248273465e+000
 6.9470093126e-001	 1.0391778559e+000	-1.4944739809e+000
 6.8401219173e-001	 1.0462443890e+000	-1.5726519340e+000
 8.0363011114e-001	 9.8985031414e-001	-1.4390352480e+000
 7.9336745232e-001	 9.9809472774e-001	-1.4317299940e+000
 7.8302632569e-001	 1.0062279927e+000	-1.4330908979e+000
 7.7260853162e-001	 1.0142490113e+000	-1.4430541525e+000
 7.6211589037e-001	 1.0221567246e+000	-1.4615459435e+000
 7.5155024114e-001	 1.0299501129e+000	-1.4884824969e+000
 7.4091344092e-001	 1.0376281960e+000	-1.5237701441e+000
 7.3020736352e-001	 1.0451900336e+000	-1.5673054042e+000
 7.1943389845e-001	 1.0526347257e+000	-1.6189750826e+000
 7.0859494989e-001	 1.0599614130e+000	-1.6786563880e+000
 6.9769243556e-001	 1.0671692768e+000	-1.7462170649e+000
 8.1938756430e-001	 1.0092591438e+000	-1.6466274061e+000
 8.0892367688e-001	 1.0176652126e+000	-1.6377806808e+000
 7.9837978306e-001	 1.0259579533e+000	-1.6367294086e+000
 7.8775771852e-001	 1.0341362468e+000	-1.6434444466e+000
 7.7705933921e-001	 1.0421990133e+000	-1.6578872968e+000
 7.6628652038e-001	 1.0501452131e+000	-1.6800101089e+000
 7.5544115545e-001	 1.0579738469e+000	-1.7097556996e+000
 7.4452515496e-001	 1.0656839558e+000	-1.7470575891e+000
 7.3354044548e-001	 1.0732746223e+000	-1.7918400551e+000
 7.2248896852e-001	 1.0807449701e+000	-1.8440182030e+000
 7.1137267940e-001	 1.0880941646e+000	-1.9034980528e+000
 8.3514501747e-001	 1.0286679735e+000	-1.8155675816e+000
 8.2447990144e-001	 1.0372356975e+000	-1.8069044497e+000
 8.1373324043e-001	 1.0456879139e+000	-1.8052451446e+000
 8.0290690541e-001	 1.0540234823e+000	-1.8105944751e+000
 7.9200278804e-001	 1.0622413020e+000	-1.8229484897e+000
 7.8102279962e-001	 1.0703403134e+000	-1.8422944350e+000
 7.6996886998e-001	 1.0783194978e+000	-1.8686107305e+000
 7.5884294641e-001	 1.0861778780e+000	-1.9018669609e+000
 7.4764699251e-001	 1.0939145189e+000	-1.9420238845e+000
 7.3638298714e-001	 1.1015285272e+000	-1.9890334588e+000
 7.2505292324e-001	 1.1090190524e+000	-2.0428388830e+000
 8.5090247063e-001	 1.0480768032e+000	-1.9453767498e+000
 8.4003612600e-001	 1.0568061823e+000	-1.9385243448e+000
 8.2908669780e-001	 1.0654178746e+000	-1.9379604633e+000
 8.1805609231e-001	 1.0739107178e+000	-1.9437232123e+000
 8.0694623688e-001	 1.0822835907e+000	-1.9558424773e+000
 7.9575907886e-001	 1.0905354136e+000	-1.9743398370e+000
 7.8449658451e-001	 1.0986651487e+000	-1.9992284946e+000
 7.7316073785e-001	 1.1066718002e+000	-2.0305132257e+000
 7.6175353954e-001	 1.1145544154e+000	-2.0681903433e+000
 7.5027700577e-001	 1.1223120843e+000	-2.1122476790e+000
 7.3873316707e-001	 1.1299439401e+000	-2.1626645820e+000
 8.6665992379e-001	 1.0674856329e+000	-2.0355719330e+000
 8.5559235055e-001	 1.0763766672e+000	-2.0320662496e+000
 8.4444015517e-001	 1.0851478352e+000	-2.0342075803e+000
 8.3320527921e-001	 1.0937979533e+000	-2.0420667321e+000
 8.2188968571e-001	 1.1023258794e+000	-2.0557067743e+000
 8.1049535810e-001	 1.1107305139e+000	-2.0751829109e+000
 7.9902429904e-001	 1.1190107996e+000	-2.1005423679e+000
 7.8747852929e-001	 1.1271657225e+000	-2.1318242989e+000
 7.7586008657e-001	 1.1351943120e+000	-2.1690597060e+000
 7.6417102439e-001	 1.1430956414e+000	-2.2122713789e+000
 7.5241341090e-001	 1.1508688279e+000	-2.2614738500e+000
 8.8241737695e-001	 1.0868944626e+000	-2.0856665528e+000
 8.7114857511e-001	 1.0959471520e+000	-2.0869586332e+000
 8.5979361254e-001	 1.1048777959e+000	-2.0933276892e+000
 8.4835446610e-001	 1.1136851888e+000	-2.1048766810e+000
 8.3683313454e-001	 1.1223681682e+000	-2.1217012621e+000
 8.2523163734e-001	 1.1309256141e+000	-2.1438896084e+000
 8.1355201357e-001	 1.1393564505e+000	-2.1715222634e+000
 8.0179632073e-001	 1.1476596447e+000	-2.2046720011e+000
 7.8996663360e-001	 1.1558342086e+000	-2.2434037045e+000
 7.7806504302e-001	 1.1638791986e+000	-2.2877742625e+000
 7.6609365474e-001	 1.1717937157e+000	-2.3378324833e+000
 8.9817483012e-001	 1.1063032923e+000	-2.0951707464e+000
 8.8670479967e-001	 1.1155176369e+000	-2.1026323239e+000
 8.7514706991e-001	 1.1246077565e+000	-2.1146701741e+000
 8.6350365300e-001	 1.1335724243e+000	-2.1314189128e+000
 8.5177658338e-001	 1.1424104569e+000	-2.1530062270e+000
 8.3996791658e-001	 1.1511207144e+000	-2.1795526622e+000
 8.2807972810e-001	 1.1597021014e+000	-2.2111714256e+000
 8.1611411218e-001	 1.1681535669e+000	-2.2479682065e+000
 8.0407318063e-001	 1.1764741052e+000	-2.2900410138e+000
 7.9195906164e-001	 1.1846627557e+000	-2.3374800308e+000
 7.7977389857e-001	 1.1927186035e+000	-2.3903674880e+000
 9.1393228328e-001	 1.1257121220e+000	-2.0635916496e+000
 9.0226102423e-001	 1.1350881218e+000	-2.0785203056e+000
 8.9050052728e-001	 1.1443377172e+000	-2.0975919035e+000
 8.7865283990e-001	 1.1534596599e+000	-2.1209722628e+000
 8.6672003221e-001	 1.1624527456e+000	-2.1488206006e+000
 8.5470419582e-001	 1.1713158147e+000	-2.1812892770e+000
 8.4260744262e-001	 1.1800477523e+000	-2.2185235572e+000
 8.3043190362e-001	 1.1886474891e+000	-2.2606613903e+000
 8.1817972766e-001	 1.1971140018e+000	-2.3078332055e+000
 8.0585308027e-001	 1.2054463128e+000	-2.3601617266e+000
 7.9345414240e-001	 1.2136434913e+000	-2.4177618040e+000
 9.2968973644e-001	 1.1451209517e+000	-1.9904336511e+000
 9.1781724879e-001	 1.1546586066e+000	-2.0140575351e+000
 9.0585398465e-001	 1.1640676778e+000	-2.0414565962e+000
 8.9380202679e-001	 1.1733468954e+000	-2.0728274487e+000
 8.8166348104e-001	 1.1824950343e+000	-2.1083603803e+000
 8.6944047506e-001	 1.1915109149e+000	-2.1482390558e+000
 8.5713515715e-001	 1.2003934032e+000	-2.1926402383e+000
 8.4474969506e-001	 1.2091414114e+000	-2.2417335267e+000
 8.3228627468e-001	 1.2177538984e+000	-2.2956811126e+000
 8.1974709889e-001	 1.2262298699e+000	-2.3546375531e+000
 8.0713438624e-001	 1.2345683790e+000	-2.4187495643e+000
 9.4544718961e-001	 1.1645297814e+000	-1.8751986216e+000
 9.3337347334e-001	 1.1742290915e+000	-1.9086807776e+000
 9.2120744201e-001	 1.1837976384e+000	-1.9456342499e+000
 9.0895121369e-001	 1.1932341309e+000	-1.9862860797e+000
 8.9660692987e-001	 1.2025373230e+000	-2.0308572070e+000
 8.8417675429e-001	 1.2117060152e+000	-2.0795621333e+000
 8.7166287168e-001	 1.2207390541e+000	-2.1326086024e+000
 8.5906748650e-001	 1.2296353336e+000	-2.1901972975e+000
 8.4639282171e-001	 1.2383937949e+000	-2.2525215572e+000
 8.3364111751e-001	 1.2470134270e+000	-2.3197671104e+000
 8.2081463007e-001	 1.2554932668e+000	-2.4063963064e+000
 6.8401219173e-001	 1.0462443890e+000	-1.5726519340e+000
 6.7326302520e-001	 1.0531936664e+000	-1.6566623395e+000
 6.6245533522e-001	 1.0600249662e+000	-1.7589216678e+000
 6.5159103546e-001	 1.0667376072e+000	-1.8788057734e+000
 6.4067204862e-001	 1.0733309490e+000	-2.0156750912e+000
 6.2970030539e-001	 1.0798043922e+000	-2.1688753974e+000
 6.1867774335e-001	 1.0861573781e+000	-2.2075019442e+000
 6.0760630594e-001	 1.0923893889e+000	-2.1594231323e+000
 5.9648794139e-001	 1.0984999480e+000	-2.1197760795e+000
 5.8532460163e-001	 1.1044886196e+000	-2.0879144930e+000
 5.7411824131e-001	 1.1103550086e+000	-2.0631864839e+000
 6.9769243556e-001	 1.0671692768e+000	-1.7462170649e+000
 6.8672828570e-001	 1.0742575397e+000	-1.7952743499e+000
 6.7570444192e-001	 1.0812254655e+000	-1.8626681895e+000
 6.6462285617e-001	 1.0880723593e+000	-1.9478130764e+000
 6.5348548960e-001	 1.0947975680e+000	-2.0501076090e+000
 6.4229431150e-001	 1.1014004800e+000	-2.1689352164e+000
 6.3105129822e-001	 1.1078805256e+000	-2.3036649017e+000
 6.1975843206e-001	 1.1142371767e+000	-2.3412817520e+000
 6.0841770021e-001	 1.1204699470e+000	-2.2589784550e+000
 5.9703109366e-001	 1.1265783920e+000	-2.1844902021e+000
 5.8560060613e-001	 1.1325621087e+000	-2.1171982475e+000
 7.1137267940e-001	 1.0880941646e+000	-1.9034980528e+000
 7.0019354621e-001	 1.0953214130e+000	-1.9205123491e+000
 6.8895354863e-001	 1.1024259648e+000	-1.9559977940e+000
 6.7765467688e-001	 1.1094071114e+000	-2.0094061522e+000
 6.6629893057e-001	 1.1162641870e+000	-2.0801727879e+000
 6.5488831761e-001	 1.1229965679e+000	-2.1677173548e+000
 6.4342485309e-001	 1.1296036732e+000	-2.2714445067e+000
 6.3191055818e-001	 1.1360849645e+000	-2.3907446260e+000
 6.2034745904e-001	 1.1424399459e+000	-2.4213461954e+000
 6.0873758569e-001	 1.1486681643e+000	-2.3074859081e+000
 5.9708297096e-001	 1.1547692089e+000	-2.2009124091e+000
 7.2505292324e-001	 1.1090190524e+000	-2.0428388830e+000
 7.1365880671e-001	 1.1163852864e+000	-2.0305708715e+000
 7.0220265533e-001	 1.1236264641e+000	-2.0369546574e+000
 6.9068649759e-001	 1.1307418636e+000	-2.0614779895e+000
 6.7911237154e-001	 1.1377308060e+000	-2.1036116771e+000
 6.6748232371e-001	 1.1445926557e+000	-2.1628102477e+000
 6.5579840795e-001	 1.1513268207e+000	-2.2385126257e+000
 6.4406268430e-001	 1.1579327522e+000	-2.3301428308e+000
 6.3227721786e-001	 1.1644099449e+000	-2.4371106945e+000
 6.2044407772e-001	 1.1707579367e+000	-2.4534857348e+000
 6.0856533578e-001	 1.1769763091e+000	-2.3107691020e+000
 7.3873316707e-001	 1.1299439401e+000	-2.1626645820e+000
 7.2712406721e-001	 1.1374491597e+000	-2.1237365102e+000
 7.1545176204e-001	 1.1448269634e+000	-2.1036861296e+000
 7.0371831829e-001	 1.1520766157e+000	-2.1020359568e+000
 6.9192581251e-001	 1.1591974249e+000	-2.1182909982e+000
 6.8007632982e-001	 1.1661887436e+000	-2.1519393759e+000
 6.6817196282e-001	 1.1730499683e+000	-2.2024529762e+000
 6.5621481041e-001	 1.1797805400e+000	-2.2692881191e+000
 6.4420697669e-001	 1.1863799439e+000	-2.3518862476e+000
 6.3215056975e-001	 1.1928477091e+000	-2.4496746344e+000
 6.2004770061e-001	 1.1991834092e+000	-2.4434033796e+000
 7.5241341090e-001	 1.1508688279e+000	-2.2614738500e+000
 7.4058932772e-001	 1.1585130330e+000	-2.1983795481e+000
 7.2870086874e-001	 1.1660274628e+000	-2.1544333545e+000
 7.1675013900e-001	 1.1734113679e+000	-2.1291914046e+000
 7.0473925348e-001	 1.1806640439e+000	-2.1221917207e+000
 6.9267033592e-001	 1.1877848314e+000	-2.1329548071e+000
 6.8054551768e-001	 1.1947731158e+000	-2.1609842699e+000
 6.6836693653e-001	 1.2016283278e+000	-2.2057674586e+000
 6.5613673552e-001	 1.2083499428e+000	-2.2667761292e+000
 6.4385706178e-001	 1.2149374815e+000	-2.3434671267e+000
 6.3153006543e-001	 1.2213905094e+000	-2.4352830858e+000
 7.6609365474e-001	 1.1717937157e+000	-2.3378324833e+000
 7.5405458822e-001	 1.1795769063e+000	-2.2529464857e+000
 7.4194997544e-001	 1.1872279621e+000	-2.1875228956e+000
 7.2978195971e-001	 1.1947461200e+000	-2.1411503812e+000
 7.1755269445e-001	 1.2021306629e+000	-2.1133988612e+000
 7.0526434203e-001	 1.2093809192e+000	-2.1038200722e+000
 6.9291907255e-001	 1.2164962634e+000	-2.1119481595e+000
 6.8051906265e-001	 1.2234761156e+000	-2.1373002927e+000
 6.6806649434e-001	 1.2303199418e+000	-2.1793773040e+000
 6.5556355381e-001	 1.2370272539e+000	-2.2376643470e+000
 6.4301243026e-001	 1.2435976096e+000	-2.3116315757e+000
 7.7977389857e-001	 1.1927186035e+000	-2.3903674880e+000
 7.6751984872e-001	 1.2006407797e+000	-2.2859533550e+000
 7.5519908214e-001	 1.2084284614e+000	-2.2013592434e+000
 7.4281378042e-001	 1.2160808721e+000	-2.1362053255e+000
 7.3036613542e-001	 1.2235972819e+000	-2.0900923565e+000
 7.1785834814e-001	 1.2309770071e+000	-2.0626022122e+000
 7.0529262741e-001	 1.2382194110e+000	-2.0532984544e+000
 6.9267118877e-001	 1.2453239033e+000	-2.0617269207e+000
 6.7999625317e-001	 1.2522899407e+000	-2.0836950009e+000
 6.6727004585e-001	 1.2591170263e+000	-2.1112513493e+000
 6.5449479508e-001	 1.2658047097e+000	-2.1494232226e+000
 7.9345414240e-001	 1.2136434913e+000	-2.4177618040e+000
 7.8098510922e-001	 1.2217046530e+000	-2.2959797258e+000
 7.6844818885e-001	 1.2296289607e+000	-2.1944180969e+000
 7.5584560112e-001	 1.2374156243e+000	-2.1127276204e+000
 7.4317957639e-001	 1.2450639008e+000	-2.0505388807e+000
 7.3045235424e-001	 1.2525730949e+000	-2.0071637494e+000
 7.1766618228e-001	 1.2599425585e+000	-1.9781111416e+000
 7.0482331488e-001	 1.2671716911e+000	-1.9614366235e+000
 6.9192601199e-001	 1.2742599397e+000	-1.9564308379e+000
 6.7897653788e-001	 1.2812067987e+000	-1.9623992742e+000
 6.6597715991e-001	 1.2880118099e+000	-1.9786626803e+000
 8.0713438624e-001	 1.2345683790e+000	-2.4187495643e+000
 7.9445036972e-001	 1.2427685263e+000	-2.2816633208e+000
 7.8169729555e-001	 1.2508294600e+000	-2.1664017152e+000
 7.6887742183e-001	 1.2587503764e+000	-2.0784225243e+000
 7.5599301736e-001	 1.2665305198e+000	-2.0045505082e+000
 7.4304636035e-001	 1.2741691828e+000	-1.9440515144e+000
 7.3003973714e-001	 1.2816657061e+000	-1.8962063271e+000
 7.1697544100e-001	 1.2890194789e+000	-1.8603111999e+000
 7.0385577082e-001	 1.2962299386e+000	-1.8356783305e+000
 6.9068302991e-001	 1.3032965711e+000	-1.8216362810e+000
 6.7745952473e-001	 1.3102189101e+000	-1.8175303416e+000
 8.2081463007e-001	 1.2554932668e+000	-2.4063963064e+000
 8.0791563023e-001	 1.2638323996e+000	-2.2733141001e+000
 7.9494640225e-001	 1.2720299594e+000	-2.1553045296e+000
 7.8190924254e-001	 1.2800851286e+000	-2.0516176137e+000
 7.6880645833e-001	 1.2879971388e+000	-1.9615188620e+000
 7.5564036645e-001	 1.2957652706e+000	-1.8842898894e+000
 7.4241329201e-001	 1.3033888536e+000	-1.8192289704e+000
 7.2912756712e-001	 1.3108672667e+000	-1.7656515336e+000
 7.1578552965e-001	 1.3181999376e+000	-1.7228905950e+000
 7.0238952194e-001	 1.3253863434e+000	-1.6902971333e+000
 6.8894188956e-001	 1.3324260102e+000	-1.6672404060e+000
 5.7411824131e-001	 1.1103550086e+000	-2.0631864839e+000
 5.6287081669e-001	 1.1160987607e+000	-2.1288099663e+000
 5.5158428467e-001	 1.1217195625e+000	-2.1924973766e+000
 5.4026060171e-001	 1.1272171407e+000	-2.2539965466e+000
 5.2890172284e-001	 1.1325912624e+000	-2.3130560743e+000
 5.1750960065e-001	 1.1378417347e+000	-2.3694256941e+000
 5.0608618433e-001	 1.1429684047e+000	-2.4228566441e+000
 4.9463341865e-001	 1.1479711587e+000	-2.4731020287e+000
 4.8315324300e-001	 1.1528499225e+000	-2.5199171761e+000
 4.7164759049e-001	 1.1576046607e+000	-2.5630599897e+000
 4.6011838696e-001	 1.1622353763e+000	-2.6022912934e+000
 5.8560060613e-001	 1.1325621087e+000	-2.1171982475e+000
 5.7412823303e-001	 1.1384207360e+000	-2.1636971235e+000
 5.6261597037e-001	 1.1441539538e+000	-2.2103919338e+000
 5.5106581375e-001	 1.1497614835e+000	-2.2569756712e+000
 5.3947975730e-001	 1.1552430876e+000	-2.3031406919e+000
 5.2785979267e-001	 1.1605985694e+000	-2.3485791690e+000
 5.1620790802e-001	 1.1658277727e+000	-2.3929835408e+000
 5.0452608702e-001	 1.1709305819e+000	-2.4360469569e+000
 4.9281630786e-001	 1.1759069209e+000	-2.4774637190e+000
 4.8108054230e-001	 1.1807567539e+000	-2.5169297165e+000
 4.6932075469e-001	 1.1854800839e+000	-2.5541428548e+000
 5.9708297096e-001	 1.1547692089e+000	-2.2009124091e+000
 5.8538564936e-001	 1.1607427112e+000	-2.2266316654e+000
 5.7364765606e-001	 1.1665883450e+000	-2.2546314991e+000
 5.6187102578e-001	 1.1723058263e+000	-2.2845508261e+000
 5.5005779175e-001	 1.1778949129e+000	-2.3160265388e+000
 5.3820998468e-001	 1.1833554041e+000	-2.3486940398e+000
 5.2632963171e-001	 1.1886871408e+000	-2.3821877728e+000
 5.1441875539e-001	 1.1938900050e+000	-2.4161417509e+000
 5.0247937272e-001	 1.1989639194e+000	-2.4501900804e+000
 4.9051349411e-001	 1.2039088471e+000	-2.4839674795e+000
 4.7852312243e-001	 1.2087247914e+000	-2.5171097900e+000
 6.0856533578e-001	 1.1769763091e+000	-2.3107691020e+000
 5.9664306569e-001	 1.1830646864e+000	-2.3141904799e+000
 5.8467934175e-001	 1.1890227363e+000	-2.3219336192e+000
 5.7267623781e-001	 1.1948501691e+000	-2.3335840329e+000
 5.6063582621e-001	 1.2005467381e+000	-2.3487238357e+000
 5.4856017669e-001	 1.2061122388e+000	-2.3669323586e+000
 5.3645135539e-001	 1.2115465089e+000	-2.3877867616e+000
 5.2431142377e-001	 1.2168494282e+000	-2.4108626436e+000
 5.1214243758e-001	 1.2220209178e+000	-2.4357346493e+000
 4.9994644592e-001	 1.2270609403e+000	-2.4619770702e+000
 4.8772549017e-001	 1.2319694989e+000	-2.4891644400e+000
 6.2004770061e-001	 1.1991834092e+000	-2.4434033796e+000
 6.0790048203e-001	 1.2053866616e+000	-2.4231363010e+000
 5.9571102745e-001	 1.2114571275e+000	-2.4091923554e+000
 5.8348144985e-001	 1.2173945119e+000	-2.4011042427e+000
 5.7121386067e-001	 1.2231985634e+000	-2.3983999014e+000
 5.5891036871e-001	 1.2288690735e+000	-2.4006032030e+000
 5.4657307908e-001	 1.2344058770e+000	-2.4072346458e+000
 5.3420409214e-001	 1.2398088514e+000	-2.4178120475e+000
 5.2180550244e-001	 1.2450779163e+000	-2.4318512335e+000
 5.0937939773e-001	 1.2502130335e+000	-2.4475596886e+000
 4.9692785791e-001	 1.2552142064e+000	-2.4349010000e+000
 6.3153006543e-001	 1.2213905094e+000	-2.4352830858e+000
 6.1915789836e-001	 1.2277086368e+000	-2.5504008136e+000
 6.0674271314e-001	 1.2338915188e+000	-2.5134622361e+000
 5.9428666188e-001	 1.2399388547e+000	-2.4842921611e+000
 5.8179189512e-001	 1.2458503886e+000	-2.4623648715e+000
 5.6926056072e-001	 1.2516259082e+000	-2.4393426614e+000
 5.5669480277e-001	 1.2572652451e+000	-2.4006189030e+000
 5.4409676051e-001	 1.2627682746e+000	-2.3644302581e+000
 5.3146856730e-001	 1.2681349147e+000	-2.3306283882e+000
 5.1881234953e-001	 1.2733651267e+000	-2.2990522955e+000
 5.0613022564e-001	 1.2784589140e+000	-2.2695285931e+000
 6.4301243026e-001	 1.2435976096e+000	-2.3116315757e+000
 6.3041531469e-001	 1.2500306120e+000	-2.5554465016e+000
 6.1777439883e-001	 1.2563259100e+000	-2.6096215797e+000
 6.0509187392e-001	 1.2624831976e+000	-2.5311580338e+000
 5.9236992958e-001	 1.2685022138e+000	-2.4574637929e+000
 5.7961075273e-001	 1.2743827429e+000	-2.3884029939e+000
 5.6681652645e-001	 1.2801246132e+000	-2.3238245949e+000
 5.5398942888e-001	 1.2857276977e+000	-2.2635626134e+000
 5.4113163216e-001	 1.2911919132e+000	-2.2074363936e+000
 5.2824530134e-001	 1.2965172200e+000	-2.1552509034e+000
 5.1533259338e-001	 1.3017036215e+000	-2.1067970589e+000
 6.5449479508e-001	 1.2658047097e+000	-2.1494232226e+000
 6.4167273103e-001	 1.2723525872e+000	-2.3497160492e+000
 6.2880608453e-001	 1.2787603012e+000	-2.5641695732e+000
 6.1589708595e-001	 1.2850275404e+000	-2.5520327457e+000
 6.0294796403e-001	 1.2911540391e+000	-2.4469580367e+000
 5.8996094475e-001	 1.2971395776e+000	-2.3483399406e+000
 5.7693825014e-001	 1.3029839813e+000	-2.2560002196e+000
 5.6388209726e-001	 1.3086871209e+000	-2.1697438497e+000
 5.5079469702e-001	 1.3142489116e+000	-2.0893593374e+000
 5.3767825315e-001	 1.3196693132e+000	-2.0146190666e+000
 5.2453496112e-001	 1.3249483290e+000	-1.9452796769e+000
 6.6597715991e-001	 1.2880118099e+000	-1.9786626803e+000
 6.5293014736e-001	 1.2946745624e+000	-2.1505873703e+000
 6.3983777022e-001	 1.3011946925e+000	-2.3379866541e+000
 6.2670229798e-001	 1.3075718832e+000	-2.5400144248e+000
 6.1352599849e-001	 1.3138058643e+000	-2.4472872709e+000
 6.0031113676e-001	 1.3198964122e+000	-2.3173089263e+000
 5.8705997383e-001	 1.3258433494e+000	-2.1953919831e+000
 5.7377476563e-001	 1.3316465441e+000	-2.0813138356e+000
 5.6045776188e-001	 1.3373059101e+000	-1.9748335825e+000
 5.4711120496e-001	 1.3428214064e+000	-1.8756924231e+000
 5.3373732886e-001	 1.3481930365e+000	-1.7836140881e+000
 6.7745952473e-001	 1.3102189101e+000	-1.8175303416e+000
 6.6418756369e-001	 1.3169965376e+000	-1.9592130445e+000
 6.5086945591e-001	 1.3236290837e+000	-2.1175963858e+000
 6.3750751002e-001	 1.3301162260e+000	-2.2917939628e+000
 6.2410403295e-001	 1.3364576896e+000	-2.4566183058e+000
 6.1066132877e-001	 1.3426532469e+000	-2.2935582507e+000
 5.9718169751e-001	 1.3487027175e+000	-2.1403324549e+000
 5.8366743400e-001	 1.3546059672e+000	-1.9966921467e+000
 5.7012082674e-001	 1.3603629085e+000	-1.8623684012e+000
 5.5654415677e-001	 1.3659734996e+000	-1.7370725857e+000
 5.4293969659e-001	 1.3714377441e+000	-1.6204968404e+000
 6.8894188956e-001	 1.3324260102e+000	-1.6672404060e+000
 6.7544498003e-001	 1.3393185129e+000	-1.7768532661e+000
 6.6190114160e-001	 1.3460634750e+000	-1.9043053041e+000
 6.4831272205e-001	 1.3526605688e+000	-2.0486712079e+000
 6.3468206740e-001	 1.3591095148e+000	-2.2090393287e+000
 6.2101152078e-001	 1.3654100816e+000	-2.2754213494e+000
 6.0730342120e-001	 1.3715620856e+000	-2.0892333712e+000
 5.9356010237e-001	 1.3775653904e+000	-1.9143714233e+000
 5.7978389160e-001	 1.3834199070e+000	-1.7505398997e+000
 5.6597710858e-001	 1.3891255928e+000	-1.5974216439e+000
 5.5214206433e-001	 1.3946824516e+000	-1.4546784797e+000
 4.6011838696e-001	 1.1622353763e+000	-2.6022912934e+000
 4.4856755008e-001	 1.1667421108e+000	-2.6370551068e+000
 4.3699698847e-001	 1.1711249430e+000	-2.6707108328e+000
 4.2540860082e-001	 1.1753839893e+000	-2.7029805467e+000
 4.1380427497e-001	 1.1795194030e+000	-2.7335878086e+000
 4.0218588716e-001	 1.1835313736e+000	-2.7622580610e+000
 3.9055530112e-001	 1.1874201265e+000	-2.7887190181e+000
 3.7891436731e-001	 1.1911859226e+000	-2.8127010456e+000
 3.6726492216e-001	 1.1948290576e+000	-2.8339375310e+000
 3.5560878723e-001	 1.1983498614e+000	-2.8521652438e+000
 3.4394776857e-001	 1.2017486977e+000	-2.8671246848e+000
 4.6932075469e-001	 1.1854800839e+000	-2.5541428548e+000
 4.5753890108e-001	 1.1900769530e+000	-2.5878642796e+000
 4.4573692824e-001	 1.1945474418e+000	-2.6202530849e+000
 4.3391677283e-001	 1.1988916691e+000	-2.6510370718e+000
 4.2208036047e-001	 1.2031097911e+000	-2.6799455829e+000
 4.1022960490e-001	 1.2072020010e+000	-2.7067099010e+000
 3.9836640714e-001	 1.2111685290e+000	-2.7310636391e+000
 3.8649265466e-001	 1.2150096411e+000	-2.7527431215e+000
 3.7461022059e-001	 1.2187256388e+000	-2.7714877548e+000
 3.6272096297e-001	 1.2223168587e+000	-2.7870403885e+000
 3.5082672394e-001	 1.2257836717e+000	-2.7991476649e+000
 4.7852312243e-001	 1.2087247914e+000	-2.5171097900e+000
 4.6651025208e-001	 1.2134117952e+000	-2.5515285451e+000
 4.5447686801e-001	 1.2179699407e+000	-2.5844112656e+000
 4.4242494484e-001	 1.2223993489e+000	-2.6154902452e+000
 4.3035644597e-001	 1.2267001791e+000	-2.6444993719e+000
 4.1827332264e-001	 1.2308726285e+000	-2.6711745284e+000
 4.0617751316e-001	 1.2349169315e+000	-2.6952539853e+000
 3.9407094200e-001	 1.2388333595e+000	-2.7164787839e+000
 3.8195551903e-001	 1.2426222199e+000	-2.7345931098e+000
 3.6983313871e-001	 1.2462838559e+000	-2.7493446552e+000
 3.5770567931e-001	 1.2498186456e+000	-2.7604849708e+000
 4.8772549017e-001	 1.2319694989e+000	-2.4891644400e+000
 4.7548160308e-001	 1.2367466374e+000	-2.5259749113e+000
 4.6321680778e-001	 1.2413924396e+000	-2.5610665830e+000
 4.5093311686e-001	 1.2459070287e+000	-2.5941750260e+000
 4.3863253146e-001	 1.2502905672e+000	-2.6229079529e+000
 4.2631704038e-001	 1.2545432560e+000	-2.6191993479e+000
 4.1398861918e-001	 1.2586653341e+000	-2.6121827388e+000
 4.0164922934e-001	 1.2626570780e+000	-2.6018551105e+000
 3.8930081747e-001	 1.2665188011e+000	-2.5882048182e+000
 3.7694531445e-001	 1.2702508531e+000	-2.5712117787e+000
 3.6458463467e-001	 1.2738536196e+000	-2.5508476790e+000
 4.9692785791e-001	 1.2552142064e+000	-2.4349010000e+000
 4.8445295408e-001	 1.2600814796e+000	-2.4418019480e+000
 4.7195674754e-001	 1.2648149384e+000	-2.4453593526e+000
 4.5944128887e-001	 1.2694147085e+000	-2.4456279183e+000
 4.4690861696e-001	 1.2738809552e+000	-2.4426523667e+000
 4.3436075812e-001	 1.2782138834e+000	-2.4364675390e+000
 4.2179972519e-001	 1.2824137366e+000	-2.4270985210e+000
 4.0922751669e-001	 1.2864807964e+000	-2.4145607888e+000
 3.9664611591e-001	 1.2904153822e+000	-2.3988603766e+000
 3.8405749020e-001	 1.2942178504e+000	-2.3799940633e+000
 3.7146359004e-001	 1.2978885935e+000	-2.3579495791e+000
 5.0613022564e-001	 1.2784589140e+000	-2.2695285931e+000
 4.9342430508e-001	 1.2834163219e+000	-2.2746896147e+000
 4.8069668731e-001	 1.2882374373e+000	-2.2765867892e+000
 4.6794946089e-001	 1.2929223883e+000	-2.2752961516e+000
 4.5518470246e-001	 1.2974713433e+000	-2.2708829336e+000
 4.4240447586e-001	 1.3018845109e+000	-2.2634016559e+000
 4.2961083121e-001	 1.3061621391e+000	-2.2528962438e+000
 4.1680580403e-001	 1.3103045149e+000	-2.2394001671e+000
 4.0399141435e-001	 1.3143119634e+000	-2.2229366021e+000
 3.9116966594e-001	 1.3181848476e+000	-2.2035186156e+000
 3.7834254541e-001	 1.3219235675e+000	-2.1811493692e+000
 5.1533259338e-001	 1.3017036215e+000	-2.1067970589e+000
 5.0239565608e-001	 1.3067511641e+000	-2.1111969892e+000
 4.8943662708e-001	 1.3116599362e+000	-2.1124507789e+000
 4.7645763290e-001	 1.3164300681e+000	-2.1106554897e+000
 4.6346078795e-001	 1.3210617314e+000	-2.1058965166e+000
 4.5044819360e-001	 1.3255551384e+000	-2.0982476696e+000
 4.3742193723e-001	 1.3299105417e+000	-2.0877712823e+000
 4.2438409137e-001	 1.3341282333e+000	-2.0745183457e+000
 4.1133671280e-001	 1.3382085446e+000	-2.0585286664e+000
 3.9828184168e-001	 1.3421518448e+000	-2.0398310480e+000
 3.8522150078e-001	 1.3459585415e+000	-2.0184434951e+000
 5.2453496112e-001	 1.3249483290e+000	-1.9452796769e+000
 5.1136700707e-001	 1.3300860063e+000	-1.9498490801e+000
 4.9817656684e-001	 1.3350824350e+000	-1.9514282855e+000
 4.8496580491e-001	 1.3399377478e+000	-1.9501351052e+000
 4.7173687345e-001	 1.3446521194e+000	-1.9460747761e+000
 4.5849191134e-001	 1.3492257659e+000	-1.9393400334e+000
 4.4523304325e-001	 1.3536589442e+000	-1.9300112120e+000
 4.3196237872e-001	 1.3579519518e+000	-1.9181563756e+000
 4.1868201124e-001	 1.3621051257e+000	-1.9038314715e+000
 4.0539401742e-001	 1.3661188421e+000	-1.8870805113e+000
 3.9210045615e-001	 1.3699935154e+000	-1.8679357753e+000
 5.3373732886e-001	 1.3481930365e+000	-1.7836140881e+000
 5.2033835807e-001	 1.3534208485e+000	-1.7892384843e+000
 5.0691650661e-001	 1.3585049339e+000	-1.7920671256e+000
 4.9347397693e-001	 1.3634454276e+000	-1.7922383232e+000
 4.8001295895e-001	 1.3682425075e+000	-1.7898768598e+000
 4.6653562908e-001	 1.3728963933e+000	-1.7850940548e+000
 4.5304414927e-001	 1.3774073467e+000	-1.7779878605e+000
 4.3954066606e-001	 1.3817756702e+000	-1.7686429864e+000
 4.2602730968e-001	 1.3860017069e+000	-1.7571310525e+000
 4.1250619317e-001	 1.3900858393e+000	-1.7435107695e+000
 3.9897941152e-001	 1.3940284894e+000	-1.7278281450e+000
 5.4293969659e-001	 1.3714377441e+000	-1.6204968404e+000
 5.2930970907e-001	 1.3767556907e+000	-1.6280196590e+000
 5.1565644638e-001	 1.3819274327e+000	-1.6329799640e+000
 5.0198214894e-001	 1.3869531074e+000	-1.6355363380e+000
 4.8828904444e-001	 1.3918328955e+000	-1.6358328360e+000
 4.7457934682e-001	 1.3965670208e+000	-1.6339990437e+000
 4.6085525529e-001	 1.4011557493e+000	-1.6301501675e+000
 4.4711895341e-001	 1.4055993887e+000	-1.6243871565e+000
 4.3337260812e-001	 1.4098982880e+000	-1.6167968546e+000
 4.1961836891e-001	 1.4140528365e+000	-1.6074521813e+000
 4.0585836689e-001	 1.4180634633e+000	-1.5964123410e+000
 5.5214206433e-001	 1.3946824516e+000	-1.4546784797e+000
 5.3828106007e-001	 1.4000905329e+000	-1.4649037668e+000
 5.2439638615e-001	 1.4053499316e+000	-1.4728389093e+000
 5.1049032095e-001	 1.4104607872e+000	-1.4786625564e+000
 4.9656512994e-001	 1.4154232836e+000	-1.4825377839e+000
 4.8262306456e-001	 1.4202376483e+000	-1.4846121455e+000
 4.6866636131e-001	 1.4249041518e+000	-1.4850177588e+000
 4.5469724075e-001	 1.4294231071e+000	-1.4838714252e+000
 4.4071790656e-001	 1.4337948692e+000	-1.4812747817e+000
 4.2673054465e-001	 1.4380198337e+000	-1.4773144837e+000
 4.1273732227e-001	 1.4420984373e+000	-1.4720624184e+000
 3.4394776857e-001	 1.2017486977e+000	-2.8671246848e+000
 3.3228365593e-001	 1.2050259632e+000	-2.9110003540e+000
 3.2061822211e-001	 1.2081820871e+000	-2.9511710863e+000
 3.0895322226e-001	 1.2112175306e+000	-2.9874034178e+000
 2.9729039324e-001	 1.2141327860e+000	-3.0194684071e+000
 2.8563145302e-001	 1.2169283763e+000	-3.0471419183e+000
 2.7397810005e-001	 1.2196048543e+000	-3.0702048914e+000
 2.6233201271e-001	 1.2221628022e+000	-3.0884436001e+000
 2.5069484874e-001	 1.2246028306e+000	-3.1016498959e+000
 2.3906824470e-001	 1.2269255782e+000	-3.1096214386e+000
 2.2745381553e-001	 1.2291317105e+000	-3.1121619133e+000
 3.5082672394e-001	 1.2257836717e+000	-2.7991476649e+000
 3.3892932905e-001	 1.2291264825e+000	-2.8405968657e+000
 3.2703058655e-001	 1.2323457289e+000	-2.8784167637e+000
 3.1513228670e-001	 1.2354418812e+000	-2.9123539536e+000
 3.0323620110e-001	 1.2384154417e+000	-2.9421598127e+000
 2.9134408208e-001	 1.2412669438e+000	-2.9675908064e+000
 2.7945766205e-001	 1.2439969514e+000	-2.9884087802e+000
 2.6757865297e-001	 1.2466060582e+000	-3.0043812375e+000
 2.5570874571e-001	 1.2490948872e+000	-3.0152816028e+000
 2.4384960960e-001	 1.2514640897e+000	-3.0086044032e+000
 2.3200289184e-001	 1.2537143447e+000	-2.9899241677e+000
 3.5770567931e-001	 1.2498186456e+000	-2.7604849708e+000
 3.4557500216e-001	 1.2532270017e+000	-2.7730650956e+000
 3.3344295099e-001	 1.2565093706e+000	-2.7810685515e+000
 3.2131135114e-001	 1.2596662318e+000	-2.7858704640e+000
 3.0918200896e-001	 1.2626980974e+000	-2.7873594555e+000
 2.9705671113e-001	 1.2656055113e+000	-2.7854179130e+000
 2.8493722405e-001	 1.2683890485e+000	-2.7799223144e+000
 2.7282529322e-001	 1.2710493143e+000	-2.7707435649e+000
 2.6072264268e-001	 1.2735869439e+000	-2.7577473391e+000
 2.4863097449e-001	 1.2760026013e+000	-2.7407944308e+000
 2.3655196814e-001	 1.2782969789e+000	-2.7197411079e+000
 3.6458463467e-001	 1.2738536196e+000	-2.5508476790e+000
 3.5222067528e-001	 1.2773275210e+000	-2.5563736548e+000
 3.3985531543e-001	 1.2806730123e+000	-2.5592230310e+000
 3.2749041558e-001	 1.2838905824e+000	-2.5592805159e+000
 3.1512781682e-001	 1.2869807532e+000	-2.5564236671e+000
 3.0276934019e-001	 1.2899440789e+000	-2.5505232335e+000
 2.9041678605e-001	 1.2927811456e+000	-2.5414435085e+000
 2.7807193347e-001	 1.2954925703e+000	-2.5290426911e+000
 2.6573653966e-001	 1.2980790005e+000	-2.5131732559e+000
 2.5341233938e-001	 1.3005411129e+000	-2.4936823297e+000
 2.4110104445e-001	 1.3028796131e+000	-2.4704120738e+000
 3.7146359004e-001	 1.2978885935e+000	-2.3579495791e+000
 3.5886634840e-001	 1.3014280403e+000	-2.3578503221e+000
 3.4626767987e-001	 1.3048366541e+000	-2.3555221174e+000
 3.3366948003e-001	 1.3081149330e+000	-2.3508391485e+000
 3.2107362469e-001	 1.3112634089e+000	-2.3436678135e+000
 3.0848196925e-001	 1.3142826464e+000	-2.3338670936e+000
 2.9589634805e-001	 1.3171732427e+000	-2.3212889317e+000
 2.8331857372e-001	 1.3199358264e+000	-2.3057786218e+000
 2.7075043663e-001	 1.3225710571e+000	-2.2871752060e+000
 2.5819370428e-001	 1.3250796244e+000	-2.2653118795e+000
 2.4565012076e-001	 1.3274622474e+000	-2.2400164014e+000
 3.7834254541e-001	 1.3219235675e+000	-2.1811493692e+000
 3.6551202151e-001	 1.3255285595e+000	-2.1754023009e+000
 3.5268004431e-001	 1.3290002958e+000	-2.1679021391e+000
 3.3984854447e-001	 1.3323392837e+000	-2.1585124698e+000
 3.2701943255e-001	 1.3355460646e+000	-2.1470884221e+000
 3.1419459831e-001	 1.3386212139e+000	-2.1334770627e+000
 3.0137591005e-001	 1.3415653397e+000	-2.1175178025e+000
 2.8856521398e-001	 1.3443790824e+000	-2.0990428138e+000
 2.7576433361e-001	 1.3470631137e+000	-2.0778774563e+000
 2.6297506917e-001	 1.3496181360e+000	-2.0538407107e+000
 2.5019919707e-001	 1.3520448816e+000	-2.0267456197e+000
 3.8522150078e-001	 1.3459585415e+000	-2.0184434951e+000
 3.7215769463e-001	 1.3496290788e+000	-2.0070529047e+000
 3.5909240875e-001	 1.3531639376e+000	-1.9944139533e+000
 3.4602760891e-001	 1.3565636343e+000	-1.9803795427e+000
 3.3296524041e-001	 1.3598287203e+000	-1.9647934079e+000
 3.1990722737e-001	 1.3629597814e+000	-1.9474905393e+000
 3.0685547205e-001	 1.3659574368e+000	-1.9282976182e+000
 2.9381185423e-001	 1.3688223385e+000	-1.9070334619e+000
 2.8077823058e-001	 1.3715551703e+000	-1.8835094802e+000
 2.6775643406e-001	 1.3741566475e+000	-1.8575301393e+000
 2.5474827338e-001	 1.3766275158e+000	-1.8288934329e+000
 3.9210045615e-001	 1.3699935154e+000	-1.8679357753e+000
 3.7880336775e-001	 1.3737295980e+000	-1.8509313720e+000
 3.6550477319e-001	 1.3773275793e+000	-1.8332129000e+000
 3.5220667336e-001	 1.3807879849e+000	-1.8146224762e+000
 3.3891104828e-001	 1.3841113760e+000	-1.7949923027e+000
 3.2561985643e-001	 1.3872983490e+000	-1.7741451170e+000
 3.1233503405e-001	 1.3903495339e+000	-1.7518946567e+000
 2.9905849449e-001	 1.3932655945e+000	-1.7280461353e+000
 2.8579212755e-001	 1.3960472269e+000	-1.7023967290e+000
 2.7253779896e-001	 1.3986951591e+000	-1.6747360716e+000
 2.5929734969e-001	 1.4012101500e+000	-1.6448467584e+000
 3.9897941152e-001	 1.3940284894e+000	-1.7278281450e+000
 3.8544904087e-001	 1.3978301173e+000	-1.7052637345e+000
 3.7191713763e-001	 1.4014912211e+000	-1.6825497940e+000
 3.5838573780e-001	 1.4050123355e+000	-1.6595175424e+000
 3.4485685614e-001	 1.4083940318e+000	-1.6359874953e+000
 3.3133248549e-001	 1.4116369165e+000	-1.6117699463e+000
 3.1781459605e-001	 1.4147416310e+000	-1.5866654609e+000
 3.0430513474e-001	 1.4177088505e+000	-1.5604653839e+000
 2.9080602453e-001	 1.4205392835e+000	-1.5329523577e+000
 2.7731916385e-001	 1.4232336707e+000	-1.5039008501e+000
 2.6384642600e-001	 1.4257927842e+000	-1.4730776906e+000
 4.0585836689e-001	 1.4180634633e+000	-1.5964123410e+000
 3.9209471399e-001	 1.4219306366e+000	-1.5683646145e+000
 3.7832950208e-001	 1.4256548628e+000	-1.5407628350e+000
 3.6456480225e-001	 1.4292366861e+000	-1.5134271964e+000
 3.5080266401e-001	 1.4326766875e+000	-1.4861663621e+000
 3.3704511455e-001	 1.4359754840e+000	-1.4587779762e+000
 3.2329415806e-001	 1.4391337281e+000	-1.4310491891e+000
 3.0955177499e-001	 1.4421521066e+000	-1.4027571970e+000
 2.9581992150e-001	 1.4450313401e+000	-1.3736697929e+000
 2.8210052874e-001	 1.4477721822e+000	-1.3435459281e+000
 2.6839550231e-001	 1.4503754184e+000	-1.3121362826e+000
 4.1273732227e-001	 1.4420984373e+000	-1.4720624184e+000
 3.9874038711e-001	 1.4460311558e+000	-1.4386298424e+000
 3.8474186652e-001	 1.4498185045e+000	-1.4062703243e+000
 3.7074386670e-001	 1.4534610367e+000	-1.3747928944e+000
 3.5674847188e-001	 1.4569593432e+000	-1.3439941845e+000
 3.4275774362e-001	 1.4603140515e+000	-1.3136589706e+000
 3.2877372006e-001	 1.4635258252e+000	-1.2835607305e+000
 3.1479841525e-001	 1.4665953626e+000	-1.2534622172e+000
 3.0083381848e-001	 1.4695233968e+000	-1.2231160432e+000
 2.8688189364e-001	 1.4723106938e+000	-1.1922652773e+000
 2.7294457862e-001	 1.4749580526e+000	-1.1606440499e+000
 2.2745381553e-001	 1.2291317105e+000	-3.1121619133e+000
 2.1585315397e-001	 1.2312219198e+000	-3.1507326848e+000
 2.0426783022e-001	 1.2331969241e+000	-3.1839351790e+000
 1.9269939142e-001	 1.2350574661e+000	-3.2115418170e+000
 1.8114936129e-001	 1.2368043131e+000	-3.2333321078e+000
 1.6961923973e-001	 1.2384382558e+000	-3.2490928361e+000
 1.5811050249e-001	 1.2399601078e+000	-3.2586182351e+000
 1.4662460078e-001	 1.2413707047e+000	-3.2617101438e+000
 1.3516296104e-001	 1.2426709033e+000	-3.2581781496e+000
 1.2372698459e-001	 1.2438615812e+000	-3.2478397148e+000
 1.1231804739e-001	 1.2449436358e+000	-3.2305202891e+000
 2.3200289184e-001	 1.2537143447e+000	-2.9899241677e+000
 2.2017021705e-001	 1.2558463582e+000	-3.0056255727e+000
 2.0835318683e-001	 1.2578608626e+000	-3.0168873667e+000
 1.9655337925e-001	 1.2597586154e+000	-3.0235311096e+000
 1.8477234852e-001	 1.2615403994e+000	-3.0253758789e+000
 1.7301162453e-001	 1.2632070210e+000	-3.0222386404e+000
 1.6127271254e-001	 1.2647593100e+000	-3.0139346178e+000
 1.4955709280e-001	 1.2661981188e+000	-3.0002776608e+000
 1.3786622027e-001	 1.2675243214e+000	-2.9810806091e+000
 1.2620152428e-001	 1.2687388129e+000	-2.9561556548e+000
 1.1456440834e-001	 1.2698425085e+000	-2.9253146988e+000
 2.3655196814e-001	 1.2782969789e+000	-2.7197411079e+000
 2.2448728013e-001	 1.2804707966e+000	-2.7313845440e+000
 2.1243854343e-001	 1.2825248010e+000	-2.7386518861e+000
 2.0040736708e-001	 1.2844597647e+000	-2.7413617326e+000
 1.8839533574e-001	 1.2862764856e+000	-2.7393298549e+000
 1.7640400932e-001	 1.2879757861e+000	-2.7323695851e+000
 1.6443492259e-001	 1.2895585122e+000	-2.7202922023e+000
 1.5248958481e-001	 1.2910255329e+000	-2.7029073182e+000
 1.4056947949e-001	 1.2923777395e+000	-2.6800232590e+000
 1.2867606398e-001	 1.2936160445e+000	-2.6514474449e+000
 1.1681076929e-001	 1.2947413812e+000	-2.6169867643e+000
 2.4110104445e-001	 1.3028796131e+000	-2.4704120738e+000
 2.2880434321e-001	 1.3050952350e+000	-2.4789091585e+000
 2.1652390003e-001	 1.3071887395e+000	-2.4831244337e+000
 2.0426135491e-001	 1.3091609141e+000	-2.4828728206e+000
 1.9201832297e-001	 1.3110125719e+000	-2.4779660444e+000
 1.7979639412e-001	 1.3127445512e+000	-2.4682130398e+000
 1.6759713264e-001	 1.3143577143e+000	-2.4534203561e+000
 1.5542207683e-001	 1.3158529470e+000	-2.4333925616e+000
 1.4327273871e-001	 1.3172311575e+000	-2.4079326439e+000
 1.3115060367e-001	 1.3184932761e+000	-2.3768424088e+000
 1.1905713023e-001	 1.3196402539e+000	-2.3399228734e+000
 2.4565012076e-001	 1.3274622474e+000	-2.2400164014e+000
 2.3312140629e-001	 1.3297196734e+000	-2.2462742456e+000
 2.2060925664e-001	 1.3318526780e+000	-2.2483754911e+000
 2.0811534273e-001	 1.3338620634e+000	-2.2461306658e+000
 1.9564131019e-001	 1.3357486582e+000	-2.2393467073e+000
 1.8318877891e-001	 1.3375133163e+000	-2.2278273879e+000
 1.7075934268e-001	 1.3391569165e+000	-2.2113737402e+000
 1.5835456884e-001	 1.3406803611e+000	-2.1897844806e+000
 1.4597599793e-001	 1.3420845756e+000	-2.1628564312e+000
 1.3362514336e-001	 1.3433705078e+000	-2.1303849377e+000
 1.2130349118e-001	 1.3445391266e+000	-2.0921642839e+000
 2.5019919707e-001	 1.3520448816e+000	-2.0267456197e+000
 2.3743846937e-001	 1.3543441118e+000	-2.0316681321e+000
 2.2469461324e-001	 1.3565166165e+000	-2.0325903788e+000
 2.1196933056e-001	 1.3585632127e+000	-2.0293177765e+000
 1.9926429742e-001	 1.3604847444e+000	-2.0216517317e+000
 1.8658116370e-001	 1.3622820814e+000	-2.0093900872e+000
 1.7392155273e-001	 1.3639561186e+000	-1.9923275689e+000
 1.6128706086e-001	 1.3655077752e+000	-1.9702562303e+000
 1.4867925715e-001	 1.3669379937e+000	-1.9429658965e+000
 1.3609968305e-001	 1.3682477394e+000	-1.9102446042e+000
 1.2354985212e-001	 1.3694379994e+000	-1.8718790373e+000
 2.5474827338e-001	 1.3766275158e+000	-1.8288934329e+000
 2.4175553244e-001	 1.3789685502e+000	-1.8333825086e+000
 2.2877996984e-001	 1.3811805550e+000	-1.8340590028e+000
 2.1582331839e-001	 1.3832643620e+000	-1.8307225006e+000
 2.0288728464e-001	 1.3852208307e+000	-1.8231681317e+000
 1.8997354850e-001	 1.3870508465e+000	-1.8111870387e+000
 1.7708376278e-001	 1.3887553208e+000	-1.7945668468e+000
 1.6421955287e-001	 1.3903351893e+000	-1.7730921320e+000
 1.5138251636e-001	 1.3917914117e+000	-1.7465448870e+000
 1.3857422274e-001	 1.3931249710e+000	-1.7147049851e+000
 1.2579621307e-001	 1.3943368721e+000	-1.6773506393e+000
 2.5929734969e-001	 1.4012101500e+000	-1.6448467584e+000
 2.4607259552e-001	 1.4035929886e+000	-1.6498033627e+000
 2.3286532645e-001	 1.4058444934e+000	-1.6511666803e+000
 2.1967730621e-001	 1.4079655113e+000	-1.6487297418e+000
 2.0651027186e-001	 1.4099569169e+000	-1.6422806500e+000
 1.9336593329e-001	 1.4118196117e+000	-1.6316030731e+000
 1.8024597283e-001	 1.4135545229e+000	-1.6164767379e+000
 1.6715204489e-001	 1.4151626033e+000	-1.5966779223e+000
 1.5408577558e-001	 1.4166448298e+000	-1.5719799465e+000
 1.4104876243e-001	 1.4180022026e+000	-1.5421536610e+000
 1.2804257402e-001	 1.4192357448e+000	-1.5069679308e+000
 2.6384642600e-001	 1.4257927842e+000	-1.4730776906e+000
 2.5038965860e-001	 1.4282174270e+000	-1.4794028494e+000
 2.3695068305e-001	 1.4305084319e+000	-1.4823859149e+000
 2.2353129404e-001	 1.4326666607e+000	-1.4818126354e+000
 2.1013325909e-001	 1.4346930032e+000	-1.4774633335e+000
 1.9675831808e-001	 1.4365883768e+000	-1.4691134234e+000
 1.8340818287e-001	 1.4383537251e+000	-1.4565339307e+000
 1.7008453690e-001	 1.4399900174e+000	-1.4394920100e+000
 1.5678903480e-001	 1.4414982479e+000	-1.4177514628e+000
 1.4352330212e-001	 1.4428794342e+000	-1.3910732509e+000
 1.3028893496e-001	 1.4441346175e+000	-1.3592160076e+000
 2.6839550231e-001	 1.4503754184e+000	-1.3121362826e+000
 2.5470672168e-001	 1.4528418654e+000	-1.3207319895e+000
 2.4103603965e-001	 1.4551723704e+000	-1.3262690074e+000
 2.2738528187e-001	 1.4573678100e+000	-1.3285250713e+000
 2.1375624631e-001	 1.4594290895e+000	-1.3272719644e+000
 2.0015070287e-001	 1.4613571419e+000	-1.3222760631e+000
 1.8657039292e-001	 1.4631529272e+000	-1.3132988825e+000
 1.7301702891e-001	 1.4648174315e+000	-1.3000976230e+000
 1.5949229402e-001	 1.4663516659e+000	-1.2824257144e+000
 1.4599784180e-001	 1.4677566659e+000	-1.2600333576e+000
 1.3253529590e-001	 1.4690334902e+000	-1.2326680631e+000
 2.7294457862e-001	 1.4749580526e+000	-1.1606440499e+000
 2.5902378476e-001	 1.4774663038e+000	-1.1724140969e+000
 2.4512139625e-001	 1.4798363089e+000	-1.1814414067e+000
 2.3123926969e-001	 1.4820689593e+000	-1.1874949643e+000
 2.1737923353e-001	 1.4841651757e+000	-1.1903372498e+000
 2.0354308766e-001	 1.4861259070e+000	-1.1897248110e+000
 1.8973260296e-001	 1.4879521294e+000	-1.1854088384e+000
 1.7594952092e-001	 1.4896448456e+000	-1.1771357396e+000
 1.6219555323e-001	 1.4912050840e+000	-1.1646477131e+000
 1.4847238149e-001	 1.4926338975e+000	-1.1476833190e+000
 1.3478165685e-001	 1.4939323629e+000	-1.1259780469e+000
 1.1231804739e-001	 1.2449436358e+000	-3.2305202891e+000
 1.0093749980e-001	 1.2459179833e+000	-3.2648923959e+000
 8.9586666357e-002	 1.2467855586e+000	-3.2911128525e+000
 7.8266845602e-002	 1.2475473141e+000	-3.3089998748e+000
 6.6979309880e-002	 1.2482042189e+000	-3.3183811550e+000
 5.5725305204e-002	 1.2487572584e+000	-3.3190939017e+000
 4.4506051122e-002	 1.2492074333e+000	-3.3109848658e+000
 3.3322740611e-002	 1.2495557590e+000	-3.2939103515e+000
 2.2176539990e-002	 1.2498032649e+000	-3.2677362130e+000
 1.1068588847e-002	 1.2499509936e+000	-3.2323378383e+000
 0.0000000000e+000	 1.2500000000e+000	-3.1876001186e+000
 1.1456440834e-001	 1.2698425085e+000	-2.9253146988e+000
 1.0295624979e-001	 1.2708363430e+000	-2.9450820850e+000
 9.1378399684e-002	 1.2717212698e+000	-2.9579027803e+000
 7.9832182514e-002	 1.2724982604e+000	-2.9635662025e+000
 6.8318896077e-002	 1.2731683033e+000	-2.9618637208e+000
 5.6839811307e-002	 1.2737324036e+000	-2.9525889809e+000
 4.5396172143e-002	 1.2741915820e+000	-2.9355382219e+000
 3.3989195423e-002	 1.2745468742e+000	-2.9105105836e+000
 2.2620070789e-002	 1.2747993302e+000	-2.8773084029e+000
 1.1289960624e-002	 1.2749500134e+000	-2.8357375018e+000
 0.0000000000e+000	 1.2750000000e+000	-2.7856074626e+000
 1.1681076929e-001	 1.2947413812e+000	-2.6169867643e+000
 1.0497499979e-001	 1.2957547027e+000	-2.6318365339e+000
 9.3170133010e-002	 1.2966569810e+000	-2.6399413111e+000
 8.1397519425e-002	 1.2974492067e+000	-2.6410926977e+000
 6.9658482273e-002	 1.2981323876e+000	-2.6350837700e+000
 5.7954317410e-002	 1.2987075487e+000	-2.6217094217e+000
 4.6286293165e-002	 1.2991757306e+000	-2.6007666980e+000
 3.4655650234e-002	 1.2995379894e+000	-2.5720551202e+000
 2.3063601588e-002	 1.2997953955e+000	-2.5353770007e+000
 1.1511332401e-002	 1.2999490333e+000	-2.4905377477e+000
 0.0000000000e+000	 1.3000000000e+000	-2.4373461591e+000
 1.1905713023e-001	 1.3196402539e+000	-2.3399228734e+000
 1.0699374978e-001	 1.3206730623e+000	-2.3517968258e+000
 9.4961866336e-002	 1.3215926922e+000	-2.3571410630e+000
 8.2962856336e-002	 1.3224001529e+000	-2.3557482723e+000
 7.0998068470e-002	 1.3230964720e+000	-2.3474121357e+000
 5.9068823513e-002	 1.3236826939e+000	-2.3319276923e+000
 4.7176414186e-002	 1.3241598793e+000	-2.3090916903e+000
 3.5322105045e-002	 1.3245291046e+000	-2.2787029312e+000
 2.3507132387e-002	 1.3247914608e+000	-2.2405626031e+000
 1.1732704177e-002	 1.3249480532e+000	-2.1944746052e+000
 0.0000000000e+000	 1.3250000000e+000	-2.1402458600e+000
 1.2130349118e-001	 1.3445391266e+000	-2.0921642839e+000
 1.0901249978e-001	 1.3455914220e+000	-2.1029591477e+000
 9.6753599662e-002	 1.3465284033e+000	-2.1074537928e+000
 8.4528193246e-002	 1.3473510992e+000	-2.1054408998e+000
 7.2337654666e-002	 1.3480605564e+000	-2.0967136618e+000
 6.0183329615e-002	 1.3486578391e+000	-2.0810661656e+000
 4.8066535207e-002	 1.3491440280e+000	-2.0582937646e+000
 3.5988559857e-002	 1.3495202198e+000	-2.0281934428e+000
 2.3950663186e-002	 1.3497875261e+000	-1.9905641688e+000
 1.1954075954e-002	 1.3499470731e+000	-1.9452072395e+000
 0.0000000000e+000	 1.3500000000e+000	-1.8919266135e+000
 1.2354985212e-001	 1.3694379994e+000	-1.8718790373e+000
 1.1103124977e-001	 1.3705097816e+000	-1.8834511620e+000
 9.8545332987e-002	 1.3714641145e+000	-1.8889674146e+000
 8.6093530156e-002	 1.3723020455e+000	-1.8882193828e+000
 7.3677240862e-002	 1.3730246408e+000	-1.8809986797e+000
 6.1297835718e-002	 1.3736329842e+000	-1.8670973468e+000
 4.8956656228e-002	 1.3741281766e+000	-1.8463082478e+000
 3.6655014668e-002	 1.3745113349e+000	-1.8184254544e+000
 2.4394193985e-002	 1.3747835914e+000	-1.7832446215e+000
 1.2175447730e-002	 1.3749460929e+000	-1.7405633527e+000
 0.0000000000e+000	 1.3750000000e+000	-1.6901815550e+000
 1.2579621307e-001	 1.3943368721e+000	-1.6773506393e+000
 1.1304999977e-001	 1.3954281413e+000	-1.6915202672e+000
 1.0033706631e-001	 1.3963998257e+000	-1.6998938429e+000
 8.7658867067e-002	 1.3972529918e+000	-1.7022607782e+000
 7.5016827058e-002	 1.3979887252e+000	-1.6984100186e+000
 6.2412341821e-002	 1.3986081294e+000	-1.6881304688e+000
 4.9846777250e-002	 1.3991123253e+000	-1.6712114102e+000
 3.7321469479e-002	 1.3995024501e+000	-1.6474429080e+000
 2.4837724784e-002	 1.3997796567e+000	-1.6166162106e+000
 1.2396819507e-002	 1.3999451128e+000	-1.5785241367e+000
 0.0000000000e+000	 1.4000000000e+000	-1.5329614532e+000
 1.2804257402e-001	 1.4192357448e+000	-1.5069679308e+000
 1.1506874976e-001	 1.4203465010e+000	-1.5255230951e+000
 1.0212879964e-001	 1.4213355368e+000	-1.5385581158e+000
 8.9224203976e-002	 1.4222039381e+000	-1.5458591476e+000
 7.6356413254e-002	 1.4229528095e+000	-1.5472113825e+000
 6.3526847923e-002	 1.4235832746e+000	-1.5423994986e+000
 5.0736898271e-002	 1.4240964740e+000	-1.5312081016e+000
 3.7987924290e-002	 1.4244935653e+000	-1.5134221570e+000
 2.5281255584e-002	 1.4247757220e+000	-1.4888274122e+000
 1.2618191283e-002	 1.4249441327e+000	-1.4572108085e+000
 0.0000000000e+000	 1.4250000000e+000	-1.4183608825e+000
 1.3028893496e-001	 1.4441346175e+000	-1.3592160076e+000
 1.1708749975e-001	 1.4452648606e+000	-1.3839160940e+000
 1.0392053296e-001	 1.4462712480e+000	-1.4033886421e+000
 9.0789540886e-002	 1.4471548843e+000	-1.4174154702e+000
 7.7695999449e-002	 1.4479168939e+000	-1.4257769304e+000
 6.4641354025e-002	 1.4485584197e+000	-1.4282523840e+000
 5.1627019292e-002	 1.4490806226e+000	-1.4246206676e+000
 3.8654379101e-002	 1.4494846805e+000	-1.4146605511e+000
 2.5724786383e-002	 1.4497717873e+000	-1.3981511853e+000
 1.2839563060e-002	 1.4499431525e+000	-1.3748725392e+000
 0.0000000000e+000	 1.4500000000e+000	-1.3446058260e+000
 1.3253529590e-001	 1.4690334902e+000	-1.2326680631e+000
 1.1910624974e-001	 1.4701832203e+000	-1.2652470694e+000
 1.0571226629e-001	 1.4712069592e+000	-1.2929084420e+000
 9.2354877796e-002	 1.4721058306e+000	-1.3154285821e+000
 7.9035585644e-002	 1.4728809783e+000	-1.3325819155e+000
 6.5755860127e-002	 1.4735335649e+000	-1.3441413946e+000
 5.2517140313e-002	 1.4740647713e+000	-1.3498789915e+000
 3.9320833912e-002	 1.4744757957e+000	-1.3495661825e+000
 2.6168317182e-002	 1.4747678526e+000	-1.3429744229e+000
 1.3060934837e-002	 1.4749421724e+000	-1.3298756107e+000
 0.0000000000e+000	 1.4750000000e+000	-1.3100425391e+000
 1.3478165685e-001	 1.4939323629e+000	-1.1259780469e+000
 1.2112499974e-001	 1.4951015800e+000	-1.1681475714e+000
 1.0750399961e-001	 1.4961426704e+000	-1.2057272622e+000
 9.3920214705e-002	 1.4970567769e+000	-1.2384870217e+000
 8.0375171839e-002	 1.4978450627e+000	-1.2661942607e+000
 6.6870366229e-002	 1.4985087101e+000	-1.2886144283e+000
 5.3407261333e-002	 1.4990489200e+000	-1.3055115333e+000
 3.9987288723e-002	 1.4994669109e+000	-1.3166486572e+000
 2.6611847981e-002	 1.4997639179e+000	-1.3217884569e+000
 1.3282306613e-002	 1.4999411923e+000	-1.3206936564e+000
 0.0000000000e+000	 1.5000000000e+000	-1.3131275267e+000
 1.5000000000e+000	 0.0000000000e+000	 4.2471498585e+000
 1.4999411923e+000	 1.3282306613e-002	 4.2362694903e+000
 1.4997639179e+000	 2.6611847981e-002	 4.2195792005e+000
 1.4994669109e+000	 3.9987288723e-002	 4.1970320879e+000
 1.4990489200e+000	 5.3407261333e-002	 4.1685832957e+000
 1.4985087101e+000	 6.6870366229e-002	 4.1341900476e+000
 1.4978450627e+000	 8.0375171839e-002	 4.0938116847e+000
 1.4970567769e+000	 9.3920214705e-002	 4.0474097008e+000
 1.4961426704e+000	 1.0750399961e-001	 3.9949477784e+000
 1.4951015800e+000	 1.2112499974e-001	 3.9363918230e+000
 1.4939323629e+000	 1.3478165685e-001	 3.8717099987e+000
 1.5250000000e+000	 0.0000000000e+000	 4.0175469552e+000
 1.5249402122e+000	 1.3503678390e-002	 4.0158905694e+000
 1.5247599832e+000	 2.7055378780e-002	 4.0079918230e+000
 1.5244580260e+000	 4.0653743534e-002	 3.9938081985e+000
 1.5240330686e+000	 5.4297382354e-002	 3.9732996839e+000
 1.5234838552e+000	 6.7984872331e-002	 3.9464288132e+000
 1.5228091470e+000	 8.1714758035e-002	 3.9131607076e+000
 1.5220077232e+000	 9.5485551614e-002	 3.8734631143e+000
 1.5210783815e+000	 1.0929573293e-001	 3.8273064456e+000
 1.5200199396e+000	 1.2314374973e-001	 3.7746638163e+000
 1.5188312356e+000	 1.3702801779e-001	 3.7155110812e+000
 1.5500000000e+000	 0.0000000000e+000	 3.7872197612e+000
 1.5499392320e+000	 1.3725050166e-002	 3.7949259028e+000
 1.5497560485e+000	 2.7498909579e-002	 3.7959881088e+000
 1.5494491412e+000	 4.1320198346e-002	 3.7903685894e+000
 1.5490172173e+000	 5.5187503375e-002	 3.7780325061e+000
 1.5484590004e+000	 6.9099378434e-002	 3.7589480160e+000
 1.5477732314e+000	 8.3054344230e-002	 3.7330863158e+000
 1.5469586695e+000	 9.7050888523e-002	 3.7004216841e+000
 1.5460140927e+000	 1.1108746626e-001	 3.6609315226e+000
 1.5449382993e+000	 1.2516249972e-001	 3.6145963961e+000
 1.5437301083e+000	 1.3927437874e-001	 3.5614000709e+000
 1.5750000000e+000	 0.0000000000e+000	 3.5565402230e+000
 1.5749382519e+000	 1.3946421943e-002	 3.5737203629e+000
 1.5747521138e+000	 2.7942440378e-002	 3.5838848881e+000
 1.5744402564e+000	 4.1986653157e-002	 3.5870010822e+000
 1.5740013660e+000	 5.6077624396e-002	 3.5830396105e+000
 1.5734341456e+000	 7.0213884536e-002	 3.5719745676e+000
 1.5727373158e+000	 8.4393930425e-002	 3.5537835244e+000
 1.5719096157e+000	 9.8616225433e-002	 3.5284475719e+000
 1.5709498039e+000	 1.1287919958e-001	 3.4959513645e+000
 1.5698566590e+000	 1.2718124971e-001	 3.4562831616e+000
 1.5686289811e+000	 1.4152073968e-001	 3.4094348669e+000
 1.6000000000e+000	 0.0000000000e+000	 3.3258570410e+000
 1.5999372718e+000	 1.4167793719e-002	 3.3525969355e+000
 1.5997481791e+000	 2.8385971177e-002	 3.3719785337e+000
 1.5994313716e+000	 4.2653107968e-002	 3.3839745392e+000
 1.5989855146e+000	 5.6967745417e-002	 3.3885614534e+000
 1.5984092907e+000	 7.1328390638e-002	 3.3857196258e+000
 1.5977014002e+000	 8.5733516621e-002	 3.3754333019e+000
 1.5968605620e+000	 1.0018156234e-001	 3.3576906697e+000
 1.5958855150e+000	 1.1467093291e-001	 3.3324839034e+000
 1.5947750186e+000	 1.2919999971e-001	 3.2998092057e+000
 1.5935278538e+000	 1.4376710062e-001	 3.2596668478e+000
 1.6250000000e+000	 0.0000000000e+000	 3.0954974566e+000
 1.6249362916e+000	 1.4389165496e-002	 3.1318584032e+000
 1.6247442444e+000	 2.8829501976e-002	 3.1605465342e+000
 1.6244224868e+000	 4.3319562779e-002	 3.1815403218e+000
 1.6239696633e+000	 5.7857866438e-002	 3.1948224379e+000
 1.6233844359e+000	 7.2442896741e-002	 3.2003798060e+000
 1.6226654846e+000	 8.7073102817e-002	 3.1982036504e+000
 1.6218115083e+000	 1.0174689925e-001	 3.1882895434e+000
 1.6208212262e+000	 1.1646266623e-001	 3.1706374500e+000
 1.6196933783e+000	 1.3121874970e-001	 3.1452517692e+000
 1.6184267265e+000	 1.4601346157e-001	 3.1121413743e+000
 1.6500000000e+000	 0.0000000000e+000	 2.8657688787e+000
 1.6499353115e+000	 1.4610537273e-002	 2.9117888761e+000
 1.6497403097e+000	 2.9273032775e-002	 2.9498489250e+000
 1.6494136019e+000	 4.3986017590e-002	 2.9799336164e+000
 1.6489538120e+000	 5.8747987459e-002	 3.0020321293e+000
 1.6483595811e+000	 7.3557402843e-002	 3.0161382830e+000
 1.6476295689e+000	 8.8412689013e-002	 3.0222505877e+000
 1.6467624546e+000	 1.0331223616e-001	 3.0203722910e+000
 1.6457569374e+000	 1.1825439956e-001	 3.0105114226e+000
 1.6446117380e+000	 1.3323749970e-001	 2.9926808354e+000
 1.6433255992e+000	 1.4825982252e-001	 2.9668982441e+000
 1.6750000000e+000	 0.0000000000e+000	 2.6369603633e+000
 1.6749343314e+000	 1.4831909049e-002	 2.6926551851e+000
 1.6747363750e+000	 2.9716563574e-002	 2.7401295905e+000
 1.6744047171e+000	 4.4652472402e-002	 2.7793746414e+000
 1.6739379606e+000	 5.9638108481e-002	 2.8103863627e+000
 1.6733347262e+000	 7.4671908946e-002	 2.8331657944e+000
 1.6725936533e+000	 8.9752275209e-002	 2.8477190421e+000
 1.6717134009e+000	 1.0487757307e-001	 2.8540573233e+000
 1.6706926486e+000	 1.2004613288e-001	 2.8521970107e+000
 1.6695300976e+000	 1.3525624969e-001	 2.8421596724e+000
 1.6682244719e+000	 1.5050618346e-001	 2.8239721079e+000
 1.7000000000e+000	 0.0000000000e+000	 2.4093439633e+000
 1.6999333513e+000	 1.5053280826e-002	 2.4747081526e+000
 1.6997324403e+000	 3.0160094373e-002	 2.5316174516e+000
 1.6993958323e+000	 4.5318927213e-002	 2.5800697477e+000
 1.6989221093e+000	 6.0528229502e-002	 2.6200682526e+000
 1.6983098714e+000	 7.5786415049e-002	 2.6516215545e+000
 1.6975577377e+000	 9.1091861406e-002	 2.6747436675e+000
 1.6966643472e+000	 1.0644290998e-001	 2.6894540769e+000
 1.6956283597e+000	 1.2183786621e-001	 2.6957777802e+000
 1.6944484573e+000	 1.3727499969e-001	 2.6937453259e+000
 1.6931233446e+000	 1.5275254441e-001	 2.6833928472e+000
 1.7250000000e+000	 0.0000000000e+000	 2.1831759600e+000
 1.7249323711e+000	 1.5274652602e-002	 2.2581837525e+000
 1.7247285056e+000	 3.0603625172e-002	 2.3245275506e+000
 1.7243869475e+000	 4.5985382024e-002	 2.3822124238e+000
 1.7239062580e+000	 6.1418350523e-002	 2.4312491146e+000
 1.7232850166e+000	 7.6900921152e-002	 2.4716540899e+000
 1.7225218221e+000	 9.2431447602e-002	 2.5034495883e+000
 1.7216152934e+000	 1.0800824690e-001	 2.5266636639e+000
 1.7205640709e+000	 1.2362959954e-001	 2.5413302254e+000
 1.7193668170e+000	 1.3929374968e-001	 2.5474890710e+000
 1.7180222173e+000	 1.5499890536e-001	 2.5451859202e+000
 1.7500000000e+000	 0.0000000000e+000	 1.9586979905e+000
 1.7499313910e+000	 1.5496024379e-002	 2.0433041707e+000
 1.7497245709e+000	 3.1047155971e-002	 2.1190620418e+000
 1.7493780627e+000	 4.6651836836e-002	 2.1859842144e+000
 1.7488904066e+000	 6.2308471545e-002	 2.2440893084e+000
 1.7482601617e+000	 7.8015427255e-002	 2.2934020024e+000
 1.7474859064e+000	 9.3771033799e-002	 2.3339530794e+000
 1.7465662397e+000	 1.0957358381e-001	 2.3657794671e+000
 1.7454997821e+000	 1.2542133286e-001	 2.3889242745e+000
 1.7442851766e+000	 1.4131249968e-001	 2.4034368240e+000
 1.7429210901e+000	 1.5724526631e-001	 2.4093726779e+000
 1.4939323629e+000	 1.3478165685e-001	 3.8717099987e+000
 1.4926338975e+000	 1.4847238149e-001	 3.8411370722e+000
 1.4912050840e+000	 1.6219555323e-001	 3.8052842243e+000
 1.4896448456e+000	 1.7594952092e-001	 3.7641675777e+000
 1.4879521294e+000	 1.8973260296e-001	 3.7178057375e+000
 1.4861259070e+000	 2.0354308766e-001	 3.6662197857e+000
 1.4841651757e+000	 2.1737923353e-001	 3.6094332747e+000
 1.4820689593e+000	 2.3123926969e-001	 3.5474722200e+000
 1.4798363089e+000	 2.4512139625e-001	 3.4803650917e+000
 1.4774663038e+000	 2.5902378476e-001	 3.4081428065e+000
 1.4749580526e+000	 2.7294457862e-001	 3.3308387176e+000
 1.5188312356e+000	 1.3702801779e-001	 3.7155110812e+000
 1.5175111291e+000	 1.5094692118e-001	 3.6922849223e+000
 1.5160585020e+000	 1.6489881245e-001	 3.6632318126e+000
 1.5144722597e+000	 1.7888201293e-001	 3.6283685994e+000
 1.5127513315e+000	 1.9289481301e-001	 3.5877150931e+000
 1.5108946721e+000	 2.0693547245e-001	 3.5412940694e+000
 1.5089012620e+000	 2.2100222075e-001	 3.4891312706e+000
 1.5067701086e+000	 2.3509325751e-001	 3.4312554053e+000
 1.5045002474e+000	 2.4920675285e-001	 3.3676981472e+000
 1.5020907422e+000	 2.6334084783e-001	 3.2984941329e+000
 1.4995406868e+000	 2.7749365493e-001	 3.2236809586e+000
 1.5437301083e+000	 1.3927437874e-001	 3.5614000709e+000
 1.5423883607e+000	 1.5342146087e-001	 3.5455379041e+000
 1.5409119201e+000	 1.6760207167e-001	 3.5233397886e+000
 1.5392996738e+000	 1.8181450494e-001	 3.4948236731e+000
 1.5375505337e+000	 1.9605702305e-001	 3.4600109283e+000
 1.5356634372e+000	 2.1032785724e-001	 3.4189263561e+000
 1.5336373482e+000	 2.2462520797e-001	 3.3715981980e+000
 1.5314712579e+000	 2.3894724534e-001	 3.3180581408e+000
 1.5291641858e+000	 2.5329210946e-001	 3.2583413217e+000
 1.5267151806e+000	 2.6765791091e-001	 3.1924863316e+000
 1.5241233210e+000	 2.8204273124e-001	 3.1205352175e+000
 1.5686289811e+000	 1.4152073968e-001	 3.4094348669e+000
 1.5672655924e+000	 1.5589600055e-001	 3.4009383932e+000
 1.5657653382e+000	 1.7030533088e-001	 3.3856338560e+000
 1.5641270879e+000	 1.8474699695e-001	 3.3635406780e+000
 1.5623497358e+000	 1.9921923310e-001	 3.3346821415e+000
 1.5604322023e+000	 2.1372024203e-001	 3.2990854043e+000
 1.5583734345e+000	 2.2824819520e-001	 3.2567815131e+000
 1.5561724073e+000	 2.4280123317e-001	 3.2078054158e+000
 1.5538281243e+000	 2.5737746606e-001	 3.1521959713e+000
 1.5513396190e+000	 2.7197497399e-001	 3.0899959582e+000
 1.5487059552e+000	 2.8659180755e-001	 3.0212520818e+000
 1.5935278538e+000	 1.4376710062e-001	 3.2596668478e+000
 1.5921428240e+000	 1.5837054024e-001	 3.2585229812e+000
 1.5906187562e+000	 1.7300859010e-001	 3.2501347541e+000
 1.5889545020e+000	 1.8767948897e-001	 3.2345234320e+000
 1.5871489380e+000	 2.0238144315e-001	 3.2117145570e+000
 1.5852009674e+000	 2.1711262682e-001	 3.1817379691e+000
 1.5831095208e+000	 2.3187118242e-001	 3.1446278244e+000
 1.5808735566e+000	 2.4665522099e-001	 3.1004226127e+000
 1.5784920628e+000	 2.6146282266e-001	 3.0491651718e+000
 1.5759640574e+000	 2.7629203707e-001	 2.9909027003e+000
 1.5732885894e+000	 2.9114088386e-001	 2.9256867684e+000
 1.6184267265e+000	 1.4601346157e-001	 3.1121413743e+000
 1.6170200556e+000	 1.6084507993e-001	 3.1183229214e+000
 1.6154721743e+000	 1.7571184932e-001	 3.1168586399e+000
 1.6137819161e+000	 1.9061198098e-001	 3.1077720040e+000
 1.6119481402e+000	 2.0554365319e-001	 3.0910911609e+000
 1.6099697326e+000	 2.2050501162e-001	 3.0668489563e+000
 1.6078456070e+000	 2.3549416964e-001	 3.0350829583e+000
 1.6055747059e+000	 2.5050920882e-001	 2.9958354776e+000
 1.6031560013e+000	 2.6554817926e-001	 2.9491535868e+000
 1.6005884958e+000	 2.8060910014e-001	 2.8950891359e+000
 1.5978712237e+000	 2.9568996017e-001	 2.8336987673e+000
 1.6433255992e+000	 1.4825982252e-001	 2.9668982441e+000
 1.6418972872e+000	 1.6331961962e-001	 2.9803645323e+000
 1.6403255924e+000	 1.7841510854e-001	 2.9858174352e+000
 1.6386093302e+000	 1.9354447299e-001	 2.9832829982e+000
 1.6367473423e+000	 2.0870586324e-001	 2.9727923162e+000
 1.6347384977e+000	 2.2389739641e-001	 2.9543815628e+000
 1.6325816933e+000	 2.3911715687e-001	 2.9280920181e+000
 1.6302758552e+000	 2.5436319665e-001	 2.8939700922e+000
 1.6278199398e+000	 2.6963353587e-001	 2.8520673468e+000
 1.6252129342e+000	 2.8492616322e-001	 2.8024405152e+000
 1.6224538579e+000	 3.0023903648e-001	 2.7451515178e+000
 1.6682244719e+000	 1.5050618346e-001	 2.8239721079e+000
 1.6667745188e+000	 1.6579415931e-001	 2.8446695669e+000
 1.6651790104e+000	 1.8111836776e-001	 2.8570191427e+000
 1.6634367443e+000	 1.9647696501e-001	 2.8610498123e+000
 1.6615465445e+000	 2.1186807329e-001	 2.8567959587e+000
 1.6595072628e+000	 2.2728978120e-001	 2.8442974039e+000
 1.6573177795e+000	 2.4274014409e-001	 2.8235994385e+000
 1.6549770045e+000	 2.5821718447e-001	 2.7947528487e+000
 1.6524838782e+000	 2.7371889247e-001	 2.7578139404e+000
 1.6498373726e+000	 2.8924322630e-001	 2.7128445602e+000
 1.6470364921e+000	 3.0478811279e-001	 2.6599121140e+000
 1.6931233446e+000	 1.5275254441e-001	 2.6833928472e+000
 1.6916517505e+000	 1.6826869900e-001	 2.7112555475e+000
 1.6900324285e+000	 1.8382162698e-001	 2.7304681341e+000
 1.6882641584e+000	 1.9940945702e-001	 2.7410628735e+000
 1.6863457466e+000	 2.1503028334e-001	 2.7430777757e+000
 1.6842760279e+000	 2.3068216600e-001	 2.7365566294e+000
 1.6820538658e+000	 2.4636313132e-001	 2.7215490338e+000
 1.6796781539e+000	 2.6207117230e-001	 2.6981104275e+000
 1.6771478167e+000	 2.7780424907e-001	 2.6663021139e+000
 1.6744618110e+000	 2.9356028938e-001	 2.6261912840e+000
 1.6716191263e+000	 3.0933718910e-001	 2.5778510360e+000
 1.7180222173e+000	 1.5499890536e-001	 2.5451859202e+000
 1.7165289821e+000	 1.7074323870e-001	 2.5801360728e+000
 1.7148858466e+000	 1.8652488620e-001	 2.6061654131e+000
 1.7130915724e+000	 2.0234194904e-001	 2.6233098535e+000
 1.7111449488e+000	 2.1819249339e-001	 2.6316113683e+000
 1.7090447930e+000	 2.3407455079e-001	 2.6311180302e+000
 1.7067899521e+000	 2.4998611855e-001	 2.6218840439e+000
 1.7043793032e+000	 2.6592516013e-001	 2.6039697758e+000
 1.7018117552e+000	 2.8188960568e-001	 2.5774417805e+000
 1.6990862494e+000	 2.9787735246e-001	 2.5423728241e+000
 1.6962017605e+000	 3.1388626541e-001	 2.4988419044e+000
 1.7429210901e+000	 1.5724526631e-001	 2.4093726779e+000
 1.7414062137e+000	 1.7321777839e-001	 2.4513210981e+000
 1.7397392646e+000	 1.8922814542e-001	 2.4841088564e+000
 1.7379189865e+000	 2.0527444106e-001	 2.5077758659e+000
 1.7359441509e+000	 2.2135470344e-001	 2.5223684010e+000
 1.7338135582e+000	 2.3746693559e-001	 2.5279391351e+000
 1.7315260383e+000	 2.5360910577e-001	 2.5245471745e+000
 1.7290804525e+000	 2.6977914796e-001	 2.5122580886e+000
 1.7264756937e+000	 2.8597496228e-001	 2.4911439366e+000
 1.7237106878e+000	 3.0219441554e-001	 2.4612832908e+000
 1.7207843947e+000	 3.1843534172e-001	 2.4227612561e+000
 1.4749580526e+000	 2.7294457862e-001	 3.3308387176e+000
 1.4723106938e+000	 2.8688189364e-001	 3.2799917217e+000
 1.4695233968e+000	 3.0083381848e-001	 3.2233030851e+000
 1.4665953626e+000	 3.1479841525e-001	 3.1608106867e+000
 1.4635258252e+000	 3.2877372006e-001	 3.0925554002e+000
 1.4603140515e+000	 3.4275774362e-001	 3.0185810940e+000
 1.4569593432e+000	 3.5674847188e-001	 2.9389346310e+000
 1.4534610367e+000	 3.7074386670e-001	 2.8536658686e+000
 1.4498185045e+000	 3.8474186652e-001	 2.7628276579e+000
 1.4460311558e+000	 3.9874038711e-001	 2.6664758432e+000
 1.4420984373e+000	 4.1273732227e-001	 2.5646692613e+000
 1.4995406868e+000	 2.7749365493e-001	 3.2236809586e+000
 1.4968492054e+000	 2.9166325853e-001	 3.1754761128e+000
 1.4940154534e+000	 3.0584771546e-001	 3.1209587367e+000
 1.4910386187e+000	 3.2004505551e-001	 3.0601772337e+000
 1.4879179223e+000	 3.3425328206e-001	 2.9931835893e+000
 1.4846526191e+000	 3.4847037268e-001	 2.9200333710e+000
 1.4812419989e+000	 3.6269427974e-001	 2.8407857290e+000
 1.4776853873e+000	 3.7692293114e-001	 2.7555033936e+000
 1.4739821463e+000	 3.9115423097e-001	 2.6642526746e+000
 1.4701316751e+000	 4.0538606023e-001	 2.5671034576e+000
 1.4661334112e+000	 4.1961627764e-001	 2.4641292013e+000
 1.5241233210e+000	 2.8204273124e-001	 3.1205352175e+000
 1.5213877169e+000	 2.9644462343e-001	 3.0756347927e+000
 1.5185075100e+000	 3.1086161243e-001	 3.0239910156e+000
 1.5154818747e+000	 3.2529169576e-001	 2.9656628280e+000
 1.5123100193e+000	 3.3973284406e-001	 2.9007133105e+000
 1.5089911866e+000	 3.5418300174e-001	 2.8292096833e+000
 1.5055246547e+000	 3.6864008761e-001	 2.7512233048e+000
 1.5019097379e+000	 3.8310199559e-001	 2.6668296690e+000
 1.4981457880e+000	 3.9756659541e-001	 2.5761084014e+000
 1.4942321944e+000	 4.1203173334e-001	 2.4791432542e+000
 1.4901683852e+000	 4.2649523301e-001	 2.3760220998e+000
 1.5487059552e+000	 2.8659180755e-001	 3.0212520818e+000
 1.5459262285e+000	 3.0122598832e-001	 2.9802792820e+000
 1.5429995666e+000	 3.1587550941e-001	 2.9321712394e+000
 1.5399251308e+000	 3.3053833602e-001	 2.8769974542e+000
 1.5367021164e+000	 3.4521240607e-001	 2.8148320934e+000
 1.5333297541e+000	 3.5989563080e-001	 2.7457539901e+000
 1.5298073104e+000	 3.7458589548e-001	 2.6698466412e+000
 1.5261340886e+000	 3.8928106004e-001	 2.5871982028e+000
 1.5223094298e+000	 4.0397895985e-001	 2.4979014838e+000
 1.5183327136e+000	 4.1867740646e-001	 2.4020539380e+000
 1.5142033591e+000	 4.3337418838e-001	 2.2997576545e+000
 1.5732885894e+000	 2.9114088386e-001	 2.9256867684e+000
 1.5704647400e+000	 3.0600735321e-001	 2.8892280597e+000
 1.5674916232e+000	 3.2088940638e-001	 2.8452800970e+000
 1.5643683868e+000	 3.3578497627e-001	 2.7939229657e+000
 1.5610942135e+000	 3.5069196807e-001	 2.7352419164e+000
 1.5576683217e+000	 3.6560825986e-001	 2.6693273631e+000
 1.5540899661e+000	 3.8053170334e-001	 2.5962748790e+000
 1.5503584392e+000	 3.9546012448e-001	 2.5161851895e+000
 1.5464730715e+000	 4.1039132430e-001	 2.4291641631e+000
 1.5424332329e+000	 4.2532307958e-001	 2.3353228002e+000
 1.5382383331e+000	 4.4025314375e-001	 2.2347772194e+000
 1.5978712237e+000	 2.9568996017e-001	 2.8336987673e+000
 1.5950032516e+000	 3.1078871811e-001	 2.8023060277e+000
 1.5919836798e+000	 3.2590330335e-001	 2.7631069282e+000
 1.5888116429e+000	 3.4103161652e-001	 2.7161921714e+000
 1.5854863106e+000	 3.5617153007e-001	 2.6616580953e+000
 1.5820068892e+000	 3.7132088892e-001	 2.5996066697e+000
 1.5783726218e+000	 3.8647751121e-001	 2.5301454893e+000
 1.5745827898e+000	 4.0163918893e-001	 2.4533877641e+000
 1.5706367133e+000	 4.1680368874e-001	 2.3694523069e+000
 1.5665337522e+000	 4.3196875270e-001	 2.2784635187e+000
 1.5622733070e+000	 4.4713209913e-001	 2.1805513702e+000
 1.6224538579e+000	 3.0023903648e-001	 2.7451515178e+000
 1.6195417632e+000	 3.1557008300e-001	 2.7193440246e+000
 1.6164757364e+000	 3.3091720033e-001	 2.6854490680e+000
 1.6132548989e+000	 3.4627825678e-001	 2.6435680057e+000
 1.6098784077e+000	 3.6165109207e-001	 2.5938082729e+000
 1.6063454567e+000	 3.7703351798e-001	 2.5362833766e+000
 1.6026552775e+000	 3.9242331907e-001	 2.4711128853e+000
 1.5988071404e+000	 4.0781825337e-001	 2.3984224163e+000
 1.5948003550e+000	 4.2321605318e-001	 2.3183436199e+000
 1.5906342714e+000	 4.3861442582e-001	 2.2310141595e+000
 1.5863082810e+000	 4.5401105450e-001	 2.1365776900e+000
 1.6470364921e+000	 3.0478811279e-001	 2.6599121140e+000
 1.6440802747e+000	 3.2035144789e-001	 2.6401783825e+000
 1.6409677930e+000	 3.3593109730e-001	 2.6121112501e+000
 1.6376981549e+000	 3.5152489703e-001	 2.5758227728e+000
 1.6342705048e+000	 3.6713065407e-001	 2.5314314990e+000
 1.6306840242e+000	 3.8274614704e-001	 2.4790624601e+000
 1.6269379333e+000	 3.9836912694e-001	 2.4188471576e+000
 1.6230314910e+000	 4.1399731782e-001	 2.3509235461e+000
 1.6189639967e+000	 4.2962841762e-001	 2.2754360136e+000
 1.6147347907e+000	 4.4526009894e-001	 2.1925353568e+000
 1.6103432550e+000	 4.6089000987e-001	 2.1023787544e+000
 1.6716191263e+000	 3.0933718910e-001	 2.5778510360e+000
 1.6686187863e+000	 3.2513281279e-001	 2.5646505231e+000
 1.6654598497e+000	 3.4094499428e-001	 2.5429050629e+000
 1.6621414110e+000	 3.5677153728e-001	 2.5127374582e+000
 1.6586626019e+000	 3.7261021607e-001	 2.4742773916e+000
 1.6550225918e+000	 3.8845877610e-001	 2.4276614128e+000
 1.6512205890e+000	 4.0431493480e-001	 2.3730329215e+000
 1.6472558416e+000	 4.2017638226e-001	 2.3105421466e+000
 1.6431276385e+000	 4.3604078206e-001	 2.2403461210e+000
 1.6388353100e+000	 4.5190577206e-001	 2.1626086530e+000
 1.6343782289e+000	 4.6776896524e-001	 2.0775002935e+000
 1.6962017605e+000	 3.1388626541e-001	 2.4988419044e+000
 1.6931572979e+000	 3.2991417768e-001	 2.4926065887e+000
 1.6899519063e+000	 3.4595889125e-001	 2.4776484526e+000
 1.6865846670e+000	 3.6201817754e-001	 2.4541010990e+000
 1.6830546990e+000	 3.7808977807e-001	 2.4221053713e+000
 1.6793611593e+000	 3.9417140516e-001	 2.3818093368e+000
 1.6755032447e+000	 4.1026074266e-001	 2.3333682649e+000
 1.6714801922e+000	 4.2635544671e-001	 2.2769446017e+000
 1.6672912802e+000	 4.4245314651e-001	 2.2127079399e+000
 1.6629358292e+000	 4.5855144518e-001	 2.1408349844e+000
 1.6584132029e+000	 4.7464792061e-001	 2.0615095138e+000
 1.7207843947e+000	 3.1843534172e-001	 2.4227612561e+000
 1.7176958094e+000	 3.3469554257e-001	 2.4238971054e+000
 1.7144439629e+000	 3.5097278822e-001	 2.4161652694e+000
 1.7110279231e+000	 3.6726481779e-001	 2.3997102092e+000
 1.7074467960e+000	 3.8356934007e-001	 2.3746839610e+000
 1.7036997268e+000	 3.9988403422e-001	 2.3412461141e+000
 1.6997859004e+000	 4.1620655053e-001	 2.2995637852e+000
 1.6957045429e+000	 4.3253451115e-001	 2.2498115868e+000
 1.6914549220e+000	 4.4886551095e-001	 2.1921715922e+000
 1.6870363485e+000	 4.6519711830e-001	 2.1268332951e+000
 1.6824481768e+000	 4.8152687598e-001	 2.0539935648e+000
 1.4420984373e+000	 4.1273732227e-001	 2.5646692613e+000
 1.4380198337e+000	 4.2673054465e-001	 2.4952233978e+000
 1.4337948692e+000	 4.4071790656e-001	 2.4230351441e+000
 1.4294231071e+000	 4.5469724075e-001	 2.3482348353e+000
 1.4249041518e+000	 4.6866636131e-001	 2.2709540725e+000
 1.4202376483e+000	 4.8262306456e-001	 2.1913256286e+000
 1.4154232836e+000	 4.9656512994e-001	 2.1094833558e+000
 1.4104607872e+000	 5.1049032095e-001	 2.0255620942e+000
 1.4053499316e+000	 5.2439638615e-001	 1.9396975826e+000
 1.4000905329e+000	 5.3828106007e-001	 1.8520263703e+000
 1.3946824516e+000	 5.5214206433e-001	 1.7626857318e+000
 1.4661334112e+000	 4.1961627764e-001	 2.4641292013e+000
 1.4619868310e+000	 4.3384272040e-001	 2.3956378771e+000
 1.4576914503e+000	 4.4806320500e-001	 2.3251322142e+000
 1.4532468256e+000	 4.6227552809e-001	 2.2527279227e+000
 1.4486525543e+000	 4.7647746733e-001	 2.1785410993e+000
 1.4439082757e+000	 4.9066678230e-001	 2.1026881368e+000
 1.4390136716e+000	 5.0484121544e-001	 2.0252856357e+000
 1.4339684670e+000	 5.1899849297e-001	 1.9464503195e+000
 1.4287724304e+000	 5.3313632591e-001	 1.8662989522e+000
 1.4234253751e+000	 5.4725241107e-001	 1.7849482596e+000
 1.4179271591e+000	 5.6134443207e-001	 1.7025148539e+000
 1.4901683852e+000	 4.2649523301e-001	 2.3760220998e+000
 1.4859538282e+000	 4.4095489614e-001	 2.3073950597e+000
 1.4815880315e+000	 4.5540850345e-001	 2.2374805740e+000
 1.4770705440e+000	 4.6985381544e-001	 2.1663800829e+000
 1.4724009568e+000	 4.8428857336e-001	 2.0941945308e+000
 1.4675789032e+000	 4.9871050005e-001	 2.0210242787e+000
 1.4626040597e+000	 5.1311730094e-001	 1.9469690208e+000
 1.4574761468e+000	 5.2750666498e-001	 1.8721277049e+000
 1.4521949293e+000	 5.4187626568e-001	 1.7965984571e+000
 1.4467602173e+000	 5.5622376207e-001	 1.7204785122e+000
 1.4411718666e+000	 5.7054679981e-001	 1.6438641475e+000
 1.5142033591e+000	 4.3337418838e-001	 2.2997576545e+000
 1.5099208254e+000	 4.4806707189e-001	 2.2299569656e+000
 1.5054846126e+000	 4.6275380189e-001	 2.1595954248e+000
 1.5008942625e+000	 4.7743210279e-001	 2.0887605385e+000
 1.4961493594e+000	 4.9209967938e-001	 2.0175384310e+000
 1.4912495307e+000	 5.0675421779e-001	 1.9460137599e+000
 1.4861944478e+000	 5.2139338644e-001	 1.8742696366e+000
 1.4809838265e+000	 5.3601483700e-001	 1.8023875522e+000
 1.4756174281e+000	 5.5061620545e-001	 1.7304473091e+000
 1.4700950595e+000	 5.6519511307e-001	 1.6585269593e+000
 1.4644165742e+000	 5.7974916755e-001	 1.5867027485e+000
 1.5382383331e+000	 4.4025314375e-001	 2.2347772194e+000
 1.5338878227e+000	 4.5517924763e-001	 2.1628140223e+000
 1.5293811938e+000	 4.7009910033e-001	 2.0910170864e+000
 1.5247179809e+000	 4.8501039013e-001	 2.0194603024e+000
 1.5198977619e+000	 4.9991078540e-001	 1.9482152885e+000
 1.5149201581e+000	 5.1479793553e-001	 1.8773513079e+000
 1.5097848358e+000	 5.2966947193e-001	 1.8069351928e+000
 1.5044915063e+000	 5.4452300902e-001	 1.7370312757e+000
 1.4990399270e+000	 5.5935614522e-001	 1.6677013276e+000
 1.4934299018e+000	 5.7416646408e-001	 1.5990045038e+000
 1.4876612817e+000	 5.8895153529e-001	 1.5309972982e+000
 1.5622733070e+000	 4.4713209913e-001	 2.1805513702e+000
 1.5578548199e+000	 4.6229142338e-001	 2.1054828799e+000
 1.5532777749e+000	 4.7744439878e-001	 2.0313090648e+000
 1.5485416994e+000	 4.9258867748e-001	 1.9580905018e+000
 1.5436461644e+000	 5.0772189142e-001	 1.8858845994e+000
 1.5385907856e+000	 5.2284165328e-001	 1.8147455170e+000
 1.5333752239e+000	 5.3794555743e-001	 1.7447240926e+000
 1.5279991861e+000	 5.5303118103e-001	 1.6758677783e+000
 1.5224624259e+000	 5.6809608499e-001	 1.6082205855e+000
 1.5167647440e+000	 5.8313781508e-001	 1.5418230381e+000
 1.5109059892e+000	 5.9815390303e-001	 1.4767121359e+000
 1.5863082810e+000	 4.5401105450e-001	 2.1365776900e+000
 1.5818218171e+000	 4.6940359912e-001	 2.0575044244e+000
 1.5771743561e+000	 4.8478969722e-001	 1.9800562961e+000
 1.5723654179e+000	 5.0016696483e-001	 1.9042808545e+000
 1.5673945670e+000	 5.1553299745e-001	 1.8302215786e+000
 1.5622614131e+000	 5.3088537102e-001	 1.7579177976e+000
 1.5569656119e+000	 5.4622164294e-001	 1.6874046220e+000
 1.5515068659e+000	 5.6153935305e-001	 1.6187128837e+000
 1.5458849247e+000	 5.7683602476e-001	 1.5518690867e+000
 1.5400995862e+000	 5.9210916608e-001	 1.4868953687e+000
 1.5341506967e+000	 6.0735627077e-001	 1.4238094726e+000
 1.6103432550e+000	 4.6089000987e-001	 2.1023787544e+000
 1.6057888143e+000	 4.7651577487e-001	 2.0184419688e+000
 1.6010709372e+000	 4.9213499566e-001	 1.9368635467e+000
 1.5961891363e+000	 5.0774525217e-001	 1.8576782814e+000
 1.5911429695e+000	 5.2334410347e-001	 1.7809159869e+000
 1.5859320406e+000	 5.3892908877e-001	 1.7066014196e+000
 1.5805560000e+000	 5.5449772844e-001	 1.6347542128e+000
 1.5750145457e+000	 5.7004752507e-001	 1.5653888201e+000
 1.5693074236e+000	 5.8557596453e-001	 1.4985144730e+000
 1.5634344284e+000	 6.0108051709e-001	 1.4341351484e+000
 1.5573954043e+000	 6.1655863851e-001	 1.3722495501e+000
 1.6343782289e+000	 4.6776896524e-001	 2.0775002935e+000
 1.6297558116e+000	 4.8362795061e-001	 1.9878796046e+000
 1.6249675184e+000	 4.9948029411e-001	 1.9013539557e+000
 1.6200128548e+000	 5.1532353952e-001	 1.8179456416e+000
 1.6148913720e+000	 5.3115520949e-001	 1.7376710612e+000
 1.6096026680e+000	 5.4697280651e-001	 1.6605406407e+000
 1.6041463881e+000	 5.6277381394e-001	 1.5865587697e+000
 1.5985222255e+000	 5.7855569709e-001	 1.5157237496e+000
 1.5927299224e+000	 5.9431590430e-001	 1.4480277561e+000
 1.5867692706e+000	 6.1005186809e-001	 1.3834568136e+000
 1.5806401118e+000	 6.2576100625e-001	 1.3283376888e+000
 1.6584132029e+000	 4.7464792061e-001	 2.0615095138e+000
 1.6537228088e+000	 4.9074012636e-001	 1.9654206956e+000
 1.6488640995e+000	 5.0682559255e-001	 1.8731677032e+000
 1.6438365732e+000	 5.2290182687e-001	 1.7847605775e+000
 1.6386397745e+000	 5.3896631552e-001	 1.7002025385e+000
 1.6332732955e+000	 5.5501652426e-001	 1.6194899098e+000
 1.6277367761e+000	 5.7104989944e-001	 1.5426120566e+000
 1.6220299053e+000	 5.8706386911e-001	 1.4695513379e+000
 1.6161524213e+000	 6.0305584408e-001	 1.4002830739e+000
 1.6101041128e+000	 6.1902321909e-001	 1.3347755282e+000
 1.6038848193e+000	 6.3496337399e-001	 1.3523370588e+000
 1.6824481768e+000	 4.8152687598e-001	 2.0539935648e+000
 1.6776898060e+000	 4.9785230211e-001	 1.9506865015e+000
 1.6727606807e+000	 5.1417089100e-001	 1.8519607932e+000
 1.6676602917e+000	 5.3048011422e-001	 1.7578144587e+000
 1.6623881771e+000	 5.4677742155e-001	 1.6682377624e+000
 1.6569439230e+000	 5.6306024200e-001	 1.5832131395e+000
 1.6513271642e+000	 5.7932598494e-001	 1.5027151351e+000
 1.6455375851e+000	 5.9557204113e-001	 1.4267103610e+000
 1.6395749202e+000	 6.1179578385e-001	 1.3551574673e+000
 1.6334389551e+000	 6.2799457010e-001	 1.3114582359e+000
 1.6271295268e+000	 6.4416574173e-001	 1.3698720535e+000
 1.3946824516e+000	 5.5214206433e-001	 1.7626857318e+000
 1.3891255928e+000	 5.6597710858e-001	 1.6004402101e+000
 1.3834199070e+000	 5.7978389160e-001	 1.4385856624e+000
 1.3775653904e+000	 5.9356010237e-001	 1.2769668882e+000
 1.3715620856e+000	 6.0730342120e-001	 1.1154232878e+000
 1.3654100816e+000	 6.2101152078e-001	 9.5378902445e-001
 1.3591095148e+000	 6.3468206740e-001	 8.8138019551e-001
 1.3526605688e+000	 6.4831272205e-001	 8.4297029981e-001
 1.3460634750e+000	 6.6190114160e-001	 8.0146172827e-001
 1.3393185129e+000	 6.7544498003e-001	 7.5701002669e-001
 1.3324260102e+000	 6.8894188956e-001	 7.0977471042e-001
 1.4179271591e+000	 5.6134443207e-001	 1.7025148539e+000
 1.4122776860e+000	 5.7541006039e-001	 1.5312109160e+000
 1.4064769054e+000	 5.8944695646e-001	 1.3608693890e+000
 1.4005248136e+000	 6.0345277075e-001	 1.1913411392e+000
 1.3944214536e+000	 6.1742514488e-001	 1.0224710906e+000
 1.3881669163e+000	 6.3136171280e-001	 9.1275638034e-001
 1.3817613401e+000	 6.4526010186e-001	 8.7071009614e-001
 1.3752049116e+000	 6.5911793409e-001	 8.2579853587e-001
 1.3684978662e+000	 6.7293282730e-001	 7.7820646260e-001
 1.3616404881e+000	 6.8670239636e-001	 7.2812310764e-001
 1.3546331104e+000	 7.0042425438e-001	 6.7574152657e-001
 1.4411718666e+000	 5.7054679981e-001	 1.6438641475e+000
 1.4354297792e+000	 5.8484301220e-001	 1.4641127840e+000
 1.4295339039e+000	 5.9911002132e-001	 1.2858991394e+000
 1.4234842367e+000	 6.1334543912e-001	 1.1090796971e+000
 1.4172808217e+000	 6.2754686857e-001	 9.5690131356e-001
 1.4109237510e+000	 6.4171190481e-001	 9.1044553701e-001
 1.4044131653e+000	 6.5583813632e-001	 8.6129262340e-001
 1.3977492544e+000	 6.6992314612e-001	 8.0965710341e-001
 1.3909322575e+000	 6.8396451299e-001	 7.5575858503e-001
 1.3839624633e+000	 6.9795981269e-001	 6.9982106457e-001
 1.3768402106e+000	 7.1190661921e-001	 6.4207222064e-001
 1.4644165742e+000	 5.7974916755e-001	 1.5867027485e+000
 1.4585818724e+000	 5.9427596401e-001	 1.3990940914e+000
 1.4525909023e+000	 6.0877308618e-001	 1.2136028872e+000
 1.4464436599e+000	 6.2323810749e-001	 1.0300907966e+000
 1.4401401898e+000	 6.3766859226e-001	 9.6239520521e-001
 1.4336805857e+000	 6.5206209682e-001	 9.0821213239e-001
 1.4270649905e+000	 6.6641617078e-001	 8.5167759823e-001
 1.4202935972e+000	 6.8072835815e-001	 7.9304210881e-001
 1.4133666487e+000	 6.9499619869e-001	 7.3256123582e-001
 1.4062844385e+000	 7.0921722903e-001	 6.7049486442e-001
 1.3990473107e+000	 7.2338898403e-001	 6.0710642309e-001
 1.4876612817e+000	 5.8895153529e-001	 1.5309972982e+000
 1.4817339656e+000	 6.0370891582e-001	 1.3361020781e+000
 1.4756479008e+000	 6.1843615104e-001	 1.1439090034e+000
 1.4694030831e+000	 6.3313077587e-001	 1.0268497925e+000
 1.4629995579e+000	 6.4779031595e-001	 9.6690191006e-001
 1.4564374204e+000	 6.6241228884e-001	 9.0466496573e-001
 1.4497168158e+000	 6.7699420523e-001	 8.4042073932e-001
 1.4428379400e+000	 6.9153357019e-001	 7.7445686804e-001
 1.4358010400e+000	 7.0602788438e-001	 7.0706604992e-001
 1.4286064137e+000	 7.2047464536e-001	 6.3854522638e-001
 1.4212544109e+000	 7.3487134886e-001	 5.6919474602e-001
 1.5109059892e+000	 5.9815390303e-001	 1.4767121359e+000
 1.5048860588e+000	 6.1314186763e-001	 1.2750830261e+000
 1.4987048992e+000	 6.2809921590e-001	 1.1041612187e+000
 1.4923625062e+000	 6.4302344424e-001	 1.0377727094e+000
 1.4858589260e+000	 6.5791203963e-001	 9.6908689253e-001
 1.4791942551e+000	 6.7276248085e-001	 8.9841704527e-001
 1.4723686410e+000	 6.8757223969e-001	 8.2608320934e-001
 1.4653822828e+000	 7.0233878223e-001	 7.5241135210e-001
 1.4582354312e+000	 7.1705957007e-001	 6.7773250355e-001
 1.4509283889e+000	 7.3173206170e-001	 6.0238187174e-001
 1.4434615111e+000	 7.4635371369e-001	 5.2669793840e-001
 1.5341506967e+000	 6.0735627077e-001	 1.4238094726e+000
 1.5280381520e+000	 6.2257481944e-001	 1.2159823324e+000
 1.5217618977e+000	 6.3776228076e-001	 1.1212902799e+000
 1.5153219294e+000	 6.5291611261e-001	 1.0454708903e+000
 1.5087182941e+000	 6.6803376332e-001	 9.6761834413e-001
 1.5019510898e+000	 6.8311267287e-001	 8.8808526936e-001
 1.4950204663e+000	 6.9815027415e-001	 8.0723120262e-001
 1.4879266257e+000	 7.1314399426e-001	 7.2542168284e-001
 1.4806698225e+000	 7.2809125577e-001	 6.4302732017e-001
 1.4732503641e+000	 7.4298947803e-001	 5.6042284193e-001
 1.4656686112e+000	 7.5783607852e-001	 4.7798611809e-001
 1.5573954043e+000	 6.1655863851e-001	 1.3722495501e+000
 1.5511902453e+000	 6.3200777125e-001	 1.2179643731e+000
 1.5448188961e+000	 6.4742534562e-001	 1.1343933366e+000
 1.5382813526e+000	 6.6280878099e-001	 1.0486657945e+000
 1.5315776622e+000	 6.7815548701e-001	 9.6116697993e-001
 1.5247079245e+000	 6.9346286488e-001	 8.7229013623e-001
 1.5176722915e+000	 7.0872830861e-001	 7.8243556957e-001
 1.5104709685e+000	 7.2394920630e-001	 6.9200967395e-001
 1.5031042137e+000	 7.3912294146e-001	 6.0142392961e-001
 1.4955723393e+000	 7.5424689437e-001	 5.1109387760e-001
 1.4878757114e+000	 7.6931844334e-001	 4.2143807272e-001
 1.5806401118e+000	 6.2576100625e-001	 1.3283376888e+000
 1.5743423385e+000	 6.4144072306e-001	 1.2364684258e+000
 1.5678758946e+000	 6.5708841048e-001	 1.1422433676e+000
 1.5612407758e+000	 6.7270144936e-001	 1.0460802037e+000
 1.5544370303e+000	 6.8827721070e-001	 9.4840585299e-001
 1.5474647592e+000	 7.0381305690e-001	 8.4965547919e-001
 1.5403241168e+000	 7.1930634307e-001	 7.5027147438e-001
 1.5330153113e+000	 7.3475441833e-001	 6.5070241242e-001
 1.5255386050e+000	 7.5015462716e-001	 5.5140197500e-001
 1.5178943146e+000	 7.6550431070e-001	 4.5282785248e-001
 1.5100828116e+000	 7.8080080817e-001	 3.5544062218e-001
 1.6038848193e+000	 6.3496337399e-001	 1.3523370588e+000
 1.5974944317e+000	 6.5087367487e-001	 1.2490667282e+000
 1.5909328930e+000	 6.6675147534e-001	 1.1436136208e+000
 1.5842001989e+000	 6.8259411774e-001	 1.0364381271e+000
 1.5772963984e+000	 6.9839893439e-001	 9.2801018495e-001
 1.5702215939e+000	 7.1416324891e-001	 8.1880822505e-001
 1.5629759420e+000	 7.2988437753e-001	 7.0931808238e-001
 1.5555596541e+000	 7.4555963037e-001	 6.0003187644e-001
 1.5479729962e+000	 7.6118631286e-001	 4.9144686251e-001
 1.5402162898e+000	 7.7676172704e-001	 3.8406425654e-001
 1.5322899118e+000	 7.9228317300e-001	 2.7838803658e-001
 1.6271295268e+000	 6.4416574173e-001	 1.3698720535e+000
 1.6206465249e+000	 6.6030662669e-001	 1.2545815245e+000
 1.6139898915e+000	 6.7641454021e-001	 1.1372775944e+000
 1.6071596221e+000	 6.9248678611e-001	 1.0184647130e+000
 1.6001557665e+000	 7.0852065808e-001	 8.9865721115e-001
 1.5929784285e+000	 7.2451344093e-001	 7.7837817307e-001
 1.5856277673e+000	 7.4046241198e-001	 6.5815827428e-001
 1.5781039969e+000	 7.5636484241e-001	 5.3853458604e-001
 1.5704073875e+000	 7.7221799855e-001	 4.2004934968e-001
 1.5625382650e+000	 7.8801914338e-001	 3.0324872335e-001
 1.5544970119e+000	 8.0376553783e-001	 1.8868150408e-001
 1.3324260102e+000	 6.8894188956e-001	 7.0977471042e-001
 1.3253863434e+000	 7.0238952194e-001	 5.9280472016e-001
 1.3181999376e+000	 7.1578552965e-001	 4.8144844979e-001
 1.3108672667e+000	 7.2912756712e-001	 3.7597116715e-001
 1.3033888536e+000	 7.4241329201e-001	 2.7663238393e-001
 1.2957652706e+000	 7.5564036645e-001	 1.8368505531e-001
 1.2879971388e+000	 7.6880645833e-001	 9.7374782360e-002
 1.2800851286e+000	 7.8190924254e-001	 1.7939019358e-002
 1.2720299594e+000	 7.9494640225e-001	-5.4393711753e-002
 1.2638323996e+000	 8.0791563023e-001	-1.1940459752e-001
 1.2554932668e+000	 8.2081463007e-001	-1.7688529751e-001
 1.3546331104e+000	 7.0042425438e-001	 6.7574152657e-001
 1.3474761158e+000	 7.1409601397e-001	 5.5731650340e-001
 1.3401699365e+000	 7.2771528847e-001	 4.4411854355e-001
 1.3327150544e+000	 7.4127969323e-001	 3.3645853084e-001
 1.3251120012e+000	 7.5478684687e-001	 2.3464211922e-001
 1.3173613584e+000	 7.6823437256e-001	 1.3896886429e-001
 1.3094637578e+000	 7.8161989930e-001	 4.9731356372e-002
 1.3014198807e+000	 7.9494106324e-001	-3.2785642560e-002
 1.2932304587e+000	 8.0819550895e-001	-1.0830605573e-001
 1.2848962730e+000	 8.2138089073e-001	-1.7656333970e-001
 1.2764181546e+000	 8.3449487390e-001	-2.3730132153e-001
 1.3768402106e+000	 7.1190661921e-001	 6.4207222064e-001
 1.3695658882e+000	 7.2580250600e-001	 5.2280101168e-001
 1.3621399355e+000	 7.3964504730e-001	 4.0840577304e-001
 1.3545628422e+000	 7.5343181935e-001	 2.9924382790e-001
 1.3468351487e+000	 7.6716040174e-001	 1.9566776967e-001
 1.3389574463e+000	 7.8082837866e-001	 9.8024523387e-002
 1.3309303768e+000	 7.9443334027e-001	 6.6544074885e-003
 1.3227546328e+000	 8.0797288395e-001	-7.8109801523e-002
 1.3144309580e+000	 8.2144461565e-001	-1.5594379905e-001
 1.3059601463e+000	 8.3484615123e-001	-2.2653267444e-001
 1.2973430424e+000	 8.4817511773e-001	-2.8957182247e-001
 1.3990473107e+000	 7.2338898403e-001	 6.0710642309e-001
 1.3916556606e+000	 7.3750899804e-001	 4.8750802708e-001
 1.3841099345e+000	 7.5157480613e-001	 3.7246947788e-001
 1.3764106300e+000	 7.6558394547e-001	 2.6239541688e-001
 1.3685582963e+000	 7.7953395660e-001	 1.5768623003e-001
 1.3605535341e+000	 7.9342238477e-001	 5.8737037189e-002
 1.3523969957e+000	 8.0724678124e-001	-3.4063319349e-002
 1.3440893850e+000	 8.2100470466e-001	-1.2033328444e-001
 1.3356314573e+000	 8.3469372236e-001	-1.9969959513e-001
 1.3270240196e+000	 8.4831141173e-001	-2.7179827843e-001
 1.3182679302e+000	 8.6185536157e-001	-3.3627563911e-001
 1.4212544109e+000	 7.3487134886e-001	 5.6919474602e-001
 1.4137454330e+000	 7.4921549007e-001	 4.4970197566e-001
 1.4060799334e+000	 7.6350456496e-001	 3.3448736940e-001
 1.3982584178e+000	 7.7773607159e-001	 2.2400381948e-001
 1.3902814439e+000	 7.9190751147e-001	 1.1870041191e-001
 1.3821496220e+000	 8.0601639088e-001	 1.9021341643e-002
 1.3738636147e+000	 8.2006022222e-001	-7.4595174162e-002
 1.3654241371e+000	 8.3403652537e-001	-1.6171798200e-001
 1.3568319566e+000	 8.4794282906e-001	-2.4192407412e-001
 1.3480878930e+000	 8.6177667223e-001	-3.1479966404e-001
 1.3391928179e+000	 8.7553560540e-001	-3.7994125245e-001
 1.4434615111e+000	 7.4635371369e-001	 5.2669793840e-001
 1.4358352054e+000	 7.6092198210e-001	 4.0766080107e-001
 1.4280499324e+000	 7.7543432378e-001	 2.9265411739e-001
 1.4201062055e+000	 7.8988819771e-001	 1.8218001567e-001
 1.4120045914e+000	 8.0428106634e-001	 7.6737242500e-002
 1.4037457098e+000	 8.1861039699e-001	-2.3179998335e-002
 1.3953302337e+000	 8.3287366319e-001	-1.1708321001e-001
 1.3867588893e+000	 8.4706834608e-001	-2.0449076684e-001
 1.3780324560e+000	 8.6119193577e-001	-2.8492907553e-001
 1.3691517663e+000	 8.7524193274e-001	-3.5793373038e-001
 1.3601177057e+000	 8.8921584923e-001	-4.2305065940e-001
 1.4656686112e+000	 7.5783607852e-001	 4.7798611809e-001
 1.4579249778e+000	 7.7262847414e-001	 3.5967494043e-001
 1.4500199313e+000	 7.8736408261e-001	 2.4518006536e-001
 1.4419539933e+000	 8.0204032383e-001	 1.3505389380e-001
 1.4337277390e+000	 8.1665462121e-001	 2.9845845208e-002
 1.4253417977e+000	 8.3120440310e-001	-6.9898881968e-002
 1.4167968527e+000	 8.4568710416e-001	-1.6364055398e-001
 1.4080936414e+000	 8.6010016679e-001	-2.5084614644e-001
 1.3992329553e+000	 8.7444104247e-001	-3.3099058685e-001
 1.3902156396e+000	 8.8870719324e-001	-4.0355799159e-001
 1.3810425935e+000	 9.0289609307e-001	-4.6804289429e-001
 1.4878757114e+000	 7.6931844334e-001	 4.2143807272e-001
 1.4800147502e+000	 7.8433496617e-001	 3.0404639204e-001
 1.4719899303e+000	 7.9929384144e-001	 1.9029006091e-001
 1.4638017811e+000	 8.1419244995e-001	 8.0772839579e-002
 1.4554508865e+000	 8.2902817608e-001	-2.3904116777e-002
 1.4469378855e+000	 8.4379840921e-001	-1.2314357828e-001
 1.4382634717e+000	 8.5850054514e-001	-2.1635356582e-001
 1.4294283936e+000	 8.7313198750e-001	-3.0294867842e-001
 1.4204334546e+000	 8.8769014918e-001	-3.8235141913e-001
 1.4112795129e+000	 9.0217245375e-001	-4.5399351606e-001
 1.4019674813e+000	 9.1657633690e-001	-5.1731723501e-001
 1.5100828116e+000	 7.8080080817e-001	 3.5544062218e-001
 1.5021045226e+000	 7.9604145821e-001	 2.3908786525e-001
 1.4939599293e+000	 8.1122360028e-001	 1.2622238920e-001
 1.4856495689e+000	 8.2634457607e-001	 1.7500449453e-002
 1.4771740341e+000	 8.4140173095e-001	-8.6423950762e-002
 1.4685339734e+000	 8.5639241532e-001	-1.8490046361e-001
 1.4597300906e+000	 8.7131398611e-001	-2.7728380616e-001
 1.4507631457e+000	 8.8616380821e-001	-3.6293517273e-001
 1.4416339539e+000	 9.0093925588e-001	-4.4122364639e-001
 1.4323433863e+000	 9.1563771425e-001	-5.1152760620e-001
 1.4228923691e+000	 9.3025658074e-001	-5.7323612632e-001
 1.5322899118e+000	 7.9228317300e-001	 2.7838803658e-001
 1.5241942950e+000	 8.0774795024e-001	 1.6312200429e-001
 1.5159299282e+000	 8.2315335911e-001	 5.1227799232e-002
 1.5074973567e+000	 8.3849670220e-001	-5.6584644057e-002
 1.4988971817e+000	 8.5377528582e-001	-1.5960731350e-001
 1.4901300612e+000	 8.6898642143e-001	-2.5713560803e-001
 1.4811967096e+000	 8.8412742709e-001	-3.4846983353e-001
 1.4720978979e+000	 8.9919562892e-001	-4.3291670238e-001
 1.4628344533e+000	 9.1418836259e-001	-5.0979083295e-001
 1.4534072596e+000	 9.2910297476e-001	-5.7841624528e-001
 1.4438172569e+000	 9.4393682457e-001	-6.3812784891e-001
 1.5544970119e+000	 8.0376553783e-001	 1.8868150408e-001
 1.5462840674e+000	 8.1945444228e-001	 7.4480678700e-002
 1.5378999272e+000	 8.3508311794e-001	-3.6431386413e-002
 1.5293451444e+000	 8.5064882832e-001	-1.4328984637e-001
 1.5206203292e+000	 8.6614884069e-001	-2.4533147194e-001
 1.5117261490e+000	 8.8158042754e-001	-3.4179622582e-001
 1.5026633286e+000	 8.9694086807e-001	-4.3192884737e-001
 1.4934326500e+000	 9.1222744964e-001	-5.1498044175e-001
 1.4840349526e+000	 9.2743746930e-001	-5.9021006985e-001
 1.4744711329e+000	 9.4256823526e-001	-6.5688633453e-001
 1.4647421446e+000	 9.5761706841e-001	-7.1428895966e-001
 1.2554932668e+000	 8.2081463007e-001	-1.7688529751e-001
 1.2470134270e+000	 8.3364111751e-001	-2.4635723305e-001
 1.2383937949e+000	 8.4639282171e-001	-4.0771415015e-001
 1.2296353336e+000	 8.5906748650e-001	-5.5580793338e-001
 1.2207390541e+000	 8.7166287168e-001	-6.9117093460e-001
 1.2117060152e+000	 8.8417675429e-001	-8.1435481341e-001
 1.2025373230e+000	 8.9660692987e-001	-9.2592984295e-001
 1.1932341309e+000	 9.0895121369e-001	-1.0264841844e+000
 1.1837976384e+000	 9.2120744201e-001	-1.1166231318e+000
 1.1742290915e+000	 9.3337347334e-001	-1.1969683274e+000
 1.1645297814e+000	 9.4544718961e-001	-1.2681569515e+000
 1.2764181546e+000	 8.3449487390e-001	-2.3730132153e-001
 1.2677969841e+000	 8.4753513614e-001	-2.6246489735e-001
 1.2590336915e+000	 8.6049936873e-001	-2.6432303757e-001
 1.2501292558e+000	 8.7338527793e-001	-2.4280025175e-001
 1.2410847050e+000	 8.8619058620e-001	-4.0460759036e-001
 1.2319011154e+000	 8.9891303353e-001	-5.6319031975e-001
 1.2225796118e+000	 9.1155037870e-001	-7.1618221120e-001
 1.2131213664e+000	 9.2410040058e-001	-8.6412795803e-001
 1.2035275991e+000	 9.3656089938e-001	-1.0075836530e+000
 1.1937995763e+000	 9.4892969790e-001	-1.1471160146e+000
 1.1839386111e+000	 9.6120464277e-001	-1.2833015939e+000
 1.2973430424e+000	 8.4817511773e-001	-2.8957182247e-001
 1.2885805413e+000	 8.6142915476e-001	-3.2761038170e-001
 1.2796735881e+000	 8.7460591576e-001	-3.4745948014e-001
 1.2706231781e+000	 8.8770306937e-001	-3.4898213479e-001
 1.2614303559e+000	 9.0071830073e-001	-3.3206648282e-001
 1.2520962157e+000	 9.1364931276e-001	-2.9662652708e-001
 1.2426219005e+000	 9.2649382753e-001	-4.3411889829e-001
 1.2330086019e+000	 9.3924958748e-001	-6.2506005013e-001
 1.2232575597e+000	 9.5191435675e-001	-8.1726361833e-001
 1.2133700612e+000	 9.6448592246e-001	-1.0112437472e+000
 1.2033474407e+000	 9.7696209593e-001	-1.2075188237e+000
 1.3182679302e+000	 8.6185536157e-001	-3.3627563911e-001
 1.3093640984e+000	 8.7532317338e-001	-3.8499577790e-001
 1.3003134847e+000	 8.8871246279e-001	-4.2043242720e-001
 1.2911171003e+000	 9.0202086081e-001	-4.4238677445e-001
 1.2817760068e+000	 9.1524601526e-001	-4.5068057206e-001
 1.2722913159e+000	 9.2838559200e-001	-4.4515694679e-001
 1.2626641892e+000	 9.4143727636e-001	-4.2568117354e-001
 1.2528958375e+000	 9.5439877437e-001	-3.9214141098e-001
 1.2429875204e+000	 9.6726781412e-001	-5.4741845605e-001
 1.2329405461e+000	 9.8004214701e-001	-7.9130126935e-001
 1.2227562704e+000	 9.9271954909e-001	-1.0429614874e+000
 1.3391928179e+000	 8.7553560540e-001	-3.7994125245e-001
 1.3301476555e+000	 8.8921719201e-001	-4.3729897172e-001
 1.3209533813e+000	 9.0281900981e-001	-4.8607700109e-001
 1.3116110225e+000	 9.1633865225e-001	-5.2601429582e-001
 1.3021216577e+000	 9.2977372978e-001	-5.5686596804e-001
 1.2924864162e+000	 9.4312187124e-001	-5.7840416201e-001
 1.2827064779e+000	 9.5638072519e-001	-5.9041889940e-001
 1.2727830730e+000	 9.6954796126e-001	-5.9271889205e-001
 1.2627174810e+000	 9.8262127148e-001	-5.8513231959e-001
 1.2525110309e+000	 9.9559837157e-001	-5.6750756949e-001
 1.2421651001e+000	 1.0084770023e+000	-7.9162398158e-001
 1.3601177057e+000	 8.8921584923e-001	-4.2305065940e-001
 1.3509312126e+000	 9.0311121063e-001	-4.8714373009e-001
 1.3415932779e+000	 9.1692555684e-001	-5.4716604203e-001
 1.3321049447e+000	 9.3065644369e-001	-6.0279385244e-001
 1.3224673086e+000	 9.4430144431e-001	-6.5371530981e-001
 1.3126815164e+000	 9.5785815047e-001	-6.9963139702e-001
 1.3027487666e+000	 9.7132417402e-001	-7.4025685005e-001
 1.2926703085e+000	 9.8469714816e-001	-7.7532104933e-001
 1.2824474417e+000	 9.9797472885e-001	-8.0456888131e-001
 1.2720815158e+000	 1.0111545961e+000	-8.2776156738e-001
 1.2615739298e+000	 1.0242344554e+000	-8.4467745787e-001
 1.3810425935e+000	 9.0289609307e-001	-4.6804289429e-001
 1.3717147697e+000	 9.1700522925e-001	-5.3710380097e-001
 1.3622331744e+000	 9.3103210387e-001	-6.0641482646e-001
 1.3525988670e+000	 9.4497423513e-001	-6.7558900297e-001
 1.3428129595e+000	 9.5882915883e-001	-7.4424712658e-001
 1.3328766167e+000	 9.7259442971e-001	-8.1201877035e-001
 1.3227910554e+000	 9.8626762285e-001	-8.7854327825e-001
 1.3125575440e+000	 9.9984633505e-001	-9.4347073689e-001
 1.3021774023e+000	 1.0133281862e+000	-1.0064629225e+000
 1.2916520006e+000	 1.0267108207e+000	-1.0671942200e+000
 1.2809827595e+000	 1.0399919086e+000	-1.1253525120e+000
 1.4019674813e+000	 9.1657633690e-001	-5.1731723501e-001
 1.3924983268e+000	 9.3089924788e-001	-5.8970664608e-001
 1.3828730710e+000	 9.4513865090e-001	-6.6648536282e-001
 1.3730927892e+000	 9.5929202657e-001	-7.4720260630e-001
 1.3631586104e+000	 9.7335687336e-001	-8.3141136834e-001
 1.3530717169e+000	 9.8733070895e-001	-9.1866949666e-001
 1.3428333441e+000	 1.0012110717e+000	-1.0085407660e+000
 1.3324447795e+000	 1.0149955219e+000	-1.1005959321e+000
 1.3219073629e+000	 1.0286816436e+000	-1.1944137653e+000
 1.3112224855e+000	 1.0422670452e+000	-1.2895820617e+000
 1.3003915892e+000	 1.0557493617e+000	-1.3856986277e+000
 1.4228923691e+000	 9.3025658074e-001	-5.7323612632e-001
 1.4132818840e+000	 9.4479326650e-001	-6.4743684438e-001
 1.4035129676e+000	 9.5924519792e-001	-7.2999030836e-001
 1.3935867114e+000	 9.7360981801e-001	-8.2038128481e-001
 1.3835042613e+000	 9.8788458789e-001	-9.1809444842e-001
 1.3732668172e+000	 1.0020669882e+000	-1.0226155415e+000
 1.3628756328e+000	 1.0161545205e+000	-1.1334325240e+000
 1.3523320150e+000	 1.0301447088e+000	-1.2500367118e+000
 1.3416373236e+000	 1.0440351009e+000	-1.3719238989e+000
 1.3307929704e+000	 1.0578232698e+000	-1.4985954610e+000
 1.3198004189e+000	 1.0715068149e+000	-1.6295594381e+000
 1.4438172569e+000	 9.4393682457e-001	-6.3812784891e-001
 1.4340654411e+000	 9.5868728513e-001	-7.1273919945e-001
 1.4241528642e+000	 9.7335174495e-001	-7.9949654528e-001
 1.4140806337e+000	 9.8792760946e-001	-8.9781949943e-001
 1.4038499122e+000	 1.0024123024e+000	-1.0071238476e+000
 1.3934619174e+000	 1.0168032674e+000	-1.1268227840e+000
 1.3829179215e+000	 1.0310979693e+000	-1.2563281429e+000
 1.3722192506e+000	 1.0452938957e+000	-1.3950516221e+000
 1.3613672842e+000	 1.0593885583e+000	-1.5424059960e+000
 1.3503634552e+000	 1.0733794943e+000	-1.6978063135e+000
 1.3392092486e+000	 1.0872642681e+000	-1.8606710793e+000
 1.4647421446e+000	 9.5761706841e-001	-7.1428895966e-001
 1.4548489982e+000	 9.7258130376e-001	-7.8802158062e-001
 1.4447927608e+000	 9.8745829198e-001	-8.7752845038e-001
 1.4345745559e+000	 1.0022454009e+000	-9.8216327551e-001
 1.4241955631e+000	 1.0169400169e+000	-1.1012723236e+000
 1.4136570177e+000	 1.0315395467e+000	-1.2341957380e+000
 1.4029602102e+000	 1.0460414182e+000	-1.3802688522e+000
 1.3921064861e+000	 1.0604430826e+000	-1.5388235017e+000
 1.3810972449e+000	 1.0747420157e+000	-1.7091893287e+000
 1.3699339401e+000	 1.0889357189e+000	-1.8906950760e+000
 1.3586180783e+000	 1.1030217212e+000	-2.0826698688e+000
 1.1645297814e+000	 9.4544718961e-001	-1.2681569515e+000
 1.1547010445e+000	 9.5742649739e-001	-1.2322446420e+000
 1.1447442616e+000	 9.6930932910e-001	-1.2072842428e+000
 1.1346608574e+000	 9.8109364418e-001	-1.1936097186e+000
 1.1244522996e+000	 9.9277743021e-001	-1.1915472192e+000
 1.1141200983e+000	 1.0043587041e+000	-1.2014144998e+000
 1.1036658055e+000	 1.0158355131e+000	-1.2235203514e+000
 1.0930910140e+000	 1.0272059361e+000	-1.2581640447e+000
 1.0823973566e+000	 1.0384680844e+000	-1.3056347859e+000
 1.0715865057e+000	 1.0496201031e+000	-1.3662111886e+000
 1.0606601718e+000	 1.0606601718e+000	-1.4401607611e+000
 1.1839386111e+000	 9.6120464277e-001	-1.2833015939e+000
 1.1739460619e+000	 9.7338360568e-001	-1.2978211212e+000
 1.1638233327e+000	 9.8546448459e-001	-1.3175717062e+000
 1.1535718717e+000	 9.9744520492e-001	-1.3429714991e+000
 1.1431931713e+000	 1.0093237207e+000	-1.3744364270e+000
 1.1326887666e+000	 1.0210980158e+000	-1.4123795181e+000
 1.1220602356e+000	 1.0327661050e+000	-1.4572102305e+000
 1.1113091975e+000	 1.0443260351e+000	-1.5093337836e+000
 1.1004373125e+000	 1.0557758859e+000	-1.5691504983e+000
 1.0894462808e+000	 1.0671137715e+000	-1.6370551427e+000
 1.0783378413e+000	 1.0783378413e+000	-1.7134362894e+000
 1.2033474407e+000	 9.7696209593e-001	-1.2075188237e+000
 1.1931910793e+000	 9.8934071397e-001	-1.2759336216e+000
 1.1829024037e+000	 1.0016196401e+000	-1.3440688716e+000
 1.1724828860e+000	 1.0137967657e+000	-1.4124259255e+000
 1.1619340429e+000	 1.0258700112e+000	-1.4815093642e+000
 1.1512574349e+000	 1.0378373276e+000	-1.5518262265e+000
 1.1404546657e+000	 1.0496966969e+000	-1.6238852344e+000
 1.1295273811e+000	 1.0614461340e+000	-1.6981960158e+000
 1.1184772685e+000	 1.0730836873e+000	-1.7752683266e+000
 1.1073060559e+000	 1.0846074399e+000	-1.8556112740e+000
 1.0960155108e+000	 1.0960155108e+000	-1.9397325423e+000
 1.2227562704e+000	 9.9271954909e-001	-1.0429614874e+000
 1.2124360967e+000	 1.0052978223e+000	-1.1685403112e+000
 1.2019814747e+000	 1.0177747956e+000	-1.2885300961e+000
 1.1913939003e+000	 1.0301483264e+000	-1.4035145062e+000
 1.1806749146e+000	 1.0424163017e+000	-1.5140857526e+000
 1.1698261033e+000	 1.0545766393e+000	-1.6208437267e+000
 1.1588490958e+000	 1.0666272888e+000	-1.7243951240e+000
 1.1477455647e+000	 1.0785662329e+000	-1.8253525565e+000
 1.1365172244e+000	 1.0903914887e+000	-1.9243336589e+000
 1.1251658309e+000	 1.1021011083e+000	-2.0219601893e+000
 1.1136931804e+000	 1.1136931804e+000	-2.1188571253e+000
 1.2421651001e+000	 1.0084770023e+000	-7.9162398158e-001
 1.2316811141e+000	 1.0212549306e+000	-9.7745247535e-001
 1.2210605457e+000	 1.0339299511e+000	-1.1525750020e+000
 1.2103049146e+000	 1.0464998871e+000	-1.3176567370e+000
 1.1994157862e+000	 1.0589625922e+000	-1.4733765919e+000
 1.1883947716e+000	 1.0713159510e+000	-1.6204262536e+000
 1.1772435259e+000	 1.0835578807e+000	-1.7595092048e+000
 1.1659637482e+000	 1.0956863319e+000	-1.8913397280e+000
 1.1545571804e+000	 1.1076992901e+000	-2.0166418964e+000
 1.1430256060e+000	 1.1195947767e+000	-2.1361485513e+000
 1.1313708499e+000	 1.1313708499e+000	-2.2506002709e+000
 1.2615739298e+000	 1.0242344554e+000	-8.4467745787e-001
 1.2509261315e+000	 1.0372120388e+000	-7.3639742709e-001
 1.2401396168e+000	 1.0500851065e+000	-9.3769884116e-001
 1.2292159289e+000	 1.0628514479e+000	-1.1561594865e+000
 1.2181566579e+000	 1.0755088827e+000	-1.3604925241e+000
 1.2069634399e+000	 1.0880552628e+000	-1.5514804726e+000
 1.1956379560e+000	 1.1004884726e+000	-1.7299225158e+000
 1.1841819318e+000	 1.1128064308e+000	-1.8966333978e+000
 1.1725971363e+000	 1.1250070915e+000	-2.0524422984e+000
 1.1608853811e+000	 1.1370884451e+000	-2.1981916893e+000
 1.1490485194e+000	 1.1490485194e+000	-2.3347361750e+000
 1.2809827595e+000	 1.0399919086e+000	-1.1253525120e+000
 1.2701711489e+000	 1.0531691471e+000	-1.0804774705e+000
 1.2592186878e+000	 1.0662402620e+000	-9.8814216872e-001
 1.2481269432e+000	 1.0792030086e+000	-9.2022552847e-001
 1.2368975296e+000	 1.0920551733e+000	-1.1764514352e+000
 1.2255321082e+000	 1.1047945745e+000	-1.4148321136e+000
 1.2140323861e+000	 1.1174190645e+000	-1.6362614562e+000
 1.2024001154e+000	 1.1299265297e+000	-1.8416535583e+000
 1.1906370923e+000	 1.1423148929e+000	-2.0319414782e+000
 1.1787451562e+000	 1.1545821135e+000	-2.2080759729e+000
 1.1667261890e+000	 1.1667261890e+000	-2.3710242112e+000
 1.3003915892e+000	 1.0557493617e+000	-1.3856986277e+000
 1.2894161663e+000	 1.0691262554e+000	-1.4075017600e+000
 1.2782977588e+000	 1.0823954175e+000	-1.3757760809e+000
 1.2670379575e+000	 1.0955545694e+000	-1.2908691078e+000
 1.2556384012e+000	 1.1086014638e+000	-1.1531954029e+000
 1.2441007765e+000	 1.1215338863e+000	-1.2112320112e+000
 1.2324268162e+000	 1.1343496563e+000	-1.4790889071e+000
 1.2206182989e+000	 1.1470466287e+000	-1.7267684962e+000
 1.2086770482e+000	 1.1596226943e+000	-1.9553065855e+000
 1.1966049313e+000	 1.1720757818e+000	-2.1657609734e+000
 1.1844038585e+000	 1.1844038585e+000	-2.3592100379e+000
 1.3198004189e+000	 1.0715068149e+000	-1.6295594381e+000
 1.3086611837e+000	 1.0850833637e+000	-1.7211951712e+000
 1.2973768299e+000	 1.0985505730e+000	-1.7533389738e+000
 1.2859489718e+000	 1.1119061301e+000	-1.7263778904e+000
 1.2743792729e+000	 1.1251477543e+000	-1.6407727483e+000
 1.2626694448e+000	 1.1382731980e+000	-1.4970582918e+000
 1.2508212463e+000	 1.1512802482e+000	-1.2958431931e+000
 1.2388364825e+000	 1.1641667276e+000	-1.5522985954e+000
 1.2267170042e+000	 1.1769304957e+000	-1.8226682078e+000
 1.2144647064e+000	 1.1895694502e+000	-2.0711814342e+000
 1.2020815280e+000	 1.2020815280e+000	-2.2990266058e+000
 1.3392092486e+000	 1.0872642681e+000	-1.8606710793e+000
 1.3279062012e+000	 1.1010404720e+000	-2.0251829312e+000
 1.3164559009e+000	 1.1147057285e+000	-2.1243377766e+000
 1.3048599860e+000	 1.1282576908e+000	-2.1585601103e+000
 1.2931201445e+000	 1.1416940448e+000	-2.1283549114e+000
 1.2812381131e+000	 1.1550125097e+000	-2.0343077631e+000
 1.2692156764e+000	 1.1682108401e+000	-1.8770848377e+000
 1.2570546661e+000	 1.1812868266e+000	-1.6574327470e+000
 1.2447569601e+000	 1.1942382971e+000	-1.6341230207e+000
 1.2323244815e+000	 1.2070631186e+000	-1.9242490696e+000
 1.2197591976e+000	 1.2197591976e+000	-2.1901950795e+000
 1.3586180783e+000	 1.1030217212e+000	-2.0826698688e+000
 1.3471512186e+000	 1.1169975803e+000	-2.3229977357e+000
 1.3355349719e+000	 1.1308608840e+000	-2.4921945401e+000
 1.3237710003e+000	 1.1446092516e+000	-2.5907201832e+000
 1.3118610162e+000	 1.1582403353e+000	-2.6191217216e+000
 1.2998067814e+000	 1.1717518215e+000	-2.5780334744e+000
 1.2876101065e+000	 1.1851414320e+000	-2.4681769859e+000
 1.2752728496e+000	 1.1984069255e+000	-2.2903608423e+000
 1.2627969161e+000	 1.2115460986e+000	-2.0454803420e+000
 1.2501842566e+000	 1.2245567870e+000	-1.7345170184e+000
 1.2374368671e+000	 1.2374368671e+000	-2.0324256788e+000
 1.0606601718e+000	 1.0606601718e+000	-1.4401607611e+000
 1.0496201031e+000	 1.0715865057e+000	-1.4084567104e+000
 1.0384680844e+000	 1.0823973566e+000	-1.3929882911e+000
 1.0272059361e+000	 1.0930910140e+000	-1.3939632368e+000
 1.0158355131e+000	 1.1036658055e+000	-1.4115732579e+000
 1.0043587041e+000	 1.1141200983e+000	-1.4459936690e+000
 9.9277743021e-001	 1.1244522996e+000	-1.4973830427e+000
 9.8109364418e-001	 1.1346608574e+000	-1.5658828910e+000
 9.6930932910e-001	 1.1447442616e+000	-1.6516173761e+000
 9.5742649739e-001	 1.1547010445e+000	-1.7546930495e+000
 9.4544718961e-001	 1.1645297814e+000	-1.8751986216e+000
 1.0783378413e+000	 1.0783378413e+000	-1.7134362894e+000
 1.0671137715e+000	 1.0894462808e+000	-1.6762095776e+000
 1.0557758859e+000	 1.1004373125e+000	-1.6511038132e+000
 1.0443260351e+000	 1.1113091975e+000	-1.6384030890e+000
 1.0327661050e+000	 1.1220602356e+000	-1.6383793165e+000
 1.0210980158e+000	 1.1326887666e+000	-1.6512917550e+000
 1.0093237207e+000	 1.1431931713e+000	-1.6773865634e+000
 9.9744520492e-001	 1.1535718717e+000	-1.7168963759e+000
 9.8546448459e-001	 1.1638233327e+000	-1.7700399009e+000
 9.7338360568e-001	 1.1739460619e+000	-1.8370215458e+000
 9.6120464277e-001	 1.1839386111e+000	-1.9180310675e+000
 1.0960155108e+000	 1.0960155108e+000	-1.9397325423e+000
 1.0846074399e+000	 1.1073060559e+000	-1.8996114811e+000
 1.0730836873e+000	 1.1184772685e+000	-1.8676734219e+000
 1.0614461340e+000	 1.1295273811e+000	-1.8442778658e+000
 1.0496966969e+000	 1.1404546657e+000	-1.8297758532e+000
 1.0378373276e+000	 1.1512574349e+000	-1.8245093969e+000
 1.0258700112e+000	 1.1619340429e+000	-1.8288109326e+000
 1.0137967657e+000	 1.1724828860e+000	-1.8430027882e+000
 1.0016196401e+000	 1.1829024037e+000	-1.8673966741e+000
 9.8934071397e-001	 1.1931910793e+000	-1.9022931936e+000
 9.7696209593e-001	 1.2033474407e+000	-1.9479813763e+000
 1.1136931804e+000	 1.1136931804e+000	-2.1188571253e+000
 1.1021011083e+000	 1.1251658309e+000	-2.0783259258e+000
 1.0903914887e+000	 1.1365172244e+000	-2.0422094142e+000
 1.0785662329e+000	 1.1477455647e+000	-2.0109416301e+000
 1.0666272888e+000	 1.1588490958e+000	-1.9849517578e+000
 1.0545766393e+000	 1.1698261033e+000	-1.9646634627e+000
 1.0424163017e+000	 1.1806749146e+000	-1.9504942419e+000
 1.0301483264e+000	 1.1913939003e+000	-1.9428547883e+000
 1.0177747956e+000	 1.2019814747e+000	-1.9421483723e+000
 1.0052978223e+000	 1.2124360967e+000	-1.9487702397e+000
 9.9271954909e-001	 1.2227562704e+000	-1.9631070295e+000
 1.1313708499e+000	 1.1313708499e+000	-2.2506002709e+000
 1.1195947767e+000	 1.1430256060e+000	-2.2120075746e+000
 1.1076992901e+000	 1.1545571804e+000	-2.1742242361e+000
 1.0956863319e+000	 1.1659637482e+000	-2.1377580418e+000
 1.0835578807e+000	 1.1772435259e+000	-2.1031154159e+000
 1.0713159510e+000	 1.1883947716e+000	-2.0708006617e+000
 1.0589625922e+000	 1.1994157862e+000	-2.0413152114e+000
 1.0464998871e+000	 1.2103049146e+000	-2.0151568872e+000
 1.0339299511e+000	 1.2210605457e+000	-1.9928191745e+000
 1.0212549306e+000	 1.2316811141e+000	-1.9747905092e+000
 1.0084770023e+000	 1.2421651001e+000	-1.9615535799e+000
 1.1490485194e+000	 1.1490485194e+000	-2.3347361750e+000
 1.1370884451e+000	 1.1608853811e+000	-2.3003029279e+000
 1.1250070915e+000	 1.1725971363e+000	-2.2632304710e+000
 1.1128064308e+000	 1.1841819318e+000	-2.2240996190e+000
 1.1004884726e+000	 1.1956379560e+000	-2.1834932095e+000
 1.0880552628e+000	 1.2069634399e+000	-2.1419952490e+000
 1.0755088827e+000	 1.2181566579e+000	-2.1001900639e+000
 1.0628514479e+000	 1.2292159289e+000	-2.0586614576e+000
 1.0500851065e+000	 1.2401396168e+000	-2.0179918776e+000
 1.0372120388e+000	 1.2509261315e+000	-1.9869770308e+000
 1.0242344554e+000	 1.2615739298e+000	-2.0435736139e+000
 1.1667261890e+000	 1.1667261890e+000	-2.3710242112e+000
 1.1545821135e+000	 1.1787451562e+000	-2.3428509421e+000
 1.1423148929e+000	 1.1906370923e+000	-2.3087408295e+000
 1.1299265297e+000	 1.2024001154e+000	-2.2693470672e+000
 1.1174190645e+000	 1.2140323861e+000	-2.2253281530e+000
 1.1047945745e+000	 1.2255321082e+000	-2.1773469389e+000
 1.0920551733e+000	 1.2368975296e+000	-2.1260696839e+000
 1.0792030086e+000	 1.2481269432e+000	-2.0721651085e+000
 1.0662402620e+000	 1.2592186878e+000	-2.1084184641e+000
 1.0531691471e+000	 1.2701711489e+000	-2.1601555272e+000
 1.0399919086e+000	 1.2809827595e+000	-2.2081395238e+000
 1.1844038585e+000	 1.1844038585e+000	-2.3592100379e+000
 1.1720757818e+000	 1.1966049313e+000	-2.3392835930e+000
 1.1596226943e+000	 1.2086770482e+000	-2.3102681398e+000
 1.1470466287e+000	 1.2206182989e+000	-2.2728886685e+000
 1.1343496563e+000	 1.2324268162e+000	-2.2278786525e+000
 1.1215338863e+000	 1.2441007765e+000	-2.1759790048e+000
 1.1086014638e+000	 1.2556384012e+000	-2.1805710780e+000
 1.0955545694e+000	 1.2670379575e+000	-2.2444850939e+000
 1.0823954175e+000	 1.2782977588e+000	-2.3020690971e+000
 1.0691262554e+000	 1.2894161663e+000	-2.3527712365e+000
 1.0557493617e+000	 1.3003915892e+000	-2.3960844415e+000
 1.2020815280e+000	 1.2020815280e+000	-2.2990266058e+000
 1.1895694502e+000	 1.2144647064e+000	-2.2892263887e+000
 1.1769304957e+000	 1.2267170042e+000	-2.2673253391e+000
 1.1641667276e+000	 1.2388364825e+000	-2.2341197238e+000
 1.1512802482e+000	 1.2508212463e+000	-2.2003925911e+000
 1.1382731980e+000	 1.2626694448e+000	-2.2924142242e+000
 1.1251477543e+000	 1.2743792729e+000	-2.3756766686e+000
 1.1119061301e+000	 1.2859489718e+000	-2.4495537596e+000
 1.0985505730e+000	 1.2973768299e+000	-2.5134672568e+000
 1.0850833637e+000	 1.3086611837e+000	-2.5668880344e+000
 1.0715068149e+000	 1.3198004189e+000	-2.6093371530e+000
 1.2197591976e+000	 1.2197591976e+000	-2.1901950795e+000
 1.2070631186e+000	 1.2323244815e+000	-2.1922988382e+000
 1.1942382971e+000	 1.2447569601e+000	-2.1794254658e+000
 1.1812868266e+000	 1.2570546661e+000	-2.2461819274e+000
 1.1682108401e+000	 1.2692156764e+000	-2.3705879292e+000
 1.1550125097e+000	 1.2812381131e+000	-2.4833009458e+000
 1.1416940448e+000	 1.2931201445e+000	-2.5836514470e+000
 1.1282576908e+000	 1.3048599860e+000	-2.6710219517e+000
 1.1147057285e+000	 1.3164559009e+000	-2.7448483450e+000
 1.1010404720e+000	 1.3279062012e+000	-2.8046210705e+000
 1.0872642681e+000	 1.3392092486e+000	-2.8498861938e+000
 1.2374368671e+000	 1.2374368671e+000	-2.0324256788e+000
 1.2245567870e+000	 1.2501842566e+000	-2.0507319335e+000
 1.2115460986e+000	 1.2627969161e+000	-2.2309616017e+000
 1.1984069255e+000	 1.2752728496e+000	-2.3974535839e+000
 1.1851414320e+000	 1.2876101065e+000	-2.5494279215e+000
 1.1717518215e+000	 1.2998067814e+000	-2.6861591002e+000
 1.1582403353e+000	 1.3118610162e+000	-2.8069776439e+000
 1.1446092516e+000	 1.3237710003e+000	-2.9112715792e+000
 1.1308608840e+000	 1.3355349719e+000	-2.9984877682e+000
 1.1169975803e+000	 1.3471512186e+000	-3.0681331064e+000
 1.1030217212e+000	 1.3586180783e+000	-3.1197755817e+000
 9.4544718961e-001	 1.1645297814e+000	-1.8751986216e+000
 9.3337347334e-001	 1.1742290915e+000	-1.9086807776e+000
 9.2120744201e-001	 1.1837976384e+000	-1.9456342499e+000
 9.0895121369e-001	 1.1932341309e+000	-1.9862860797e+000
 8.9660692987e-001	 1.2025373230e+000	-2.0308572070e+000
 8.8417675429e-001	 1.2117060152e+000	-2.0795621333e+000
 8.7166287168e-001	 1.2207390541e+000	-2.1326086024e+000
 8.5906748650e-001	 1.2296353336e+000	-2.1901972975e+000
 8.4639282171e-001	 1.2383937949e+000	-2.2525215572e+000
 8.3364111751e-001	 1.2470134270e+000	-2.3197671104e+000
 8.2081463007e-001	 1.2554932668e+000	-2.4063963064e+000
 9.6120464277e-001	 1.1839386111e+000	-1.9180310675e+000
 9.4892969790e-001	 1.1937995763e+000	-1.9164214058e+000
 9.3656089938e-001	 1.2035275991e+000	-1.9245247970e+000
 9.2410040058e-001	 1.2131213664e+000	-1.9424920031e+000
 9.1155037870e-001	 1.2225796118e+000	-1.9704622199e+000
 8.9891303353e-001	 1.2319011154e+000	-2.0085628467e+000
 8.8619058620e-001	 1.2410847050e+000	-2.0569092794e+000
 8.7338527793e-001	 1.2501292558e+000	-2.1161332126e+000
 8.6049936873e-001	 1.2590336915e+000	-2.2193791504e+000
 8.4753513614e-001	 1.2677969841e+000	-2.3276231287e+000
 8.3449487390e-001	 1.2764181546e+000	-2.4403376840e+000
 9.7696209593e-001	 1.2033474407e+000	-1.9479813763e+000
 9.6448592246e-001	 1.2133700612e+000	-1.9074731347e+000
 9.5191435675e-001	 1.2232575597e+000	-1.8827802342e+000
 9.3924958748e-001	 1.2330086019e+000	-1.8739796544e+000
 9.2649382753e-001	 1.2426219005e+000	-1.8811314133e+000
 9.1364931276e-001	 1.2520962157e+000	-1.9153921031e+000
 9.0071830073e-001	 1.2614303559e+000	-2.0016062480e+000
 8.8770306937e-001	 1.2706231781e+000	-2.0985689151e+000
 8.7460591576e-001	 1.2796735881e+000	-2.2055714051e+000
 8.6142915476e-001	 1.2885805413e+000	-2.3219280126e+000
 8.4817511773e-001	 1.2973430424e+000	-2.4469767250e+000
 9.9271954909e-001	 1.2227562704e+000	-1.9631070295e+000
 9.8004214701e-001	 1.2329405461e+000	-1.8800703356e+000
 9.6726781412e-001	 1.2429875204e+000	-1.8188200696e+000
 9.5439877437e-001	 1.2528958375e+000	-1.7982244257e+000
 9.4143727636e-001	 1.2626641892e+000	-1.8420547099e+000
 9.2838559200e-001	 1.2722913159e+000	-1.9027892478e+000
 9.1524601526e-001	 1.2817760068e+000	-1.9795512773e+000
 9.0202086081e-001	 1.2911171003e+000	-2.0714831921e+000
 8.8871246279e-001	 1.3003134847e+000	-2.1777475472e+000
 8.7532317338e-001	 1.3093640984e+000	-2.2975279894e+000
 8.6185536157e-001	 1.3182679302e+000	-2.4300301118e+000
 1.0084770023e+000	 1.2421651001e+000	-1.9615535799e+000
 9.9559837157e-001	 1.2525110309e+000	-1.8518810220e+000
 9.8262127148e-001	 1.2627174810e+000	-1.8277103864e+000
 9.6954796126e-001	 1.2727830730e+000	-1.8269668924e+000
 9.5638072519e-001	 1.2827064779e+000	-1.8486201912e+000
 9.4312187124e-001	 1.2924864162e+000	-1.8916545071e+000
 9.2977372978e-001	 1.3021216577e+000	-1.9550699443e+000
 9.1633865225e-001	 1.3116110225e+000	-2.0378837220e+000
 9.0281900981e-001	 1.3209533813e+000	-2.1391313353e+000
 8.8921719201e-001	 1.3301476555e+000	-2.2578676400e+000
 8.7553560540e-001	 1.3391928179e+000	-2.3931678616e+000
 1.0242344554e+000	 1.2615739298e+000	-2.0435736139e+000
 1.0111545961e+000	 1.2720815158e+000	-1.9558671226e+000
 9.9797472885e-001	 1.2824474417e+000	-1.8972701202e+000
 9.8469714816e-001	 1.2926703085e+000	-1.8666236768e+000
 9.7132417402e-001	 1.3027487666e+000	-1.8627797285e+000
 9.5785815047e-001	 1.3126815164e+000	-1.8846026088e+000
 9.4430144431e-001	 1.3224673086e+000	-1.9309705103e+000
 9.3065644369e-001	 1.3321049447e+000	-2.0007768734e+000
 9.1692555684e-001	 1.3415932779e+000	-2.0929317006e+000
 9.0311121063e-001	 1.3509312126e+000	-2.2063627941e+000
 8.8921584923e-001	 1.3601177057e+000	-2.3400169163e+000
 1.0399919086e+000	 1.2809827595e+000	-2.2081395238e+000
 1.0267108207e+000	 1.2916520006e+000	-2.0787853058e+000
 1.0133281862e+000	 1.3021774023e+000	-1.9829905351e+000
 9.9984633505e-001	 1.3125575440e+000	-1.9194814866e+000
 9.8626762285e-001	 1.3227910554e+000	-1.8869931469e+000
 9.7259442971e-001	 1.3328766167e+000	-1.8842708985e+000
 9.5882915883e-001	 1.3428129595e+000	-1.9100721355e+000
 9.4497423513e-001	 1.3525988670e+000	-1.9631678046e+000
 9.3103210387e-001	 1.3622331744e+000	-2.0423438712e+000
 9.1700522925e-001	 1.3717147697e+000	-2.1464027082e+000
 9.0289609307e-001	 1.3810425935e+000	-2.2741644057e+000
 1.0557493617e+000	 1.3003915892e+000	-2.3960844415e+000
 1.0422670452e+000	 1.3112224855e+000	-2.2226502593e+000
 1.0286816436e+000	 1.3219073629e+000	-2.0870409687e+000
 1.0149955219e+000	 1.3324447795e+000	-1.9878685415e+000
 1.0012110717e+000	 1.3428333441e+000	-1.9237516794e+000
 9.8733070895e-001	 1.3530717169e+000	-1.8933176523e+000
 9.7335687336e-001	 1.3631586104e+000	-1.8952040658e+000
 9.5929202657e-001	 1.3730927892e+000	-1.9280605534e+000
 9.4513865090e-001	 1.3828730710e+000	-1.9905503939e+000
 9.3089924788e-001	 1.3924983268e+000	-2.0813520486e+000
 9.1657633690e-001	 1.4019674813e+000	-2.1991606186e+000
 1.0715068149e+000	 1.3198004189e+000	-2.6093371530e+000
 1.0578232698e+000	 1.3307929704e+000	-2.3895327947e+000
 1.0440351009e+000	 1.3416373236e+000	-2.2116382284e+000
 1.0301447088e+000	 1.3523320150e+000	-2.0741515202e+000
 1.0161545205e+000	 1.3628756328e+000	-1.9755756570e+000
 1.0020669882e+000	 1.3732668172e+000	-1.9144205376e+000
 9.8788458789e-001	 1.3835042613e+000	-1.8892048909e+000
 9.7360981801e-001	 1.3935867114e+000	-1.8984581200e+000
 9.5924519792e-001	 1.4035129676e+000	-1.9407220673e+000
 9.4479326650e-001	 1.4132818840e+000	-2.0145526997e+000
 9.3025658074e-001	 1.4228923691e+000	-2.1185217117e+000
 1.0872642681e+000	 1.3392092486e+000	-2.8498861938e+000
 1.0733794943e+000	 1.3503634552e+000	-2.5815557809e+000
 1.0593885583e+000	 1.3613672842e+000	-2.3590431517e+000
 1.0452938957e+000	 1.3722192506e+000	-2.1807327745e+000
 1.0310979693e+000	 1.3829179215e+000	-2.0450124007e+000
 1.0168032674e+000	 1.3934619174e+000	-1.9502752076e+000
 1.0024123024e+000	 1.4038499122e+000	-1.8949218678e+000
 9.8792760946e-001	 1.4140806337e+000	-1.8773625420e+000
 9.7335174495e-001	 1.4241528642e+000	-1.8960187926e+000
 9.5868728513e-001	 1.4340654411e+000	-1.9493254147e+000
 9.4393682457e-001	 1.4438172569e+000	-2.0357321828e+000
 1.1030217212e+000	 1.3586180783e+000	-3.1197755817e+000
 1.0889357189e+000	 1.3699339401e+000	-2.8008904257e+000
 1.0747420157e+000	 1.3810972449e+000	-2.5315574608e+000
 1.0604430826e+000	 1.3921064861e+000	-2.3100477802e+000
 1.0460414182e+000	 1.4029602102e+000	-2.1346342929e+000
 1.0315395467e+000	 1.4136570177e+000	-2.0035940172e+000
 1.0169400169e+000	 1.4241955631e+000	-1.9152103010e+000
 1.0022454009e+000	 1.4345745559e+000	-1.8677749629e+000
 9.8745829198e-001	 1.4447927608e+000	-1.8595903522e+000
 9.7258130376e-001	 1.4548489982e+000	-1.8889713251e+000
 9.5761706841e-001	 1.4647421446e+000	-1.9542471324e+000
 8.2081463007e-001	 1.2554932668e+000	-2.4063963064e+000
 8.0791563023e-001	 1.2638323996e+000	-2.2733141001e+000
 7.9494640225e-001	 1.2720299594e+000	-2.1553045296e+000
 7.8190924254e-001	 1.2800851286e+000	-2.0516176137e+000
 7.6880645833e-001	 1.2879971388e+000	-1.9615188620e+000
 7.5564036645e-001	 1.2957652706e+000	-1.8842898894e+000
 7.4241329201e-001	 1.3033888536e+000	-1.8192289704e+000
 7.2912756712e-001	 1.3108672667e+000	-1.7656515336e+000
 7.1578552965e-001	 1.3181999376e+000	-1.7228905950e+000
 7.0238952194e-001	 1.3253863434e+000	-1.6902971333e+000
 6.8894188956e-001	 1.3324260102e+000	-1.6672404060e+000
 8.3449487390e-001	 1.2764181546e+000	-2.4403376840e+000
 8.2138089073e-001	 1.2848962730e+000	-2.3088425902e+000
 8.0819550895e-001	 1.2932304587e+000	-2.1906121728e+000
 7.9494106324e-001	 1.3014198807e+000	-2.0849503354e+000
 7.8161989930e-001	 1.3094637578e+000	-1.9911790627e+000
 7.6823437256e-001	 1.3173613584e+000	-1.9086389533e+000
 7.5478684687e-001	 1.3251120012e+000	-1.8366896870e+000
 7.4127969323e-001	 1.3327150544e+000	-1.7747104281e+000
 7.2771528847e-001	 1.3401699365e+000	-1.7221001645e+000
 7.1409601397e-001	 1.3474761158e+000	-1.6782779845e+000
 7.0042425438e-001	 1.3546331104e+000	-1.6426832907e+000
 8.4817511773e-001	 1.2973430424e+000	-2.4469767250e+000
 8.3484615123e-001	 1.3059601463e+000	-2.3206906999e+000
 8.2144461565e-001	 1.3144309580e+000	-2.2058538778e+000
 8.0797288395e-001	 1.3227546328e+000	-2.1018219047e+000
 7.9443334027e-001	 1.3309303768e+000	-2.0079711712e+000
 7.8082837866e-001	 1.3389574463e+000	-1.9236992642e+000
 7.6716040174e-001	 1.3468351487e+000	-1.8484253482e+000
 7.5343181935e-001	 1.3545628422e+000	-1.7815904784e+000
 7.3964504730e-001	 1.3621399355e+000	-1.7226578467e+000
 7.2580250600e-001	 1.3695658882e+000	-1.6711129595e+000
 7.1190661921e-001	 1.3768402106e+000	-1.6264637511e+000
 8.6185536157e-001	 1.3182679302e+000	-2.4300301118e+000
 8.4831141173e-001	 1.3270240196e+000	-2.3123953446e+000
 8.3469372236e-001	 1.3356314573e+000	-2.2043827790e+000
 8.2100470466e-001	 1.3440893850e+000	-2.1053977539e+000
 8.0724678124e-001	 1.3523969957e+000	-2.0148690923e+000
 7.9342238477e-001	 1.3605535341e+000	-1.9322494722e+000
 7.7953395660e-001	 1.3685582963e+000	-1.8570157234e+000
 7.6558394547e-001	 1.3764106300e+000	-1.7886690515e+000
 7.5157480613e-001	 1.3841099345e+000	-1.7267351897e+000
 7.3750899804e-001	 1.3916556606e+000	-1.6707644802e+000
 7.2338898403e-001	 1.3990473107e+000	-1.6203318860e+000
 8.7553560540e-001	 1.3391928179e+000	-2.3931678616e+000
 8.6177667223e-001	 1.3480878930e+000	-2.2874574344e+000
 8.4794282906e-001	 1.3568319566e+000	-2.1895267988e+000
 8.3403652537e-001	 1.3654241371e+000	-2.0988290247e+000
 8.2006022222e-001	 1.3738636147e+000	-2.0148434837e+000
 8.0601639088e-001	 1.3821496220e+000	-1.9370761408e+000
 7.9190751147e-001	 1.3902814439e+000	-1.8650597674e+000
 7.7773607159e-001	 1.3982584178e+000	-1.7983540760e+000
 7.6350456496e-001	 1.4060799334e+000	-1.7365457799e+000
 7.4921549007e-001	 1.4137454330e+000	-1.6792485771e+000
 7.3487134886e-001	 1.4212544109e+000	-1.6261030611e+000
 8.8921584923e-001	 1.3601177057e+000	-2.3400169163e+000
 8.7524193274e-001	 1.3691517663e+000	-2.2493446442e+000
 8.6119193577e-001	 1.3780324560e+000	-2.1645905876e+000
 8.4706834608e-001	 1.3867588893e+000	-2.0852536677e+000
 8.3287366319e-001	 1.3953302337e+000	-2.0108620063e+000
 8.1861039699e-001	 1.4037457098e+000	-1.9409731388e+000
 8.0428106634e-001	 1.4120045914e+000	-1.8751741441e+000
 7.8988819771e-001	 1.4201062055e+000	-1.8130816919e+000
 7.7543432378e-001	 1.4280499324e+000	-1.7543420087e+000
 7.6092198210e-001	 1.4358352054e+000	-1.6986307655e+000
 7.4635371369e-001	 1.4434615111e+000	-1.6456528878e+000
 9.0289609307e-001	 1.3810425935e+000	-2.2741644057e+000
 8.8870719324e-001	 1.3902156396e+000	-2.2014939308e+000
 8.7444104247e-001	 1.3992329553e+000	-2.1328572862e+000
 8.6010016679e-001	 1.4080936414e+000	-2.0677974419e+000
 8.4568710416e-001	 1.4167968527e+000	-2.0058895511e+000
 8.3120440310e-001	 1.4253417977e+000	-1.9467410862e+000
 8.1665462121e-001	 1.4337277390e+000	-1.8899918855e+000
 8.0204032383e-001	 1.4419539933e+000	-1.8353141129e+000
 7.8736408261e-001	 1.4500199313e+000	-1.7824121319e+000
 7.7262847414e-001	 1.4579249778e+000	-1.7310222966e+000
 7.5783607852e-001	 1.4656686112e+000	-1.6809126600e+000
 9.1657633690e-001	 1.4019674813e+000	-2.1991606186e+000
 9.0217245375e-001	 1.4112795129e+000	-2.1473138261e+000
 8.8769014918e-001	 1.4204334546e+000	-2.0975901314e+000
 8.7313198750e-001	 1.4294283936e+000	-2.0495748240e+000
 8.5850054514e-001	 1.4382634717e+000	-2.0028884459e+000
 8.4379840921e-001	 1.4469378855e+000	-1.9571868510e+000
 8.2902817608e-001	 1.4554508865e+000	-1.9121611696e+000
 8.1419244995e-001	 1.4638017811e+000	-1.8675376807e+000
 7.9929384144e-001	 1.4719899303e+000	-1.8230775941e+000
 7.8433496617e-001	 1.4800147502e+000	-1.7785767442e+000
 7.6931844334e-001	 1.4878757114e+000	-1.7338651980e+000
 9.3025658074e-001	 1.4228923691e+000	-2.1185217117e+000
 9.1563771425e-001	 1.4323433863e+000	-2.0901865266e+000
 9.0093925588e-001	 1.4416339539e+000	-2.0620339193e+000
 8.8616380821e-001	 1.4507631457e+000	-2.0336898383e+000
 8.7131398611e-001	 1.4597300906e+000	-2.0048186436e+000
 8.5639241532e-001	 1.4685339734e+000	-1.9751230895e+000
 8.4140173095e-001	 1.4771740341e+000	-1.9443442073e+000
 8.2634457607e-001	 1.4856495689e+000	-1.9122610911e+000
 8.1122360028e-001	 1.4939599293e+000	-1.8786905877e+000
 7.9604145821e-001	 1.5021045226e+000	-1.8434868932e+000
 7.8080080817e-001	 1.5100828116e+000	-1.8065410600e+000
 9.4393682457e-001	 1.4438172569e+000	-2.0357321828e+000
 9.2910297476e-001	 1.4534072596e+000	-2.0334698019e+000
 9.1418836259e-001	 1.4628344533e+000	-2.0294163415e+000
 8.9919562892e-001	 1.4720978979e+000	-2.0232368143e+000
 8.8412742709e-001	 1.4811967096e+000	-2.0146378947e+000
 8.6898642143e-001	 1.4901300612e+000	-2.0033678266e+000
 8.5377528582e-001	 1.4988971817e+000	-1.9892162249e+000
 8.3849670220e-001	 1.5074973567e+000	-1.9720137738e+000
 8.2315335911e-001	 1.5159299282e+000	-1.9516318252e+000
 8.0774795024e-001	 1.5241942950e+000	-1.9279818979e+000
 7.9228317300e-001	 1.5322899118e+000	-1.9010150830e+000
 9.5761706841e-001	 1.4647421446e+000	-1.9542471324e+000
 9.4256823526e-001	 1.4744711329e+000	-1.9804987396e+000
 9.2743746930e-001	 1.4840349526e+000	-2.0029492074e+000
 9.1222744964e-001	 1.4934326500e+000	-2.0213010788e+000
 8.9694086807e-001	 1.5026633286e+000	-2.0353019041e+000
 8.8158042754e-001	 1.5117261490e+000	-2.0447440730e+000
 8.6614884069e-001	 1.5206203292e+000	-2.0494645351e+000
 8.5064882832e-001	 1.5293451444e+000	-2.0493444117e+000
 8.3508311794e-001	 1.5378999272e+000	-2.0443085017e+000
 8.1945444228e-001	 1.5462840674e+000	-2.0343246839e+000
 8.0376553783e-001	 1.5544970119e+000	-2.0194032198e+000
 6.8894188956e-001	 1.3324260102e+000	-1.6672404060e+000
 6.7544498003e-001	 1.3393185129e+000	-1.7768532661e+000
 6.6190114160e-001	 1.3460634750e+000	-1.9043053041e+000
 6.4831272205e-001	 1.3526605688e+000	-2.0486712079e+000
 6.3468206740e-001	 1.3591095148e+000	-2.2090393287e+000
 6.2101152078e-001	 1.3654100816e+000	-2.2754213494e+000
 6.0730342120e-001	 1.3715620856e+000	-2.0892333712e+000
 5.9356010237e-001	 1.3775653904e+000	-1.9143714233e+000
 5.7978389160e-001	 1.3834199070e+000	-1.7505398997e+000
 5.6597710858e-001	 1.3891255928e+000	-1.5974216439e+000
 5.5214206433e-001	 1.3946824516e+000	-1.4546784797e+000
 7.0042425438e-001	 1.3546331104e+000	-1.6426832907e+000
 6.8670239636e-001	 1.3616404881e+000	-1.7229490877e+000
 6.7293282730e-001	 1.3684978662e+000	-1.8201615379e+000
 6.5911793409e-001	 1.3752049116e+000	-1.9334424628e+000
 6.4526010186e-001	 1.3817613401e+000	-2.0619289173e+000
 6.3136171280e-001	 1.3881669163e+000	-2.2047735649e+000
 6.1742514488e-001	 1.3944214536e+000	-2.1537584635e+000
 6.0345277075e-001	 1.4005248136e+000	-1.9402242605e+000
 5.8944695646e-001	 1.4064769054e+000	-1.7380078325e+000
 5.7541006039e-001	 1.4122776860e+000	-1.5468533823e+000
 5.6134443207e-001	 1.4179271591e+000	-1.3664825794e+000
 7.1190661921e-001	 1.3768402106e+000	-1.6264637511e+000
 6.9795981269e-001	 1.3839624633e+000	-1.6795440878e+000
 6.8396451299e-001	 1.3909322575e+000	-1.7486468102e+000
 6.6992314612e-001	 1.3977492544e+000	-1.8329401243e+000
 6.5583813632e-001	 1.4044131653e+000	-1.9316091155e+000
 6.4171190481e-001	 1.4109237510e+000	-2.0438560398e+000
 6.2754686857e-001	 1.4172808217e+000	-2.1689005606e+000
 6.1334543912e-001	 1.4234842367e+000	-1.9887950916e+000
 5.9911002132e-001	 1.4295339039e+000	-1.7509349108e+000
 5.8484301220e-001	 1.4354297792e+000	-1.5245270984e+000
 5.7054679981e-001	 1.4411718666e+000	-1.3093521850e+000
 7.2338898403e-001	 1.3990473107e+000	-1.6203318860e+000
 7.0921722903e-001	 1.4062844385e+000	-1.6482347556e+000
 6.9499619869e-001	 1.4133666487e+000	-1.6912013260e+000
 6.8072835815e-001	 1.4202935972e+000	-1.7484455247e+000
 6.6641617078e-001	 1.4270649905e+000	-1.8191998825e+000
 6.5206209682e-001	 1.4336805857e+000	-1.9027157399e+000
 6.3766859226e-001	 1.4401401898e+000	-1.9982633956e+000
 6.2323810749e-001	 1.4464436599e+000	-2.0576555993e+000
 6.0877308618e-001	 1.4525909023e+000	-1.7867578330e+000
 5.9427596401e-001	 1.4585818724e+000	-1.5277447774e+000
 5.7974916755e-001	 1.4644165742e+000	-1.2804549072e+000
 7.3487134886e-001	 1.4212544109e+000	-1.6261030611e+000
 7.2047464536e-001	 1.4286064137e+000	-1.6306907251e+000
 7.0602788438e-001	 1.4358010400e+000	-1.6493463708e+000
 6.9153357019e-001	 1.4428379400e+000	-1.6813290667e+000
 6.7699420523e-001	 1.4497168158e+000	-1.7259182884e+000
 6.6241228884e-001	 1.4564374204e+000	-1.7824140381e+000
 6.4779031595e-001	 1.4629995579e+000	-1.8501369046e+000
 6.3313077587e-001	 1.4694030831e+000	-1.9284280661e+000
 6.1843615104e-001	 1.4756479008e+000	-1.8430429899e+000
 6.0370891582e-001	 1.4817339656e+000	-1.5539463282e+000
 5.8895153529e-001	 1.4876612817e+000	-1.2771045384e+000
 7.4635371369e-001	 1.4434615111e+000	-1.6456528878e+000
 7.3173206170e-001	 1.4509283889e+000	-1.6286491485e+000
 7.1705957007e-001	 1.4582354312e+000	-1.6246780739e+000
 7.0233878223e-001	 1.4653822828e+000	-1.6330433723e+000
 6.8757223969e-001	 1.4723686410e+000	-1.6530710436e+000
 6.7276248085e-001	 1.4791942551e+000	-1.6841094115e+000
 6.5791203963e-001	 1.4858589260e+000	-1.7255290938e+000
 6.4302344424e-001	 1.4923625062e+000	-1.7767229118e+000
 6.2809921590e-001	 1.4987048992e+000	-1.8371057423e+000
 6.1314186763e-001	 1.5048860588e+000	-1.6006989744e+000
 5.9815390303e-001	 1.5109059892e+000	-1.2967498080e+000
 7.5783607852e-001	 1.4656686112e+000	-1.6809126600e+000
 7.4298947803e-001	 1.4732503641e+000	-1.6439095809e+000
 7.2809125577e-001	 1.4806698225e+000	-1.6188617381e+000
 7.1314399426e-001	 1.4879266257e+000	-1.6051170534e+000
 6.9815027415e-001	 1.4950204663e+000	-1.6020477079e+000
 6.8311267287e-001	 1.5019510898e+000	-1.6090500858e+000
 6.6803376332e-001	 1.5087182941e+000	-1.6255446526e+000
 6.5291611261e-001	 1.5153219294e+000	-1.6509757704e+000
 6.3776228076e-001	 1.5217618977e+000	-1.6848114533e+000
 6.2257481944e-001	 1.5280381520e+000	-1.6656876085e+000
 6.0735627077e-001	 1.5341506967e+000	-1.3369641596e+000
 7.6931844334e-001	 1.4878757114e+000	-1.7338651980e+000
 7.5424689437e-001	 1.4955723393e+000	-1.6783293239e+000
 7.3912294146e-001	 1.5031042137e+000	-1.6336266777e+000
 7.2394920630e-001	 1.5104709685e+000	-1.5991490413e+000
 7.0872830861e-001	 1.5176722915e+000	-1.5743145081e+000
 6.9346286488e-001	 1.5247079245e+000	-1.5585673371e+000
 6.7815548701e-001	 1.5315776622e+000	-1.5513777380e+000
 6.6280878099e-001	 1.5382813526e+000	-1.5522415901e+000
 6.4742534562e-001	 1.5448188961e+000	-1.5606800998e+000
 6.3200777125e-001	 1.5511902453e+000	-1.5762393970e+000
 6.1655863851e-001	 1.5573954043e+000	-1.3954364446e+000
 7.8080080817e-001	 1.5100828116e+000	-1.8065410600e+000
 7.6550431070e-001	 1.5178943146e+000	-1.7338191788e+000
 7.5015462716e-001	 1.5255386050e+000	-1.6707615117e+000
 7.3475441833e-001	 1.5330153113e+000	-1.6168034161e+000
 7.1930634307e-001	 1.5403241168e+000	-1.5714087003e+000
 7.0381305690e-001	 1.5474647592e+000	-1.5340693855e+000
 6.8827721070e-001	 1.5544370303e+000	-1.5043053960e+000
 6.7270144936e-001	 1.5612407758e+000	-1.4816641812e+000
 6.5708841048e-001	 1.5678758946e+000	-1.4657202718e+000
 6.4144072306e-001	 1.5743423385e+000	-1.4560747742e+000
 6.2576100625e-001	 1.5806401118e+000	-1.4523548057e+000
 7.9228317300e-001	 1.5322899118e+000	-1.9010150830e+000
 7.7676172704e-001	 1.5402162898e+000	-1.8123395704e+000
 7.6118631286e-001	 1.5479729962e+000	-1.7321098662e+000
 7.4555963037e-001	 1.5555596541e+000	-1.6598046859e+000
 7.2988437753e-001	 1.5629759420e+000	-1.5949334233e+000
 7.1416324891e-001	 1.5702215939e+000	-1.5370358194e+000
 6.9839893439e-001	 1.5772963984e+000	-1.4856815558e+000
 6.8259411774e-001	 1.5842001989e+000	-1.4404697775e+000
 6.6675147534e-001	 1.5909328930e+000	-1.4010285466e+000
 6.5087367487e-001	 1.5974944317e+000	-1.3670142317e+000
 6.3496337399e-001	 1.6038848193e+000	-1.3381108365e+000
 8.0376553783e-001	 1.5544970119e+000	-2.0194032198e+000
 7.8801914338e-001	 1.5625382650e+000	-1.9158970025e+000
 7.7221799855e-001	 1.5704073875e+000	-1.8195664456e+000
 7.5636484241e-001	 1.5781039969e+000	-1.7299334701e+000
 7.4046241198e-001	 1.5856277673e+000	-1.6465529921e+000
 7.2451344093e-001	 1.5929784285e+000	-1.5690124976e+000
 7.0852065808e-001	 1.6001557665e+000	-1.4969315375e+000
 6.9248678611e-001	 1.6071596221e+000	-1.4299611486e+000
 6.7641454021e-001	 1.6139898915e+000	-1.3677832034e+000
 6.6030662669e-001	 1.6206465249e+000	-1.3101096924e+000
 6.4416574173e-001	 1.6271295268e+000	-1.2566819431e+000
 5.5214206433e-001	 1.3946824516e+000	-1.4546784797e+000
 5.3828106007e-001	 1.4000905329e+000	-1.4649037668e+000
 5.2439638615e-001	 1.4053499316e+000	-1.4728389093e+000
 5.1049032095e-001	 1.4104607872e+000	-1.4786625564e+000
 4.9656512994e-001	 1.4154232836e+000	-1.4825377839e+000
 4.8262306456e-001	 1.4202376483e+000	-1.4846121455e+000
 4.6866636131e-001	 1.4249041518e+000	-1.4850177588e+000
 4.5469724075e-001	 1.4294231071e+000	-1.4838714252e+000
 4.4071790656e-001	 1.4337948692e+000	-1.4812747817e+000
 4.2673054465e-001	 1.4380198337e+000	-1.4773144837e+000
 4.1273732227e-001	 1.4420984373e+000	-1.4720624184e+000
 5.6134443207e-001	 1.4179271591e+000	-1.3664825794e+000
 5.4725241107e-001	 1.4234253751e+000	-1.3670774738e+000
 5.3313632591e-001	 1.4287724304e+000	-1.3671724390e+000
 5.1899849297e-001	 1.4339684670e+000	-1.3669169800e+000
 5.0484121544e-001	 1.4390136716e+000	-1.3664433807e+000
 4.9066678230e-001	 1.4439082757e+000	-1.3658668073e+000
 4.7647746733e-001	 1.4486525543e+000	-1.3652854497e+000
 4.6227552809e-001	 1.4532468256e+000	-1.3647806967e+000
 4.4806320500e-001	 1.4576914503e+000	-1.3644173457e+000
 4.3384272040e-001	 1.4619868310e+000	-1.3642438451e+000
 4.1961627764e-001	 1.4661334112e+000	-1.3642925681e+000
 5.7054679981e-001	 1.4411718666e+000	-1.3093521850e+000
 5.5622376207e-001	 1.4467602173e+000	-1.2988239813e+000
 5.4187626568e-001	 1.4521949293e+000	-1.2895904079e+000
 5.2750666498e-001	 1.4574761468e+000	-1.2817728965e+000
 5.1311730094e-001	 1.4626040597e+000	-1.2754739696e+000
 4.9871050005e-001	 1.4675789032e+000	-1.2707773969e+000
 4.8428857336e-001	 1.4724009568e+000	-1.2677483896e+000
 4.6985381544e-001	 1.4770705440e+000	-1.2664338325e+000
 4.5540850345e-001	 1.4815880315e+000	-1.2668625510e+000
 4.4095489614e-001	 1.4859538282e+000	-1.2690456126e+000
 4.2649523301e-001	 1.4901683852e+000	-1.2729766612e+000
 5.7974916755e-001	 1.4644165742e+000	-1.2804549072e+000
 5.6519511307e-001	 1.4700950595e+000	-1.2573843544e+000
 5.5061620545e-001	 1.4756174281e+000	-1.2374094369e+000
 5.3601483700e-001	 1.4809838265e+000	-1.2206245439e+000
 5.2139338644e-001	 1.4861944478e+000	-1.2071034264e+000
 5.0675421779e-001	 1.4912495307e+000	-1.1968994051e+000
 4.9209967938e-001	 1.4961493594e+000	-1.1900456187e+000
 4.7743210279e-001	 1.5008942625e+000	-1.1865553118e+000
 4.6275380189e-001	 1.5054846126e+000	-1.1864221590e+000
 4.4806707189e-001	 1.5099208254e+000	-1.1896206263e+000
 4.3337418838e-001	 1.5142033591e+000	-1.1961063652e+000
 5.8895153529e-001	 1.4876612817e+000	-1.2771045384e+000
 5.7416646408e-001	 1.4934299018e+000	-1.2401411566e+000
 5.5935614522e-001	 1.4990399270e+000	-1.2080828786e+000
 5.4452300902e-001	 1.5044915063e+000	-1.1809980450e+000
 5.2966947193e-001	 1.5097848358e+000	-1.1589325863e+000
 5.1479793553e-001	 1.5149201581e+000	-1.1419102823e+000
 4.9991078540e-001	 1.5198977619e+000	-1.1299330643e+000
 4.8501039013e-001	 1.5247179809e+000	-1.1229813581e+000
 4.7009910033e-001	 1.5293811938e+000	-1.1210144664e+000
 4.5517924763e-001	 1.5338878227e+000	-1.1239709884e+000
 4.4025314375e-001	 1.5382383331e+000	-1.1317692754e+000
 5.9815390303e-001	 1.5109059892e+000	-1.2967498080e+000
 5.8313781508e-001	 1.5167647440e+000	-1.2446075648e+000
 5.6809608499e-001	 1.5224624259e+000	-1.1991902993e+000
 5.5303118103e-001	 1.5279991861e+000	-1.1605412620e+000
 5.3794555743e-001	 1.5333752239e+000	-1.1286794778e+000
 5.2284165328e-001	 1.5385907856e+000	-1.1036000567e+000
 5.0772189142e-001	 1.5436461644e+000	-1.0852745491e+000
 4.9258867748e-001	 1.5485416994e+000	-1.0736513443e+000
 4.7744439878e-001	 1.5532777749e+000	-1.0686561106e+000
 4.6229142338e-001	 1.5578548199e+000	-1.0701922741e+000
 4.4713209913e-001	 1.5622733070e+000	-1.0781415354e+000
 6.0735627077e-001	 1.5341506967e+000	-1.3369641596e+000
 5.9210916608e-001	 1.5400995862e+000	-1.2684174749e+000
 5.7683602476e-001	 1.5458849247e+000	-1.2084279172e+000
 5.6153935305e-001	 1.5515068659e+000	-1.1570145736e+000
 5.4622164294e-001	 1.5569656119e+000	-1.1141704446e+000
 5.3088537102e-001	 1.5622614131e+000	-1.0798628060e+000
 5.1553299745e-001	 1.5673945670e+000	-1.0540336177e+000
 5.0016696483e-001	 1.5723654179e+000	-1.0365999776e+000
 4.8478969722e-001	 1.5771743561e+000	-1.0274546194e+000
 4.6940359912e-001	 1.5818218171e+000	-1.0264664503e+000
 4.5401105450e-001	 1.5863082810e+000	-1.0334811293e+000
 6.1655863851e-001	 1.5573954043e+000	-1.3954364446e+000
 6.0108051709e-001	 1.5634344284e+000	-1.3093164925e+000
 5.8557596453e-001	 1.5693074236e+000	-1.2335998976e+000
 5.7004752507e-001	 1.5750145457e+000	-1.1682824790e+000
 5.5449772844e-001	 1.5805560000e+000	-1.1133320622e+000
 5.3892908877e-001	 1.5859320406e+000	-1.0686888920e+000
 5.2334410347e-001	 1.5911429695e+000	-1.0342660943e+000
 5.0774525217e-001	 1.5961891363e+000	-1.0099501857e+000
 4.9213499566e-001	 1.6010709372e+000	-9.9560162845e-001
 4.7651577487e-001	 1.6057888143e+000	-9.9105542840e-001
 4.6089000987e-001	 1.6103432550e+000	-9.9612177413e-001
 6.2576100625e-001	 1.5806401118e+000	-1.4523548057e+000
 6.1005186809e-001	 1.5867692706e+000	-1.3651537194e+000
 5.9431590430e-001	 1.5927299224e+000	-1.2726104151e+000
 5.7855569709e-001	 1.5985222255e+000	-1.1923059411e+000
 5.6277381394e-001	 1.6041463881e+000	-1.1241837679e+000
 5.4697280651e-001	 1.6096026680e+000	-1.0681578813e+000
 5.3115520949e-001	 1.6148913720e+000	-1.0241132978e+000
 5.1532353952e-001	 1.6200128548e+000	-9.9190662934e-001
 4.9948029411e-001	 1.6249675184e+000	-9.7136669652e-001
 4.8362795061e-001	 1.6297558116e+000	-9.6229518590e-001
 4.6776896524e-001	 1.6343782289e+000	-9.6446735097e-001
 6.3496337399e-001	 1.6038848193e+000	-1.3381108365e+000
 6.1902321909e-001	 1.6101041128e+000	-1.4338742534e+000
 6.0305584408e-001	 1.6161524213e+000	-1.3234564066e+000
 5.8706386911e-001	 1.6220299053e+000	-1.2271353971e+000
 5.7104989944e-001	 1.6277367761e+000	-1.1448311319e+000
 5.5501652426e-001	 1.6332732955e+000	-1.0764320811e+000
 5.3896631552e-001	 1.6386397745e+000	-1.0217958461e+000
 5.2290182687e-001	 1.6438365732e+000	-9.8074978005e-001
 5.0682559255e-001	 1.6488640995e+000	-9.5309165906e-001
 4.9074012636e-001	 1.6537228088e+000	-9.3859039949e-001
 4.7464792061e-001	 1.6584132029e+000	-9.3698682090e-001
 6.4416574173e-001	 1.6271295268e+000	-1.2566819431e+000
 6.2799457010e-001	 1.6334389551e+000	-1.4519119208e+000
 6.1179578385e-001	 1.6395749202e+000	-1.3842209457e+000
 5.9557204113e-001	 1.6455375851e+000	-1.2709043669e+000
 5.7932598494e-001	 1.6513271642e+000	-1.1734597047e+000
 5.6306024200e-001	 1.6569439230e+000	-1.0917506291e+000
 5.4677742155e-001	 1.6623881771e+000	-1.0256079922e+000
 5.3048011422e-001	 1.6676602917e+000	-9.7483050497e-001
 5.1417089100e-001	 1.6727606807e+000	-9.3918546557e-001
 4.9785230211e-001	 1.6776898060e+000	-9.1840953786e-001
 4.8152687598e-001	 1.6824481768e+000	-9.1220957632e-001
 4.1273732227e-001	 1.4420984373e+000	-1.4720624184e+000
 3.9874038711e-001	 1.4460311558e+000	-1.4386298424e+000
 3.8474186652e-001	 1.4498185045e+000	-1.4062703243e+000
 3.7074386670e-001	 1.4534610367e+000	-1.3747928944e+000
 3.5674847188e-001	 1.4569593432e+000	-1.3439941845e+000
 3.4275774362e-001	 1.4603140515e+000	-1.3136589706e+000
 3.2877372006e-001	 1.4635258252e+000	-1.2835607305e+000
 3.1479841525e-001	 1.4665953626e+000	-1.2534622172e+000
 3.0083381848e-001	 1.4695233968e+000	-1.2231160432e+000
 2.8688189364e-001	 1.4723106938e+000	-1.1922652773e+000
 2.7294457862e-001	 1.4749580526e+000	-1.1606440499e+000
 4.1961627764e-001	 1.4661334112e+000	-1.3642925681e+000
 4.0538606023e-001	 1.4701316751e+000	-1.3255967262e+000
 3.9115423097e-001	 1.4739821463e+000	-1.2882201038e+000
 3.7692293114e-001	 1.4776853873e+000	-1.2519637818e+000
 3.6269427974e-001	 1.4812419989e+000	-1.2166158912e+000
 3.4847037268e-001	 1.4846526191e+000	-1.1819521778e+000
 3.3425328206e-001	 1.4879179223e+000	-1.1477365833e+000
 3.2004505551e-001	 1.4910386187e+000	-1.1137218418e+000
 3.0584771546e-001	 1.4940154534e+000	-1.0796500889e+000
 2.9166325853e-001	 1.4968492054e+000	-1.0452534830e+000
 2.7749365493e-001	 1.4995406868e+000	-1.0102548362e+000
 4.2649523301e-001	 1.4901683852e+000	-1.2729766612e+000
 4.1203173334e-001	 1.4942321944e+000	-1.2291477560e+000
 3.9756659541e-001	 1.4981457880e+000	-1.1869329712e+000
 3.8310199559e-001	 1.5019097379e+000	-1.1461251520e+000
 3.6864008761e-001	 1.5055246547e+000	-1.1065035930e+000
 3.5418300174e-001	 1.5089911866e+000	-1.0678346264e+000
 3.3973284406e-001	 1.5123100193e+000	-1.0298722267e+000
 3.2529169576e-001	 1.5154818747e+000	-9.9235863273e-001
 3.1086161243e-001	 1.5185075100e+000	-9.5502498262e-001
 2.9644462343e-001	 1.5213877169e+000	-9.1759196111e-001
 2.8204273124e-001	 1.5241233210e+000	-8.7977045753e-001
 4.3337418838e-001	 1.5142033591e+000	-1.1961063652e+000
 4.1867740646e-001	 1.5183327136e+000	-1.1472939772e+000
 4.0397895985e-001	 1.5223094298e+000	-1.1004393084e+000
 3.8928106004e-001	 1.5261340886e+000	-1.0553266773e+000
 3.7458589548e-001	 1.5298073104e+000	-1.0117262012e+000
 3.5989563080e-001	 1.5333297541e+000	-9.6939440854e-001
 3.4521240607e-001	 1.5367021164e+000	-9.2807487005e-001
 3.3053833602e-001	 1.5399251308e+000	-8.8749884650e-001
 3.1587550941e-001	 1.5429995666e+000	-8.4738595112e-001
 3.0122598832e-001	 1.5459262285e+000	-8.0744482480e-001
 2.8659180755e-001	 1.5487059552e+000	-7.6737382230e-001
 4.4025314375e-001	 1.5382383331e+000	-1.1317692754e+000
 4.2532307958e-001	 1.5424332329e+000	-1.0781415411e+000
 4.1039132430e-001	 1.5464730715e+000	-1.0268638318e+000
 3.9546012448e-001	 1.5503584392e+000	-9.7771164281e-001
 3.8053170334e-001	 1.5540899661e+000	-9.3044556719e-001
 3.6560825986e-001	 1.5576683217e+000	-8.8481193420e-001
 3.5069196807e-001	 1.5610942135e+000	-8.4054346739e-001
 3.3578497627e-001	 1.5643683868e+000	-7.9735996016e-001
 3.2088940638e-001	 1.5674916232e+000	-7.5496896677e-001
 3.0600735321e-001	 1.5704647400e+000	-7.1306650686e-001
 2.9114088386e-001	 1.5732885894e+000	-6.7133778153e-001
 4.4713209913e-001	 1.5622733070e+000	-1.0781415354e+000
 4.3196875270e-001	 1.5665337522e+000	-1.0198843894e+000
 4.1680368874e-001	 1.5706367133e+000	-9.6441833579e-001
 4.0163918893e-001	 1.5745827898e+000	-9.1150974503e-001
 3.8647751121e-001	 1.5783726218e+000	-8.6090933347e-001
 3.7132088892e-001	 1.5820068892e+000	-8.1235282947e-001
 3.5617153007e-001	 1.5854863106e+000	-7.6556165978e-001
 3.4103161652e-001	 1.5888116429e+000	-7.2024365432e-001
 3.2590330335e-001	 1.5919836798e+000	-6.7609376722e-001
 3.1078871811e-001	 1.5950032516e+000	-6.3279481216e-001
 2.9568996017e-001	 1.5978712237e+000	-5.9001820992e-001
 4.5401105450e-001	 1.5863082810e+000	-1.0334811293e+000
 4.3861442582e-001	 1.5906342714e+000	-9.7079760299e-001
 4.2321605318e-001	 1.5948003550e+000	-9.1139509578e-001
 4.0781825337e-001	 1.5988071404e+000	-8.5503054570e-001
 3.9242331907e-001	 1.6026552775e+000	-8.0144443424e-001
 3.7703351798e-001	 1.6063454567e+000	-7.5036148102e-001
 3.6165109207e-001	 1.6098784077e+000	-7.0149135982e-001
 3.4627825678e-001	 1.6132548989e+000	-6.5452943409e-001
 3.3091720033e-001	 1.6164757364e+000	-6.0915750950e-001
 3.1557008300e-001	 1.6195417632e+000	-5.6504460158e-001
 3.0023903648e-001	 1.6224538579e+000	-5.2184771625e-001
 4.6089000987e-001	 1.6103432550e+000	-9.9612177413e-001
 4.4526009894e-001	 1.6147347907e+000	-9.2923134740e-001
 4.2962841762e-001	 1.6189639967e+000	-8.6616086228e-001
 4.1399731782e-001	 1.6230314910e+000	-8.0665751168e-001
 3.9836912694e-001	 1.6269379333e+000	-7.5045117815e-001
 3.8274614704e-001	 1.6306840242e+000	-6.9725515837e-001
 3.6713065407e-001	 1.6342705048e+000	-6.4676691043e-001
 3.5152489703e-001	 1.6376981549e+000	-5.9866882131e-001
 3.3593109730e-001	 1.6409677930e+000	-5.5262899251e-001
 3.2035144789e-001	 1.6440802747e+000	-5.0830204153e-001
 3.0478811279e-001	 1.6470364921e+000	-4.6532991692e-001
 4.6776896524e-001	 1.6343782289e+000	-9.6446735097e-001
 4.5190577206e-001	 1.6388353100e+000	-8.9360535133e-001
 4.3604078206e-001	 1.6431276385e+000	-8.2715138472e-001
 4.2017638226e-001	 1.6472558416e+000	-7.6484258078e-001
 4.0431493480e-001	 1.6512205890e+000	-7.0639785305e-001
 3.8845877610e-001	 1.6550225918e+000	-6.5151865487e-001
 3.7261021607e-001	 1.6586626019e+000	-5.9988975910e-001
 3.5677153728e-001	 1.6621414110e+000	-5.5118005915e-001
 3.4094499428e-001	 1.6654598497e+000	-5.0504338918e-001
 3.2513281279e-001	 1.6686187863e+000	-4.6111936089e-001
 3.0933718910e-001	 1.6716191263e+000	-4.1903421484e-001
 4.7464792061e-001	 1.6584132029e+000	-9.3698682090e-001
 4.5855144518e-001	 1.6629358292e+000	-8.6240386610e-001
 4.4245314651e-001	 1.6672912802e+000	-7.9286641160e-001
 4.2635544671e-001	 1.6714801922e+000	-7.2810120005e-001
 4.1026074266e-001	 1.6755032447e+000	-6.6781580003e-001
 3.9417140516e-001	 1.6793611593e+000	-6.1169939467e-001
 3.7808977807e-001	 1.6830546990e+000	-5.5942359524e-001
 3.6201817754e-001	 1.6865846670e+000	-5.1064327728e-001
 3.4595889125e-001	 1.6899519063e+000	-4.6499743676e-001
 3.2991417768e-001	 1.6931572979e+000	-4.2211006392e-001
 3.1388626541e-001	 1.6962017605e+000	-3.8159103224e-001
 4.8152687598e-001	 1.6824481768e+000	-9.1220957632e-001
 4.6519711830e-001	 1.6870363485e+000	-8.3417105680e-001
 4.4886551095e-001	 1.6914549220e+000	-7.6186511905e-001
 4.3253451115e-001	 1.6957045429e+000	-6.9500778943e-001
 4.1620655053e-001	 1.6997859004e+000	-6.3329490959e-001
 3.9988403422e-001	 1.7036997268e+000	-5.7640295907e-001
 3.8356934007e-001	 1.7074467960e+000	-5.2398990434e-001
 3.6726481779e-001	 1.7110279231e+000	-4.7569607137e-001
 3.5097278822e-001	 1.7144439629e+000	-4.3114503941e-001
 3.3469554257e-001	 1.7176958094e+000	-3.8994455339e-001
 3.1843534172e-001	 1.7207843947e+000	-3.5168745222e-001
 2.7294457862e-001	 1.4749580526e+000	-1.1606440499e+000
 2.5902378476e-001	 1.4774663038e+000	-1.1724140969e+000
 2.4512139625e-001	 1.4798363089e+000	-1.1814414067e+000
 2.3123926969e-001	 1.4820689593e+000	-1.1874949643e+000
 2.1737923353e-001	 1.4841651757e+000	-1.1903372498e+000
 2.0354308766e-001	 1.4861259070e+000	-1.1897248110e+000
 1.8973260296e-001	 1.4879521294e+000	-1.1854088384e+000
 1.7594952092e-001	 1.4896448456e+000	-1.1771357396e+000
 1.6219555323e-001	 1.4912050840e+000	-1.1646477131e+000
 1.4847238149e-001	 1.4926338975e+000	-1.1476833190e+000
 1.3478165685e-001	 1.4939323629e+000	-1.1259780469e+000
 2.7749365493e-001	 1.4995406868e+000	-1.0102548362e+000
 2.6334084783e-001	 1.5020907422e+000	-1.0208202280e+000
 2.4920675285e-001	 1.5045002474e+000	-1.0290090774e+000
 2.3509325751e-001	 1.5067701086e+000	-1.0345342598e+000
 2.2100222075e-001	 1.5089012620e+000	-1.0371024605e+000
 2.0693547245e-001	 1.5108946721e+000	-1.0364148028e+000
 1.9289481301e-001	 1.5127513315e+000	-1.0321674775e+000
 1.7888201293e-001	 1.5144722597e+000	-1.0240523709e+000
 1.6489881245e-001	 1.5160585020e+000	-1.0117576892e+000
 1.5094692118e-001	 1.5175111291e+000	-9.9496858014e-001
 1.3702801779e-001	 1.5188312356e+000	-9.7336774840e-001
 2.8204273124e-001	 1.5241233210e+000	-8.7977045753e-001
 2.6765791091e-001	 1.5267151806e+000	-8.8716870921e-001
 2.5329210946e-001	 1.5291641858e+000	-8.9260024908e-001
 2.3894724534e-001	 1.5314712579e+000	-8.9572217423e-001
 2.2462520797e-001	 1.5336373482e+000	-8.9618565588e-001
 2.1032785724e-001	 1.5356634372e+000	-8.9363662509e-001
 1.9605702305e-001	 1.5375505337e+000	-8.8771645738e-001
 1.8181450494e-001	 1.5392996738e+000	-8.7806265462e-001
 1.6760207167e-001	 1.5409119201e+000	-8.6430952289e-001
 1.5342146087e-001	 1.5423883607e+000	-8.4608884469e-001
 1.3927437874e-001	 1.5437301083e+000	-8.2303054431e-001
 2.8659180755e-001	 1.5487059552e+000	-7.6737382230e-001
 2.7197497399e-001	 1.5513396190e+000	-7.6978312440e-001
 2.5737746606e-001	 1.5538281243e+000	-7.7067908364e-001
 2.4280123317e-001	 1.5561724073e+000	-7.6966329210e-001
 2.2824819520e-001	 1.5583734345e+000	-7.6633163104e-001
 2.1372024203e-001	 1.5604322023e+000	-7.6027501461e-001
 1.9921923310e-001	 1.5623497358e+000	-7.5108013117e-001
 1.8474699695e-001	 1.5641270879e+000	-7.3833018052e-001
 1.7030533088e-001	 1.5657653382e+000	-7.2160560572e-001
 1.5589600055e-001	 1.5672655924e+000	-7.0048481775e-001
 1.4152073968e-001	 1.5686289811e+000	-6.7454491174e-001
 2.9114088386e-001	 1.5732885894e+000	-6.7133778153e-001
 2.7629203707e-001	 1.5759640574e+000	-6.6706904735e-001
 2.6146282266e-001	 1.5784920628e+000	-6.6178382768e-001
 2.4665522099e-001	 1.5808735566e+000	-6.5502842810e-001
 2.3187118242e-001	 1.5831095208e+000	-6.4634360941e-001
 2.1711262682e-001	 1.5852009674e+000	-6.3526539042e-001
 2.0238144315e-001	 1.5871489380e+000	-6.2132584720e-001
 1.8767948897e-001	 1.5889545020e+000	-6.0405390690e-001
 1.7300859010e-001	 1.5906187562e+000	-5.8297613473e-001
 1.5837054024e-001	 1.5921428240e+000	-5.5761751237e-001
 1.4376710062e-001	 1.5935278538e+000	-5.2750220646e-001
 2.9568996017e-001	 1.5978712237e+000	-5.9001820992e-001
 2.8060910014e-001	 1.6005884958e+000	-5.7750773463e-001
 2.6554817926e-001	 1.6031560013e+000	-5.6452111366e-001
 2.5050920882e-001	 1.6055747059e+000	-5.5054953225e-001
 2.3549416964e-001	 1.6078456070e+000	-5.3507874832e-001
 2.2050501162e-001	 1.6099697326e+000	-5.1758995551e-001
 2.0554365319e-001	 1.6119481402e+000	-4.9756064155e-001
 1.9061198098e-001	 1.6137819161e+000	-4.7446543994e-001
 1.7571184932e-001	 1.6154721743e+000	-4.4777697342e-001
 1.6084507993e-001	 1.6170200556e+000	-4.1696668744e-001
 1.4601346157e-001	 1.6184267265e+000	-3.8150567224e-001
 3.0023903648e-001	 1.6224538579e+000	-5.2184771625e-001
 2.8492616322e-001	 1.6252129342e+000	-4.9965039216e-001
 2.6963353587e-001	 1.6278199398e+000	-4.7756077916e-001
 2.5436319665e-001	 1.6302758552e+000	-4.5501505846e-001
 2.3911715687e-001	 1.6325816933e+000	-4.3144405309e-001
 2.2389739641e-001	 1.6347384977e+000	-4.0627415253e-001
 2.0870586324e-001	 1.6367473423e+000	-3.7892823141e-001
 1.9354447299e-001	 1.6386093302e+000	-3.4882656038e-001
 1.7841510854e-001	 1.6403255924e+000	-3.1538770737e-001
 1.6331961962e-001	 1.6418972872e+000	-2.7802942755e-001
 1.4825982252e-001	 1.6433255992e+000	-2.3616954027e-001
 3.0478811279e-001	 1.6470364921e+000	-4.6532991692e-001
 2.8924322630e-001	 1.6498373726e+000	-4.3211295505e-001
 2.7371889247e-001	 1.6524838782e+000	-3.9963115012e-001
 2.5821718447e-001	 1.6549770045e+000	-3.6726574785e-001
 2.4274014409e-001	 1.6573177795e+000	-3.3439265704e-001
 2.2728978120e-001	 1.6595072628e+000	-3.0038343694e-001
 2.1186807329e-001	 1.6615465445e+000	-2.6460627770e-001
 1.9647696501e-001	 1.6634367443e+000	-2.2642697168e-001
 1.8111836776e-001	 1.6651790104e+000	-1.8520987394e-001
 1.6579415931e-001	 1.6667745188e+000	-1.4031884999e-001
 1.5050618346e-001	 1.6682244719e+000	-9.1118209136e-002
 3.0933718910e-001	 1.6716191263e+000	-4.1903421484e-001
 2.9356028938e-001	 1.6744618110e+000	-3.7357132813e-001
 2.7780424907e-001	 1.6771478167e+000	-3.2951474016e-001
 2.6207117230e-001	 1.6796781539e+000	-2.8619078409e-001
 2.4636313132e-001	 1.6820538658e+000	-2.4292042969e-001
 2.3068216600e-001	 1.6842760279e+000	-1.9902033489e-001
 2.1503028334e-001	 1.6863457466e+000	-1.5380388920e-001
 1.9940945702e-001	 1.6882641584e+000	-1.0658224690e-001
 1.8382162698e-001	 1.6900324285e+000	-5.6665348134e-002
 1.6826869900e-001	 1.6916517505e+000	-3.3629259136e-003
 1.5275254441e-001	 1.6931233446e+000	 5.4014502702e-002
 3.1388626541e-001	 1.6962017605e+000	-3.8159103224e-001
 2.9787735246e-001	 1.6990862494e+000	-3.2275704032e-001
 2.8188960568e-001	 1.7018117552e+000	-2.6604432401e-001
 2.6592516013e-001	 1.7043793032e+000	-2.1072428307e-001
 2.4998611855e-001	 1.7067899521e+000	-1.5606287997e-001
 2.3407455079e-001	 1.7090447930e+000	-1.0132175693e-001
 2.1819249339e-001	 1.7111449488e+000	-4.5759343698e-002
 2.0234194904e-001	 1.7130915724e+000	 1.1368045956e-002
 1.8652488620e-001	 1.7148858466e+000	 7.0805131127e-002
 1.7074323870e-001	 1.7165289821e+000	 1.3329659604e-001
 1.5499890536e-001	 1.7180222173e+000	 1.9958603957e-001
 3.1843534172e-001	 1.7207843947e+000	-3.5168745222e-001
 3.0219441554e-001	 1.7237106878e+000	-2.7845327147e-001
 2.8597496228e-001	 1.7264756937e+000	-2.0809934736e-001
 2.6977914796e-001	 1.7290804525e+000	-1.3984208344e-001
 2.5360910577e-001	 1.7315260383e+000	-7.2892324817e-002
 2.3746693559e-001	 1.7338135582e+000	-6.4565420065e-003
 2.2135470344e-001	 1.7359441509e+000	 6.0261995456e-002
 2.0527444106e-001	 1.7379189865e+000	 1.2806205780e-001
 1.8922814542e-001	 1.7397392646e+000	 1.9774330841e-001
 1.7321777839e-001	 1.7414062137e+000	 2.7010517387e-001
 1.5724526631e-001	 1.7429210901e+000	 3.4594573262e-001
 1.3478165685e-001	 1.4939323629e+000	-1.1259780469e+000
 1.2112499974e-001	 1.4951015800e+000	-1.1681475714e+000
 1.0750399961e-001	 1.4961426704e+000	-1.2057272622e+000
 9.3920214705e-002	 1.4970567769e+000	-1.2384870217e+000
 8.0375171839e-002	 1.4978450627e+000	-1.2661942607e+000
 6.6870366229e-002	 1.4985087101e+000	-1.2886144283e+000
 5.3407261333e-002	 1.4990489200e+000	-1.3055115333e+000
 3.9987288723e-002	 1.4994669109e+000	-1.3166486572e+000
 2.6611847981e-002	 1.4997639179e+000	-1.3217884569e+000
 1.3282306613e-002	 1.4999411923e+000	-1.3206936564e+000
 0.0000000000e+000	 1.5000000000e+000	-1.3131275267e+000
 1.3702801779e-001	 1.5188312356e+000	-9.7336774840e-001
 1.2314374973e-001	 1.5200199396e+000	-1.0186573624e+000
 1.0929573293e-001	 1.5210783815e+000	-1.0591467264e+000
 9.5485551614e-002	 1.5220077232e+000	-1.0945334894e+000
 8.1714758035e-002	 1.5228091470e+000	-1.1245140731e+000
 6.7984872331e-002	 1.5234838552e+000	-1.1487842519e+000
 5.4297382354e-002	 1.5240330686e+000	-1.1670397202e+000
 4.0653743534e-002	 1.5244580260e+000	-1.1789766496e+000
 2.7055378780e-002	 1.5247599832e+000	-1.1842922325e+000
 1.3503678390e-002	 1.5249402122e+000	-1.1826852123e+000
 0.0000000000e+000	 1.5250000000e+000	-1.1738563994e+000
 1.3927437874e-001	 1.5437301083e+000	-8.2303054431e-001
 1.2516249972e-001	 1.5449382993e+000	-8.6846376936e-001
 1.1108746626e-001	 1.5460140927e+000	-9.0893664311e-001
 9.7050888523e-002	 1.5469586695e+000	-9.4407495261e-001
 8.3054344230e-002	 1.5477732314e+000	-9.7350447390e-001
 6.9099378434e-002	 1.5484590004e+000	-9.9685160132e-001
 5.5187503375e-002	 1.5490172173e+000	-1.0137439634e+000
 4.1320198346e-002	 1.5494491412e+000	-1.0238110244e+000
 2.7498909579e-002	 1.5497560485e+000	-1.0266846707e+000
 1.3725050166e-002	 1.5499392320e+000	-1.0219997805e+000
 0.0000000000e+000	 1.5500000000e+000	-1.0093947777e+000
 1.4152073968e-001	 1.5686289811e+000	-6.7454491174e-001
 1.2718124971e-001	 1.5698566590e+000	-7.1735194677e-001
 1.1287919958e-001	 1.5709498039e+000	-7.5508793777e-001
 9.8616225433e-002	 1.5719096157e+000	-7.8730712739e-001
 8.4393930425e-002	 1.5727373158e+000	-8.1356491545e-001
 7.0213884536e-002	 1.5734341456e+000	-8.3341853968e-001
 5.6077624396e-002	 1.5740013660e+000	-8.4642774058e-001
 4.1986653157e-002	 1.5744402564e+000	-8.5215540921e-001
 2.7942440378e-002	 1.5747521138e+000	-8.5016821722e-001
 1.3946421943e-002	 1.5749382519e+000	-8.4003722802e-001
 0.0000000000e+000	 1.5750000000e+000	-8.2133848848e-001
 1.4376710062e-001	 1.5935278538e+000	-5.2750220646e-001
 1.2919999971e-001	 1.5947750186e+000	-5.6510822506e-001
 1.1467093291e-001	 1.5958855150e+000	-5.9758109824e-001
 1.0018156234e-001	 1.5968605620e+000	-6.2440377056e-001
 8.5733516621e-002	 1.5977014002e+000	-6.4506146557e-001
 7.1328390638e-002	 1.5984092907e+000	-6.5904241931e-001
 5.6967745417e-002	 1.5989855146e+000	-6.6583859529e-001
 4.2653107968e-002	 1.5994313716e+000	-6.6494637998e-001
 2.8385971177e-002	 1.5997481791e+000	-6.5586725776e-001
 1.4167793719e-002	 1.5999372718e+000	-6.3810846458e-001
 0.0000000000e+000	 1.6000000000e+000	-6.1118361950e-001
 1.4601346157e-001	 1.6184267265e+000	-3.8150567224e-001
 1.3121874970e-001	 1.6196933783e+000	-4.1152002021e-001
 1.1646266623e-001	 1.6208212262e+000	-4.3638697743e-001
 1.0174689925e-001	 1.6218115083e+000	-4.5551836894e-001
 8.7073102817e-002	 1.6226654846e+000	-4.6832937551e-001
 7.2442896741e-002	 1.6233844359e+000	-4.7423932116e-001
 5.7857866438e-002	 1.6239696633e+000	-4.7267243964e-001
 4.3319562779e-002	 1.6244224868e+000	-4.6305861884e-001
 2.8829501976e-002	 1.6247442444e+000	-4.4483412211e-001
 1.4389165496e-002	 1.6249362916e+000	-4.1744228571e-001
 0.0000000000e+000	 1.6250000000e+000	-3.8033419150e-001
 1.4825982252e-001	 1.6433255992e+000	-2.3616954027e-001
 1.3323749970e-001	 1.6446117380e+000	-2.5637575152e-001
 1.1825439956e-001	 1.6457569374e+000	-2.7146752326e-001
 1.0331223616e-001	 1.6467624546e+000	-2.8078567493e-001
 8.8412689013e-002	 1.6476295689e+000	-2.8367541453e-001
 7.3557402843e-002	 1.6483595811e+000	-2.7948718142e-001
 5.8747987459e-002	 1.6489538120e+000	-2.6757746574e-001
 4.3986017590e-002	 1.6494136019e+000	-2.4730960300e-001
 2.9273032775e-002	 1.6497403097e+000	-2.1805454321e-001
 1.4610537273e-002	 1.6499353115e+000	-1.7919159344e-001
 0.0000000000e+000	 1.6500000000e+000	-1.3010913308e-001
 1.5050618346e-001	 1.6682244719e+000	-9.1118209136e-002
 1.3525624969e-001	 1.6695300976e+000	-9.9464766723e-002
 1.2004613288e-001	 1.6706926486e+000	-1.0277644322e-001
 1.0487757307e-001	 1.6717134009e+000	-1.0032310463e-001
 8.9752275209e-002	 1.6725936533e+000	-9.1379995427e-002
 7.4671908946e-002	 1.6733347262e+000	-7.5228638150e-002
 5.9638108481e-002	 1.6739379606e+000	-5.1157706915e-002
 4.4652472402e-002	 1.6744047171e+000	-1.8463873788e-002
 2.9716563574e-002	 1.6747363750e+000	 2.3547373016e-002
 1.4831909049e-002	 1.6749343314e+000	 7.5560940004e-002
 0.0000000000e+000	 1.6750000000e+000	 1.3825136917e-001
 1.5275254441e-001	 1.6931233446e+000	 5.4014502702e-002
 1.3727499969e-001	 1.6944484573e+000	 5.9422726289e-002
 1.2183786621e-001	 1.6956283597e+000	 6.9740189730e-002
 1.0644290998e-001	 1.6966643472e+000	 8.5767987489e-002
 9.1091861406e-002	 1.6975577377e+000	 1.0830088746e-001
 7.5786415049e-002	 1.6983098714e+000	 1.3812637332e-001
 6.0528229502e-002	 1.6989221093e+000	 1.7602371536e-001
 4.5318927213e-002	 1.6993958323e+000	 2.2276307104e-001
 3.0160094373e-002	 1.6997324403e+000	 2.7910461628e-001
 1.5053280826e-002	 1.6999333513e+000	 3.4579770824e-001
 0.0000000000e+000	 1.7000000000e+000	 4.2358008081e-001
 1.5499890536e-001	 1.7180222173e+000	 1.9958603957e-001
 1.3929374968e-001	 1.7193668170e+000	 2.2049572178e-001
 1.2362959954e-001	 1.7205640709e+000	 2.4614338393e-001
 1.0800824690e-001	 1.7216152934e+000	 2.7740114465e-001
 9.2431447602e-002	 1.7225218221e+000	 3.1513388885e-001
 7.6900921152e-002	 1.7232850166e+000	 3.6019825057e-001
 6.1418350523e-002	 1.7239062580e+000	 4.1344162678e-001
 4.5985382024e-002	 1.7243869475e+000	 4.7570122340e-001
 3.0603625172e-002	 1.7247285056e+000	 5.4780313451e-001
 1.5274652602e-002	 1.7249323711e+000	 6.3056145582e-001
 0.0000000000e+000	 1.7250000000e+000	 7.2477743317e-001
 1.5724526631e-001	 1.7429210901e+000	 3.4594573262e-001
 1.4131249968e-001	 1.7442851766e+000	 3.8396247315e-001
 1.2542133286e-001	 1.7454997821e+000	 4.2650072320e-001
 1.0957358381e-001	 1.7465662397e+000	 4.7450374365e-001
 9.3771033799e-002	 1.7474859064e+000	 5.2890669466e-001
 7.8015427255e-002	 1.7482601617e+000	 5.9063555748e-001
 6.2308471545e-002	 1.7488904066e+000	 6.6060608976e-001
 4.6651836836e-002	 1.7493780627e+000	 7.3972281559e-001
 3.1047155971e-002	 1.7497245709e+000	 8.2887805117e-001
 1.5496024379e-002	 1.7499313910e+000	 9.2895096741e-001
 0.0000000000e+000	 1.7500000000e+000	 1.0408066901e+000
 1.7500000000e+000	 0.0000000000e+000	 1.9586979905e+000
 1.7499313910e+000	 1.5496024379e-002	 2.0433041707e+000
 1.7497245709e+000	 3.1047155971e-002	 2.1190620418e+000
 1.7493780627e+000	 4.6651836836e-002	 2.1859842144e+000
 1.7488904066e+000	 6.2308471545e-002	 2.2440893084e+000
 1.7482601617e+000	 7.8015427255e-002	 2.2934020024e+000
 1.7474859064e+000	 9.3771033799e-002	 2.3339530794e+000
 1.7465662397e+000	 1.0957358381e-001	 2.3657794671e+000
 1.7454997821e+000	 1.2542133286e-001	 2.3889242745e+000
 1.7442851766e+000	 1.4131249968e-001	 2.4034368240e+000
 1.7429210901e+000	 1.5724526631e-001	 2.4093726779e+000
 1.7750000000e+000	 0.0000000000e+000	 2.6115640745e+000
 1.7749304109e+000	 1.5717396155e-002	 2.6618545746e+000
 1.7747206362e+000	 3.1490686771e-002	 2.7037326362e+000
 1.7743691778e+000	 4.7318291647e-002	 2.7372216586e+000
 1.7738745553e+000	 6.3198592567e-002	 2.7623508208e+000
 1.7732353069e+000	 7.9129933358e-002	 2.7791551144e+000
 1.7724499908e+000	 9.5110619996e-002	 2.7876753727e+000
 1.7715171860e+000	 1.1113892072e-001	 2.7879582941e+000
 1.7704354933e+000	 1.2721306619e-001	 2.7800564623e+000
 1.7692035363e+000	 1.4333124967e-001	 2.7640283609e+000
 1.7678199628e+000	 1.5949162725e-001	 2.7399383843e+000
 1.8000000000e+000	 0.0000000000e+000	 3.2804166837e+000
 1.7999294307e+000	 1.5938767932e-002	 3.2957760392e+000
 1.7997167015e+000	 3.1934217570e-002	 3.3031599759e+000
 1.7993602930e+000	 4.7984746459e-002	 3.3026030093e+000
 1.7988587040e+000	 6.4088713588e-002	 3.2941452048e+000
 1.7982104521e+000	 8.0244439462e-002	 3.2778321939e+000
 1.7974140752e+000	 9.6450206192e-002	 3.2537151856e+000
 1.7964681323e+000	 1.1270425763e-001	 3.2218509731e+000
 1.7953712044e+000	 1.2900479952e-001	 3.1823019363e+000
 1.7941218960e+000	 1.4534999967e-001	 3.1351360398e+000
 1.7927188355e+000	 1.6173798820e-001	 3.0804268264e+000
 1.8250000000e+000	 0.0000000000e+000	 3.9648900672e+000
 1.8249284506e+000	 1.6160139709e-002	 3.9447075230e+000
 1.8247127668e+000	 3.2377748369e-002	 3.9169881895e+000
 1.8243514082e+000	 4.8651201270e-002	 3.8817780307e+000
 1.8238428526e+000	 6.4978834610e-002	 3.8391283301e+000
 1.8231855972e+000	 8.1358945565e-002	 3.7890956892e+000
 1.8223781596e+000	 9.7789792389e-002	 3.7317420218e+000
 1.8214190786e+000	 1.1426959454e-001	 3.6671345429e+000
 1.8203069156e+000	 1.3079653284e-001	 3.5953457535e+000
 1.8190402556e+000	 1.4736874966e-001	 3.5164534213e+000
 1.8176177082e+000	 1.6398434915e-001	 3.4305405564e+000
 1.8500000000e+000	 0.0000000000e+000	 4.6646382447e+000
 1.8499274705e+000	 1.6381511485e-002	 4.6083072124e+000
 1.8497088321e+000	 3.2821279168e-002	 4.5448800745e+000
 1.8493425234e+000	 4.9317656081e-002	 4.4744145795e+000
 1.8488270013e+000	 6.5868955631e-002	 4.3969735643e+000
 1.8481607424e+000	 8.2473451668e-002	 4.3126249349e+000
 1.8473422440e+000	 9.9129378586e-002	 4.2214416423e+000
 1.8463700248e+000	 1.1583493145e-001	 4.1235016535e+000
 1.8452426268e+000	 1.3258826617e-001	 4.0188879188e+000
 1.8439586153e+000	 1.4938749966e-001	 3.9076883332e+000
 1.8425165809e+000	 1.6623071010e-001	 3.7899956953e+000
 1.8750000000e+000	 0.0000000000e+000	 5.3793336882e+000
 1.8749264904e+000	 1.6602883262e-002	 5.2862512409e+000
 1.8747048974e+000	 3.3264809967e-002	 5.1865158530e+000
 1.8743336386e+000	 4.9984110893e-002	 5.0801973984e+000
 1.8738111500e+000	 6.6759076653e-002	 4.9673706067e+000
 1.8731358876e+000	 8.3587957771e-002	 4.8481150264e+000
 1.8723063283e+000	 1.0046896478e-001	 4.7225149816e+000
 1.8713209711e+000	 1.1740026836e-001	 4.5906595255e+000
 1.8701783379e+000	 1.3437999950e-001	 4.4526423877e+000
 1.8688769750e+000	 1.5140624966e-001	 4.3085619186e+000
 1.8674154536e+000	 1.6847707105e-001	 4.1585210287e+000
 1.9000000000e+000	 0.0000000000e+000	 4.6154757546e+000
 1.8999255102e+000	 1.6824255038e-002	 4.5596013474e+000
 1.8997009627e+000	 3.3708340767e-002	 4.5035032456e+000
 1.8993247537e+000	 5.0650565704e-002	 4.4461299263e+000
 1.8987952986e+000	 6.7649197674e-002	 4.3864824000e+000
 1.8981110327e+000	 8.4702463874e-002	 4.3236172137e+000
 1.8972704127e+000	 1.0180855098e-001	 4.2566494224e+000
 1.8962719174e+000	 1.1896560528e-001	 4.1847555212e+000
 1.8951140491e+000	 1.3617173282e-001	 4.1071763302e+000
 1.8937953346e+000	 1.5342499965e-001	 4.0232198240e+000
 1.8923143264e+000	 1.7072343199e-001	 3.9322638984e+000
 1.9250000000e+000	 0.0000000000e+000	 3.8541193502e+000
 1.9249245301e+000	 1.7045626815e-002	 3.8326625638e+000
 1.9246970280e+000	 3.4151871566e-002	 3.8097154802e+000
 1.9243158689e+000	 5.1317020516e-002	 3.7841788631e+000
 1.9237794473e+000	 6.8539318696e-002	 3.7550086344e+000
 1.9230861779e+000	 8.5816969978e-002	 3.7212190079e+000
 1.9222344971e+000	 1.0314813718e-001	 3.6818855894e+000
 1.9212228637e+000	 1.2053094219e-001	 3.6361484357e+000
 1.9200497603e+000	 1.3796346615e-001	 3.5832150638e+000
 1.9187136943e+000	 1.5544374965e-001	 3.5223634025e+000
 1.9172131991e+000	 1.7296979294e-001	 3.4529446776e+000
 1.9500000000e+000	 0.0000000000e+000	 3.0949853897e+000
 1.9499235500e+000	 1.7266998592e-002	 3.1093322858e+000
 1.9496930933e+000	 3.4595402365e-002	 3.1208251472e+000
 1.9493069841e+000	 5.1983475327e-002	 3.1283155773e+000
 1.9487635960e+000	 6.9429439717e-002	 3.1307130650e+000
 1.9480613231e+000	 8.6931476081e-002	 3.1269882526e+000
 1.9471985815e+000	 1.0448772337e-001	 3.1161761688e+000
 1.9461738100e+000	 1.2209627910e-001	 3.0973794184e+000
 1.9449854715e+000	 1.3975519948e-001	 3.0697713200e+000
 1.9436320540e+000	 1.5746249964e-001	 3.0325989831e+000
 1.9421120718e+000	 1.7521615389e-001	 2.9851863163e+000
 1.9750000000e+000	 0.0000000000e+000	 2.3378089190e+000
 1.9749225698e+000	 1.7488370368e-002	 2.3893523738e+000
 1.9746891586e+000	 3.5038933164e-002	 2.4365792089e+000
 1.9742980993e+000	 5.2649930139e-002	 2.4782904018e+000
 1.9737477446e+000	 7.0319560739e-002	 2.5133476458e+000
 1.9730364682e+000	 8.8045982184e-002	 2.5406767574e+000
 1.9721626658e+000	 1.0582730957e-001	 2.5592710455e+000
 1.9711247563e+000	 1.2366161601e-001	 2.5681946368e+000
 1.9699211826e+000	 1.4154693280e-001	 2.5665857451e+000
 1.9685504136e+000	 1.5948124964e-001	 2.5536598786e+000
 1.9670109445e+000	 1.7746251484e-001	 2.5287129737e+000
 2.0000000000e+000	 0.0000000000e+000	 1.5823382315e+000
 1.9999215897e+000	 1.7709742145e-002	 1.6724775727e+000
 1.9996852239e+000	 3.5482463963e-002	 1.7567371378e+000
 1.9992892145e+000	 5.3316384950e-002	 1.8338657929e+000
 1.9987318933e+000	 7.1209681760e-002	 1.9026760559e+000
 1.9980116134e+000	 8.9160488287e-002	 1.9620476468e+000
 1.9971267502e+000	 1.0716689577e-001	 2.0109309982e+000
 1.9960757025e+000	 1.2522695292e-001	 2.0483507191e+000
 1.9948568938e+000	 1.4333866613e-001	 2.0734090018e+000
 1.9934687733e+000	 1.6149999964e-001	 2.0852889615e+000
 1.9919098172e+000	 1.7970887579e-001	 2.0832579011e+000
 1.7429210901e+000	 1.5724526631e-001	 2.4093726779e+000
 1.7414062137e+000	 1.7321777839e-001	 2.4513210981e+000
 1.7397392646e+000	 1.8922814542e-001	 2.4841088564e+000
 1.7379189865e+000	 2.0527444106e-001	 2.5077758659e+000
 1.7359441509e+000	 2.2135470344e-001	 2.5223684010e+000
 1.7338135582e+000	 2.3746693559e-001	 2.5279391351e+000
 1.7315260383e+000	 2.5360910577e-001	 2.5245471745e+000
 1.7290804525e+000	 2.6977914796e-001	 2.5122580886e+000
 1.7264756937e+000	 2.8597496228e-001	 2.4911439366e+000
 1.7237106878e+000	 3.0219441554e-001	 2.4612832908e+000
 1.7207843947e+000	 3.1843534172e-001	 2.4227612561e+000
 1.7678199628e+000	 1.5949162725e-001	 2.7399383843e+000
 1.7662834454e+000	 1.7569231808e-001	 2.7517276314e+000
 1.7645926827e+000	 1.9193140464e-001	 2.7557551966e+000
 1.7627464006e+000	 2.0820693307e-001	 2.7520809245e+000
 1.7607433531e+000	 2.2451691349e-001	 2.7407701091e+000
 1.7585823233e+000	 2.4085932039e-001	 2.7218934926e+000
 1.7562621246e+000	 2.5723209300e-001	 2.6955272613e+000
 1.7537816018e+000	 2.7363313579e-001	 2.6617530387e+000
 1.7511396322e+000	 2.9006031889e-001	 2.6206578747e+000
 1.7483351262e+000	 3.0651147862e-001	 2.5723342333e+000
 1.7453670289e+000	 3.2298441803e-001	 2.5168799760e+000
 1.7927188355e+000	 1.6173798820e-001	 3.0804268264e+000
 1.7911606770e+000	 1.7816685777e-001	 3.0617065628e+000
 1.7894461008e+000	 1.9463466387e-001	 3.0366046183e+000
 1.7875738147e+000	 2.1113942509e-001	 3.0052007591e+000
 1.7855425553e+000	 2.2767912354e-001	 2.9675792919e+000
 1.7833510884e+000	 2.4425170518e-001	 2.9238290248e+000
 1.7809982109e+000	 2.6085508023e-001	 2.8740432253e+000
 1.7784827512e+000	 2.7748712362e-001	 2.8183195754e+000
 1.7758035707e+000	 2.9414567549e-001	 2.7567601245e+000
 1.7729595646e+000	 3.1082854170e-001	 2.6894712397e+000
 1.7699496631e+000	 3.2753349434e-001	 2.6165635544e+000
 1.8176177082e+000	 1.6398434915e-001	 3.4305405564e+000
 1.8160379086e+000	 1.8064139747e-001	 3.3809601025e+000
 1.8142995188e+000	 1.9733792309e-001	 3.3263604406e+000
 1.8124012288e+000	 2.1407191711e-001	 3.2668412619e+000
 1.8103417574e+000	 2.3084133360e-001	 3.2025058929e+000
 1.8081198535e+000	 2.4764408998e-001	 3.1334612177e+000
 1.8057342971e+000	 2.6447806745e-001	 3.0598175978e+000
 1.8031839005e+000	 2.8134111145e-001	 2.9816887898e+000
 1.8004675091e+000	 2.9823103210e-001	 2.8991918609e+000
 1.7975840030e+000	 3.1514560478e-001	 2.8124471033e+000
 1.7945322974e+000	 3.3208257065e-001	 2.7215779461e+000
 1.8425165809e+000	 1.6623071010e-001	 3.7899956953e+000
 1.8409151402e+000	 1.8311593716e-001	 3.7092038463e+000
 1.8391529369e+000	 2.0004118231e-001	 3.6247391154e+000
 1.8372286429e+000	 2.1700440913e-001	 3.5367211365e+000
 1.8351409596e+000	 2.3400354365e-001	 3.4452722756e+000
 1.8328886186e+000	 2.5103647477e-001	 3.3505175153e+000
 1.8304703834e+000	 2.6810105468e-001	 3.2525843355e+000
 1.8278850498e+000	 2.8519509928e-001	 3.1516025942e+000
 1.8251314476e+000	 3.0231638870e-001	 3.0477044051e+000
 1.8222084414e+000	 3.1946266786e-001	 2.9410240160e+000
 1.8191149316e+000	 3.3663164696e-001	 2.8316976846e+000
 1.8674154536e+000	 1.6847707105e-001	 4.1585210287e+000
 1.8657923719e+000	 1.8559047685e-001	 4.0461658826e+000
 1.8640063550e+000	 2.0274444153e-001	 3.9314693518e+000
 1.8620560570e+000	 2.1993690114e-001	 3.8145710432e+000
 1.8599401617e+000	 2.3716575370e-001	 3.6956123950e+000
 1.8576573837e+000	 2.5442885957e-001	 3.5747365221e+000
 1.8552064696e+000	 2.7172404191e-001	 3.4520880586e+000
 1.8525861991e+000	 2.8904908711e-001	 3.3278130007e+000
 1.8497953861e+000	 3.0640174531e-001	 3.2020585475e+000
 1.8468328798e+000	 3.2377973094e-001	 3.0749729415e+000
 1.8436975658e+000	 3.4118072327e-001	 2.9467053097e+000
 1.8923143264e+000	 1.7072343199e-001	 3.9322638984e+000
 1.8906696035e+000	 1.8806501655e-001	 3.8777431704e+000
 1.8888597730e+000	 2.0544770075e-001	 3.8193590190e+000
 1.8868834711e+000	 2.2286939316e-001	 3.7567490969e+000
 1.8847393639e+000	 2.4032796375e-001	 3.6896283193e+000
 1.8824261489e+000	 2.5782124437e-001	 3.6177910921e+000
 1.8799425559e+000	 2.7534702914e-001	 3.5411134282e+000
 1.8772873485e+000	 2.9290307494e-001	 3.4595549437e+000
 1.8744593246e+000	 3.1048710192e-001	 3.3620239248e+000
 1.8714573182e+000	 3.2809679402e-001	 3.2140730380e+000
 1.8682802000e+000	 3.4572979958e-001	 3.0663908410e+000
 1.9172131991e+000	 1.7296979294e-001	 3.4529446776e+000
 1.9155468351e+000	 1.9053955624e-001	 3.4190105476e+000
 1.9137131911e+000	 2.0815095998e-001	 3.3803435116e+000
 1.9117108852e+000	 2.2580188518e-001	 3.3365758340e+000
 1.9095385661e+000	 2.4349017380e-001	 3.2874203847e+000
 1.9071949140e+000	 2.6121362916e-001	 3.2326729465e+000
 1.9046786422e+000	 2.7897001637e-001	 3.1722144045e+000
 1.9019884978e+000	 2.9675706277e-001	 3.1060128097e+000
 1.8991232631e+000	 3.1457245852e-001	 3.0341253087e+000
 1.8960817566e+000	 3.3241385710e-001	 2.9566999304e+000
 1.8928628342e+000	 3.5027887589e-001	 2.8739772225e+000
 1.9421120718e+000	 1.7521615389e-001	 2.9851863163e+000
 1.9404240667e+000	 1.9301409593e-001	 2.9723888800e+000
 1.9385666092e+000	 2.1085421920e-001	 2.9538642334e+000
 1.9365382993e+000	 2.2873437719e-001	 2.9292387562e+000
 1.9343377682e+000	 2.4665238385e-001	 2.8982229239e+000
 1.9319636791e+000	 2.6460601396e-001	 2.8606136962e+000
 1.9294147284e+000	 2.8259300359e-001	 2.8162967829e+000
 1.9266896471e+000	 3.0061105060e-001	 2.7652487789e+000
 1.9237872016e+000	 3.1865781513e-001	 2.7075391586e+000
 1.9207061950e+000	 3.3673092018e-001	 2.6433321220e+000
 1.9174454684e+000	 3.5482795221e-001	 2.5728882829e+000
 1.9670109445e+000	 1.7746251484e-001	 2.5287129737e+000
 1.9653012984e+000	 1.9548863562e-001	 2.5375842322e+000
 1.9634200273e+000	 2.1355747842e-001	 2.5396080209e+000
 1.9613657134e+000	 2.3166686921e-001	 2.5344043471e+000
 1.9591369704e+000	 2.4981459391e-001	 2.5216809520e+000
 1.9567324442e+000	 2.6799839876e-001	 2.5012357842e+000
 1.9541508147e+000	 2.8621599082e-001	 2.4729593450e+000
 1.9513907964e+000	 3.0446503843e-001	 2.4368368977e+000
 1.9484511400e+000	 3.2274317174e-001	 2.3929505297e+000
 1.9453306334e+000	 3.4104798327e-001	 2.3414810603e+000
 1.9420281026e+000	 3.5937702852e-001	 2.2827097838e+000
 1.9919098172e+000	 1.7970887579e-001	 2.0832579011e+000
 1.9901785300e+000	 1.9796317532e-001	 2.1143116383e+000
 1.9882734453e+000	 2.1626073764e-001	 2.1372705109e+000
 1.9861931275e+000	 2.3459936123e-001	 2.1517476745e+000
 1.9839361725e+000	 2.5297680396e-001	 2.1574478059e+000
 1.9815012093e+000	 2.7139078356e-001	 2.1541696662e+000
 1.9788869010e+000	 2.8983897805e-001	 2.1418085284e+000
 1.9760919458e+000	 3.0831902626e-001	 2.1203584639e+000
 1.9731150785e+000	 3.2682852835e-001	 2.0899144759e+000
 1.9699550718e+000	 3.4536504635e-001	 2.0506744708e+000
 1.9666107368e+000	 3.6392610484e-001	 2.0029410590e+000
 1.7207843947e+000	 3.1843534172e-001	 2.4227612561e+000
 1.7176958094e+000	 3.3469554257e-001	 2.4238971054e+000
 1.7144439629e+000	 3.5097278822e-001	 2.4161652694e+000
 1.7110279231e+000	 3.6726481779e-001	 2.3997102092e+000
 1.7074467960e+000	 3.8356934007e-001	 2.3746839610e+000
 1.7036997268e+000	 3.9988403422e-001	 2.3412461141e+000
 1.6997859004e+000	 4.1620655053e-001	 2.2995637852e+000
 1.6957045429e+000	 4.3253451115e-001	 2.2498115868e+000
 1.6914549220e+000	 4.4886551095e-001	 2.1921715922e+000
 1.6870363485e+000	 4.6519711830e-001	 2.1268332951e+000
 1.6824481768e+000	 4.8152687598e-001	 2.0539935648e+000
 1.7453670289e+000	 3.2298441803e-001	 2.5168799760e+000
 1.7422343210e+000	 3.3947690746e-001	 2.5049255271e+000
 1.7389360195e+000	 3.5598668519e-001	 2.4852397608e+000
 1.7354711791e+000	 3.7251145804e-001	 2.4579690589e+000
 1.7318388931e+000	 3.8904890206e-001	 2.4232663688e+000
 1.7280382943e+000	 4.0559666328e-001	 2.3812911636e+000
 1.7240685561e+000	 4.2215235839e-001	 2.3322093975e+000
 1.7199288935e+000	 4.3871357559e-001	 2.2761934575e+000
 1.7156185637e+000	 4.5527787539e-001	 2.2134221126e+000
 1.7111368678e+000	 4.7184279141e-001	 2.1440804593e+000
 1.7064831508e+000	 4.8840583136e-001	 2.0683598635e+000
 1.7699496631e+000	 3.2753349434e-001	 2.6165635544e+000
 1.7667728326e+000	 3.4425827236e-001	 2.5907610297e+000
 1.7634280761e+000	 3.6100058217e-001	 2.5583557341e+000
 1.7599144352e+000	 3.7775809829e-001	 2.5194961777e+000
 1.7562309902e+000	 3.9452846406e-001	 2.4743364272e+000
 1.7523768619e+000	 4.1130929234e-001	 2.4230360453e+000
 1.7483512119e+000	 4.2809816625e-001	 2.3657600287e+000
 1.7441532441e+000	 4.4489264004e-001	 2.3026787422e+000
 1.7397822055e+000	 4.6169023983e-001	 2.2339678521e+000
 1.7352373870e+000	 4.7848846453e-001	 2.1598082569e+000
 1.7305181247e+000	 4.9528478673e-001	 2.0803860161e+000
 1.7945322974e+000	 3.3208257065e-001	 2.7215779461e+000
 1.7913113441e+000	 3.4903963725e-001	 2.6811932244e+000
 1.7879201327e+000	 3.6601447914e-001	 2.6353275582e+000
 1.7843576912e+000	 3.8300473855e-001	 2.5841317933e+000
 1.7806230873e+000	 4.0000802606e-001	 2.5277613202e+000
 1.7767154294e+000	 4.1702192139e-001	 2.4663759950e+000
 1.7726338676e+000	 4.3404397412e-001	 2.4001400576e+000
 1.7683775947e+000	 4.5107170448e-001	 2.3292220494e+000
 1.7639458472e+000	 4.6810260427e-001	 2.2537947300e+000
 1.7593379063e+000	 4.8513413765e-001	 2.1740349929e+000
 1.7545530987e+000	 5.0216374210e-001	 2.0901237812e+000
 1.8191149316e+000	 3.3663164696e-001	 2.8316976846e+000
 1.8158498557e+000	 3.5382100214e-001	 2.7760189245e+000
 1.8124121893e+000	 3.7102837612e-001	 2.7159753804e+000
 1.8088009473e+000	 3.8825137880e-001	 2.6517204387e+000
 1.8050151844e+000	 4.0548758806e-001	 2.5834110173e+000
 1.8010539969e+000	 4.2273455045e-001	 2.5112074657e+000
 1.7969165233e+000	 4.3998978198e-001	 2.4352734648e+000
 1.7926019453e+000	 4.5725076893e-001	 2.3557759268e+000
 1.7881094890e+000	 4.7451496871e-001	 2.2728848955e+000
 1.7834384256e+000	 4.9177981077e-001	 2.1867734467e+000
 1.7785880727e+000	 5.0904269747e-001	 2.0976175899e+000
 1.8436975658e+000	 3.4118072327e-001	 2.9467053097e+000
 1.8403883673e+000	 3.5860236704e-001	 2.8750416658e+000
 1.8369042460e+000	 3.7604227309e-001	 2.8001247405e+000
 1.8332442033e+000	 3.9349801906e-001	 2.7221106656e+000
 1.8294072815e+000	 4.1096715007e-001	 2.6411580874e+000
 1.8253925645e+000	 4.2844717952e-001	 2.5574280465e+000
 1.8211991790e+000	 4.4593558984e-001	 2.4710838593e+000
 1.8168262959e+000	 4.6342983337e-001	 2.3822909989e+000
 1.8122731307e+000	 4.8092733315e-001	 2.2912169793e+000
 1.8075389448e+000	 4.9842548389e-001	 2.1980312401e+000
 1.8026230466e+000	 5.1592165284e-001	 2.1029050343e+000
 1.8682802000e+000	 3.4572979958e-001	 3.0663908410e+000
 1.8649268788e+000	 3.6338373194e-001	 2.9780712638e+000
 1.8613963026e+000	 3.8105617007e-001	 2.8876062167e+000
 1.8576874594e+000	 3.9874465931e-001	 2.7951547799e+000
 1.8537993786e+000	 4.1644671207e-001	 2.7008775277e+000
 1.8497311320e+000	 4.3415980858e-001	 2.6049363878e+000
 1.8454818348e+000	 4.5188139771e-001	 2.5074945027e+000
 1.8410506465e+000	 4.6960889782e-001	 2.4087160932e+000
 1.8364367724e+000	 4.8733969760e-001	 2.3087663248e+000
 1.8316394641e+000	 5.0507115701e-001	 2.2078111773e+000
 1.8266580206e+000	 5.2280060822e-001	 2.1060173178e+000
 1.8928628342e+000	 3.5027887589e-001	 2.8739772225e+000
 1.8894653904e+000	 3.6816509683e-001	 2.8463427699e+000
 1.8858883592e+000	 3.8607006704e-001	 2.8110824547e+000
 1.8821307154e+000	 4.0399129957e-001	 2.7687152508e+000
 1.8781914757e+000	 4.2192627407e-001	 2.7198602638e+000
 1.8740696995e+000	 4.3987243764e-001	 2.6536321324e+000
 1.8697644905e+000	 4.5782720558e-001	 2.5444283322e+000
 1.8652749971e+000	 4.7578796226e-001	 2.4349983572e+000
 1.8606004142e+000	 4.9375206204e-001	 2.3255052018e+000
 1.8557399833e+000	 5.1171683013e-001	 2.2161115571e+000
 1.8506929945e+000	 5.2967956359e-001	 2.1069796696e+000
 1.9174454684e+000	 3.5482795221e-001	 2.5728882829e+000
 1.9140039020e+000	 3.7294646173e-001	 2.5575653400e+000
 1.9103804158e+000	 3.9108396402e-001	 2.5333815778e+000
 1.9065739715e+000	 4.0923793982e-001	 2.5008818768e+000
 1.9025835728e+000	 4.2740583607e-001	 2.4607155178e+000
 1.8984082670e+000	 4.4558506670e-001	 2.4136370264e+000
 1.8940471462e+000	 4.6377301344e-001	 2.3605068106e+000
 1.8894993478e+000	 4.8196702671e-001	 2.3022915845e+000
 1.8847640559e+000	 5.0016442648e-001	 2.2400645724e+000
 1.8798405026e+000	 5.1836250325e-001	 2.1750054865e+000
 1.8747279685e+000	 5.3655851896e-001	 2.1058117279e+000
 1.9420281026e+000	 3.5937702852e-001	 2.2827097838e+000
 1.9385424135e+000	 3.7772782663e-001	 2.2788031591e+000
 1.9348724724e+000	 3.9609786100e-001	 2.2646853281e+000
 1.9310172275e+000	 4.1448458008e-001	 2.2409283390e+000
 1.9269756698e+000	 4.3288539808e-001	 2.2082130789e+000
 1.9227468346e+000	 4.5129769576e-001	 2.1673301453e+000
 1.9183298019e+000	 4.6971882131e-001	 2.1191805021e+000
 1.9137236984e+000	 4.8814609116e-001	 2.0647759130e+000
 1.9089276977e+000	 5.0657679093e-001	 2.0052391462e+000
 1.9039410219e+000	 5.2500817637e-001	 1.9418039431e+000
 1.8987629424e+000	 5.4343747433e-001	 1.8758147467e+000
 1.9666107368e+000	 3.6392610484e-001	 2.0029410590e+000
 1.9630809251e+000	 3.8250919152e-001	 2.0095322846e+000
 1.9593645290e+000	 4.0111175798e-001	 2.0044451584e+000
 1.9554604835e+000	 4.1973122034e-001	 1.9882801800e+000
 1.9513677669e+000	 4.3836496008e-001	 1.9617512983e+000
 1.9470854021e+000	 4.5701032483e-001	 1.9256868117e+000
 1.9426124576e+000	 4.7566462918e-001	 1.8810300425e+000
 1.9379480490e+000	 4.9432515561e-001	 1.8288397808e+000
 1.9330913394e+000	 5.1298915537e-001	 1.7702904902e+000
 1.9280415411e+000	 5.3165384949e-001	 1.7066722673e+000
 1.9227979164e+000	 5.5031642970e-001	 1.6393905513e+000
 1.6824481768e+000	 4.8152687598e-001	 2.0539935648e+000
 1.6776898060e+000	 4.9785230211e-001	 1.9506865015e+000
 1.6727606807e+000	 5.1417089100e-001	 1.8519607932e+000
 1.6676602917e+000	 5.3048011422e-001	 1.7578144587e+000
 1.6623881771e+000	 5.4677742155e-001	 1.6682377624e+000
 1.6569439230e+000	 5.6306024200e-001	 1.5832131395e+000
 1.6513271642e+000	 5.7932598494e-001	 1.5027151351e+000
 1.6455375851e+000	 5.9557204113e-001	 1.4267103610e+000
 1.6395749202e+000	 6.1179578385e-001	 1.3551574673e+000
 1.6334389551e+000	 6.2799457010e-001	 1.3114582359e+000
 1.6271295268e+000	 6.4416574173e-001	 1.3698720535e+000
 1.7064831508e+000	 4.8840583136e-001	 2.0683598635e+000
 1.7016568033e+000	 5.0496447785e-001	 1.9495183753e+000
 1.6966572618e+000	 5.2151618944e-001	 1.8375578675e+000
 1.6914840101e+000	 5.3805840157e-001	 1.7324895861e+000
 1.6861365796e+000	 5.5458852757e-001	 1.6343149523e+000
 1.6806145504e+000	 5.7110395975e-001	 1.5430254449e+000
 1.6749175522e+000	 5.8760207045e-001	 1.4586025004e+000
 1.6690452648e+000	 6.0408021315e-001	 1.3810174302e+000
 1.6629974190e+000	 6.2053572362e-001	 1.3102313580e+000
 1.6567737973e+000	 6.3696592110e-001	 1.3346528342e+000
 1.6503742344e+000	 6.5336810947e-001	 1.3900811265e+000
 1.7305181247e+000	 4.9528478673e-001	 2.0803860161e+000
 1.7256238005e+000	 5.1207665360e-001	 1.9459796594e+000
 1.7205538430e+000	 5.2886148789e-001	 1.8207160974e+000
 1.7153077286e+000	 5.4563668892e-001	 1.7046194218e+000
 1.7098849821e+000	 5.6239963360e-001	 1.5977018394e+000
 1.7042851779e+000	 5.7914767750e-001	 1.4999635120e+000
 1.6985079403e+000	 5.9587815595e-001	 1.4113924168e+000
 1.6925529446e+000	 6.1258838517e-001	 1.3319642270e+000
 1.6864199179e+000	 6.2927566340e-001	 1.2926091216e+000
 1.6801086395e+000	 6.4593727211e-001	 1.3451542437e+000
 1.6736189419e+000	 6.6257047722e-001	 1.3960555466e+000
 1.7545530987e+000	 5.0216374210e-001	 2.0901237812e+000
 1.7495907977e+000	 5.1918882934e-001	 1.9401238994e+000
 1.7444504242e+000	 5.3620678633e-001	 1.8014931816e+000
 1.7391314470e+000	 5.5321497627e-001	 1.6742681978e+000
 1.7336333847e+000	 5.7021073962e-001	 1.5584715810e+000
 1.7279558054e+000	 5.8719139524e-001	 1.4541118262e+000
 1.7220983284e+000	 6.0415424145e-001	 1.3611831110e+000
 1.7160606244e+000	 6.2109655719e-001	 1.2796651394e+000
 1.7098424168e+000	 6.3801560317e-001	 1.2972909515e+000
 1.7034434817e+000	 6.5490862311e-001	 1.3420689551e+000
 1.6968636494e+000	 6.7177284496e-001	 1.3868889589e+000
 1.7785880727e+000	 5.0904269747e-001	 2.0976175899e+000
 1.7735577950e+000	 5.2630100509e-001	 1.9319972351e+000
 1.7683470053e+000	 5.4355208478e-001	 1.7799392188e+000
 1.7629551655e+000	 5.6079326361e-001	 1.6414922343e+000
 1.7573817872e+000	 5.7802184564e-001	 1.5166889937e+000
 1.7516264329e+000	 5.9523511299e-001	 1.4055459852e+000
 1.7456887164e+000	 6.1243032695e-001	 1.3080632554e+000
 1.7395683042e+000	 6.2960472920e-001	 1.2545295744e+000
 1.7332649156e+000	 6.4675554294e-001	 1.2889974085e+000
 1.7267783239e+000	 6.6387997412e-001	 1.3244911877e+000
 1.7201083570e+000	 6.8097521270e-001	 1.3616615907e+000
 1.8026230466e+000	 5.1592165284e-001	 2.1029050343e+000
 1.7975247922e+000	 5.3341318083e-001	 1.9216388947e+000
 1.7922435865e+000	 5.5089738322e-001	 1.7560972144e+000
 1.7867788839e+000	 5.6837155096e-001	 1.6063404679e+000
 1.7811301897e+000	 5.8583295167e-001	 1.4724111098e+000
 1.7752970603e+000	 6.0327883073e-001	 1.3543332915e+000
 1.7692791045e+000	 6.2070641246e-001	 1.2521126050e+000
 1.7630759840e+000	 6.3811290122e-001	 1.2447206571e+000
 1.7566874145e+000	 6.5549548271e-001	 1.2668283797e+000
 1.7501131661e+000	 6.7285132512e-001	 1.2915037078e+000
 1.7433530645e+000	 6.9017758044e-001	 1.3194411465e+000
 1.8266580206e+000	 5.2280060822e-001	 2.1060173178e+000
 1.8214917894e+000	 5.4052535658e-001	 1.9090816490e+000
 1.8161401676e+000	 5.5824268167e-001	 1.7300035471e+000
 1.8106026024e+000	 5.7594983831e-001	 1.5688549368e+000
 1.8048785923e+000	 5.9364405769e-001	 1.4256876890e+000
 1.7989676878e+000	 6.1132254848e-001	 1.3005332976e+000
 1.7928694926e+000	 6.2898249796e-001	 1.2167187624e+000
 1.7865836638e+000	 6.4662107324e-001	 1.2216298394e+000
 1.7801099133e+000	 6.6423542248e-001	 1.2298739470e+000
 1.7734480084e+000	 6.8182267612e-001	 1.2421785817e+000
 1.7665977720e+000	 6.9937994818e-001	 1.2592836313e+000
 1.8506929945e+000	 5.2967956359e-001	 2.1069796696e+000
 1.8454587867e+000	 5.4763753232e-001	 1.8943522311e+000
 1.8400367488e+000	 5.6558798011e-001	 1.7016883992e+000
 1.8344263209e+000	 5.8352812565e-001	 1.5290712289e+000
 1.8286269948e+000	 6.0145516371e-001	 1.3765616913e+000
 1.8226383153e+000	 6.1936626622e-001	 1.2441983100e+000
 1.8164598806e+000	 6.3725858345e-001	 1.1962337568e+000
 1.8100913436e+000	 6.5512924526e-001	 1.1843587067e+000
 1.8035324122e+000	 6.7297536225e-001	 1.1772150239e+000
 1.7967828506e+000	 6.9079402712e-001	 1.1755778712e+000
 1.7898424795e+000	 7.0858231592e-001	 1.1802341107e+000
 1.8747279685e+000	 5.3655851896e-001	 2.1058117279e+000
 1.8694257839e+000	 5.5474970807e-001	 1.8774717233e+000
 1.8639333299e+000	 5.7293327855e-001	 1.6711761538e+000
 1.8582500393e+000	 5.9110641300e-001	 1.4870188953e+000
 1.8523753973e+000	 6.0926626974e-001	 1.3250697121e+000
 1.8463089428e+000	 6.2740998396e-001	 1.1975920331e+000
 1.8400502687e+000	 6.4553466895e-001	 1.1621609016e+000
 1.8335990234e+000	 6.6363741727e-001	 1.1320009543e+000
 1.8269549111e+000	 6.8171530202e-001	 1.1079239429e+000
 1.8201176928e+000	 6.9976537812e-001	 1.0907542744e+000
 1.8130871871e+000	 7.1778468366e-001	 1.0813274122e+000
 1.8987629424e+000	 5.4343747433e-001	 1.8758147467e+000
 1.8933927811e+000	 5.6186188381e-001	 1.6877590788e+000
 1.8878299111e+000	 5.8027857699e-001	 1.5215087134e+000
 1.8820737578e+000	 5.9868470035e-001	 1.3786957264e+000
 1.8761237999e+000	 6.1707737576e-001	 1.2610364841e+000
 1.8699795702e+000	 6.3545370170e-001	 1.1701035862e+000
 1.8636406567e+000	 6.5381075445e-001	 1.1136101182e+000
 1.8571067031e+000	 6.7214558929e-001	 1.0636428870e+000
 1.8503774099e+000	 6.9045524179e-001	 1.0210649990e+000
 1.8434525350e+000	 7.0873672912e-001	 9.8675171851e-001
 1.8363318946e+000	 7.2698705140e-001	 9.6158877284e-001
 1.9227979164e+000	 5.5031642970e-001	 1.6393905513e+000
 1.9173597783e+000	 5.6897405956e-001	 1.4413527587e+000
 1.9117264922e+000	 5.8762387544e-001	 1.2650919620e+000
 1.9058974762e+000	 6.0626298769e-001	 1.1123326732e+000
 1.8998722024e+000	 6.2488848178e-001	 9.8488733426e-001
 1.8936501977e+000	 6.4349741945e-001	 9.5435257118e-001
 1.8872310448e+000	 6.6208683995e-001	 9.3456267977e-001
 1.8806143829e+000	 6.8065376130e-001	 9.2535456943e-001
 1.8737999088e+000	 6.9919518155e-001	 9.1569495166e-001
 1.8667873772e+000	 7.1770808012e-001	 8.6260590789e-001
 1.8595766021e+000	 7.3618941913e-001	 8.2003443877e-001
 1.6271295268e+000	 6.4416574173e-001	 1.3698720535e+000
 1.6206465249e+000	 6.6030662669e-001	 1.2545815245e+000
 1.6139898915e+000	 6.7641454021e-001	 1.1372775944e+000
 1.6071596221e+000	 6.9248678611e-001	 1.0184647130e+000
 1.6001557665e+000	 7.0852065808e-001	 8.9865721115e-001
 1.5929784285e+000	 7.2451344093e-001	 7.7837817307e-001
 1.5856277673e+000	 7.4046241198e-001	 6.5815827428e-001
 1.5781039969e+000	 7.5636484241e-001	 5.3853458604e-001
 1.5704073875e+000	 7.7221799855e-001	 4.2004934968e-001
 1.5625382650e+000	 7.8801914338e-001	 3.0324872335e-001
 1.5544970119e+000	 8.0376553783e-001	 1.8868150408e-001
 1.6503742344e+000	 6.5336810947e-001	 1.3900811265e+000
 1.6437986181e+000	 6.6973957850e-001	 1.2708291400e+000
 1.6370468899e+000	 6.8607760507e-001	 1.1504536803e+000
 1.6301190453e+000	 7.0237945449e-001	 1.0295271353e+000
 1.6230151346e+000	 7.1864238176e-001	 9.0863168681e-001
 1.6157352632e+000	 7.3486363294e-001	 7.8835808033e-001
 1.6082795925e+000	 7.5104044644e-001	 6.6930435662e-001
 1.6006483397e+000	 7.6717005444e-001	 5.5207454962e-001
 1.5928417787e+000	 7.8324968425e-001	 4.3727735270e-001
 1.5848602402e+000	 7.9927655972e-001	 3.2552475642e-001
 1.5767041121e+000	 8.1524790266e-001	 2.1743066094e-001
 1.6736189419e+000	 6.6257047722e-001	 1.3960555466e+000
 1.6669507113e+000	 6.7917253031e-001	 1.2730527353e+000
 1.6601038884e+000	 6.9574066993e-001	 1.1497946715e+000
 1.6530784685e+000	 7.1227212286e-001	 1.0269225950e+000
 1.6458745027e+000	 7.2876410545e-001	 9.0508747609e-001
 1.6384920979e+000	 7.4521382496e-001	 7.8494867902e-001
 1.6309314178e+000	 7.6161848090e-001	 6.6717258658e-001
 1.6231926825e+000	 7.7797526648e-001	 5.5243118942e-001
 1.6152761700e+000	 7.9428136994e-001	 4.4140064244e-001
 1.6071822154e+000	 8.1053397605e-001	 3.3475979169e-001
 1.5989112123e+000	 8.2673026749e-001	 2.3318867510e-001
 1.6968636494e+000	 6.7177284496e-001	 1.3868889589e+000
 1.6901028046e+000	 6.8860548212e-001	 1.2602612067e+000
 1.6831608868e+000	 7.0540373479e-001	 1.1342258051e+000
 1.6760378917e+000	 7.2216479124e-001	 1.0094938209e+000
 1.6687338708e+000	 7.3888582914e-001	 8.8678600973e-001
 1.6612489326e+000	 7.5556401697e-001	 7.6683137231e-001
 1.6535832430e+000	 7.7219651536e-001	 6.5036567001e-001
 1.6457370254e+000	 7.8878047852e-001	 5.3812990364e-001
 1.6377105612e+000	 8.0531305564e-001	 4.3086875810e-001
 1.6295041906e+000	 8.2179139239e-001	 3.2932901644e-001
 1.6211183125e+000	 8.3821263232e-001	 2.3425794696e-001
 1.7201083570e+000	 6.8097521270e-001	 1.3616615907e+000
 1.7132548978e+000	 6.9803843393e-001	 1.2314527782e+000
 1.7062178853e+000	 7.1506679966e-001	 1.1026643396e+000
 1.6989973148e+000	 7.3205745961e-001	 9.7607820232e-001
 1.6915932389e+000	 7.4900755283e-001	 8.5248596331e-001
 1.6840057673e+000	 7.6591420899e-001	 7.3268733590e-001
 1.6762350683e+000	 7.8277454982e-001	 6.1748855484e-001
 1.6682813682e+000	 7.9958569055e-001	 5.0770074250e-001
 1.6601449525e+000	 8.1634474134e-001	 4.0413823976e-001
 1.6518261659e+000	 8.3304880872e-001	 3.0761690530e-001
 1.6433254126e+000	 8.4969499715e-001	 2.1895238695e-001
 1.7433530645e+000	 6.9017758044e-001	 1.3194411465e+000
 1.7364069910e+000	 7.0747138575e-001	 1.1856157131e+000
 1.7292748837e+000	 7.2472986452e-001	 1.0540200863e+000
 1.7219567380e+000	 7.4195012799e-001	 9.2550814518e-001
 1.7144526070e+000	 7.5912927652e-001	 8.0094344101e-001
 1.7067626020e+000	 7.7626440100e-001	 6.8119753323e-001
 1.6988868935e+000	 7.9335258428e-001	 5.6714828161e-001
 1.6908257110e+000	 8.1039090259e-001	 4.5967809805e-001
 1.6825793437e+000	 8.2737642703e-001	 3.5967216167e-001
 1.6741481411e+000	 8.4430622506e-001	 2.6801660114e-001
 1.6655325128e+000	 8.6117736198e-001	 1.8559664819e-001
 1.7665977720e+000	 6.9937994818e-001	 1.2592836313e+000
 1.7595590842e+000	 7.1690433756e-001	 1.1217289692e+000
 1.7523318822e+000	 7.3439292938e-001	 9.8719589936e-001
 1.7449161612e+000	 7.5184279636e-001	 8.5661139962e-001
 1.7373119751e+000	 7.6925100021e-001	 7.3091214471e-001
 1.7295194367e+000	 7.8661459301e-001	 6.1104272941e-001
 1.7215387188e+000	 8.0393061874e-001	 4.9795384579e-001
 1.7133700538e+000	 8.2119611462e-001	 3.9260041858e-001
 1.7050137350e+000	 8.3840811273e-001	 2.9593970235e-001
 1.6964701163e+000	 8.5556364139e-001	 2.0892934471e-001
 1.6877396130e+000	 8.7265972680e-001	 1.3252541976e-001
 1.7898424795e+000	 7.0858231592e-001	 1.1802341107e+000
 1.7827111774e+000	 7.2633728937e-001	 1.0387628031e+000
 1.7753888806e+000	 7.4405599424e-001	 9.0108812756e-001
 1.7678755844e+000	 7.6173546473e-001	 7.6821136249e-001
 1.7601713431e+000	 7.7937272389e-001	 6.4114353005e-001
 1.7522762714e+000	 7.9696478503e-001	 5.2090350412e-001
 1.7441905440e+000	 8.1450865319e-001	 4.0851607083e-001
 1.7359143966e+000	 8.3200132666e-001	 3.0500994518e-001
 1.7274481262e+000	 8.4943979842e-001	 2.1141574821e-001
 1.7187920915e+000	 8.6682105773e-001	 1.2876394886e-001
 1.7099467131e+000	 8.8414209163e-001	 5.8082775014e-002
 1.8130871871e+000	 7.1778468366e-001	 1.0813274122e+000
 1.8058632706e+000	 7.3577024118e-001	 9.3567932815e-001
 1.7984458791e+000	 7.5371905910e-001	 7.9458703131e-001
 1.7908350075e+000	 7.7162813311e-001	 6.5912735639e-001
 1.7830307112e+000	 7.8949444758e-001	 5.3038695034e-001
 1.7750331061e+000	 8.0731497704e-001	 4.0946026350e-001
 1.7668423693e+000	 8.2508668765e-001	 2.9744749099e-001
 1.7584587394e+000	 8.4280653869e-001	 1.9545246863e-001
 1.7498825175e+000	 8.6047148411e-001	 1.0458052769e-001
 1.7411140667e+000	 8.7807847406e-001	 2.5936313144e-002
 1.7321538133e+000	 8.9562445646e-001	-3.9378429996e-002
 1.8363318946e+000	 7.2698705140e-001	 9.6158877284e-001
 1.8290153638e+000	 7.4520319299e-001	 8.1143302945e-001
 1.8215028775e+000	 7.6338212396e-001	 6.6657716801e-001
 1.8137944307e+000	 7.8152080148e-001	 5.2817488750e-001
 1.8058900793e+000	 7.9961617127e-001	 3.9738978972e-001
 1.7977899408e+000	 8.1766516906e-001	 2.7539325112e-001
 1.7894941945e+000	 8.3566472211e-001	 1.6336224309e-001
 1.7810030823e+000	 8.5361175073e-001	 6.2477104750e-002
 1.7723169087e+000	 8.7150316981e-001	-2.6080726882e-002
 1.7634360419e+000	 8.8933589040e-001	-1.0113102473e-001
 1.7543609135e+000	 9.0710682128e-001	-1.6149711238e-001
 1.8595766021e+000	 7.3618941913e-001	 8.2003443877e-001
 1.8521674571e+000	 7.5463614479e-001	 6.6497124099e-001
 1.8445598760e+000	 7.7304518882e-001	 5.1593774845e-001
 1.8367538539e+000	 7.9141346985e-001	 3.7416588414e-001
 1.8287494474e+000	 8.0973789495e-001	 2.4089758613e-001
 1.8205467755e+000	 8.2801536107e-001	 1.1738255813e-001
 1.8121460198e+000	 8.4624275656e-001	 4.8759662766e-003
 1.8035474251e+000	 8.6441696276e-001	-9.5363913430e-002
 1.7947513000e+000	 8.8253485550e-001	-1.8207809201e-001
 1.7857580172e+000	 9.0059330673e-001	-2.5400930377e-001
 1.7765680137e+000	 9.1858918611e-001	-3.0990447657e-001
 1.5544970119e+000	 8.0376553783e-001	 1.8868150408e-001
 1.5462840674e+000	 8.1945444228e-001	 7.4480678700e-002
 1.5378999272e+000	 8.3508311794e-001	-3.6431386413e-002
 1.5293451444e+000	 8.5064882832e-001	-1.4328984637e-001
 1.5206203292e+000	 8.6614884069e-001	-2.4533147194e-001
 1.5117261490e+000	 8.8158042754e-001	-3.4179622582e-001
 1.5026633286e+000	 8.9694086807e-001	-4.3192884737e-001
 1.4934326500e+000	 9.1222744964e-001	-5.1498044175e-001
 1.4840349526e+000	 9.2743746930e-001	-5.9021006985e-001
 1.4744711329e+000	 9.4256823526e-001	-6.5688633453e-001
 1.4647421446e+000	 9.5761706841e-001	-7.1428895966e-001
 1.5767041121e+000	 8.1524790266e-001	 2.1743066094e-001
 1.5683738397e+000	 8.3116093432e-001	 1.1840480054e-001
 1.5598699262e+000	 8.4701287677e-001	 2.0131697178e-002
 1.5511929322e+000	 8.6280095444e-001	-7.6607090711e-002
 1.5423434768e+000	 8.7852239556e-001	-1.7102927197e-001
 1.5333222369e+000	 8.9417443366e-001	-2.6235343039e-001
 1.5241299476e+000	 9.0975430904e-001	-3.4980064409e-001
 1.5147674021e+000	 9.2525927035e-001	-4.3259611247e-001
 1.5052354519e+000	 9.4068657601e-001	-5.0997078690e-001
 1.4955350063e+000	 9.5603349577e-001	-5.8116300086e-001
 1.4856670324e+000	 9.7129731225e-001	-6.4542009556e-001
 1.5989112123e+000	 8.2673026749e-001	 2.3318867510e-001
 1.5904636121e+000	 8.4286742635e-001	 1.4793487833e-001
 1.5818399251e+000	 8.5894263560e-001	 6.0997525198e-002
 1.5730407200e+000	 8.7495308057e-001	-2.6822933817e-002
 1.5640666244e+000	 8.9089595043e-001	-1.1472302677e-001
 1.5549183247e+000	 9.0676843977e-001	-2.0189790294e-001
 1.5455965666e+000	 9.2256775002e-001	-2.8754299029e-001
 1.5361021543e+000	 9.3829109106e-001	-3.7085566372e-001
 1.5264359512e+000	 9.5393568271e-001	-4.5103691994e-001
 1.5165988796e+000	 9.6949875628e-001	-5.2729305476e-001
 1.5065919202e+000	 9.8497755608e-001	-5.9883733854e-001
 1.6211183125e+000	 8.3821263232e-001	 2.3425794696e-001
 1.6125533845e+000	 8.5457391839e-001	 1.6136132349e-001
 1.6038099241e+000	 8.7087239443e-001	 8.4441618609e-002
 1.5948885078e+000	 8.8710520669e-001	 4.3203630834e-003
 1.5857897719e+000	 9.0326950530e-001	-7.8175660070e-002
 1.5765144126e+000	 9.1936244588e-001	-1.6221609679e-001
 1.5670631856e+000	 9.3538119099e-001	-2.4696872112e-001
 1.5574369064e+000	 9.5132291177e-001	-3.3160114812e-001
 1.5476364506e+000	 9.6718478942e-001	-4.1528255641e-001
 1.5376627529e+000	 9.8296401678e-001	-4.9718541588e-001
 1.5275168080e+000	 9.9865779992e-001	-5.7648721637e-001
 1.6433254126e+000	 8.4969499715e-001	 2.1895238695e-001
 1.6346431569e+000	 8.6628041042e-001	 1.5698501633e-001
 1.6257799230e+000	 8.8280215326e-001	 8.8749107318e-002
 1.6167362956e+000	 8.9925733281e-001	 1.5089470106e-002
 1.6075129195e+000	 9.1564306017e-001	-6.3141658359e-002
 1.5981105004e+000	 9.3195645199e-001	-1.4508633770e-001
 1.5885298045e+000	 9.4819463197e-001	-2.2988266845e-001
 1.5787716586e+000	 9.6435473249e-001	-3.1666655314e-001
 1.5688369499e+000	 9.8043389613e-001	-4.0457346991e-001
 1.5587266262e+000	 9.9642927729e-001	-4.9274025405e-001
 1.5484416958e+000	 1.0123380438e+000	-5.8030688310e-001
 1.6655325128e+000	 8.6117736198e-001	 1.8559664819e-001
 1.6567329293e+000	 8.7798690246e-001	 1.3311660817e-001
 1.6477499220e+000	 8.9473191209e-001	 7.2214089584e-002
 1.6385840833e+000	 9.1140945893e-001	 3.7593932872e-003
 1.6292360671e+000	 9.2801661504e-001	-7.1367633403e-002
 1.6197065883e+000	 9.4455045810e-001	-1.5227936569e-001
 1.6099964235e+000	 9.6100807294e-001	-2.3808219440e-001
 1.6001064107e+000	 9.7738655320e-001	-3.2787833876e-001
 1.5900374492e+000	 9.9368300283e-001	-4.2076767448e-001
 1.5797904996e+000	 1.0098945378e+000	-5.1584957254e-001
 1.5693665835e+000	 1.0260182876e+000	-6.1222474403e-001
 1.6877396130e+000	 8.7265972680e-001	 1.3252541976e-001
 1.6788227017e+000	 8.8969339449e-001	 8.8075878464e-002
 1.6697199210e+000	 9.0666167092e-001	 3.3139041992e-002
 1.6604318711e+000	 9.2356158505e-001	-3.1387073834e-002
 1.6509592146e+000	 9.4039016991e-001	-1.0459284031e-001
 1.6413026761e+000	 9.5714446421e-001	-1.8555883413e-001
 1.6314630425e+000	 9.7382151392e-001	-2.7335768282e-001
 1.6214411629e+000	 9.9041837391e-001	-3.6705593273e-001
 1.6112379485e+000	 1.0069321095e+000	-4.6571593508e-001
 1.6008543729e+000	 1.0233597983e+000	-5.6839774534e-001
 1.5902914713e+000	 1.0396985314e+000	-6.7416103122e-001
 1.7099467131e+000	 8.8414209163e-001	 5.8082775014e-002
 1.7009124741e+000	 9.0139988653e-001	 2.0191142123e-002
 1.6916899199e+000	 9.1859142975e-001	-3.0165724589e-002
 1.6822796589e+000	 9.3571371117e-001	-9.2059855893e-002
 1.6726823622e+000	 9.5276372478e-001	-1.6454965521e-001
 1.6628987640e+000	 9.6973847032e-001	-2.4668176987e-001
 1.6529296615e+000	 9.8663495489e-001	-3.3749299237e-001
 1.6427759150e+000	 1.0034501946e+000	-4.3601218720e-001
 1.6324384478e+000	 1.0201812162e+000	-5.4126223832e-001
 1.6219182462e+000	 1.0368250588e+000	-6.5226201260e-001
 1.6112163591e+000	 1.0533787753e+000	-7.6802833427e-001
 1.7321538133e+000	 8.9562445646e-001	-3.9378429996e-002
 1.7230022465e+000	 9.1310637856e-001	-7.2201297674e-002
 1.7136599189e+000	 9.3052118858e-001	-1.1938256721e-001
 1.7041274467e+000	 9.4786583729e-001	-1.7996206249e-001
 1.6944055097e+000	 9.6513727965e-001	-2.5296401628e-001
 1.6844948518e+000	 9.8233247643e-001	-3.3739899806e-001
 1.6743962805e+000	 9.9944839587e-001	-4.3226587483e-001
 1.6641106671e+000	 1.0164820153e+000	-5.3655380022e-001
 1.6536389472e+000	 1.0334303230e+000	-6.4924422698e-001
 1.6429821195e+000	 1.0502903193e+000	-7.6931293792e-001
 1.6321412469e+000	 1.0670590191e+000	-8.9573209021e-001
 1.7543609135e+000	 9.0710682128e-001	-1.6149711238e-001
 1.7450920189e+000	 9.2481287059e-001	-1.9075765505e-001
 1.7356299178e+000	 9.4245094741e-001	-2.3618697489e-001
 1.7259752344e+000	 9.6001796341e-001	-2.9679041951e-001
 1.7161286573e+000	 9.7751083451e-001	-3.7155583113e-001
 1.7060909396e+000	 9.9492648253e-001	-4.5945553465e-001
 1.6958628994e+000	 1.0122618368e+000	-5.5944836162e-001
 1.6854454193e+000	 1.0295138360e+000	-6.7048170525e-001
 1.6748394465e+000	 1.0466794297e+000	-7.9149360149e-001
 1.6640459929e+000	 1.0637555798e+000	-9.2141483088e-001
 1.6530661346e+000	 1.0807392629e+000	-1.0591710362e+000
 1.7765680137e+000	 9.1858918611e-001	-3.0990447657e-001
 1.7671817913e+000	 9.3651936262e-001	-3.3712712911e-001
 1.7575999168e+000	 9.5438070623e-001	-3.8224799789e-001
 1.7478230222e+000	 9.7217008953e-001	-4.4423566812e-001
 1.7378518049e+000	 9.8988438938e-001	-5.2203935376e-001
 1.7276870275e+000	 1.0075204886e+000	-6.1459094944e-001
 1.7173295184e+000	 1.0250752778e+000	-7.2080712128e-001
 1.7067801714e+000	 1.0425456567e+000	-8.3959143146e-001
 1.6960399458e+000	 1.0599285364e+000	-9.6983649136e-001
 1.6851098662e+000	 1.0772208403e+000	-1.1104261380e+000
 1.6739910224e+000	 1.0944195068e+000	-1.2602376282e+000
 1.4647421446e+000	 9.5761706841e-001	-7.1428895966e-001
 1.4548489982e+000	 9.7258130376e-001	-7.8802158062e-001
 1.4447927608e+000	 9.8745829198e-001	-8.7752845038e-001
 1.4345745559e+000	 1.0022454009e+000	-9.8216327551e-001
 1.4241955631e+000	 1.0169400169e+000	-1.1012723236e+000
 1.4136570177e+000	 1.0315395467e+000	-1.2341957380e+000
 1.4029602102e+000	 1.0460414182e+000	-1.3802688522e+000
 1.3921064861e+000	 1.0604430826e+000	-1.5388235017e+000
 1.3810972449e+000	 1.0747420157e+000	-1.7091893287e+000
 1.3699339401e+000	 1.0889357189e+000	-1.8906950760e+000
 1.3586180783e+000	 1.1030217212e+000	-2.0826698688e+000
 1.4856670324e+000	 9.7129731225e-001	-6.4542009556e-001
 1.4756325553e+000	 9.8647532238e-001	-7.2402509777e-001
 1.4654326574e+000	 1.0015648390e+000	-8.1102503951e-001
 1.4550684781e+000	 1.0165631923e+000	-9.0577025886e-001
 1.4445412140e+000	 1.0314677315e+000	-1.0076109975e+000
 1.4338521179e+000	 1.0462758259e+000	-1.1158987864e+000
 1.4230024989e+000	 1.0609848670e+000	-1.2299878211e+000
 1.4119937216e+000	 1.0755922695e+000	-1.3492363240e+000
 1.4008272055e+000	 1.0900954730e+000	-1.4730078891e+000
 1.3895044249e+000	 1.1044919435e+000	-1.6006728054e+000
 1.3780269080e+000	 1.1187791744e+000	-1.7316093565e+000
 1.5065919202e+000	 9.8497755608e-001	-5.9883733854e-001
 1.4964161124e+000	 1.0003693410e+000	-6.8505647005e-001
 1.4860725539e+000	 1.0156713860e+000	-7.7244368719e-001
 1.4755624003e+000	 1.0308809838e+000	-8.6034404658e-001
 1.4648868649e+000	 1.0459954460e+000	-9.4810976847e-001
 1.4540472182e+000	 1.0610121051e+000	-1.0351016957e+000
 1.4430447877e+000	 1.0759283158e+000	-1.1206907324e+000
 1.4318809571e+000	 1.0907414564e+000	-1.2042592595e+000
 1.4205571661e+000	 1.1054489304e+000	-1.2852025213e+000
 1.4090749098e+000	 1.1200481680e+000	-1.3629299820e+000
 1.3974357376e+000	 1.1345366275e+000	-1.4368666455e+000
 1.5275168080e+000	 9.9865779992e-001	-5.7648721637e-001
 1.5171996695e+000	 1.0142633596e+000	-6.7300289204e-001
 1.5067124505e+000	 1.0297779331e+000	-7.6360385272e-001
 1.4960563226e+000	 1.0451987752e+000	-8.4762795406e-001
 1.4852325158e+000	 1.0605231605e+000	-9.2442739856e-001
 1.4742423185e+000	 1.0757483844e+000	-9.9337027012e-001
 1.4630870764e+000	 1.0908717647e+000	-1.0538420387e+000
 1.4517681926e+000	 1.1058906433e+000	-1.1052470313e+000
 1.4402871268e+000	 1.1208023878e+000	-1.1470098639e+000
 1.4286453946e+000	 1.1356043926e+000	-1.1785768326e+000
 1.4168445673e+000	 1.1502940807e+000	-1.1994172574e+000
 1.5484416958e+000	 1.0123380438e+000	-5.8030688310e-001
 1.5379832267e+000	 1.0281573783e+000	-6.8974676158e-001
 1.5273523471e+000	 1.0438844801e+000	-7.8632518880e-001
 1.5165502448e+000	 1.0595165667e+000	-8.6937089248e-001
 1.5055781667e+000	 1.0750508751e+000	-9.3823405876e-001
 1.4944374187e+000	 1.0904846636e+000	-9.9228794499e-001
 1.4831293651e+000	 1.1058152135e+000	-1.0309304528e+000
 1.4716554281e+000	 1.1210398302e+000	-1.0535856571e+000
 1.4600170874e+000	 1.1361558451e+000	-1.0597052865e+000
 1.4482158795e+000	 1.1511606171e+000	-1.0487701509e+000
 1.4362533970e+000	 1.1660515338e+000	-1.0202915130e+000
 1.5693665835e+000	 1.0260182876e+000	-6.1222474403e-001
 1.5587667838e+000	 1.0420513969e+000	-7.3716599946e-001
 1.5479922437e+000	 1.0579910271e+000	-8.4242752871e-001
 1.5370441670e+000	 1.0738343581e+000	-9.2732699580e-001
 1.5259238176e+000	 1.0895785896e+000	-9.9121056838e-001
 1.5146325190e+000	 1.1052209428e+000	-1.0334546112e+000
 1.5031716538e+000	 1.1207586623e+000	-1.0534673304e+000
 1.4915426636e+000	 1.1361890171e+000	-1.0506903627e+000
 1.4797470481e+000	 1.1515093025e+000	-1.0246003073e+000
 1.4677863643e+000	 1.1667168417e+000	-9.7471019302e-001
 1.4556622267e+000	 1.1818089870e+000	-9.0057087945e-001
 1.5902914713e+000	 1.0396985314e+000	-6.7416103122e-001
 1.5795503409e+000	 1.0559454155e+000	-8.1713434403e-001
 1.5686321403e+000	 1.0720975742e+000	-9.3373087437e-001
 1.5575380892e+000	 1.0881521496e+000	-1.0232552771e+000
 1.5462694685e+000	 1.1041063041e+000	-1.0850476945e+000
 1.5348276192e+000	 1.1199572221e+000	-1.1184855329e+000
 1.5232139425e+000	 1.1357021112e+000	-1.1229851804e+000
 1.5114298991e+000	 1.1513382040e+000	-1.0980036603e+000
 1.4994770087e+000	 1.1668627599e+000	-1.0430402151e+000
 1.4873568492e+000	 1.1822730662e+000	-9.5763781806e-001
 1.4750710564e+000	 1.1975664402e+000	-8.4138460513e-001
 1.6112163591e+000	 1.0533787753e+000	-7.6802833427e-001
 1.6003338980e+000	 1.0698394341e+000	-9.3152162278e-001
 1.5892720368e+000	 1.0862041212e+000	-1.0620553854e+000
 1.5780320114e+000	 1.1024699410e+000	-1.1589193118e+000
 1.5666151194e+000	 1.1186340186e+000	-1.2214455059e+000
 1.5550227194e+000	 1.1346935013e+000	-1.2490103487e+000
 1.5432562312e+000	 1.1506455600e+000	-1.2410362916e+000
 1.5313171347e+000	 1.1664873909e+000	-1.1969935767e+000
 1.5192069693e+000	 1.1822162172e+000	-1.1164018767e+000
 1.5069273341e+000	 1.1978292908e+000	-9.9883185167e-001
 1.4944798861e+000	 1.2133238933e+000	-8.4390661709e-001
 1.6321412469e+000	 1.0670590191e+000	-8.9573209021e-001
 1.6211174551e+000	 1.0837334528e+000	-1.0821940030e+000
 1.6099119334e+000	 1.1003106682e+000	-1.2292213690e+000
 1.5985259337e+000	 1.1167877324e+000	-1.3360869452e+000
 1.5869607703e+000	 1.1331617332e+000	-1.4021127772e+000
 1.5752178197e+000	 1.1494297806e+000	-1.4266721508e+000
 1.5632985200e+000	 1.1655890088e+000	-1.4091914645e+000
 1.5512043702e+000	 1.1816365778e+000	-1.3491520180e+000
 1.5389369300e+000	 1.1975696746e+000	-1.2460917118e+000
 1.5264978189e+000	 1.2133855153e+000	-1.0996066522e+000
 1.5138887158e+000	 1.2290813465e+000	-9.0935265696e-001
 1.6530661346e+000	 1.0807392629e+000	-1.0591710362e+000
 1.6419010122e+000	 1.0976274714e+000	-1.2710142235e+000
 1.6305518300e+000	 1.1144172153e+000	-1.4370492707e+000
 1.6190198559e+000	 1.1311055239e+000	-1.5565300222e+000
 1.6073064212e+000	 1.1476894477e+000	-1.6287664373e+000
 1.5954129199e+000	 1.1641660598e+000	-1.6531266333e+000
 1.5833408087e+000	 1.1805324577e+000	-1.6290388396e+000
 1.5710916057e+000	 1.1967857647e+000	-1.5559932578e+000
 1.5586668906e+000	 1.2129231320e+000	-1.4335438235e+000
 1.5460683038e+000	 1.2289417399e+000	-1.2613098618e+000
 1.5332975455e+000	 1.2448387997e+000	-1.0389776345e+000
 1.6739910224e+000	 1.0944195068e+000	-1.2602376282e+000
 1.6626845693e+000	 1.1115214900e+000	-1.4998418087e+000
 1.6511917266e+000	 1.1285237623e+000	-1.6873596656e+000
 1.6395137781e+000	 1.1454233153e+000	-1.8220241373e+000
 1.6276520721e+000	 1.1622171622e+000	-1.9031310600e+000
 1.6156080202e+000	 1.1789023391e+000	-1.9300413043e+000
 1.6033830974e+000	 1.1954759065e+000	-1.9021828138e+000
 1.5909788412e+000	 1.2119349516e+000	-1.8190525398e+000
 1.5783968513e+000	 1.2282765894e+000	-1.6802182675e+000
 1.5656387886e+000	 1.2444979645e+000	-1.4853203263e+000
 1.5527063751e+000	 1.2605962528e+000	-1.4445843045e+000
 1.3586180783e+000	 1.1030217212e+000	-2.0826698688e+000
 1.3471512186e+000	 1.1169975803e+000	-2.3229977357e+000
 1.3355349719e+000	 1.1308608840e+000	-2.4921945401e+000
 1.3237710003e+000	 1.1446092516e+000	-2.5907201832e+000
 1.3118610162e+000	 1.1582403353e+000	-2.6191217216e+000
 1.2998067814e+000	 1.1717518215e+000	-2.5780334744e+000
 1.2876101065e+000	 1.1851414320e+000	-2.4681769859e+000
 1.2752728496e+000	 1.1984069255e+000	-2.2903608423e+000
 1.2627969161e+000	 1.2115460986e+000	-2.0454803420e+000
 1.2501842566e+000	 1.2245567870e+000	-1.7345170184e+000
 1.2374368671e+000	 1.2374368671e+000	-2.0324256788e+000
 1.3780269080e+000	 1.1187791744e+000	-1.7316093565e+000
 1.3663962360e+000	 1.1329546886e+000	-1.9566583767e+000
 1.3546140429e+000	 1.1470160395e+000	-2.1180384453e+000
 1.3426820146e+000	 1.1609608123e+000	-2.2160505941e+000
 1.3306018879e+000	 1.1747866258e+000	-2.2510768230e+000
 1.3183754497e+000	 1.1884911332e+000	-2.2235803890e+000
 1.3060045366e+000	 1.2020720239e+000	-2.1341059567e+000
 1.2934910332e+000	 1.2155270244e+000	-1.9832796112e+000
 1.2808368720e+000	 1.2288539000e+000	-1.7718087300e+000
 1.2680440317e+000	 1.2420504554e+000	-1.5004817145e+000
 1.2551145366e+000	 1.2551145366e+000	-1.2485341756e+000
 1.3974357376e+000	 1.1345366275e+000	-1.4368666455e+000
 1.3856412534e+000	 1.1489117969e+000	-1.6401482995e+000
 1.3736931140e+000	 1.1631711949e+000	-1.7869427284e+000
 1.3615930289e+000	 1.1773123730e+000	-1.8773942394e+000
 1.3493427595e+000	 1.1913329163e+000	-1.9117221357e+000
 1.3369441180e+000	 1.2052304449e+000	-1.8902211849e+000
 1.3243989666e+000	 1.2190026158e+000	-1.8132619580e+000
 1.3117092168e+000	 1.2326471234e+000	-1.6812910358e+000
 1.2988768279e+000	 1.2461617014e+000	-1.4948310811e+000
 1.2859038068e+000	 1.2595441238e+000	-1.4103741061e+000
 1.2727922062e+000	 1.2727922062e+000	-1.3408077378e+000
 1.4168445673e+000	 1.1502940807e+000	-1.1994172574e+000
 1.4048862708e+000	 1.1648689052e+000	-1.3747381217e+000
 1.3927721850e+000	 1.1793263504e+000	-1.5004817562e+000
 1.3805040432e+000	 1.1936639338e+000	-1.5766377439e+000
 1.3680836312e+000	 1.2078792068e+000	-1.6032649004e+000
 1.3555127863e+000	 1.2219697567e+000	-1.5804919224e+000
 1.3427933967e+000	 1.2359332077e+000	-1.5085179130e+000
 1.3299274003e+000	 1.2497672223e+000	-1.3876127800e+000
 1.3169167839e+000	 1.2634695028e+000	-1.4500178817e+000
 1.3037635819e+000	 1.2770377922e+000	-1.4750553387e+000
 1.2904698757e+000	 1.2904698757e+000	-1.4599235923e+000
 1.4362533970e+000	 1.1660515338e+000	-1.0202915130e+000
 1.4241312882e+000	 1.1808260135e+000	-1.1617382078e+000
 1.4118512560e+000	 1.1954815059e+000	-1.2602540679e+000
 1.3994150575e+000	 1.2100154945e+000	-1.3156758150e+000
 1.3868245028e+000	 1.2244254973e+000	-1.3279038438e+000
 1.3740814546e+000	 1.2387090684e+000	-1.2969030504e+000
 1.3611878268e+000	 1.2528637995e+000	-1.2732767831e+000
 1.3481455839e+000	 1.2668873212e+000	-1.4089336069e+000
 1.3349567398e+000	 1.2807773042e+000	-1.5087256321e+000
 1.3216233570e+000	 1.2945314606e+000	-1.5736286596e+000
 1.3081475452e+000	 1.3081475452e+000	-1.6046383532e+000
 1.4556622267e+000	 1.1818089870e+000	-9.0057087945e-001
 1.4433763056e+000	 1.1967831217e+000	-1.0024960189e+000
 1.4309303270e+000	 1.2116366614e+000	-1.0678807637e+000
 1.4183260718e+000	 1.2263670552e+000	-1.0964107044e+000
 1.4055653745e+000	 1.2409717878e+000	-1.0878297458e+000
 1.3926501229e+000	 1.2554483801e+000	-1.1416452837e+000
 1.3795822569e+000	 1.2697943914e+000	-1.3269711553e+000
 1.3663637675e+000	 1.2840074202e+000	-1.4819845881e+000
 1.3529966958e+000	 1.2980851056e+000	-1.6075234905e+000
 1.3394831321e+000	 1.3120251289e+000	-1.7044399609e+000
 1.3258252148e+000	 1.3258252148e+000	-1.7735982027e+000
 1.4750710564e+000	 1.1975664402e+000	-8.4138460513e-001
 1.4626213230e+000	 1.2127402300e+000	-8.9839367272e-001
 1.4500093981e+000	 1.2277918169e+000	-9.2500401977e-001
 1.4372370861e+000	 1.2427186160e+000	-9.2075171137e-001
 1.4243062462e+000	 1.2575180783e+000	-1.0267562909e+000
 1.4112187912e+000	 1.2721876919e+000	-1.2424544257e+000
 1.3979766870e+000	 1.2867249833e+000	-1.4334799582e+000
 1.3845819510e+000	 1.3011275191e+000	-1.6005516688e+000
 1.3710366517e+000	 1.3153929070e+000	-1.7443967900e+000
 1.3573429072e+000	 1.3295187973e+000	-1.8657489499e+000
 1.3435028843e+000	 1.3435028843e+000	-1.9653461566e+000
 1.4944798861e+000	 1.2133238933e+000	-8.4390661709e-001
 1.4818663404e+000	 1.2286973383e+000	-8.5084569286e-001
 1.4690884691e+000	 1.2439469724e+000	-8.3328572066e-001
 1.4561481004e+000	 1.2590701767e+000	-9.6512779804e-001
 1.4430471178e+000	 1.2740643688e+000	-1.1922629114e+000
 1.4297874596e+000	 1.2889270036e+000	-1.4004247984e+000
 1.4163711171e+000	 1.3036555752e+000	-1.5902317850e+000
 1.4028001346e+000	 1.3182476180e+000	-1.7623048920e+000
 1.3890766077e+000	 1.3327007084e+000	-1.9172657803e+000
 1.3752026823e+000	 1.3470124657e+000	-2.0557347448e+000
 1.3611805538e+000	 1.3611805538e+000	-2.1783287636e+000
 1.5138887158e+000	 1.2290813465e+000	-9.0935265696e-001
 1.5011113578e+000	 1.2446544466e+000	-8.6129693152e-001
 1.4881675401e+000	 1.2601021278e+000	-9.9189377121e-001
 1.4750591147e+000	 1.2754217375e+000	-1.2119034865e+000
 1.4617879895e+000	 1.2906106593e+000	-1.4186710435e+000
 1.4483561279e+000	 1.3056663153e+000	-1.6127328468e+000
 1.4347655472e+000	 1.3205861671e+000	-1.7946222635e+000
 1.4210183182e+000	 1.3353677170e+000	-1.9648675441e+000
 1.4071165636e+000	 1.3500085098e+000	-2.1239897997e+000
 1.3930624574e+000	 1.3645061341e+000	-2.2725010417e+000
 1.3788582233e+000	 1.3788582233e+000	-2.4109022888e+000
 1.5332975455e+000	 1.2448387997e+000	-1.0389776345e+000
 1.5203563752e+000	 1.2606115549e+000	-1.1408654004e+000
 1.5072466111e+000	 1.2762572833e+000	-1.3355732322e+000
 1.4939701289e+000	 1.2917732982e+000	-1.5227739622e+000
 1.4805288611e+000	 1.3071569498e+000	-1.7029404138e+000
 1.4669247962e+000	 1.3224056271e+000	-1.8765367096e+000
 1.4531599773e+000	 1.3375167590e+000	-2.0440161433e+000
 1.4392365017e+000	 1.3524878159e+000	-2.2058191141e+000
 1.4251565195e+000	 1.3673163112e+000	-2.3623711302e+000
 1.4109222325e+000	 1.3819998025e+000	-2.5140808873e+000
 1.3965358929e+000	 1.3965358929e+000	-2.6613384278e+000
 1.5527063751e+000	 1.2605962528e+000	-1.4445843045e+000
 1.5396013926e+000	 1.2765686632e+000	-1.5962140605e+000
 1.5263256822e+000	 1.2924124388e+000	-1.7460482526e+000
 1.5128811432e+000	 1.3081248589e+000	-1.8945142181e+000
 1.4992697328e+000	 1.3237032403e+000	-2.0420250437e+000
 1.4854934645e+000	 1.3391449388e+000	-2.1889773635e+000
 1.4715544074e+000	 1.3544473509e+000	-2.3357492250e+000
 1.4574546853e+000	 1.3696079148e+000	-2.4826980312e+000
 1.4431964755e+000	 1.3846241126e+000	-2.6301585637e+000
 1.4287820076e+000	 1.3994934709e+000	-2.7784410948e+000
 1.4142135624e+000	 1.4142135624e+000	-2.9278295928e+000
 1.2374368671e+000	 1.2374368671e+000	-2.0324256788e+000
 1.2245567870e+000	 1.2501842566e+000	-2.0507319335e+000
 1.2115460986e+000	 1.2627969161e+000	-2.2309616017e+000
 1.1984069255e+000	 1.2752728496e+000	-2.3974535839e+000
 1.1851414320e+000	 1.2876101065e+000	-2.5494279215e+000
 1.1717518215e+000	 1.2998067814e+000	-2.6861591002e+000
 1.1582403353e+000	 1.3118610162e+000	-2.8069776439e+000
 1.1446092516e+000	 1.3237710003e+000	-2.9112715792e+000
 1.1308608840e+000	 1.3355349719e+000	-2.9984877682e+000
 1.1169975803e+000	 1.3471512186e+000	-3.0681331064e+000
 1.1030217212e+000	 1.3586180783e+000	-3.1197755817e+000
 1.2551145366e+000	 1.2551145366e+000	-1.2485341756e+000
 1.2420504554e+000	 1.2680440317e+000	-1.2282497314e+000
 1.2288539000e+000	 1.2808368720e+000	-1.4826758846e+000
 1.2155270244e+000	 1.2934910332e+000	-1.7254662972e+000
 1.2020720239e+000	 1.3060045366e+000	-1.9557923907e+000
 1.1884911332e+000	 1.3183754497e+000	-2.1728798902e+000
 1.1747866258e+000	 1.3306018879e+000	-2.3760105027e+000
 1.1609608123e+000	 1.3426820146e+000	-2.5645234640e+000
 1.1470160395e+000	 1.3546140429e+000	-2.7378169518e+000
 1.1329546886e+000	 1.3663962360e+000	-2.8953493600e+000
 1.1187791744e+000	 1.3780269080e+000	-3.0366404331e+000
 1.2727922062e+000	 1.2727922062e+000	-1.3408077378e+000
 1.2595441238e+000	 1.2859038068e+000	-9.2366892357e-001
 1.2461617014e+000	 1.2988768279e+000	-6.9092709099e-001
 1.2326471234e+000	 1.3117092168e+000	-1.0119930027e+000
 1.2190026158e+000	 1.3243989666e+000	-1.3225327231e+000
 1.2052304449e+000	 1.3369441180e+000	-1.6217207300e+000
 1.1913329163e+000	 1.3493427595e+000	-1.9087875580e+000
 1.1773123730e+000	 1.3615930289e+000	-2.1830214322e+000
 1.1631711949e+000	 1.3736931140e+000	-2.4437697631e+000
 1.1489117969e+000	 1.3856412534e+000	-2.6904405013e+000
 1.1345366275e+000	 1.3974357376e+000	-2.9225033488e+000
 1.2904698757e+000	 1.2904698757e+000	-1.4599235923e+000
 1.2770377922e+000	 1.3037635819e+000	-1.0998497627e+000
 1.2634695028e+000	 1.3169167839e+000	-6.9519914546e-001
 1.2497672223e+000	 1.3299274003e+000	-2.6194734095e-001
 1.2359332077e+000	 1.3427933967e+000	-6.5454905599e-001
 1.2219697567e+000	 1.3555127863e+000	-1.0375693872e+000
 1.2078792068e+000	 1.3680836312e+000	-1.4101853248e+000
 1.1936639338e+000	 1.3805040432e+000	-1.7716318451e+000
 1.1793263504e+000	 1.3927721850e+000	-2.1212034917e+000
 1.1648689052e+000	 1.4048862708e+000	-2.4582558130e+000
 1.1502940807e+000	 1.4168445673e+000	-2.7822066528e+000
 1.3081475452e+000	 1.3081475452e+000	-1.6046383532e+000
 1.2945314606e+000	 1.3216233570e+000	-1.3024062171e+000
 1.2807773042e+000	 1.3349567398e+000	-9.5726877464e-001
 1.2668873212e+000	 1.3481455839e+000	-5.7062133678e-001
 1.2528637995e+000	 1.3611878268e+000	-1.4387950224e-001
 1.2387090684e+000	 1.3740814546e+000	-4.2520545434e-001
 1.2244254973e+000	 1.3868245028e+000	-8.8497372470e-001
 1.2100154945e+000	 1.3994150575e+000	-1.3351159020e+000
 1.1954815059e+000	 1.4118512560e+000	-1.7748715455e+000
 1.1808260135e+000	 1.4241312882e+000	-2.2035418250e+000
 1.1660515338e+000	 1.4362533970e+000	-2.6204908929e+000
 1.3258252148e+000	 1.3258252148e+000	-1.7735982027e+000
 1.3120251289e+000	 1.3394831321e+000	-1.5299253920e+000
 1.2980851056e+000	 1.3529966958e+000	-1.2450051783e+000
 1.2840074202e+000	 1.3663637675e+000	-9.2029396437e-001
 1.2697943914e+000	 1.3795822569e+000	-5.5726500067e-001
 1.2554483801e+000	 1.3926501229e+000	-1.5740592149e-001
 1.2409717878e+000	 1.4055653745e+000	-3.3782319203e-001
 1.2263670552e+000	 1.4183260718e+000	-8.7813665100e-001
 1.2116366614e+000	 1.4309303270e+000	-1.4094303763e+000
 1.1967831217e+000	 1.4433763056e+000	-1.9309491645e+000
 1.1818089870e+000	 1.4556622267e+000	-2.4420016264e+000
 1.3435028843e+000	 1.3435028843e+000	-1.9653461566e+000
 1.3295187973e+000	 1.3573429072e+000	-1.7808932525e+000
 1.3153929070e+000	 1.3710366517e+000	-1.5568413768e+000
 1.3011275191e+000	 1.3845819510e+000	-1.2947091745e+000
 1.2867249833e+000	 1.3979766870e+000	-9.9602864020e-001
 1.2721876919e+000	 1.4112187912e+000	-6.6234255351e-001
 1.2575180783e+000	 1.4243062462e+000	-2.9520196600e-001
 1.2427186160e+000	 1.4372370861e+000	-4.0526544677e-001
 1.2277918169e+000	 1.4500093981e+000	-1.0294458585e+000
 1.2127402300e+000	 1.4626213230e+000	-1.6450388656e+000
 1.1975664402e+000	 1.4750710564e+000	-2.2512956686e+000
 1.3611805538e+000	 1.3611805538e+000	-2.1783287636e+000
 1.3470124657e+000	 1.3752026823e+000	-2.0537011909e+000
 1.3327007084e+000	 1.3890766077e+000	-1.8911175930e+000
 1.3182476180e+000	 1.4028001346e+000	-1.6921600502e+000
 1.3036555752e+000	 1.4163711171e+000	-1.4584204339e+000
 1.2889270036e+000	 1.4297874596e+000	-1.1914977377e+000
 1.2740643688e+000	 1.4430471178e+000	-8.9299546910e-001
 1.2590701767e+000	 1.4561481004e+000	-5.6451910783e-001
 1.2439469724e+000	 1.4690884691e+000	-6.3939917097e-001
 1.2286973383e+000	 1.4818663404e+000	-1.3502881869e+000
 1.2133238933e+000	 1.4944798861e+000	-2.0528468563e+000
 1.3788582233e+000	 1.3788582233e+000	-2.4109022888e+000
 1.3645061341e+000	 1.3930624574e+000	-2.3466520894e+000
 1.3500085098e+000	 1.4071165636e+000	-2.2460872007e+000
 1.3353677170e+000	 1.4210183182e+000	-2.1108543747e+000
 1.3205861671e+000	 1.4347655472e+000	-1.9426065304e+000
 1.3056663153e+000	 1.4483561279e+000	-1.7429999800e+000
 1.2906106593e+000	 1.4617879895e+000	-1.5136917228e+000
 1.2754217375e+000	 1.4750591147e+000	-1.2563368140e+000
 1.2601021278e+000	 1.4881675401e+000	-9.7258581259e-001
 1.2446544466e+000	 1.5011113578e+000	-1.0510959818e+000
 1.2290813465e+000	 1.5138887158e+000	-1.8510513658e+000
 1.3965358929e+000	 1.3965358929e+000	-2.6613384278e+000
 1.3819998025e+000	 1.4109222325e+000	-2.6579659216e+000
 1.3673163112e+000	 1.4251565195e+000	-2.6199222217e+000
 1.3524878159e+000	 1.4392365017e+000	-2.5489200294e+000
 1.3375167590e+000	 1.4531599773e+000	-2.4466745213e+000
 1.3224056271e+000	 1.4669247962e+000	-2.3149004677e+000
 1.3071569498e+000	 1.4805288611e+000	-2.1553094269e+000
 1.2917732982e+000	 1.4939701289e+000	-1.9696070226e+000
 1.2762572833e+000	 1.5072466111e+000	-1.7594903095e+000
 1.2606115549e+000	 1.5203563752e+000	-1.5266452325e+000
 1.2448387997e+000	 1.5332975455e+000	-1.6502326292e+000
 1.4142135624e+000	 1.4142135624e+000	-2.9278295928e+000
 1.3994934709e+000	 1.4287820076e+000	-2.9857849345e+000
 1.3846241126e+000	 1.4431964755e+000	-3.0107184100e+000
 1.3696079148e+000	 1.4574546853e+000	-3.0044099884e+000
 1.3544473509e+000	 1.4715544074e+000	-2.9686383516e+000
 1.3391449388e+000	 1.4854934645e+000	-2.9051779019e+000
 1.3237032403e+000	 1.4992697328e+000	-2.8157958550e+000
 1.3081248589e+000	 1.5128811432e+000	-2.7022494242e+000
 1.2924124388e+000	 1.5263256822e+000	-2.5662831012e+000
 1.2765686632e+000	 1.5396013926e+000	-2.4096260407e+000
 1.2605962528e+000	 1.5527063751e+000	-2.2339895514e+000
 1.1030217212e+000	 1.3586180783e+000	-3.1197755817e+000
 1.0889357189e+000	 1.3699339401e+000	-2.8008904257e+000
 1.0747420157e+000	 1.3810972449e+000	-2.5315574608e+000
 1.0604430826e+000	 1.3921064861e+000	-2.3100477802e+000
 1.0460414182e+000	 1.4029602102e+000	-2.1346342929e+000
 1.0315395467e+000	 1.4136570177e+000	-2.0035940172e+000
 1.0169400169e+000	 1.4241955631e+000	-1.9152103010e+000
 1.0022454009e+000	 1.4345745559e+000	-1.8677749629e+000
 9.8745829198e-001	 1.4447927608e+000	-1.8595903522e+000
 9.7258130376e-001	 1.4548489982e+000	-1.8889713251e+000
 9.5761706841e-001	 1.4647421446e+000	-1.9542471324e+000
 1.1187791744e+000	 1.3780269080e+000	-3.0366404331e+000
 1.1044919435e+000	 1.3895044249e+000	-2.7473016549e+000
 1.0900954730e+000	 1.4008272055e+000	-2.4985412544e+000
 1.0755922695e+000	 1.4119937216e+000	-2.2887548572e+000
 1.0609848670e+000	 1.4230024989e+000	-2.1163492990e+000
 1.0462758259e+000	 1.4338521179e+000	-1.9797447542e+000
 1.0314677315e+000	 1.4445412140e+000	-1.8773767769e+000
 1.0165631923e+000	 1.4550684781e+000	-1.8076982497e+000
 1.0015648390e+000	 1.4654326574e+000	-1.7691812384e+000
 9.8647532238e-001	 1.4756325553e+000	-1.7603187491e+000
 9.7129731225e-001	 1.4856670324e+000	-1.7796263871e+000
 1.1345366275e+000	 1.3974357376e+000	-2.9225033488e+000
 1.1200481680e+000	 1.4090749098e+000	-2.6703453305e+000
 1.1054489304e+000	 1.4205571661e+000	-2.4499543870e+000
 1.0907414564e+000	 1.4318809571e+000	-2.2598454552e+000
 1.0759283158e+000	 1.4430447877e+000	-2.0985540525e+000
 1.0610121051e+000	 1.4540472182e+000	-1.9646382471e+000
 1.0459954460e+000	 1.4648868649e+000	-1.8566805240e+000
 1.0308809838e+000	 1.4755624003e+000	-1.7732895474e+000
 1.0156713860e+000	 1.4860725539e+000	-1.7131018147e+000
 1.0003693410e+000	 1.4964161124e+000	-1.6747832006e+000
 9.8497755608e-001	 1.5065919202e+000	-1.6570303904e+000
 1.1502940807e+000	 1.4168445673e+000	-2.7822066528e+000
 1.1356043926e+000	 1.4286453946e+000	-2.5745849335e+000
 1.1208023878e+000	 1.4402871268e+000	-2.3900704398e+000
 1.1058906433e+000	 1.4517681926e+000	-2.2272923406e+000
 1.0908717647e+000	 1.4630870764e+000	-2.0849097409e+000
 1.0757483844e+000	 1.4742423185e+000	-1.9616134967e+000
 1.0605231605e+000	 1.4852325158e+000	-1.8561279137e+000
 1.0451987752e+000	 1.4960563226e+000	-1.7672123262e+000
 1.0297779331e+000	 1.5067124505e+000	-1.6936625569e+000
 1.0142633596e+000	 1.5171996695e+000	-1.6343122518e+000
 9.9865779992e-001	 1.5275168080e+000	-1.5880340935e+000
 1.1660515338e+000	 1.4362533970e+000	-2.6204908929e+000
 1.1511606171e+000	 1.4482158795e+000	-2.4644977460e+000
 1.1361558451e+000	 1.4600170874e+000	-2.3230928718e+000
 1.1210398302e+000	 1.4716554281e+000	-2.1950147266e+000
 1.1058152135e+000	 1.4831293651e+000	-2.0790410493e+000
 1.0904846636e+000	 1.4944374187e+000	-1.9739905268e+000
 1.0750508751e+000	 1.5055781667e+000	-1.8787243292e+000
 1.0595165667e+000	 1.5165502448e+000	-1.7921475118e+000
 1.0438844801e+000	 1.5273523471e+000	-1.7132102837e+000
 1.0281573783e+000	 1.5379832267e+000	-1.6409091400e+000
 1.0123380438e+000	 1.5484416958e+000	-1.5742878579e+000
 1.1818089870e+000	 1.4556622267e+000	-2.4420016264e+000
 1.1667168417e+000	 1.4677863643e+000	-2.3444805974e+000
 1.1515093025e+000	 1.4797470481e+000	-2.2531596948e+000
 1.1361890171e+000	 1.4915426636e+000	-2.1668818433e+000
 1.1207586623e+000	 1.5031716538e+000	-2.0845385948e+000
 1.1052209428e+000	 1.5146325190e+000	-2.0050716494e+000
 1.0895785896e+000	 1.5259238176e+000	-1.9274742319e+000
 1.0738343581e+000	 1.5370441670e+000	-1.8507923215e+000
 1.0579910271e+000	 1.5479922437e+000	-1.7741257341e+000
 1.0420513969e+000	 1.5587667838e+000	-1.6966290560e+000
 1.0260182876e+000	 1.5693665835e+000	-1.6175124278e+000
 1.1975664402e+000	 1.4750710564e+000	-2.2512956686e+000
 1.1822730662e+000	 1.4873568492e+000	-2.2188551577e+000
 1.1668627599e+000	 1.4994770087e+000	-2.1843477791e+000
 1.1513382040e+000	 1.5114298991e+000	-2.1467162259e+000
 1.1357021112e+000	 1.5232139425e+000	-2.1049611672e+000
 1.1199572221e+000	 1.5348276192e+000	-2.0581426299e+000
 1.1041063041e+000	 1.5462694685e+000	-2.0053812216e+000
 1.0881521496e+000	 1.5575380892e+000	-1.9458591924e+000
 1.0720975742e+000	 1.5686321403e+000	-1.8788213356e+000
 1.0559454155e+000	 1.5795503409e+000	-1.8035757269e+000
 1.0396985314e+000	 1.5902914713e+000	-1.7194943004e+000
 1.2133238933e+000	 1.4944798861e+000	-2.0528468563e+000
 1.1978292908e+000	 1.5069273341e+000	-2.0918728175e+000
 1.1822162172e+000	 1.5192069693e+000	-2.1206768240e+000
 1.1664873909e+000	 1.5313171347e+000	-2.1382967474e+000
 1.1506455600e+000	 1.5432562312e+000	-2.1438377960e+000
 1.1346935013e+000	 1.5550227194e+000	-2.1364737617e+000
 1.1186340186e+000	 1.5666151194e+000	-2.1154480927e+000
 1.1024699410e+000	 1.5780320114e+000	-2.0800747933e+000
 1.0862041212e+000	 1.5892720368e+000	-2.0297391467e+000
 1.0698394341e+000	 1.6003338980e+000	-1.9638982636e+000
 1.0533787753e+000	 1.6112163591e+000	-1.8820814555e+000
 1.2290813465e+000	 1.5138887158e+000	-1.8510513658e+000
 1.2133855153e+000	 1.5264978189e+000	-1.9677191938e+000
 1.1975696746e+000	 1.5389369300e+000	-2.0661130220e+000
 1.1816365778e+000	 1.5512043702e+000	-2.1453614166e+000
 1.1655890088e+000	 1.5632985200e+000	-2.2046696582e+000
 1.1494297806e+000	 1.5752178197e+000	-2.2433208577e+000
 1.1331617332e+000	 1.5869607703e+000	-2.2606768858e+000
 1.1167877324e+000	 1.5985259337e+000	-2.2561791123e+000
 1.1003106682e+000	 1.6099119334e+000	-2.2293489572e+000
 1.0837334528e+000	 1.6211174551e+000	-2.1797882522e+000
 1.0670590191e+000	 1.6321412469e+000	-2.1071794147e+000
 1.2448387997e+000	 1.5332975455e+000	-1.6502326292e+000
 1.2289417399e+000	 1.5460683038e+000	-1.8505182922e+000
 1.2129231320e+000	 1.5586668906e+000	-2.0245724458e+000
 1.1967857647e+000	 1.5710916057e+000	-2.1716099654e+000
 1.1805324577e+000	 1.5833408087e+000	-2.2909318407e+000
 1.1641660598e+000	 1.5954129199e+000	-2.3819261674e+000
 1.1476894477e+000	 1.6073064212e+000	-2.4440689353e+000
 1.1311055239e+000	 1.6190198559e+000	-2.4769246137e+000
 1.1144172153e+000	 1.6305518300e+000	-2.4801465334e+000
 1.0976274714e+000	 1.6419010122e+000	-2.4534770653e+000
 1.0807392629e+000	 1.6530661346e+000	-2.3967475992e+000
 1.2605962528e+000	 1.5527063751e+000	-2.2339895514e+000
 1.2444979645e+000	 1.5656387886e+000	-1.7443363580e+000
 1.2282765894e+000	 1.5783968513e+000	-1.9999241809e+000
 1.2119349516e+000	 1.5909788412e+000	-2.2207062403e+000
 1.1954759065e+000	 1.6033830974e+000	-2.4060749714e+000
 1.1789023391e+000	 1.6156080202e+000	-2.5555192237e+000
 1.1622171622e+000	 1.6276520721e+000	-2.6686249136e+000
 1.1454233153e+000	 1.6395137781e+000	-2.7450754585e+000
 1.1285237623e+000	 1.6511917266e+000	-2.7846519943e+000
 1.1115214900e+000	 1.6626845693e+000	-2.7872333756e+000
 1.0944195068e+000	 1.6739910224e+000	-2.7527959615e+000
 9.5761706841e-001	 1.4647421446e+000	-1.9542471324e+000
 9.4256823526e-001	 1.4744711329e+000	-1.9804987396e+000
 9.2743746930e-001	 1.4840349526e+000	-2.0029492074e+000
 9.1222744964e-001	 1.4934326500e+000	-2.0213010788e+000
 8.9694086807e-001	 1.5026633286e+000	-2.0353019041e+000
 8.8158042754e-001	 1.5117261490e+000	-2.0447440730e+000
 8.6614884069e-001	 1.5206203292e+000	-2.0494645351e+000
 8.5064882832e-001	 1.5293451444e+000	-2.0493444117e+000
 8.3508311794e-001	 1.5378999272e+000	-2.0443085017e+000
 8.1945444228e-001	 1.5462840674e+000	-2.0343246839e+000
 8.0376553783e-001	 1.5544970119e+000	-2.0194032198e+000
 9.7129731225e-001	 1.4856670324e+000	-1.7796263871e+000
 9.5603349577e-001	 1.4955350063e+000	-1.8029338003e+000
 9.4068657601e-001	 1.5052354519e+000	-1.8264383114e+000
 9.2525927035e-001	 1.5147674021e+000	-1.8496784609e+000
 9.0975430904e-001	 1.5241299476e+000	-1.8722372269e+000
 8.9417443366e-001	 1.5333222369e+000	-1.8937420302e+000
 8.7852239556e-001	 1.5423434768e+000	-1.9138646246e+000
 8.6280095444e-001	 1.5511929322e+000	-1.9323208756e+000
 8.4701287677e-001	 1.5598699262e+000	-1.9488704276e+000
 8.3116093432e-001	 1.5683738397e+000	-1.9633162657e+000
 8.1524790266e-001	 1.5767041121e+000	-1.9755041718e+000
 9.8497755608e-001	 1.5065919202e+000	-1.6570303904e+000
 9.6949875628e-001	 1.5165988796e+000	-1.6716713627e+000
 9.5393568271e-001	 1.5264359512e+000	-1.6903149112e+000
 9.3829109106e-001	 1.5361021543e+000	-1.7123384848e+000
 9.2256775002e-001	 1.5455965666e+000	-1.7371635683e+000
 9.0676843977e-001	 1.5549183247e+000	-1.7642558567e+000
 8.9089595043e-001	 1.5640666244e+000	-1.7931253116e+000
 8.7495308057e-001	 1.5730407200e+000	-1.8233261012e+000
 8.5894263560e-001	 1.5818399251e+000	-1.8544564255e+000
 8.4286742635e-001	 1.5904636121e+000	-1.8861582313e+000
 8.2673026749e-001	 1.5989112123e+000	-1.9181168174e+000
 9.9865779992e-001	 1.5275168080e+000	-1.5880340935e+000
 9.8296401678e-001	 1.5376627529e+000	-1.5885101987e+000
 9.6718478942e-001	 1.5476364506e+000	-1.5966047194e+000
 9.5132291177e-001	 1.5574369064e+000	-1.6115367980e+000
 9.3538119099e-001	 1.5670631856e+000	-1.6325693794e+000
 9.1936244588e-001	 1.5765144126e+000	-1.6590095504e+000
 9.0326950530e-001	 1.5857897719e+000	-1.6902087579e+000
 8.8710520669e-001	 1.5948885078e+000	-1.7255629054e+000
 8.7087239443e-001	 1.6038099241e+000	-1.7645123327e+000
 8.5457391839e-001	 1.6125533845e+000	-1.8065416782e+000
 8.3821263232e-001	 1.6211183125e+000	-1.8511796289e+000
 1.0123380438e+000	 1.5484416958e+000	-1.5742878579e+000
 9.9642927729e-001	 1.5587266262e+000	-1.5553118944e+000
 9.8043389613e-001	 1.5688369499e+000	-1.5473833961e+000
 9.6435473249e-001	 1.5787716586e+000	-1.5495658661e+000
 9.4819463197e-001	 1.5885298045e+000	-1.5609665442e+000
 9.3195645199e-001	 1.5981105004e+000	-1.5807369080e+000
 9.1564306017e-001	 1.6075129195e+000	-1.6080730480e+000
 8.9925733281e-001	 1.6167362956e+000	-1.6422159183e+000
 8.8280215326e-001	 1.6257799230e+000	-1.6824514635e+000
 8.6628041042e-001	 1.6346431569e+000	-1.7281106260e+000
 8.4969499715e-001	 1.6433254126e+000	-1.7785692351e+000
 1.0260182876e+000	 1.5693665835e+000	-1.6175124278e+000
 1.0098945378e+000	 1.5797904996e+000	-1.5739966624e+000
 9.9368300283e-001	 1.5900374492e+000	-1.5447732196e+000
 9.7738655320e-001	 1.6001064107e+000	-1.5287525187e+000
 9.6100807294e-001	 1.6099964235e+000	-1.5248888174e+000
 9.4455045810e-001	 1.6197065883e+000	-1.5321808710e+000
 9.2801661504e-001	 1.6292360671e+000	-1.5496724612e+000
 9.1140945893e-001	 1.6385840833e+000	-1.5764527952e+000
 8.9473191209e-001	 1.6477499220e+000	-1.6116567772e+000
 8.7798690246e-001	 1.6567329293e+000	-1.6544651553e+000
 8.6117736198e-001	 1.6655325128e+000	-1.7041045442e+000
 1.0396985314e+000	 1.5902914713e+000	-1.7194943004e+000
 1.0233597983e+000	 1.6008543729e+000	-1.6465394848e+000
 1.0069321095e+000	 1.6112379485e+000	-1.5909400189e+000
 9.9041837391e-001	 1.6214411629e+000	-1.5514556881e+000
 9.7382151392e-001	 1.6314630425e+000	-1.5268903852e+000
 9.5714446421e-001	 1.6413026761e+000	-1.5160929248e+000
 9.4039016991e-001	 1.6509592146e+000	-1.5179577215e+000
 9.2356158505e-001	 1.6604318711e+000	-1.5314253338e+000
 9.0666167092e-001	 1.6697199210e+000	-1.5554828757e+000
 8.8969339449e-001	 1.6788227017e+000	-1.5891642979e+000
 8.7265972680e-001	 1.6877396130e+000	-1.6315505407e+000
 1.0533787753e+000	 1.6112163591e+000	-1.8820814555e+000
 1.0368250588e+000	 1.6219182462e+000	-1.7749665566e+000
 1.0201812162e+000	 1.6324384478e+000	-1.6880903462e+000
 1.0034501946e+000	 1.6427759150e+000	-1.6200643250e+000
 9.8663495489e-001	 1.6529296615e+000	-1.5695445388e+000
 9.6973847032e-001	 1.6628987640e+000	-1.5352325434e+000
 9.5276372478e-001	 1.6726823622e+000	-1.5158762287e+000
 9.3571371117e-001	 1.6822796589e+000	-1.5102705039e+000
 9.1859142975e-001	 1.6916899199e+000	-1.5172578442e+000
 9.0139988653e-001	 1.7009124741e+000	-1.5357287026e+000
 8.8414209163e-001	 1.7099467131e+000	-1.5646217877e+000
 1.0670590191e+000	 1.6321412469e+000	-2.1071794147e+000
 1.0502903193e+000	 1.6429821195e+000	-1.9613520031e+000
 1.0334303230e+000	 1.6536389472e+000	-1.8384688660e+000
 1.0164820153e+000	 1.6641106671e+000	-1.7369954743e+000
 9.9944839587e-001	 1.6743962805e+000	-1.6554424498e+000
 9.8233247643e-001	 1.6844948518e+000	-1.5923666774e+000
 9.6513727965e-001	 1.6944055097e+000	-1.5463722715e+000
 9.4786583729e-001	 1.7041274467e+000	-1.5161113977e+000
 9.3052118858e-001	 1.7136599189e+000	-1.5002849515e+000
 9.1310637856e-001	 1.7230022465e+000	-1.4976430956e+000
 8.9562445646e-001	 1.7321538133e+000	-1.5069856584e+000
 1.0807392629e+000	 1.6530661346e+000	-2.3967475992e+000
 1.0637555798e+000	 1.6640459929e+000	-2.2078148463e+000
 1.0466794297e+000	 1.6748394465e+000	-2.0443559434e+000
 1.0295138360e+000	 1.6854454193e+000	-1.9046924968e+000
 1.0122618368e+000	 1.6958628994e+000	-1.7871920383e+000
 9.9492648253e-001	 1.7060909396e+000	-1.6902692811e+000
 9.7751083451e-001	 1.7161286573e+000	-1.6123872244e+000
 9.6001796341e-001	 1.7259752344e+000	-1.5520581082e+000
 9.4245094741e-001	 1.7356299178e+000	-1.5078442202e+000
 9.2481287059e-001	 1.7450920189e+000	-1.4783585540e+000
 9.0710682128e-001	 1.7543609135e+000	-1.4622653232e+000
 1.0944195068e+000	 1.6739910224e+000	-2.7527959615e+000
 1.0772208403e+000	 1.6851098662e+000	-2.5165161987e+000
 1.0599285364e+000	 1.6960399458e+000	-2.3080654121e+000
 1.0425456567e+000	 1.7067801714e+000	-2.1256234244e+000
 1.0250752778e+000	 1.7173295184e+000	-1.9674169265e+000
 1.0075204886e+000	 1.7276870275e+000	-1.8317208745e+000
 9.8988438938e-001	 1.7378518049e+000	-1.7168597295e+000
 9.7217008953e-001	 1.7478230222e+000	-1.6212085418e+000
 9.5438070623e-001	 1.7575999168e+000	-1.5431938802e+000
 9.3651936262e-001	 1.7671817913e+000	-1.4812946089e+000
 9.1858918611e-001	 1.7765680137e+000	-1.4340425122e+000
 8.0376553783e-001	 1.5544970119e+000	-2.0194032198e+000
 7.8801914338e-001	 1.5625382650e+000	-1.9158970025e+000
 7.7221799855e-001	 1.5704073875e+000	-1.8195664456e+000
 7.5636484241e-001	 1.5781039969e+000	-1.7299334701e+000
 7.4046241198e-001	 1.5856277673e+000	-1.6465529921e+000
 7.2451344093e-001	 1.5929784285e+000	-1.5690124976e+000
 7.0852065808e-001	 1.6001557665e+000	-1.4969315375e+000
 6.9248678611e-001	 1.6071596221e+000	-1.4299611486e+000
 6.7641454021e-001	 1.6139898915e+000	-1.3677832034e+000
 6.6030662669e-001	 1.6206465249e+000	-1.3101096924e+000
 6.4416574173e-001	 1.6271295268e+000	-1.2566819431e+000
 8.1524790266e-001	 1.5767041121e+000	-1.9755041718e+000
 7.9927655972e-001	 1.5848602402e+000	-1.8783234529e+000
 7.8324968425e-001	 1.5928417787e+000	-1.7855466938e+000
 7.6717005444e-001	 1.6006483397e+000	-1.6967833467e+000
 7.5104044644e-001	 1.6082795925e+000	-1.6116789500e+000
 7.3486363294e-001	 1.6157352632e+000	-1.5299145521e+000
 7.1864238176e-001	 1.6230151346e+000	-1.4512060507e+000
 7.0237945449e-001	 1.6301190453e+000	-1.3753034565e+000
 6.8607760507e-001	 1.6370468899e+000	-1.3019900806e+000
 6.6973957850e-001	 1.6437986181e+000	-1.2310816540e+000
 6.5336810947e-001	 1.6503742344e+000	-1.1624253800e+000
 8.2673026749e-001	 1.5989112123e+000	-1.9181168174e+000
 8.1053397605e-001	 1.6071822154e+000	-1.8299719897e+000
 7.9428136994e-001	 1.6152761700e+000	-1.7434316441e+000
 7.7797526648e-001	 1.6231926825e+000	-1.6581917525e+000
 7.6161848090e-001	 1.6309314178e+000	-1.5739875491e+000
 7.4521382496e-001	 1.6384920979e+000	-1.4905928000e+000
 7.2876410545e-001	 1.6458745027e+000	-1.4078189884e+000
 7.1227212286e-001	 1.6530784685e+000	-1.3255144173e+000
 6.9574066993e-001	 1.6601038884e+000	-1.2435632353e+000
 6.7917253031e-001	 1.6669507113e+000	-1.1618843905e+000
 6.6257047722e-001	 1.6736189419e+000	-1.0804305156e+000
 8.3821263232e-001	 1.6211183125e+000	-1.8511796289e+000
 8.2179139239e-001	 1.6295041906e+000	-1.7746108630e+000
 8.0531305564e-001	 1.6377105612e+000	-1.6968158949e+000
 7.8878047852e-001	 1.6457370254e+000	-1.6175763041e+000
 7.7219651536e-001	 1.6535832430e+000	-1.5367161929e+000
 7.5556401697e-001	 1.6612489326e+000	-1.4541013041e+000
 7.3888582914e-001	 1.6687338708e+000	-1.3696380482e+000
 7.2216479124e-001	 1.6760378917e+000	-1.2832724455e+000
 7.0540373479e-001	 1.6831608868e+000	-1.1949889882e+000
 6.8860548212e-001	 1.6901028046e+000	-1.1048094272e+000
 6.7177284496e-001	 1.6968636494e+000	-1.0127914885e+000
 8.4969499715e-001	 1.6433254126e+000	-1.7785692351e+000
 8.3304880872e-001	 1.6518261659e+000	-1.7159541903e+000
 8.1634474134e-001	 1.6601449525e+000	-1.6492477149e+000
 7.9958569055e-001	 1.6682813682e+000	-1.5783161767e+000
 7.8277454982e-001	 1.6762350683e+000	-1.5030718161e+000
 7.6591420899e-001	 1.6840057673e+000	-1.4234717088e+000
 7.4900755283e-001	 1.6915932389e+000	-1.3395166346e+000
 7.3205745961e-001	 1.6989973148e+000	-1.2512498579e+000
 7.1506679966e-001	 1.7062178853e+000	-1.1587558242e+000
 6.9803843393e-001	 1.7132548978e+000	-1.0621587780e+000
 6.8097521270e-001	 1.7201083570e+000	-9.6162130853e-001
 8.6117736198e-001	 1.6655325128e+000	-1.7041045442e+000
 8.4430622506e-001	 1.6741481411e+000	-1.6576655659e+000
 8.2737642703e-001	 1.6825793437e+000	-1.6042321313e+000
 8.1039090259e-001	 1.6908257110e+000	-1.5437546680e+000
 7.9335258428e-001	 1.6988868935e+000	-1.4762329159e+000
 7.7626440100e-001	 1.7067626020e+000	-1.4017147345e+000
 7.5912927652e-001	 1.7144526070e+000	-1.3202948117e+000
 7.4195012799e-001	 1.7219567380e+000	-1.2321132806e+000
 7.2472986452e-001	 1.7292748837e+000	-1.1373542488e+000
 7.0747138575e-001	 1.7364069910e+000	-1.0362442464e+000
 6.9017758044e-001	 1.7433530645e+000	-9.2905059884e-001
 8.7265972680e-001	 1.6877396130e+000	-1.6315505407e+000
 8.5556364139e-001	 1.6964701163e+000	-1.6033613846e+000
 8.3840811273e-001	 1.7050137350e+000	-1.5652337748e+000
 8.2119611462e-001	 1.7133700538e+000	-1.5172015574e+000
 8.0393061874e-001	 1.7215387188e+000	-1.4593514224e+000
 7.8661459301e-001	 1.7295194367e+000	-1.3918215546e+000
 7.6925100021e-001	 1.7373119751e+000	-1.3148001811e+000
 7.5184279636e-001	 1.7449161612e+000	-1.2285240228e+000
 7.3439292938e-001	 1.7523318822e+000	-1.1332766546e+000
 7.1690433756e-001	 1.7595590842e+000	-1.0293867816e+000
 6.9937994818e-001	 1.7665977720e+000	-9.1722643688e-001
 8.8414209163e-001	 1.7099467131e+000	-1.5646217877e+000
 8.6682105773e-001	 1.7187920915e+000	-1.5566139064e+000
 8.4943979842e-001	 1.7274481262e+000	-1.5356795030e+000
 8.3200132666e-001	 1.7359143966e+000	-1.5019352834e+000
 8.1450865319e-001	 1.7441905440e+000	-1.4555544242e+000
 7.9696478503e-001	 1.7522762714e+000	-1.3967650644e+000
 7.7937272389e-001	 1.7601713431e+000	-1.3258486910e+000
 7.6173546473e-001	 1.7678755844e+000	-1.2431384225e+000
 7.4405599424e-001	 1.7753888806e+000	-1.1490171990e+000
 7.2633728937e-001	 1.7827111774e+000	-1.0439158843e+000
 7.0858231592e-001	 1.7898424795e+000	-9.2831128604e-001
 8.9562445646e-001	 1.7321538133e+000	-1.5069856584e+000
 8.7807847406e-001	 1.7411140667e+000	-1.5209540860e+000
 8.6047148411e-001	 1.7498825175e+000	-1.5189608212e+000
 8.4280653869e-001	 1.7584587394e+000	-1.5012049522e+000
 8.2508668765e-001	 1.7668423693e+000	-1.4679457605e+000
 8.0731497704e-001	 1.7750331061e+000	-1.4195010531e+000
 7.8949444758e-001	 1.7830307112e+000	-1.3562453832e+000
 7.7162813311e-001	 1.7908350075e+000	-1.2786081650e+000
 7.5371905910e-001	 1.7984458791e+000	-1.1870716913e+000
 7.3577024118e-001	 1.8058632706e+000	-1.0821690587e+000
 7.1778468366e-001	 1.8130871871e+000	-9.6448200936e-001
 9.0710682128e-001	 1.7543609135e+000	-1.4622653232e+000
 8.8933589040e-001	 1.7634360419e+000	-1.4998741868e+000
 8.7150316981e-001	 1.7723169087e+000	-1.5184361205e+000
 8.5361175073e-001	 1.7810030823e+000	-1.5182321943e+000
 8.3566472211e-001	 1.7894941945e+000	-1.4996074930e+000
 8.1766516906e-001	 1.7977899408e+000	-1.4629692862e+000
 7.9961617127e-001	 1.8058900793e+000	-1.4087850833e+000
 7.8152080148e-001	 1.8137944307e+000	-1.3375805773e+000
 7.6338212396e-001	 1.8215028775e+000	-1.2499374875e+000
 7.4520319299e-001	 1.8290153638e+000	-1.1464913060e+000
 7.2698705140e-001	 1.8363318946e+000	-1.0279289582e+000
 9.1858918611e-001	 1.7765680137e+000	-1.4340425122e+000
 9.0059330673e-001	 1.7857580172e+000	-1.4968301993e+000
 8.8253485550e-001	 1.7947513000e+000	-1.5374327469e+000
 8.6441696276e-001	 1.8035474251e+000	-1.5562128818e+000
 8.4624275656e-001	 1.8121460198e+000	-1.5536012663e+000
 8.2801536107e-001	 1.8205467755e+000	-1.5300945070e+000
 8.0973789495e-001	 1.8287494474e+000	-1.4862530395e+000
 7.9141346985e-001	 1.8367538539e+000	-1.4226989009e+000
 7.7304518882e-001	 1.8445598760e+000	-1.3401133944e+000
 7.5463614479e-001	 1.8521674571e+000	-1.2392346557e+000
 7.3618941913e-001	 1.8595766021e+000	-1.1208551291e+000
 6.4416574173e-001	 1.6271295268e+000	-1.2566819431e+000
 6.2799457010e-001	 1.6334389551e+000	-1.4519119208e+000
 6.1179578385e-001	 1.6395749202e+000	-1.3842209457e+000
 5.9557204113e-001	 1.6455375851e+000	-1.2709043669e+000
 5.7932598494e-001	 1.6513271642e+000	-1.1734597047e+000
 5.6306024200e-001	 1.6569439230e+000	-1.0917506291e+000
 5.4677742155e-001	 1.6623881771e+000	-1.0256079922e+000
 5.3048011422e-001	 1.6676602917e+000	-9.7483050497e-001
 5.1417089100e-001	 1.6727606807e+000	-9.3918546557e-001
 4.9785230211e-001	 1.6776898060e+000	-9.1840953786e-001
 4.8152687598e-001	 1.6824481768e+000	-9.1220957632e-001
 6.5336810947e-001	 1.6503742344e+000	-1.1624253800e+000
 6.3696592110e-001	 1.6567737973e+000	-1.3327531980e+000
 6.2053572362e-001	 1.6629974190e+000	-1.4218239388e+000
 6.0408021315e-001	 1.6690452648e+000	-1.2974290160e+000
 5.8760207045e-001	 1.6749175522e+000	-1.1902787375e+000
 5.7110395975e-001	 1.6806145504e+000	-1.1002617110e+000
 5.5458852757e-001	 1.6861365796e+000	-1.0272314197e+000
 5.3805840157e-001	 1.6914840101e+000	-9.7100690980e-001
 5.2151618944e-001	 1.6966572618e+000	-9.3137353438e-001
 5.0496447785e-001	 1.7016568033e+000	-9.0808374996e-001
 4.8840583136e-001	 1.7064831508e+000	-9.0085796360e-001
 6.6257047722e-001	 1.6736189419e+000	-1.0804305156e+000
 6.4593727211e-001	 1.6801086395e+000	-1.2256536076e+000
 6.2927566340e-001	 1.6864199179e+000	-1.3731687492e+000
 6.1258838517e-001	 1.6925529446e+000	-1.3133452687e+000
 5.9587815595e-001	 1.6985079403e+000	-1.1978428153e+000
 5.7914767750e-001	 1.7042851779e+000	-1.1009003207e+000
 5.6239963360e-001	 1.7098849821e+000	-1.0223935014e+000
 5.4563668892e-001	 1.7153077286e+000	-9.6216129855e-001
 5.2886148789e-001	 1.7205538430e+000	-9.2000663710e-001
 5.1207665360e-001	 1.7256238005e+000	-8.9569724231e-001
 4.9528478673e-001	 1.7305181247e+000	-8.8896650990e-001
 6.7177284496e-001	 1.6968636494e+000	-1.0127914885e+000
 6.5490862311e-001	 1.7034434817e+000	-1.1326142528e+000
 6.3801560317e-001	 1.7098424168e+000	-1.2541808521e+000
 6.2109655719e-001	 1.7160606244e+000	-1.3176619228e+000
 6.0415424145e-001	 1.7220983284e+000	-1.1951136245e+000
 5.8719139524e-001	 1.7279558054e+000	-1.0925822769e+000
 5.7021073962e-001	 1.7336333847e+000	-1.0099654504e+000
 5.5321497627e-001	 1.7391314470e+000	-9.4712155620e-001
 5.3620678633e-001	 1.7444504242e+000	-9.0387062329e-001
 5.1918882934e-001	 1.7495907977e+000	-8.7999513522e-001
 5.0216374210e-001	 1.7545530987e+000	-8.7524092455e-001
 6.8097521270e-001	 1.7201083570e+000	-9.6162130853e-001
 6.6387997412e-001	 1.7267783239e+000	-1.0556577703e+000
 6.4675554294e-001	 1.7332649156e+000	-1.1508210370e+000
 6.2960472920e-001	 1.7395683042e+000	-1.2469458481e+000
 6.1243032695e-001	 1.7456887164e+000	-1.1810822320e+000
 5.9523511299e-001	 1.7516264329e+000	-1.0742553459e+000
 5.7802184564e-001	 1.7573817872e+000	-9.8885296713e-001
 5.6079326361e-001	 1.7629551655e+000	-9.2475256826e-001
 5.4355208478e-001	 1.7683470053e+000	-8.8179082804e-001
 5.2630100509e-001	 1.7735577950e+000	-8.5976449047e-001
 5.0904269747e-001	 1.7785880727e+000	-8.5843128446e-001
 6.9017758044e-001	 1.7433530645e+000	-9.2905059884e-001
 6.7285132512e-001	 1.7501131661e+000	-9.9682689389e-001
 6.5549548271e-001	 1.7566874145e+000	-1.0650430743e+000
 6.3811290122e-001	 1.7630759840e+000	-1.1335844321e+000
 6.2070641246e-001	 1.7692791045e+000	-1.1547671269e+000
 6.0327883073e-001	 1.7752970603e+000	-1.0448971109e+000
 5.8583295167e-001	 1.7811301897e+000	-9.5799394043e-001
 5.6837155096e-001	 1.7867788839e+000	-8.9395375406e-001
 5.5089738322e-001	 1.7922435865e+000	-8.5262943954e-001
 5.3341318083e-001	 1.7975247922e+000	-8.3383151517e-001
 5.1592165284e-001	 1.8026230466e+000	-8.3732907624e-001
 6.9937994818e-001	 1.7665977720e+000	-9.1722643688e-001
 6.8182267612e-001	 1.7734480084e+000	-9.5818313285e-001
 6.6423542248e-001	 1.7801099133e+000	-9.9882181105e-001
 6.4662107324e-001	 1.7865836638e+000	-1.0390796925e+000
 6.2898249796e-001	 1.7928694926e+000	-1.0789305162e+000
 6.1132254848e-001	 1.7989676878e+000	-1.0035130112e+000
 5.9364405769e-001	 1.8048785923e+000	-9.1635632967e-001
 5.7594983831e-001	 1.8106026024e+000	-8.5365679480e-001
 5.5824268167e-001	 1.8161401676e+000	-8.1528307453e-001
 5.4052535658e-001	 1.8214917894e+000	-8.0105898646e-001
 5.2280060822e-001	 1.8266580206e+000	-8.1076447193e-001
 7.0858231592e-001	 1.7898424795e+000	-9.2831128604e-001
 6.9079402712e-001	 1.7967828506e+000	-9.4180555253e-001
 6.7297536225e-001	 1.8035324122e+000	-9.5415180240e-001
 6.5512924526e-001	 1.8100913436e+000	-9.6534061563e-001
 6.3725858345e-001	 1.8164598806e+000	-9.7540065187e-001
 6.1936626622e-001	 1.8226383153e+000	-9.4913453273e-001
 6.0145516371e-001	 1.8286269948e+000	-8.6293621225e-001
 5.8352812565e-001	 1.8344263209e+000	-8.0282353859e-001
 5.6558798011e-001	 1.8400367488e+000	-7.6868054273e-001
 5.4763753232e-001	 1.8454587867e+000	-7.6034387677e-001
 5.2967956359e-001	 1.8506929945e+000	-7.7760381692e-001
 7.1778468366e-001	 1.8130871871e+000	-9.6448200936e-001
 6.9976537812e-001	 1.8201176928e+000	-9.4978964897e-001
 6.8171530202e-001	 1.8269549111e+000	-9.3304604835e-001
 6.6363741727e-001	 1.8335990234e+000	-9.1429662883e-001
 6.4553466895e-001	 1.8400502687e+000	-8.9362653210e-001
 6.2740998396e-001	 1.8463089428e+000	-8.7115881379e-001
 6.0926626974e-001	 1.8523753973e+000	-7.9675598110e-001
 5.9110641300e-001	 1.8582500393e+000	-7.4044406670e-001
 5.7293327855e-001	 1.8639333299e+000	-7.1178078315e-001
 5.5474970807e-001	 1.8694257839e+000	-7.1061516189e-001
 5.3655851896e-001	 1.8747279685e+000	-7.3674731116e-001
 7.2698705140e-001	 1.8363318946e+000	-1.0279289582e+000
 7.0873672912e-001	 1.8434525350e+000	-9.8424630904e-001
 6.9045524179e-001	 1.8503774099e+000	-9.3753482628e-001
 6.7214558929e-001	 1.8571067031e+000	-8.8789630684e-001
 6.5381075445e-001	 1.8636406567e+000	-8.3547398837e-001
 6.3545370170e-001	 1.8699795702e+000	-7.8045061580e-001
 6.1707737576e-001	 1.8761237999e+000	-7.1882625698e-001
 5.9868470035e-001	 1.8820737578e+000	-6.7985302742e-001
 5.8027857699e-001	 1.8878299111e+000	-6.7160918445e-001
 5.6186188381e-001	 1.8933927811e+000	-6.9189196162e-001
 5.4343747433e-001	 1.8987629424e+000	-7.3861187785e-001
 7.3618941913e-001	 1.8595766021e+000	-1.1208551291e+000
 7.1770808012e-001	 1.8667873772e+000	-1.0473008485e+000
 6.9919518155e-001	 1.8737999088e+000	-9.6966461110e-001
 6.8065376130e-001	 1.8806143829e+000	-8.9644201416e-001
 6.6208683995e-001	 1.8872310448e+000	-8.2573201294e-001
 6.4349741945e-001	 1.8936501977e+000	-7.5674066629e-001
 6.2488848178e-001	 1.8998722024e+000	-6.9016505526e-001
 6.0626298769e-001	 1.9058974762e+000	-6.6935789011e-001
 5.8762387544e-001	 1.9117264922e+000	-6.7777243693e-001
 5.6897405956e-001	 1.9173597783e+000	-7.1318514010e-001
 5.5031642970e-001	 1.9227979164e+000	-7.7349102085e-001
 4.8152687598e-001	 1.6824481768e+000	-9.1220957632e-001
 4.6519711830e-001	 1.6870363485e+000	-8.3417105680e-001
 4.4886551095e-001	 1.6914549220e+000	-7.6186511905e-001
 4.3253451115e-001	 1.6957045429e+000	-6.9500778943e-001
 4.1620655053e-001	 1.6997859004e+000	-6.3329490959e-001
 3.9988403422e-001	 1.7036997268e+000	-5.7640295907e-001
 3.8356934007e-001	 1.7074467960e+000	-5.2398990434e-001
 3.6726481779e-001	 1.7110279231e+000	-4.7569607137e-001
 3.5097278822e-001	 1.7144439629e+000	-4.3114503941e-001
 3.3469554257e-001	 1.7176958094e+000	-3.8994455339e-001
 3.1843534172e-001	 1.7207843947e+000	-3.5168745222e-001
 4.8840583136e-001	 1.7064831508e+000	-9.0085796360e-001
 4.7184279141e-001	 1.7111368678e+000	-8.2277109659e-001
 4.5527787539e-001	 1.7156185637e+000	-7.5255788116e-001
 4.3871357559e-001	 1.7199288935e+000	-6.8988381548e-001
 4.2215235839e-001	 1.7240685561e+000	-6.3439251136e-001
 4.0559666328e-001	 1.7280382943e+000	-5.8570660308e-001
 3.8904890206e-001	 1.7318388931e+000	-5.4342868345e-001
 3.7251145804e-001	 1.7354711791e+000	-5.0714226449e-001
 3.5598668519e-001	 1.7389360195e+000	-4.7641276002e-001
 3.3947690746e-001	 1.7422343210e+000	-4.5078848725e-001
 3.2298441803e-001	 1.7453670289e+000	-4.2980168486e-001
 4.9528478673e-001	 1.7305181247e+000	-8.8896650990e-001
 4.7848846453e-001	 1.7352373870e+000	-8.0977931810e-001
 4.6169023983e-001	 1.7397822055e+000	-7.4062084738e-001
 4.4489264004e-001	 1.7441532441e+000	-6.8110659848e-001
 4.2809816625e-001	 1.7483512119e+000	-6.3082844085e-001
 4.1130929234e-001	 1.7523768619e+000	-5.8935560801e-001
 3.9452846406e-001	 1.7562309902e+000	-5.5623572144e-001
 3.7775809829e-001	 1.7599144352e+000	-5.3099583994e-001
 3.6100058217e-001	 1.7634280761e+000	-5.1314353168e-001
 3.4425827236e-001	 1.7667728326e+000	-5.0216796589e-001
 3.2753349434e-001	 1.7699496631e+000	-4.9754102138e-001
 5.0216374210e-001	 1.7545530987e+000	-8.7524092455e-001
 4.8513413765e-001	 1.7593379063e+000	-7.9397015230e-001
 4.6810260427e-001	 1.7639458472e+000	-7.2489897695e-001
 4.5107170448e-001	 1.7683775947e+000	-6.6759339116e-001
 4.3404397412e-001	 1.7726338676e+000	-6.2159396705e-001
 4.1702192139e-001	 1.7767154294e+000	-5.8641693871e-001
 4.0000802606e-001	 1.7806230873e+000	-5.6155531445e-001
 3.8300473855e-001	 1.7843576912e+000	-5.4648001567e-001
 3.6601447914e-001	 1.7879201327e+000	-5.4064103909e-001
 3.4903963725e-001	 1.7913113441e+000	-5.4346863936e-001
 3.3208257065e-001	 1.7945322974e+000	-5.5437452894e-001
 5.0904269747e-001	 1.7785880727e+000	-8.5843128446e-001
 4.9177981077e-001	 1.7834384256e+000	-7.7415901999e-001
 4.7451496871e-001	 1.7881094890e+000	-7.0427478441e-001
 4.5725076893e-001	 1.7926019453e+000	-6.4829551216e-001
 4.3998978198e-001	 1.7969165233e+000	-6.0571088258e-001
 4.2273455045e-001	 1.8010539969e+000	-5.7598449026e-001
 4.0548758806e-001	 1.8050151844e+000	-5.5855504641e-001
 3.8825137880e-001	 1.8088009473e+000	-5.5283760783e-001
 3.7102837612e-001	 1.8124121893e+000	-5.5822483035e-001
 3.5382100214e-001	 1.8158498557e+000	-5.7408824308e-001
 3.3663164696e-001	 1.8191149316e+000	-5.9977954060e-001
 5.1592165284e-001	 1.8026230466e+000	-8.3732907624e-001
 4.9842548389e-001	 1.8075389448e+000	-7.4919959913e-001
 4.8092733315e-001	 1.8122731307e+000	-6.7766583595e-001
 4.6342983337e-001	 1.8168262959e+000	-6.2219607501e-001
 4.4593558984e-001	 1.8211991790e+000	-5.8222946876e-001
 4.2844717952e-001	 1.8253925645e+000	-5.5717729269e-001
 4.1096715007e-001	 1.8294072815e+000	-5.4642423653e-001
 3.9349801906e-001	 1.8332442033e+000	-5.4932972426e-001
 3.7604227309e-001	 1.8369042460e+000	-5.6522925940e-001
 3.5860236704e-001	 1.8403883673e+000	-5.9343579206e-001
 3.4118072327e-001	 1.8436975658e+000	-6.3324110432e-001
 5.2280060822e-001	 1.8266580206e+000	-8.1076447193e-001
 5.0507115701e-001	 1.8316394641e+000	-7.1798130797e-001
 4.8733969760e-001	 1.8364367724e+000	-6.4402244339e-001
 4.6960889782e-001	 1.8410506465e+000	-5.8830789635e-001
 4.5188139771e-001	 1.8454818348e+000	-5.5022662134e-001
 4.3415980858e-001	 1.8497311320e+000	-5.2913785729e-001
 4.1644671207e-001	 1.8537993786e+000	-5.2437250939e-001
 3.9874465931e-001	 1.8576874594e+000	-5.3523456105e-001
 3.8105617007e-001	 1.8613963026e+000	-5.6100251198e-001
 3.6338373194e-001	 1.8649268788e+000	-6.0093083892e-001
 3.4572979958e-001	 1.8682802000e+000	-6.5425147533e-001
 5.2967956359e-001	 1.8506929945e+000	-7.7760381692e-001
 5.1171683013e-001	 1.8557399833e+000	-6.7942698420e-001
 4.9375206204e-001	 1.8606004142e+000	-6.0232553777e-001
 4.7578796226e-001	 1.8652749971e+000	-5.4567156715e-001
 4.5782720558e-001	 1.8697644905e+000	-5.0880412233e-001
 4.3987243764e-001	 1.8740696995e+000	-4.9103065187e-001
 4.2192627407e-001	 1.8781914757e+000	-4.8613684953e-001
 4.0399129957e-001	 1.8821307154e+000	-4.9245789617e-001
 3.8607006704e-001	 1.8858883592e+000	-5.0950791845e-001
 3.6816509683e-001	 1.8894653904e+000	-5.3587928633e-001
 3.5027887589e-001	 1.8928628342e+000	-5.7026322941e-001
 5.3655851896e-001	 1.8747279685e+000	-7.3674731116e-001
 5.1836250325e-001	 1.8798405026e+000	-6.3816742053e-001
 5.0016442648e-001	 1.8847640559e+000	-5.6056339311e-001
 4.8196702671e-001	 1.8894993478e+000	-5.0148684045e-001
 4.6377301344e-001	 1.8940471462e+000	-4.5896157391e-001
 4.4558506670e-001	 1.8984082670e+000	-4.3112353766e-001
 4.2740583607e-001	 1.9025835728e+000	-4.1621934772e-001
 4.0923793982e-001	 1.9065739715e+000	-4.1260464990e-001
 3.9108396402e-001	 1.9103804158e+000	-4.1874230684e-001
 3.7294646173e-001	 1.9140039020e+000	-4.3320042463e-001
 3.5482795221e-001	 1.9174454684e+000	-4.5465022936e-001
 5.4343747433e-001	 1.8987629424e+000	-7.3861187785e-001
 5.2500817637e-001	 1.9039410219e+000	-6.3373275157e-001
 5.0657679093e-001	 1.9089276977e+000	-5.4859651166e-001
 4.8814609116e-001	 1.9137236984e+000	-4.8106329564e-001
 4.6971882131e-001	 1.9183298019e+000	-4.2911165541e-001
 4.5129769576e-001	 1.9227468346e+000	-3.9083720020e-001
 4.3288539808e-001	 1.9269756698e+000	-3.6445104091e-001
 4.1448458008e-001	 1.9310172275e+000	-3.4827804652e-001
 3.9609786100e-001	 1.9348724724e+000	-3.4075492318e-001
 3.7772782663e-001	 1.9385424135e+000	-3.4042812677e-001
 3.5937702852e-001	 1.9420281026e+000	-3.4595161997e-001
 5.5031642970e-001	 1.9227979164e+000	-7.7349102085e-001
 5.3165384949e-001	 1.9280415411e+000	-6.6013659052e-001
 5.1298915537e-001	 1.9330913394e+000	-5.6551049580e-001
 4.9432515561e-001	 1.9379480490e+000	-4.8742434390e-001
 4.7566462918e-001	 1.9426124576e+000	-4.2381333205e-001
 4.5701032483e-001	 1.9470854021e+000	-3.7273479755e-001
 4.3836496008e-001	 1.9513677669e+000	-3.3236656170e-001
 4.1973122034e-001	 1.9554604835e+000	-3.0100507881e-001
 4.0111175798e-001	 1.9593645290e+000	-2.7706340128e-001
 3.8250919152e-001	 1.9630809251e+000	-2.5906897207e-001
 3.6392610484e-001	 1.9666107368e+000	-2.4566125596e-001
 3.1843534172e-001	 1.7207843947e+000	-3.5168745222e-001
 3.0219441554e-001	 1.7237106878e+000	-2.7845327147e-001
 2.8597496228e-001	 1.7264756937e+000	-2.0809934736e-001
 2.6977914796e-001	 1.7290804525e+000	-1.3984208344e-001
 2.5360910577e-001	 1.7315260383e+000	-7.2892324817e-002
 2.3746693559e-001	 1.7338135582e+000	-6.4565420065e-003
 2.2135470344e-001	 1.7359441509e+000	 6.0261995456e-002
 2.0527444106e-001	 1.7379189865e+000	 1.2806205780e-001
 1.8922814542e-001	 1.7397392646e+000	 1.9774330841e-001
 1.7321777839e-001	 1.7414062137e+000	 2.7010517387e-001
 1.5724526631e-001	 1.7429210901e+000	 3.4594573262e-001
 3.2298441803e-001	 1.7453670289e+000	-4.2980168486e-001
 3.0651147862e-001	 1.7483351262e+000	-3.5914834353e-001
 2.9006031889e-001	 1.7511396322e+000	-2.9296137935e-001
 2.7363313579e-001	 1.7537816018e+000	-2.3046127375e-001
 2.5723209300e-001	 1.7562621246e+000	-1.7086090628e-001
 2.4085932039e-001	 1.7585823233e+000	-1.1336678862e-001
 2.2451691349e-001	 1.7607433531e+000	-5.7180290101e-002
 2.0820693307e-001	 1.7627464006e+000	-1.4988523990e-003
 1.9193140464e-001	 1.7645926827e+000	 5.4482808942e-002
 1.7569231808e-001	 1.7662834454e+000	 1.1157151836e-001
 1.5949162725e-001	 1.7678199628e+000	 1.7057447160e-001
 3.2753349434e-001	 1.7699496631e+000	-4.9754102138e-001
 3.1082854170e-001	 1.7729595646e+000	-4.3225348719e-001
 2.9414567549e-001	 1.7758035707e+000	-3.7302642185e-001
 2.7748712362e-001	 1.7784827512e+000	-3.1908309529e-001
 2.6085508023e-001	 1.7809982109e+000	-2.6963712249e-001
 2.4425170518e-001	 1.7833510884e+000	-2.2389374927e-001
 2.2767912354e-001	 1.7855425553e+000	-1.8105113143e-001
 2.1113942509e-001	 1.7875738147e+000	-1.4030160453e-001
 1.9463466387e-001	 1.7894461008e+000	-1.0083294201e-001
 1.7816685777e-001	 1.7911606770e+000	-6.1829599109e-002
 1.6173798820e-001	 1.7927188355e+000	-2.2473940496e-002
 3.3208257065e-001	 1.7945322974e+000	-5.5437452894e-001
 3.1514560478e-001	 1.7975840030e+000	-4.9717143446e-001
 2.9823103210e-001	 1.8004675091e+000	-4.4763261670e-001
 2.8134111145e-001	 1.8031839005e+000	-4.0498285456e-001
 2.6447806745e-001	 1.8057342971e+000	-3.6843520774e-001
 2.4764408998e-001	 1.8081198535e+000	-3.3719235605e-001
 2.3084133360e-001	 1.8103417574e+000	-3.1044793387e-001
 2.1407191711e-001	 1.8124012288e+000	-2.8738785671e-001
 1.9733792309e-001	 1.8142995188e+000	-2.6719163754e-001
 1.8064139747e-001	 1.8160379086e+000	-2.4903369022e-001
 1.6398434915e-001	 1.8176177082e+000	-2.3208461763e-001
 3.3663164696e-001	 1.8191149316e+000	-5.9977954060e-001
 3.1946266786e-001	 1.8222084414e+000	-5.5331749506e-001
 3.0231638870e-001	 1.8251314476e+000	-5.1613493684e-001
 2.8519509928e-001	 1.8278850498e+000	-4.8745688283e-001
 2.6810105468e-001	 1.8304703834e+000	-4.6649455388e-001
 2.5103647477e-001	 1.8328886186e+000	-4.5244676944e-001
 2.3400354365e-001	 1.8351409596e+000	-4.4450133895e-001
 2.1700440913e-001	 1.8372286429e+000	-4.4183644696e-001
 2.0004118231e-001	 1.8391529369e+000	-4.4362202939e-001
 1.8311593716e-001	 1.8409151402e+000	-4.4902113809e-001
 1.6623071010e-001	 1.8425165809e+000	-4.5719129116e-001
 3.4118072327e-001	 1.8436975658e+000	-6.3324110432e-001
 3.2377973094e-001	 1.8468328798e+000	-6.0011871794e-001
 3.0640174531e-001	 1.8497953861e+000	-5.7790406420e-001
 2.8904908711e-001	 1.8525861991e+000	-5.6582113444e-001
 2.7172404191e-001	 1.8552064696e+000	-5.6307803316e-001
 2.5442885957e-001	 1.8576573837e+000	-5.6886842975e-001
 2.3716575370e-001	 1.8599401617e+000	-5.8237300861e-001
 2.1993690114e-001	 1.8620560570e+000	-6.0276091455e-001
 2.0274444153e-001	 1.8640063550e+000	-6.2919119068e-001
 1.8559047685e-001	 1.8657923719e+000	-6.6081420580e-001
 1.6847707105e-001	 1.8674154536e+000	-6.9677306867e-001
 3.4572979958e-001	 1.8682802000e+000	-6.5425147533e-001
 3.2809679402e-001	 1.8714573182e+000	-6.3701311896e-001
 3.1048710192e-001	 1.8744593246e+000	-6.3232535629e-001
 2.9290307494e-001	 1.8772873485e+000	-6.1914494248e-001
 2.7534702914e-001	 1.8799425559e+000	-6.0734945575e-001
 2.5782124437e-001	 1.8824261489e+000	-6.0028079997e-001
 2.4032796375e-001	 1.8847393639e+000	-5.9721862549e-001
 2.2286939316e-001	 1.8868834711e+000	-5.9751938058e-001
 2.0544770075e-001	 1.8888597730e+000	-6.0061363258e-001
 1.8806501655e-001	 1.8906696035e+000	-6.0600333591e-001
 1.7072343199e-001	 1.8923143264e+000	-6.1325905558e-001
 3.5027887589e-001	 1.8928628342e+000	-5.7026322941e-001
 3.3241385710e-001	 1.8960817566e+000	-5.3192063925e-001
 3.1457245852e-001	 1.8991232631e+000	-4.9998207695e-001
 2.9675706277e-001	 1.9019884978e+000	-4.7353035437e-001
 2.7897001637e-001	 1.9046786422e+000	-4.5173528244e-001
 2.6121362916e-001	 1.9071949140e+000	-4.3385104258e-001
 2.4349017380e-001	 1.9095385661e+000	-4.1921347717e-001
 2.2580188518e-001	 1.9117108852e+000	-4.0723730874e-001
 2.0815095998e-001	 1.9137131911e+000	-3.9741329736e-001
 1.9053955624e-001	 1.9155468351e+000	-3.8930534528e-001
 1.7296979294e-001	 1.9172131991e+000	-3.8254755797e-001
 3.5482795221e-001	 1.9174454684e+000	-4.5465022936e-001
 3.3673092018e-001	 1.9207061950e+000	-4.0885537471e-001
 3.1865781513e-001	 1.9237872016e+000	-3.6837360065e-001
 3.0061105060e-001	 1.9266896471e+000	-3.3233862464e-001
 2.8259300359e-001	 1.9294147284e+000	-2.9997385571e-001
 2.6460601396e-001	 1.9319636791e+000	-2.7058959712e-001
 2.4665238385e-001	 1.9343377682e+000	-2.4358016749e-001
 2.2873437719e-001	 1.9365382993e+000	-2.1842095020e-001
 2.1085421920e-001	 1.9385666092e+000	-1.9466538114e-001
 1.9301409593e-001	 1.9404240667e+000	-1.7194188414e-001
 1.7521615389e-001	 1.9421120718e+000	-1.4995076355e-001
 3.5937702852e-001	 1.9420281026e+000	-3.4595161997e-001
 3.4104798327e-001	 1.9453306334e+000	-2.9236866882e-001
 3.2274317174e-001	 1.9484511400e+000	-2.4288604150e-001
 3.0446503843e-001	 1.9513907964e+000	-1.9669037412e-001
 2.8621599082e-001	 1.9541508147e+000	-1.5306080755e-001
 2.6799839876e-001	 1.9567324442e+000	-1.1136601548e-001
 2.4981459391e-001	 1.9591369704e+000	-7.1061150185e-002
 2.3166686921e-001	 1.9613657134e+000	-3.1684716240e-002
 2.1355747842e-001	 1.9634200273e+000	 7.1446174529e-003
 1.9548863562e-001	 1.9653012984e+000	 4.5731257457e-002
 1.7746251484e-001	 1.9670109445e+000	 8.4305967594e-002
 3.6392610484e-001	 1.9666107368e+000	-2.4566125596e-001
 3.4536504635e-001	 1.9699550718e+000	-1.8383598416e-001
 3.2682852835e-001	 1.9731150785e+000	-1.2477512339e-001
 3.0831902626e-001	 1.9760919458e+000	-6.7720311950e-002
 2.8983897805e-001	 1.9788869010e+000	-1.2008627576e-002
 2.7139078356e-001	 1.9815012093e+000	 4.2930565063e-002
 2.5297680396e-001	 1.9839361725e+000	 9.7578850051e-002
 2.3459936123e-001	 1.9861931275e+000	 1.5233206828e-001
 2.1626073764e-001	 1.9882734453e+000	 2.0750368721e-001
 1.9796317532e-001	 1.9901785300e+000	 2.6332822199e-001
 1.7970887579e-001	 1.9919098172e+000	 3.1996469778e-001
 1.5724526631e-001	 1.7429210901e+000	 3.4594573262e-001
 1.4131249968e-001	 1.7442851766e+000	 3.8396247315e-001
 1.2542133286e-001	 1.7454997821e+000	 4.2650072320e-001
 1.0957358381e-001	 1.7465662397e+000	 4.7450374365e-001
 9.3771033799e-002	 1.7474859064e+000	 5.2890669466e-001
 7.8015427255e-002	 1.7482601617e+000	 5.9063555748e-001
 6.2308471545e-002	 1.7488904066e+000	 6.6060608976e-001
 4.6651836836e-002	 1.7493780627e+000	 7.3972281559e-001
 3.1047155971e-002	 1.7497245709e+000	 8.2887805117e-001
 1.5496024379e-002	 1.7499313910e+000	 9.2895096741e-001
 0.0000000000e+000	 1.7500000000e+000	 1.0408066901e+000
 1.5949162725e-001	 1.7678199628e+000	 1.7057447160e-001
 1.4333124967e-001	 1.7692035363e+000	 1.9821523669e-001
 1.2721306619e-001	 1.7704354933e+000	 2.2957134373e-001
 1.1113892072e-001	 1.7715171860e+000	 2.6556911476e-001
 9.5110619996e-002	 1.7724499908e+000	 3.0712825633e-001
 7.9129933358e-002	 1.7732353069e+000	 3.5516074877e-001
 6.3198592567e-002	 1.7738745553e+000	 4.1056976788e-001
 4.7318291647e-002	 1.7743691778e+000	 4.7424864036e-001
 3.1490686771e-002	 1.7747206362e+000	 5.4707983409e-001
 1.5717396155e-002	 1.7749304109e+000	 6.2993398457e-001
 0.0000000000e+000	 1.7750000000e+000	 7.2366895824e-001
 1.6173798820e-001	 1.7927188355e+000	-2.2473940496e-002
 1.4534999967e-001	 1.7941218960e+000	-9.3514048448e-003
 1.2900479952e-001	 1.7953712044e+000	 6.6685850541e-003
 1.1270425763e-001	 1.7964681323e+000	 2.6497420133e-002
 9.6450206192e-002	 1.7974140752e+000	 5.1041352829e-002
 8.0244439462e-002	 1.7982104521e+000	 8.1200351851e-002
 6.4088713588e-002	 1.7988587040e+000	 1.1786698835e-001
 4.7984746459e-002	 1.7993602930e+000	 1.6192535491e-001
 3.1934217570e-002	 1.7997167015e+000	 2.1425001873e-001
 1.5938767932e-002	 1.7999294307e+000	 2.7570501005e-001
 0.0000000000e+000	 1.8000000000e+000	 3.4714284709e-001
 1.6398434915e-001	 1.8176177082e+000	-2.3208461763e-001
 1.4736874966e-001	 1.8190402556e+000	-2.3751902933e-001
 1.3079653284e-001	 1.8203069156e+000	-2.4088668102e-001
 1.1426959454e-001	 1.8214190786e+000	-2.4128913007e-001
 9.7789792389e-002	 1.8223781596e+000	-2.3783160236e-001
 8.1358945565e-002	 1.8231855972e+000	-2.2962417400e-001
 6.4978834610e-002	 1.8238428526e+000	-2.1578292252e-001
 4.8651201270e-002	 1.8243514082e+000	-1.9543104617e-001
 3.2377748369e-002	 1.8247127668e+000	-1.6769994977e-001
 1.6160139709e-002	 1.8249284506e+000	-1.3173029580e-001
 0.0000000000e+000	 1.8250000000e+000	-8.6673019720e-002
 1.6623071010e-001	 1.8425165809e+000	-4.5719129116e-001
 1.4938749966e-001	 1.8439586153e+000	-4.8512447913e-001
 1.3258826617e-001	 1.8452426268e+000	-5.1183546335e-001
 1.1583493145e-001	 1.8463700248e+000	-5.3643678941e-001
 9.9129378586e-002	 1.8473422440e+000	-5.5804320724e-001
 8.2473451668e-002	 1.8481607424e+000	-5.7577289120e-001
 6.5868955631e-002	 1.8488270013e+000	-5.8874863075e-001
 4.9317656081e-002	 1.8493425234e+000	-5.9609898972e-001
 3.2821279168e-002	 1.8497088321e+000	-5.9695943305e-001
 1.6381511485e-002	 1.8499274705e+000	-5.9047341928e-001
 0.0000000000e+000	 1.8500000000e+000	-5.7579345766e-001
 1.6847707105e-001	 1.8674154536e+000	-6.9677306867e-001
 1.5140624966e-001	 1.8688769750e+000	-7.5105617675e-001
 1.3437999950e-001	 1.8701783379e+000	-8.0497652609e-001
 1.1740026836e-001	 1.8713209711e+000	-8.5765571097e-001
 1.0046896478e-001	 1.8723063283e+000	-9.0821607048e-001
 8.3587957771e-002	 1.8731358876e+000	-9.5578194911e-001
 6.6759076653e-002	 1.8738111500e+000	-9.9948092856e-001
 4.9984110893e-002	 1.8743336386e+000	-1.0384450291e+000
 3.3264809967e-002	 1.8747048974e+000	-1.0718118791e+000
 1.6602883262e-002	 1.8749264904e+000	-1.0987258502e+000
 0.0000000000e+000	 1.8750000000e+000	-1.1183391587e+000
 1.7072343199e-001	 1.8923143264e+000	-6.1325905558e-001
 1.5342499965e-001	 1.8937953346e+000	-6.3501454237e-001
 1.3617173282e-001	 1.8951140491e+000	-6.5434580926e-001
 1.1896560528e-001	 1.8962719174e+000	-6.7103188068e-001
 1.0180855098e-001	 1.8972704127e+000	-6.8491154181e-001
 8.4702463874e-002	 1.8981110327e+000	-6.9588038425e-001
 6.7649197674e-002	 1.8987952986e+000	-7.0388785308e-001
 5.0650565704e-002	 1.8993247537e+000	-7.0893430208e-001
 3.3708340767e-002	 1.8997009627e+000	-7.1106806393e-001
 1.6824255038e-002	 1.8999255102e+000	-7.1038254154e-001
 0.0000000000e+000	 1.9000000000e+000	-7.0701332662e-001
 1.7296979294e-001	 1.9172131991e+000	-3.8254755797e-001
 1.5544374965e-001	 1.9187136943e+000	-3.8907448249e-001
 1.3796346615e-001	 1.9200497603e+000	-3.9214901138e-001
 1.2053094219e-001	 1.9212228637e+000	-3.9164461418e-001
 1.0314813718e-001	 1.9222344971e+000	-3.8749548555e-001
 8.5816969978e-002	 1.9230861779e+000	-3.7969341177e-001
 6.8539318696e-002	 1.9237794473e+000	-3.6828464176e-001
 5.1317020516e-002	 1.9243158689e+000	-3.5336676999e-001
 3.4151871566e-002	 1.9246970280e+000	-3.3508563812e-001
 1.7045626815e-002	 1.9249245301e+000	-3.1363226181e-001
 0.0000000000e+000	 1.9250000000e+000	-2.8923978909e-001
 1.7521615389e-001	 1.9421120718e+000	-1.4995076355e-001
 1.5746249964e-001	 1.9436320540e+000	-1.4097777984e-001
 1.3975519948e-001	 1.9449854715e+000	-1.2744106792e-001
 1.2209627910e-001	 1.9461738100e+000	-1.0931087466e-001
 1.0448772337e-001	 1.9471985815e+000	-8.6619199397e-002
 8.6931476081e-002	 1.9480613231e+000	-5.9456475856e-002
 6.9429439717e-002	 1.9487635960e+000	-2.7968261987e-002
 5.1983475327e-002	 1.9493069841e+000	 7.6480546835e-003
 3.4595402365e-002	 1.9496930933e+000	 4.7146529102e-002
 1.7266998592e-002	 1.9499235500e+000	 9.0235901336e-002
 0.0000000000e+000	 1.9500000000e+000	 1.3658280341e-001
 1.7746251484e-001	 1.9670109445e+000	 8.4305967594e-002
 1.5948124964e-001	 1.9685504136e+000	 1.0922106754e-001
 1.4154693280e-001	 1.9699211826e+000	 1.3989545978e-001
 1.2366161601e-001	 1.9711247563e+000	 1.7625969272e-001
 1.0582730957e-001	 1.9721626658e+000	 2.1818147216e-001
 8.8045982184e-002	 1.9730364682e+000	 2.6546916951e-001
 7.0319560739e-002	 1.9737477446e+000	 3.1787531838e-001
 5.2649930139e-002	 1.9742980993e+000	 3.7510009215e-001
 3.5038933164e-002	 1.9746891586e+000	 4.3679475482e-001
 1.7488370368e-002	 1.9749225698e+000	 5.0256507830e-001
 0.0000000000e+000	 1.9750000000e+000	 5.7197471938e-001
 1.7970887579e-001	 1.9919098172e+000	 3.1996469778e-001
 1.6149999964e-001	 1.9934687733e+000	 3.6143052989e-001
 1.4333866613e-001	 1.9948568938e+000	 4.0993654532e-001
 1.2522695292e-001	 1.9960757025e+000	 4.6531156653e-001
 1.0716689577e-001	 1.9971267502e+000	 5.2732042086e-001
 8.9160488287e-002	 1.9980116134e+000	 5.9566764417e-001
 7.1209681760e-002	 1.9987318933e+000	 6.7000116946e-001
 5.3316384950e-002	 1.9992892145e+000	 7.4991599262e-001
 3.5482463963e-002	 1.9996852239e+000	 8.3495780738e-001
 1.7709742145e-002	 1.9999215897e+000	 9.2462660250e-001
 0.0000000000e+000	 2.0000000000e+000	 1.0183802139e+000
 2.0000000000e+000	 0.0000000000e+000	 1.5823382315e+000
 1.9999215897e+000	 1.7709742145e-002	 1.6724775727e+000
 1.9996852239e+000	 3.5482463963e-002	 1.7567371378e+000
 1.9992892145e+000	 5.3316384950e-002	 1.8338657929e+000
 1.9987318933e+000	 7.1209681760e-002	 1.9026760559e+000
 1.9980116134e+000	 8.9160488287e-002	 1.9620476468e+000
 1.9971267502e+000	 1.0716689577e-001	 2.0109309982e+000
 1.9960757025e+000	 1.2522695292e-001	 2.0483507191e+000
 1.9948568938e+000	 1.4333866613e-001	 2.0734090018e+000
 1.9934687733e+000	 1.6149999964e-001	 2.0852889615e+000
 1.9919098172e+000	 1.7970887579e-001	 2.0832579011e+000
 2.0250000000e+000	 0.0000000000e+000	 1.6929744891e+000
 2.0249206096e+000	 1.7931113921e-002	 1.7624477912e+000
 2.0246812892e+000	 3.5925994762e-002	 1.8272556322e+000
 2.0242803297e+000	 5.3982839761e-002	 1.8861606354e+000
 2.0237160419e+000	 7.2099802782e-002	 1.9379909267e+000
 2.0229867586e+000	 9.0274994390e-002	 1.9816437425e+000
 2.0220908346e+000	 1.0850648196e-001	 2.0160889962e+000
 2.0210266488e+000	 1.2679228983e-001	 2.0403727939e+000
 2.0197926050e+000	 1.4513039946e-001	 2.0536208902e+000
 2.0183871330e+000	 1.6351874963e-001	 2.0550420741e+000
 2.0168086899e+000	 1.8195523674e-001	 2.0439314746e+000
 2.0500000000e+000	 0.0000000000e+000	 1.8027281781e+000
 2.0499196295e+000	 1.8152485698e-002	 1.8544420078e+000
 2.0496773545e+000	 3.6369525562e-002	 1.9025288101e+000
 2.0492714448e+000	 5.4649294573e-002	 1.9457621225e+000
 2.0487001906e+000	 7.2989923804e-002	 1.9829829616e+000
 2.0479619037e+000	 9.1389500493e-002	 2.0131034952e+000
 2.0470549190e+000	 1.0984606816e-001	 2.0351106693e+000
 2.0459775951e+000	 1.2835762674e-001	 2.0480697825e+000
 2.0447283162e+000	 1.4692213278e-001	 2.0511279956e+000
 2.0433054926e+000	 1.6553749963e-001	 2.0435177689e+000
 2.0417075627e+000	 1.8420159768e-001	 2.0245602152e+000
 2.0750000000e+000	 0.0000000000e+000	 1.9114593425e+000
 2.0749186493e+000	 1.8373857475e-002	 1.9482717085e+000
 2.0746734198e+000	 3.6813056361e-002	 1.9823204406e+000
 2.0742625600e+000	 5.5315749384e-002	 2.0123871758e+000
 2.0736843393e+000	 7.3880044825e-002	 2.0373231338e+000
 2.0729370489e+000	 9.2504006597e-002	 2.0560528586e+000
 2.0720190034e+000	 1.1118565436e-001	 2.0675779126e+000
 2.0709285414e+000	 1.2992296366e-001	 2.0709805137e+000
 2.0696640273e+000	 1.4871386611e-001	 2.0654271065e+000
 2.0682238523e+000	 1.6755624962e-001	 2.0501718547e+000
 2.0666064354e+000	 1.8644795863e-001	 2.0245600475e+000
 2.1000000000e+000	 0.0000000000e+000	 2.0190346907e+000
 2.0999176692e+000	 1.8595229251e-002	 2.0437573349e+000
 2.0996694851e+000	 3.7256587160e-002	 2.0664054065e+000
 2.0992536752e+000	 5.5982204196e-002	 2.0857658539e+000
 2.0986684879e+000	 7.4770165847e-002	 2.1006974394e+000
 2.0979121941e+000	 9.3618512700e-002	 2.1101345562e+000
 2.0969830877e+000	 1.1252524055e-001	 2.1130909953e+000
 2.0958794877e+000	 1.3148830057e-001	 2.1086636522e+000
 2.0945997385e+000	 1.5050559944e-001	 2.0960361630e+000
 2.0931422120e+000	 1.6957499962e-001	 2.0744824595e+000
 2.0915053081e+000	 1.8869431958e-001	 2.0433702333e+000
 2.1250000000e+000	 0.0000000000e+000	 2.1253272040e+000
 2.1249166891e+000	 1.8816601028e-002	 2.1407277573e+000
 2.1246655504e+000	 3.7700117959e-002	 2.1545690510e+000
 2.1242447904e+000	 5.6648659007e-002	 2.1656405800e+000
 2.1236526366e+000	 7.5660286868e-002	 2.1728060138e+000
 2.1228873393e+000	 9.4733018803e-002	 2.1750070942e+000
 2.1219471721e+000	 1.1386482675e-001	 2.1712674806e+000
 2.1208304339e+000	 1.3305363748e-001	 2.1606965315e+000
 2.1195354497e+000	 1.5229733276e-001	 2.1424930123e+000
 2.1180605716e+000	 1.7159374962e-001	 2.1159487177e+000
 2.1164041808e+000	 1.9094068053e-001	 2.0804519988e+000
 2.1500000000e+000	 0.0000000000e+000	 2.2302157713e+000
 2.1499157090e+000	 1.9037972804e-002	 2.2390197848e+000
 2.1496616157e+000	 3.8143648758e-002	 2.2466065688e+000
 2.1492359056e+000	 5.7315113819e-002	 2.2517654225e+000
 2.1486367853e+000	 7.6550407890e-002	 2.2533623099e+000
 2.1478624844e+000	 9.5847524906e-002	 2.2503438447e+000
 2.1469112565e+000	 1.1520441295e-001	 2.2417412198e+000
 2.1457813802e+000	 1.3461897439e-001	 2.2266740689e+000
 2.1444711609e+000	 1.5408906609e-001	 2.2043542514e+000
 2.1429789313e+000	 1.7361249961e-001	 2.1740895484e+000
 2.1413030535e+000	 1.9318704148e-001	 2.1352872577e+000
 2.1750000000e+000	 0.0000000000e+000	 2.3335848499e+000
 2.1749147288e+000	 1.9259344581e-002	 2.3384777091e+000
 2.1746576810e+000	 3.8587179558e-002	 2.3423224407e+000
 2.1742270207e+000	 5.7981568630e-002	 2.3439054259e+000
 2.1736209339e+000	 7.7440528911e-002	 2.3420923321e+000
 2.1728376296e+000	 9.6962031009e-002	 2.3358321909e+000
 2.1718753409e+000	 1.1654399914e-001	 2.3241614164e+000
 2.1707323265e+000	 1.3618431130e-001	 2.3062077545e+000
 2.1694068720e+000	 1.5588079942e-001	 2.2811941495e+000
 2.1678972910e+000	 1.7563124961e-001	 2.2484425188e+000
 2.1662019262e+000	 1.9543340243e-001	 2.2073774219e+000
 2.2000000000e+000	 0.0000000000e+000	 2.4353241490e+000
 2.1999137487e+000	 1.9480716358e-002	 2.4389528791e+000
 2.1996537463e+000	 3.9030710357e-002	 2.4415299054e+000
 2.1992181359e+000	 5.8648023441e-002	 2.4418359874e+000
 2.1986050826e+000	 7.8330649933e-002	 2.4387339240e+000
 2.1978127748e+000	 9.8076537113e-002	 2.4311727308e+000
 2.1968394252e+000	 1.1788358534e-001	 2.4181917536e+000
 2.1956832728e+000	 1.3774964821e-001	 2.3989247099e+000
 2.1943425832e+000	 1.5767253274e-001	 2.3726036438e+000
 2.1928156506e+000	 1.7764999960e-001	 2.3385627843e+000
 2.1911007990e+000	 1.9767976337e-001	 2.2962422945e+000
 2.2250000000e+000	 0.0000000000e+000	 2.5353283347e+000
 2.2249127686e+000	 1.9702088134e-002	 2.5403033045e+000
 2.2246498116e+000	 3.9474241156e-002	 2.5440504679e+000
 2.2242092511e+000	 5.9314478253e-002	 2.5453422749e+000
 2.2235892313e+000	 7.9220770954e-002	 2.5430361026e+000
 2.2227879199e+000	 9.9191043216e-002	 2.5360785354e+000
 2.2218035096e+000	 1.1922317154e-001	 2.5235095813e+000
 2.2206342191e+000	 1.3931498512e-001	 2.5044668102e+000
 2.2192782944e+000	 1.5946426607e-001	 2.4781894032e+000
 2.2177340103e+000	 1.7966874960e-001	 2.4440221006e+000
 2.2159996717e+000	 1.9992612432e-001	 2.4014190354e+000
 2.2500000000e+000	 0.0000000000e+000	 2.6334967546e+000
 2.2499117884e+000	 1.9923459911e-002	 2.6423932861e+000
 2.2496458769e+000	 3.9917771955e-002	 2.6497134398e+000
 2.2492003663e+000	 5.9980933064e-002	 2.6542186847e+000
 2.2485733799e+000	 8.0110891976e-002	 2.6547584377e+000
 2.2477630651e+000	 1.0030554932e-001	 2.6502744552e+000
 2.2467675940e+000	 1.2056275773e-001	 2.6398051561e+000
 2.2455851654e+000	 1.4088032204e-001	 2.6224898636e+000
 2.2442140055e+000	 1.6125599940e-001	 2.5975729544e+000
 2.2426523700e+000	 1.8168749959e-001	 2.5644079014e+000
 2.2408985444e+000	 2.0217248527e-001	 2.5224611982e+000
 1.9919098172e+000	 1.7970887579e-001	 2.0832579011e+000
 1.9901785300e+000	 1.9796317532e-001	 2.1143116383e+000
 1.9882734453e+000	 2.1626073764e-001	 2.1372705109e+000
 1.9861931275e+000	 2.3459936123e-001	 2.1517476745e+000
 1.9839361725e+000	 2.5297680396e-001	 2.1574478059e+000
 1.9815012093e+000	 2.7139078356e-001	 2.1541696662e+000
 1.9788869010e+000	 2.8983897805e-001	 2.1418085284e+000
 1.9760919458e+000	 3.0831902626e-001	 2.1203584639e+000
 1.9731150785e+000	 3.2682852835e-001	 2.0899144759e+000
 1.9699550718e+000	 3.4536504635e-001	 2.0506744708e+000
 1.9666107368e+000	 3.6392610484e-001	 2.0029410590e+000
 2.0168086899e+000	 1.8195523674e-001	 2.0439314746e+000
 2.0150557616e+000	 2.0043771501e-001	 2.0677130507e+000
 2.0131268634e+000	 2.1896399687e-001	 2.0839863941e+000
 2.0110205416e+000	 2.3753185325e-001	 2.0923871845e+000
 2.0087353747e+000	 2.5613901401e-001	 2.0926453675e+000
 2.0062699745e+000	 2.7478316835e-001	 2.0845877564e+000
 2.0036229872e+000	 2.9346196528e-001	 2.0681404954e+000
 2.0007930951e+000	 3.1217301410e-001	 2.0433313730e+000
 1.9977790170e+000	 3.3091388495e-001	 2.0102919788e+000
 1.9945795102e+000	 3.4968210943e-001	 1.9692596906e+000
 1.9911933711e+000	 3.6847518115e-001	 1.9205794847e+000
 2.0417075627e+000	 1.8420159768e-001	 2.0245602152e+000
 2.0399329932e+000	 2.0291225470e-001	 2.0419052055e+000
 2.0379802815e+000	 2.2166725609e-001	 2.0521508224e+000
 2.0358479557e+000	 2.4046434526e-001	 2.0549542070e+000
 2.0335345769e+000	 2.5930122406e-001	 2.0500696835e+000
 2.0310387396e+000	 2.7817555315e-001	 2.0373514040e+000
 2.0283590735e+000	 2.9708495251e-001	 2.0167558503e+000
 2.0254942444e+000	 3.1602700193e-001	 1.9883441801e+000
 2.0224429555e+000	 3.3499924156e-001	 1.9522844090e+000
 2.0192039486e+000	 3.5399917252e-001	 1.9088534180e+000
 2.0157760053e+000	 3.7302425746e-001	 1.8584387766e+000
 2.0666064354e+000	 1.8644795863e-001	 2.0245600475e+000
 2.0648102249e+000	 2.0538679439e-001	 2.0362725235e+000
 2.0628336995e+000	 2.2437051531e-001	 2.0411171517e+000
 2.0606753698e+000	 2.4339683728e-001	 2.0387715008e+000
 2.0583337790e+000	 2.6246343411e-001	 2.0290134125e+000
 2.0558075047e+000	 2.8156793795e-001	 2.0117236952e+000
 2.0530951598e+000	 3.0070793974e-001	 1.9868886674e+000
 2.0501953937e+000	 3.1988098976e-001	 1.9546025407e+000
 2.0471068940e+000	 3.3908459817e-001	 1.9150696317e+000
 2.0438283870e+000	 3.5831623560e-001	 1.8686063920e+000
 2.0403586395e+000	 3.7757333378e-001	 1.8156432481e+000
 2.0915053081e+000	 1.8869431958e-001	 2.0433702333e+000
 2.0896874565e+000	 2.0786133409e-001	 2.0502232840e+000
 2.0876871176e+000	 2.2707377453e-001	 2.0502629992e+000
 2.0855027839e+000	 2.4632932930e-001	 2.0431863682e+000
 2.0831329812e+000	 2.6562564417e-001	 2.0287939180e+000
 2.0805762698e+000	 2.8496032274e-001	 2.0069924598e+000
 2.0778312460e+000	 3.0433092696e-001	 1.9777976792e+000
 2.0748965430e+000	 3.2373497759e-001	 1.9413365590e+000
 2.0717708325e+000	 3.4316995478e-001	 1.8978496245e+000
 2.0684528254e+000	 3.6263329868e-001	 1.8476930010e+000
 2.0649412737e+000	 3.8212241009e-001	 1.7913402719e+000
 2.1164041808e+000	 1.9094068053e-001	 2.0804519988e+000
 2.1145646881e+000	 2.1033587378e-001	 2.0831882213e+000
 2.1125405357e+000	 2.2977703375e-001	 2.0789888161e+000
 2.1103301980e+000	 2.4926182132e-001	 2.0675692114e+000
 2.1079321833e+000	 2.6878785422e-001	 2.0487518146e+000
 2.1053450349e+000	 2.8835270754e-001	 2.0224688153e+000
 2.1025673323e+000	 3.0795391419e-001	 1.9887648260e+000
 2.0995976924e+000	 3.2758896542e-001	 1.9477993489e+000
 2.0964347709e+000	 3.4725531138e-001	 1.8998490592e+000
 2.0930772638e+000	 3.6695036176e-001	 1.8453098917e+000
 2.0895239079e+000	 3.8667148640e-001	 1.7846989227e+000
 2.1413030535e+000	 1.9318704148e-001	 2.1352872577e+000
 2.1394419197e+000	 2.1281041347e-001	 2.1346192193e+000
 2.1373939537e+000	 2.3248029298e-001	 2.1267165595e+000
 2.1351576121e+000	 2.5219431333e-001	 2.1113121892e+000
 2.1327313855e+000	 2.7195006427e-001	 2.0882496170e+000
 2.1301138000e+000	 2.9174509234e-001	 2.0574858134e+000
 2.1273034185e+000	 3.1157690142e-001	 2.0190939066e+000
 2.1242988417e+000	 3.3144295325e-001	 1.9732656971e+000
 2.1210987094e+000	 3.5134066799e-001	 1.9203139820e+000
 2.1177017022e+000	 3.7126742484e-001	 1.8606746756e+000
 2.1141065421e+000	 3.9122056271e-001	 1.7949087163e+000
 2.1662019262e+000	 1.9543340243e-001	 2.2073774219e+000
 2.1643191514e+000	 2.1528495317e-001	 2.2039880958e+000
 2.1622473718e+000	 2.3518355220e-001	 2.1928884574e+000
 2.1599850262e+000	 2.5512680535e-001	 2.1738279672e+000
 2.1575305876e+000	 2.7511227432e-001	 2.1466704808e+000
 2.1548825652e+000	 2.9513747713e-001	 2.1113971790e+000
 2.1520395048e+000	 3.1519988865e-001	 2.0681093220e+000
 2.1489999910e+000	 3.3529694108e-001	 2.0170308168e+000
 2.1457626479e+000	 3.5542602459e-001	 1.9585105855e+000
 2.1423261406e+000	 3.7558448792e-001	 1.8930247232e+000
 2.1386891763e+000	 3.9576963903e-001	 1.8211784342e+000
 2.1911007990e+000	 1.9767976337e-001	 2.2962422945e+000
 2.1891963830e+000	 2.1775949286e-001	 2.2907854702e+000
 2.1871007899e+000	 2.3788681142e-001	 2.2769658561e+000
 2.1848124402e+000	 2.5805929737e-001	 2.2545485518e+000
 2.1823297898e+000	 2.7827448437e-001	 2.2234170297e+000
 2.1796513303e+000	 2.9852986193e-001	 2.1835761355e+000
 2.1767755911e+000	 3.1882287587e-001	 2.1351549050e+000
 2.1737011403e+000	 3.3915092891e-001	 2.0784091878e+000
 2.1704265864e+000	 3.5951138120e-001	 2.0137240638e+000
 2.1669505789e+000	 3.7990155100e-001	 1.9416160421e+000
 2.1632718105e+000	 4.0031871534e-001	 1.8627350294e+000
 2.2159996717e+000	 1.9992612432e-001	 2.4014190354e+000
 2.2140736146e+000	 2.2023403255e-001	 2.3945197068e+000
 2.2119542079e+000	 2.4059007064e-001	 2.3784281466e+000
 2.2096398543e+000	 2.6099178938e-001	 2.3529242043e+000
 2.2071289919e+000	 2.8143669442e-001	 2.3179102623e+000
 2.2044200954e+000	 3.0192224673e-001	 2.2734143100e+000
 2.2015116773e+000	 3.2244586310e-001	 2.2195928284e+000
 2.1984022896e+000	 3.4300491674e-001	 2.1567334734e+000
 2.1950905249e+000	 3.6359673781e-001	 2.0852575450e+000
 2.1915750173e+000	 3.8421861408e-001	 2.0057222298e+000
 2.1878544447e+000	 4.0486779165e-001	 1.9188226051e+000
 2.2408985444e+000	 2.0217248527e-001	 2.5224611982e+000
 2.2389508462e+000	 2.2270857224e-001	 2.5147159294e+000
 2.2368076260e+000	 2.4329332986e-001	 2.4967717619e+000
 2.2344672684e+000	 2.6392428140e-001	 2.4684224266e+000
 2.2319281941e+000	 2.8459890447e-001	 2.4295885308e+000
 2.2291888605e+000	 3.0531463152e-001	 2.3803207103e+000
 2.2262477636e+000	 3.2606885033e-001	 2.3208025858e+000
 2.2231034390e+000	 3.4685890457e-001	 2.2513535106e+000
 2.2197544633e+000	 3.6768209441e-001	 2.1724310948e+000
 2.2161994557e+000	 3.8853567716e-001	 2.0846334960e+000
 2.2124370789e+000	 4.0941686796e-001	 1.9887014624e+000
 1.9666107368e+000	 3.6392610484e-001	 2.0029410590e+000
 1.9630809251e+000	 3.8250919152e-001	 2.0095322846e+000
 1.9593645290e+000	 4.0111175798e-001	 2.0044451584e+000
 1.9554604835e+000	 4.1973122034e-001	 1.9882801800e+000
 1.9513677669e+000	 4.3836496008e-001	 1.9617512983e+000
 1.9470854021e+000	 4.5701032483e-001	 1.9256868117e+000
 1.9426124576e+000	 4.7566462918e-001	 1.8810300425e+000
 1.9379480490e+000	 4.9432515561e-001	 1.8288397808e+000
 1.9330913394e+000	 5.1298915537e-001	 1.7702904902e+000
 1.9280415411e+000	 5.3165384949e-001	 1.7066722673e+000
 1.9227979164e+000	 5.5031642970e-001	 1.6393905513e+000
 1.9911933711e+000	 3.6847518115e-001	 1.9205794847e+000
 1.9876194366e+000	 3.8729055642e-001	 1.9280108064e+000
 1.9838565856e+000	 4.0612565496e-001	 1.9254095206e+000
 1.9799037396e+000	 4.2497786060e-001	 1.9134253283e+000
 1.9757598640e+000	 4.4384452209e-001	 1.8928236112e+000
 1.9714239696e+000	 4.6272295389e-001	 1.8644862953e+000
 1.9668951134e+000	 4.8161043705e-001	 1.8294124824e+000
 1.9621723996e+000	 5.0050422005e-001	 1.7887188434e+000
 1.9572549812e+000	 5.1940151982e-001	 1.7436397654e+000
 1.9521420604e+000	 5.3829952261e-001	 1.6955272457e+000
 1.9468328903e+000	 5.5719538508e-001	 1.6458505277e+000
 2.0157760053e+000	 3.7302425746e-001	 1.8584387766e+000
 2.0121579482e+000	 3.9207192132e-001	 1.8654042579e+000
 2.0083486423e+000	 4.1113955194e-001	 1.8637844915e+000
 2.0043469956e+000	 4.3022450086e-001	 1.8542792006e+000
 2.0001519611e+000	 4.4932408409e-001	 1.8377062365e+000
 1.9957625371e+000	 4.6843558295e-001	 1.8150024079e+000
 1.9911777691e+000	 4.8755624491e-001	 1.7872240715e+000
 1.9863967502e+000	 5.0668328450e-001	 1.7555474755e+000
 1.9814186229e+000	 5.2581388426e-001	 1.7212688498e+000
 1.9762425797e+000	 5.4494519573e-001	 1.6858042350e+000
 1.9708678643e+000	 5.6407434045e-001	 1.6506890452e+000
 2.0403586395e+000	 3.7757333378e-001	 1.8156432481e+000
 2.0366964598e+000	 3.9685328622e-001	 1.8208234657e+000
 2.0328406989e+000	 4.1615344891e-001	 1.8186688481e+000
 2.0287902517e+000	 4.3547114111e-001	 1.8099300026e+000
 2.0245440582e+000	 4.5480364609e-001	 1.7954783286e+000
 2.0201011047e+000	 4.7414821202e-001	 1.7763068157e+000
 2.0154604248e+000	 4.9350205278e-001	 1.7535305937e+000
 2.0106211008e+000	 5.1286234895e-001	 1.7283872289e+000
 2.0055822646e+000	 5.3222624870e-001	 1.7022367578e+000
 2.0003430989e+000	 5.5159086884e-001	 1.6765614524e+000
 1.9949028382e+000	 5.7095329582e-001	 1.6529653096e+000
 2.0649412737e+000	 3.8212241009e-001	 1.7913402719e+000
 2.0612349713e+000	 4.0163465111e-001	 1.7934010148e+000
 2.0573327555e+000	 4.2116734589e-001	 1.7891816643e+000
 2.0532335077e+000	 4.4071778137e-001	 1.7794846136e+000
 2.0489361553e+000	 4.6028320810e-001	 1.7652359305e+000
 2.0444396722e+000	 4.7986084108e-001	 1.7474861247e+000
 2.0397430805e+000	 4.9944786064e-001	 1.7274106606e+000
 2.0348454514e+000	 5.1904141339e-001	 1.7063102068e+000
 2.0297459064e+000	 5.3863861314e-001	 1.6856106148e+000
 2.0244436182e+000	 5.5823654196e-001	 1.6668626208e+000
 2.0189378122e+000	 5.7783225119e-001	 1.6517412627e+000
 2.0895239079e+000	 3.8667148640e-001	 1.7846989227e+000
 2.0857734829e+000	 4.0641601601e-001	 1.7822899687e+000
 2.0818248121e+000	 4.2618124287e-001	 1.7744611171e+000
 2.0776767638e+000	 4.4596442162e-001	 1.7620674887e+000
 2.0733282524e+000	 4.6576277010e-001	 1.7460909798e+000
 2.0687782397e+000	 4.8557347014e-001	 1.7276410017e+000
 2.0640257362e+000	 5.0539366851e-001	 1.7079549567e+000
 2.0590698020e+000	 5.2522047784e-001	 1.6883984432e+000
 2.0539095481e+000	 5.4505097759e-001	 1.6704651800e+000
 2.0485441375e+000	 5.6488221508e-001	 1.6557766450e+000
 2.0429727862e+000	 5.8471120656e-001	 1.6460814208e+000
 2.1141065421e+000	 3.9122056271e-001	 1.7949087163e+000
 2.1103119945e+000	 4.1119738090e-001	 1.7866626791e+000
 2.1063168687e+000	 4.3119513984e-001	 1.7736633763e+000
 2.1021200198e+000	 4.5121106188e-001	 1.7568196368e+000
 2.0977203495e+000	 4.7124233210e-001	 1.7371703854e+000
 2.0931168073e+000	 4.9128609920e-001	 1.7158853571e+000
 2.0883083920e+000	 5.1133947637e-001	 1.6942655377e+000
 2.0832941527e+000	 5.3139954228e-001	 1.6737433254e+000
 2.0780731899e+000	 5.5146334203e-001	 1.6558824022e+000
 2.0726446567e+000	 5.7152788820e-001	 1.6423773103e+000
 2.0670077601e+000	 5.9159016193e-001	 1.6350527255e+000
 2.1386891763e+000	 3.9576963903e-001	 1.8211784342e+000
 2.1348505060e+000	 4.1597874580e-001	 1.8057096768e+000
 2.1308089253e+000	 4.3620903682e-001	 1.7859615698e+000
 2.1265632759e+000	 4.5645770213e-001	 1.7628976687e+000
 2.1221124465e+000	 4.7672189410e-001	 1.7376151665e+000
 2.1174553748e+000	 4.9699872826e-001	 1.7113455838e+000
 2.1125910477e+000	 5.1728528424e-001	 1.6854551770e+000
 2.1075185033e+000	 5.3757860672e-001	 1.6614450566e+000
 2.1022368316e+000	 5.5787570647e-001	 1.6409510072e+000
 2.0967451760e+000	 5.7817356131e-001	 1.6257430020e+000
 2.0910427341e+000	 5.9846911730e-001	 1.6177244044e+000
 2.1632718105e+000	 4.0031871534e-001	 1.8627350294e+000
 2.1593890176e+000	 4.2076011069e-001	 1.8386386395e+000
 2.1553009819e+000	 4.4122293379e-001	 1.8105448208e+000
 2.1510065319e+000	 4.6170434238e-001	 1.7794729114e+000
 2.1465045436e+000	 4.8220145610e-001	 1.7465796508e+000
 2.1417939423e+000	 5.0271135732e-001	 1.7131598476e+000
 2.1368737034e+000	 5.2323109210e-001	 1.6806467564e+000
 2.1317428539e+000	 5.4375767117e-001	 1.6506121548e+000
 2.1264004734e+000	 5.6428807091e-001	 1.6247661125e+000
 2.1208456953e+000	 5.8481923443e-001	 1.6049564443e+000
 2.1150777080e+000	 6.0534807266e-001	 1.5931678406e+000
 2.1878544447e+000	 4.0486779165e-001	 1.9188226051e+000
 2.1839275292e+000	 4.2554147558e-001	 1.8846734279e+000
 2.1797930386e+000	 4.4623683076e-001	 1.8466173484e+000
 2.1754497879e+000	 4.6695098264e-001	 1.8057305808e+000
 2.1708966407e+000	 4.8768101810e-001	 1.7632307274e+000
 2.1661325098e+000	 5.0842398637e-001	 1.7204774263e+000
 2.1611563591e+000	 5.2917689996e-001	 1.6789726987e+000
 2.1559672045e+000	 5.4993673561e-001	 1.6403609858e+000
 2.1505641151e+000	 5.7070043534e-001	 1.6064288678e+000
 2.1449462145e+000	 5.9146490754e-001	 1.5791044561e+000
 2.1391126820e+000	 6.1222702803e-001	 1.5604564524e+000
 2.2124370789e+000	 4.0941686796e-001	 1.9887014624e+000
 2.2084660407e+000	 4.3032284048e-001	 1.9430531868e+000
 2.2042850952e+000	 4.5125072774e-001	 1.8933976297e+000
 2.1998930440e+000	 4.7219762289e-001	 1.8408690105e+000
 2.1952887378e+000	 4.9316058010e-001	 1.7867471485e+000
 2.1904710774e+000	 5.1413661543e-001	 1.7324580919e+000
 2.1854390149e+000	 5.3512270782e-001	 1.6795744373e+000
 2.1801915551e+000	 5.5611580005e-001	 1.6298153274e+000
 2.1747277568e+000	 5.7711279978e-001	 1.5850461208e+000
 2.1690467338e+000	 5.9811058066e-001	 1.5472777239e+000
 2.1631476559e+000	 6.1910598340e-001	 1.5186655796e+000
 1.9227979164e+000	 5.5031642970e-001	 1.6393905513e+000
 1.9173597783e+000	 5.6897405956e-001	 1.4413527587e+000
 1.9117264922e+000	 5.8762387544e-001	 1.2650919620e+000
 1.9058974762e+000	 6.0626298769e-001	 1.1123326732e+000
 1.8998722024e+000	 6.2488848178e-001	 9.8488733426e-001
 1.8936501977e+000	 6.4349741945e-001	 9.5435257118e-001
 1.8872310448e+000	 6.6208683995e-001	 9.3456267977e-001
 1.8806143829e+000	 6.8065376130e-001	 9.2535456943e-001
 1.8737999088e+000	 6.9919518155e-001	 9.1569495166e-001
 1.8667873772e+000	 7.1770808012e-001	 8.6260590789e-001
 1.8595766021e+000	 7.3618941913e-001	 8.2003443877e-001
 1.9468328903e+000	 5.5719538508e-001	 1.6458505277e+000
 1.9413267756e+000	 5.7608623530e-001	 1.4588462169e+000
 1.9356230734e+000	 5.9496917388e-001	 1.2924832530e+000
 1.9297211947e+000	 6.1384127504e-001	 1.1485683711e+000
 1.9236206049e+000	 6.3269958780e-001	 1.0569286126e+000
 1.9173208252e+000	 6.5154113719e-001	 1.0207479819e+000
 1.9108214328e+000	 6.7036292545e-001	 9.9546518177e-001
 1.9041220627e+000	 6.8916193331e-001	 9.8138954679e-001
 1.8972224076e+000	 7.0793512132e-001	 9.7881383410e-001
 1.8901222194e+000	 7.2667943112e-001	 9.8801388271e-001
 1.8828213097e+000	 7.4539178687e-001	 1.0092482991e+000
 1.9708678643e+000	 5.6407434045e-001	 1.6506890452e+000
 1.9652937728e+000	 5.8319841105e-001	 1.4730488587e+000
 1.9595196545e+000	 6.0231447232e-001	 1.3148198349e+000
 1.9535449131e+000	 6.2141956238e-001	 1.1778938817e+000
 1.9473690074e+000	 6.4051069382e-001	 1.1118036207e+000
 1.9409914526e+000	 6.5958485493e-001	 1.0691100177e+000
 1.9344118209e+000	 6.7863901094e-001	 1.0379393743e+000
 1.9276297425e+000	 6.9767010533e-001	 1.0185999517e+000
 1.9206449065e+000	 7.1667506109e-001	 1.0113825540e+000
 1.9134570617e+000	 7.3565078212e-001	 1.0165601854e+000
 1.9060660172e+000	 7.5459415461e-001	 1.0343877352e+000
 1.9949028382e+000	 5.7095329582e-001	 1.6529653096e+000
 1.9892607700e+000	 5.9031058679e-001	 1.4829664266e+000
 1.9834162357e+000	 6.0965977076e-001	 1.3310527674e+000
 1.9773686316e+000	 6.2899784972e-001	 1.2105804226e+000
 1.9711174100e+000	 6.4832179984e-001	 1.1491721081e+000
 1.9646620801e+000	 6.6762857267e-001	 1.0995862022e+000
 1.9580022090e+000	 6.8691509644e-001	 1.0621476863e+000
 1.9511374223e+000	 7.0617827734e-001	 1.0371635702e+000
 1.9440674054e+000	 7.2541500086e-001	 1.0249225205e+000
 1.9367919039e+000	 7.4462213312e-001	 1.0256945150e+000
 1.9293107247e+000	 7.6379652235e-001	 1.0397305279e+000
 2.0189378122e+000	 5.7783225119e-001	 1.6517412627e+000
 2.0132277673e+000	 5.9742276253e-001	 1.4876071445e+000
 2.0073128168e+000	 6.1700506920e-001	 1.3401353197e+000
 2.0011923500e+000	 6.3657613707e-001	 1.2384593119e+000
 1.9948658125e+000	 6.5613290586e-001	 1.1691687678e+000
 1.9883327076e+000	 6.7567229041e-001	 1.1123253507e+000
 1.9815925970e+000	 6.9519118194e-001	 1.0682534973e+000
 1.9746451021e+000	 7.1468644936e-001	 1.0372587813e+000
 1.9674899042e+000	 7.3415494062e-001	 1.0196275389e+000
 1.9601267461e+000	 7.5359348412e-001	 1.0156265216e+000
 1.9525554322e+000	 7.7299889008e-001	 1.0255025816e+000
 2.0429727862e+000	 5.8471120656e-001	 1.6460814208e+000
 2.0371947645e+000	 6.0453493827e-001	 1.4859815714e+000
 2.0312093980e+000	 6.2435036764e-001	 1.3410228406e+000
 2.0250160685e+000	 6.4415442441e-001	 1.2494543309e+000
 2.0186142150e+000	 6.6394401188e-001	 1.1719298124e+000
 2.0120033350e+000	 6.8371600815e-001	 1.1074774935e+000
 2.0051829851e+000	 7.0346726743e-001	 1.0564210817e+000
 1.9981527819e+000	 7.2319462137e-001	 1.0190645222e+000
 1.9909124031e+000	 7.4289488039e-001	 9.9569161997e-001
 1.9834615883e+000	 7.6256483512e-001	 9.8656569206e-001
 1.9758001398e+000	 7.8220125782e-001	 9.9192925276e-001
 2.0670077601e+000	 5.9159016193e-001	 1.6350527255e+000
 2.0611617617e+000	 6.1164711402e-001	 1.4771024662e+000
 2.0551059791e+000	 6.3169566608e-001	 1.3431421346e+000
 2.0488397869e+000	 6.5173271175e-001	 1.2436900105e+000
 2.0423626176e+000	 6.7175511790e-001	 1.1575928857e+000
 2.0356739625e+000	 6.9175972589e-001	 1.0851938054e+000
 2.0287733731e+000	 7.1174335293e-001	 1.0268155567e+000
 2.0216604616e+000	 7.3170279338e-001	 9.8276025588e-001
 2.0143349019e+000	 7.5163482016e-001	 9.5330896819e-001
 2.0067964305e+000	 7.7153618612e-001	 9.3872135946e-001
 1.9990448473e+000	 7.9140362556e-001	 9.3923538168e-001
 2.0910427341e+000	 5.9846911730e-001	 1.6177244044e+000
 2.0851287589e+000	 6.1875928976e-001	 1.4599846607e+000
 2.0790025603e+000	 6.3904096452e-001	 1.3302702183e+000
 2.0726635054e+000	 6.5931099910e-001	 1.2212924866e+000
 2.0661110201e+000	 6.7956622392e-001	 1.1262969805e+000
 2.0593445900e+000	 6.9980344363e-001	 1.0456265401e+000
 2.0523637612e+000	 7.2001943843e-001	 9.7960283360e-001
 2.0451681414e+000	 7.4021096540e-001	 9.2852594068e-001
 2.0377574008e+000	 7.6037475992e-001	 8.9267397031e-001
 2.0301312727e+000	 7.8050753712e-001	 8.7230271200e-001
 2.0222895548e+000	 8.0060599330e-001	 8.6764532240e-001
 2.1150777080e+000	 6.0534807266e-001	 1.5931678406e+000
 2.1090957562e+000	 6.2587146550e-001	 1.4342730612e+000
 2.1028991414e+000	 6.4638626296e-001	 1.3012076693e+000
 2.0964872238e+000	 6.6688928644e-001	 1.1823894084e+000
 2.0898594226e+000	 6.8737732993e-001	 1.0781823617e+000
 2.0830152175e+000	 7.0784716137e-001	 9.8892896885e-001
 2.0759541493e+000	 7.2829552392e-001	 9.1494957309e-001
 2.0686758212e+000	 7.4871913741e-001	 8.5654200243e-001
 2.0611798997e+000	 7.6911469969e-001	 8.1398118517e-001
 2.0534661149e+000	 7.8947888812e-001	 7.8751880123e-001
 2.0455342623e+000	 8.0980836103e-001	 7.7738297016e-001
 2.1391126820e+000	 6.1222702803e-001	 1.5604564524e+000
 2.1330627534e+000	 6.3298364124e-001	 1.3999112104e+000
 2.1267957226e+000	 6.5373156140e-001	 1.2560715618e+000
 2.1203109423e+000	 6.7446757378e-001	 1.1271098536e+000
 2.1136078252e+000	 6.9518843595e-001	 1.0133904953e+000
 2.1066858449e+000	 7.1589087911e-001	 9.1525532312e-001
 2.0995445373e+000	 7.3657160942e-001	 8.3302314285e-001
 2.0921835010e+000	 7.5722730942e-001	 7.6698930802e-001
 2.0846023985e+000	 7.7785463946e-001	 7.1742533403e-001
 2.0768009572e+000	 7.9845023912e-001	 6.8457854971e-001
 2.0687789699e+000	 8.1901072877e-001	 6.6867178722e-001
 2.1631476559e+000	 6.1910598340e-001	 1.5186655796e+000
 2.1570297506e+000	 6.4009581698e-001	 1.3498882616e+000
 2.1506923038e+000	 6.6107685984e-001	 1.1949805218e+000
 2.1441346607e+000	 6.8204586113e-001	 1.0555842492e+000
 2.1373562277e+000	 7.0299954197e-001	 9.3206398125e-001
 2.1303564724e+000	 7.2393459685e-001	 8.2476074144e-001
 2.1231349254e+000	 7.4484769492e-001	 7.3399157837e-001
 2.1156911808e+000	 7.6573548144e-001	 6.6004914092e-001
 2.1080248974e+000	 7.8659457923e-001	 6.0320129148e-001
 2.1001357994e+000	 8.0742159012e-001	 5.6369075817e-001
 2.0920236774e+000	 8.2821309651e-001	 5.4173482692e-001
 1.8595766021e+000	 7.3618941913e-001	 8.2003443877e-001
 1.8521674571e+000	 7.5463614479e-001	 6.6497124099e-001
 1.8445598760e+000	 7.7304518882e-001	 5.1593774845e-001
 1.8367538539e+000	 7.9141346985e-001	 3.7416588414e-001
 1.8287494474e+000	 8.0973789495e-001	 2.4089758613e-001
 1.8205467755e+000	 8.2801536107e-001	 1.1738255813e-001
 1.8121460198e+000	 8.4624275656e-001	 4.8759662766e-003
 1.8035474251e+000	 8.6441696276e-001	-9.5363913430e-002
 1.7947513000e+000	 8.8253485550e-001	-1.8207809201e-001
 1.7857580172e+000	 9.0059330673e-001	-2.5400930377e-001
 1.7765680137e+000	 9.1858918611e-001	-3.0990447657e-001
 1.8828213097e+000	 7.4539178687e-001	 1.0092482991e+000
 1.8753195503e+000	 7.6406909660e-001	 9.2941875801e-001
 1.8676168744e+000	 7.8270825368e-001	 7.8614085185e-001
 1.8597132771e+000	 8.0130613823e-001	 6.4497126803e-001
 1.8516088155e+000	 8.1985961864e-001	 5.1013020281e-001
 1.8433036102e+000	 8.3836555308e-001	 3.8289943702e-001
 1.8347978450e+000	 8.5682079102e-001	 2.6456844370e-001
 1.8260917679e+000	 8.7522217479e-001	 1.5643198406e-001
 1.8171856912e+000	 8.9356654119e-001	 5.9787655274e-002
 1.8080799924e+000	 9.1185072306e-001	-2.4066604863e-002
 1.7987751138e+000	 9.3007155093e-001	-9.3835050856e-002
 1.9060660172e+000	 7.5459415461e-001	 1.0343877352e+000
 1.8984716435e+000	 7.7350204841e-001	 9.6203276455e-001
 1.8906738729e+000	 7.9237131854e-001	 8.9128468586e-001
 1.8826727002e+000	 8.1119880660e-001	 8.2257881544e-001
 1.8744681836e+000	 8.2998134233e-001	 7.5180222879e-001
 1.8660604449e+000	 8.4871574509e-001	 6.1913805616e-001
 1.8574496703e+000	 8.6739882548e-001	 4.9333103747e-001
 1.8486361107e+000	 8.8602738683e-001	 3.7571483630e-001
 1.8396200825e+000	 9.0459822689e-001	 2.6762804869e-001
 1.8304019676e+000	 9.2310813940e-001	 1.7041164508e-001
 1.8209822140e+000	 9.4155391576e-001	 8.5406370981e-002
 1.9293107247e+000	 7.6379652235e-001	 1.0397305279e+000
 1.9216237367e+000	 7.8293500022e-001	 9.7413111868e-001
 1.9137308713e+000	 8.0203438340e-001	 9.0827842047e-001
 1.9056321234e+000	 8.2109147497e-001	 8.4258219218e-001
 1.8973275517e+000	 8.4010306601e-001	 7.7744673339e-001
 1.8888172796e+000	 8.5906593711e-001	 7.1327067512e-001
 1.8801014955e+000	 8.7797685993e-001	 6.5044678406e-001
 1.8711804535e+000	 8.9683259886e-001	 5.6121719311e-001
 1.8620544737e+000	 9.1562991258e-001	 4.4015080517e-001
 1.8527239428e+000	 9.3436555573e-001	 3.2810664076e-001
 1.8431893142e+000	 9.5303628058e-001	 2.2647279205e-001
 1.9525554322e+000	 7.7299889008e-001	 1.0255025816e+000
 1.9447758299e+000	 7.9236795203e-001	 9.6596826089e-001
 1.9367878698e+000	 8.1169744825e-001	 9.0437748305e-001
 1.9285915466e+000	 8.3098414334e-001	 8.4111469262e-001
 1.9201869198e+000	 8.5022478970e-001	 7.7656014872e-001
 1.9115741143e+000	 8.6941612912e-001	 7.1108976894e-001
 1.9027533208e+000	 8.8855489439e-001	 6.4507498580e-001
 1.8937247963e+000	 9.0763781090e-001	 5.7888261591e-001
 1.8844888650e+000	 9.2666159827e-001	 5.1287474178e-001
 1.8750459180e+000	 9.4562297206e-001	 4.4740860624e-001
 1.8653964143e+000	 9.6451864541e-001	 3.2801065990e-001
 1.9758001398e+000	 7.8220125782e-001	 9.9192925276e-001
 1.9679279231e+000	 8.0180090384e-001	 9.3779712406e-001
 1.9598448682e+000	 8.2136051311e-001	 8.7986069356e-001
 1.9515509698e+000	 8.4087681172e-001	 8.1847930788e-001
 1.9430462879e+000	 8.6034651339e-001	 7.5400936562e-001
 1.9343309490e+000	 8.7976632113e-001	 6.8680421394e-001
 1.9254051460e+000	 8.9913292885e-001	 6.1721405716e-001
 1.9162691391e+000	 9.1844302293e-001	 5.4558587730e-001
 1.9069232562e+000	 9.3769328397e-001	 4.7226336640e-001
 1.8973678932e+000	 9.5688038840e-001	 3.9758687058e-001
 1.8876035145e+000	 9.7600101023e-001	 3.2189334529e-001
 1.9990448473e+000	 7.9140362556e-001	 9.3923538168e-001
 1.9910800163e+000	 8.1123385565e-001	 8.8986922112e-001
 1.9829018667e+000	 8.3102357797e-001	 8.3500462917e-001
 1.9745103929e+000	 8.5076948009e-001	 7.7497604552e-001
 1.9659056560e+000	 8.7046823707e-001	 7.1011616324e-001
 1.9570877837e+000	 8.9011651315e-001	 6.4075587795e-001
 1.9480569713e+000	 9.0971096330e-001	 5.6722424838e-001
 1.9388134820e+000	 9.2924823496e-001	 4.8984846819e-001
 1.9293576475e+000	 9.4872496966e-001	 4.0895384879e-001
 1.9196898685e+000	 9.6813780473e-001	 3.2486381288e-001
 1.9098106147e+000	 9.8748337506e-001	 2.3789989829e-001
 2.0222895548e+000	 8.0060599330e-001	 8.6764532240e-001
 2.0142321096e+000	 8.2066680746e-001	 8.2243472663e-001
 2.0059588651e+000	 8.4068664283e-001	 7.7008375320e-001
 1.9974698161e+000	 8.6066214846e-001	 7.1090210097e-001
 1.9887650241e+000	 8.8058996076e-001	 6.4519888840e-001
 1.9798446184e+000	 9.0046670516e-001	 5.7328265501e-001
 1.9707087965e+000	 9.2028899776e-001	 4.9546137392e-001
 1.9613578248e+000	 9.4005344700e-001	 4.1204247479e-001
 1.9517920388e+000	 9.5975665535e-001	 3.2333287713e-001
 1.9420118437e+000	 9.7939522106e-001	 2.2963903336e-001
 1.9320177149e+000	 9.9896573988e-001	 1.3126698132e-001
 2.0455342623e+000	 8.0980836103e-001	 7.7738297016e-001
 2.0373842028e+000	 8.3009975926e-001	 7.3574255285e-001
 2.0290158636e+000	 8.5034970769e-001	 6.8537053521e-001
 2.0204292393e+000	 8.7055481683e-001	 6.2655201736e-001
 2.0116243922e+000	 8.9071168444e-001	 5.5957265060e-001
 2.0026014531e+000	 9.1081689717e-001	 4.8471869118e-001
 1.9933606218e+000	 9.3086703222e-001	 4.0227706451e-001
 1.9839021676e+000	 9.5085865903e-001	 3.1253543934e-001
 1.9742264300e+000	 9.7078834105e-001	 2.1578231150e-001
 1.9643338189e+000	 9.9065263740e-001	 1.1230709662e-001
 1.9542248150e+000	 1.0104481047e+000	 2.4002312407e-003
 2.0687789699e+000	 8.1901072877e-001	 6.6867178722e-001
 2.0605362960e+000	 8.3953271107e-001	 6.3004042065e-001
 2.0520728620e+000	 8.6001277255e-001	 5.8113556302e-001
 2.0433886625e+000	 8.8044748521e-001	 5.2221783447e-001
 2.0344837603e+000	 9.0083340813e-001	 4.5354950395e-001
 2.0253582878e+000	 9.2116708919e-001	 3.7539459508e-001
 2.0160124470e+000	 9.4144506667e-001	 2.8801900214e-001
 2.0064465104e+000	 9.6166387107e-001	 1.9169061535e-001
 1.9966608213e+000	 9.8182002674e-001	 8.6679455140e-002
 1.9866557941e+000	 1.0019100537e+000	-2.6742185469e-002
 1.9764319152e+000	 1.0219304695e+000	-1.4829959087e-001
 2.0920236774e+000	 8.2821309651e-001	 5.4173482692e-001
 2.0836883892e+000	 8.4896566288e-001	 5.0557492568e-001
 2.0751298605e+000	 8.6967583741e-001	 4.5764764722e-001
 2.0663480856e+000	 8.9034015358e-001	 3.9818922785e-001
 2.0573431284e+000	 9.1095513182e-001	 3.2743861684e-001
 2.0481151225e+000	 9.3151728120e-001	 2.4563763445e-001
 2.0386642723e+000	 9.5202310113e-001	 1.5303113950e-001
 2.0289908532e+000	 9.7246908310e-001	 4.9867205944e-002
 2.0190952125e+000	 9.9285171243e-001	-6.3602692428e-002
 2.0089777693e+000	 1.0131674701e+000	-1.8712348970e-001
 1.9986390154e+000	 1.0334128344e+000	-3.2043632888e-001
 1.7765680137e+000	 9.1858918611e-001	-3.0990447657e-001
 1.7671817913e+000	 9.3651936262e-001	-3.3712712911e-001
 1.7575999168e+000	 9.5438070623e-001	-3.8224799789e-001
 1.7478230222e+000	 9.7217008953e-001	-4.4423566812e-001
 1.7378518049e+000	 9.8988438938e-001	-5.2203935376e-001
 1.7276870275e+000	 1.0075204886e+000	-6.1459094944e-001
 1.7173295184e+000	 1.0250752778e+000	-7.2080712128e-001
 1.7067801714e+000	 1.0425456567e+000	-8.3959143146e-001
 1.6960399458e+000	 1.0599285364e+000	-9.6983649136e-001
 1.6851098662e+000	 1.0772208403e+000	-1.1104261380e+000
 1.6739910224e+000	 1.0944195068e+000	-1.2602376282e+000
 1.7987751138e+000	 9.3007155093e-001	-9.3835050856e-002
 1.7892715637e+000	 9.4822585465e-001	-1.3604189813e-001
 1.7795699158e+000	 9.6631046506e-001	-1.9046487409e-001
 1.7696708100e+000	 9.8432221564e-001	-2.5600823870e-001
 1.7595749524e+000	 1.0022579442e+000	-3.3156192289e-001
 1.7492831153e+000	 1.0201144947e+000	-4.1600373443e-001
 1.7387961374e+000	 1.0378887188e+000	-5.0820159724e-001
 1.7281149236e+000	 1.0555774775e+000	-6.0701581853e-001
 1.7172404451e+000	 1.0731776431e+000	-7.1130137841e-001
 1.7061737395e+000	 1.0906861008e+000	-8.1991023618e-001
 1.6949159102e+000	 1.1080997506e+000	-9.3169364754e-001
 1.8209822140e+000	 9.4155391576e-001	 8.5406370981e-002
 1.8113613361e+000	 9.5993234668e-001	 2.6482284311e-002
 1.8015399147e+000	 9.7824022389e-001	-3.9080467240e-002
 1.7915185978e+000	 9.9647434176e-001	-1.1012015101e-001
 1.7812981000e+000	 1.0146314991e+000	-1.8546568322e-001
 1.7708792032e+000	 1.0327085009e+000	-2.6393899102e-001
 1.7602627564e+000	 1.0507021598e+000	-3.4435740271e-001
 1.7494496757e+000	 1.0686092982e+000	-4.2553605998e-001
 1.7384409444e+000	 1.0864267498e+000	-5.0629034658e-001
 1.7272376128e+000	 1.1041513613e+000	-5.8543832713e-001
 1.7158407980e+000	 1.1217799944e+000	-6.6180318996e-001
 1.8431893142e+000	 9.5303628058e-001	 2.2647279205e-001
 1.8334511084e+000	 9.7163883872e-001	 1.4908474954e-001
 1.8235099137e+000	 9.9016998271e-001	 7.0535931985e-002
 1.8133663856e+000	 1.0086264679e+000	-7.9442254928e-003
 1.8030212475e+000	 1.0270050540e+000	-8.5121853198e-002
 1.7924752910e+000	 1.0453025070e+000	-1.5976116760e-001
 1.7817293753e+000	 1.0635156007e+000	-2.3062701482e-001
 1.7707844278e+000	 1.0816411189e+000	-2.9648743068e-001
 1.7596414438e+000	 1.0996758565e+000	-3.5611621100e-001
 1.7483014862e+000	 1.1176166218e+000	-4.0829548562e-001
 1.7367656858e+000	 1.1354602383e+000	-4.5181828977e-001
 1.8653964143e+000	 9.6451864541e-001	 3.2801065990e-001
 1.8555408808e+000	 9.8334533075e-001	 2.3039743630e-001
 1.8454799126e+000	 1.0020997415e+000	 1.3700658420e-001
 1.8352141733e+000	 1.0207785940e+000	 4.9136993095e-002
 1.8247443951e+000	 1.0393786088e+000	-3.1912871127e-002
 1.8140713789e+000	 1.0578965131e+000	-1.0484764802e-001
 1.8031959943e+000	 1.0763290417e+000	-1.6837778201e-001
 1.7921191800e+000	 1.0946729396e+000	-2.2122223278e-001
 1.7808419431e+000	 1.1129249632e+000	-2.6211118994e-001
 1.7693653595e+000	 1.1310818823e+000	-2.8978878515e-001
 1.7576905735e+000	 1.1491404821e+000	-3.0301579470e-001
 1.8876035145e+000	 9.7600101023e-001	 3.2189334529e-001
 1.8776306532e+000	 9.9505182278e-001	 2.5656458437e-001
 1.8674499116e+000	 1.0140295004e+000	 1.5894579828e-001
 1.8570619611e+000	 1.0329307201e+000	 5.9731807671e-002
 1.8464675427e+000	 1.0517521637e+000	-2.7231735152e-002
 1.8356674667e+000	 1.0704905192e+000	-1.0058799072e-001
 1.8246626133e+000	 1.0891424827e+000	-1.5899104924e-001
 1.8134539321e+000	 1.1077047603e+000	-2.0110879406e-001
 1.8020424424e+000	 1.1261740699e+000	-2.2562576352e-001
 1.7904292328e+000	 1.1445471428e+000	-2.3124600388e-001
 1.7786154613e+000	 1.1628207260e+000	-2.1669590617e-001
 1.9098106147e+000	 9.8748337506e-001	 2.3789989829e-001
 1.8997204256e+000	 1.0067583148e+000	 1.5814233960e-001
 1.8894199106e+000	 1.0259592592e+000	 8.2336315177e-002
 1.8789097489e+000	 1.0450828462e+000	 1.0692521788e-002
 1.8681906902e+000	 1.0641257186e+000	-7.2481389333e-002
 1.8572635545e+000	 1.0830845253e+000	-1.4838322086e-001
 1.8461292323e+000	 1.1019559236e+000	-2.0386134423e-001
 1.8347886843e+000	 1.1207365810e+000	-2.3753053628e-001
 1.8232429417e+000	 1.1394231766e+000	-2.4802761190e-001
 1.8114931061e+000	 1.1580124033e+000	-2.3401442082e-001
 1.7995403491e+000	 1.1765009698e+000	-1.9418082156e-001
 1.9320177149e+000	 9.9896573988e-001	 1.3126698132e-001
 1.9218101980e+000	 1.0184648068e+000	 3.6621538482e-002
 1.9113899095e+000	 1.0378890180e+000	-4.9376021871e-002
 1.9007575367e+000	 1.0572349723e+000	-1.2651269474e-001
 1.8899138378e+000	 1.0764992734e+000	-1.9458700125e-001
 1.8788596424e+000	 1.0956785314e+000	-2.5340889499e-001
 1.8675958513e+000	 1.1147693646e+000	-3.0439561984e-001
 1.8561234364e+000	 1.1337684017e+000	-3.3188510762e-001
 1.8444434411e+000	 1.1526722833e+000	-3.3070062682e-001
 1.8325569795e+000	 1.1714776638e+000	-2.9945969516e-001
 1.8204652369e+000	 1.1901812136e+000	-2.3681347007e-001
 1.9542248150e+000	 1.0104481047e+000	 2.4002312407e-003
 1.9438999704e+000	 1.0301712989e+000	-1.0757001892e-001
 1.9333599085e+000	 1.0498187768e+000	-2.0429451564e-001
 1.9226053244e+000	 1.0693870985e+000	-2.8755858212e-001
 1.9116369853e+000	 1.0888728283e+000	-3.5716349672e-001
 1.9004557302e+000	 1.1082725375e+000	-4.1292642399e-001
 1.8890624702e+000	 1.1275828056e+000	-4.5468031959e-001
 1.8774581886e+000	 1.1468002224e+000	-4.8227380966e-001
 1.8656439404e+000	 1.1659213900e+000	-4.7504399047e-001
 1.8536208528e+000	 1.1849429244e+000	-4.2896482191e-001
 1.8413901247e+000	 1.2038614575e+000	-3.4595633477e-001
 1.9764319152e+000	 1.0219304695e+000	-1.4829959087e-001
 1.9659897428e+000	 1.0418777909e+000	-2.7401003093e-001
 1.9553299075e+000	 1.0617485357e+000	-3.8197189322e-001
 1.9444531122e+000	 1.0815392246e+000	-4.7196946690e-001
 1.9333601329e+000	 1.1012463832e+000	-5.4380737010e-001
 1.9220518181e+000	 1.1208665436e+000	-5.9731050416e-001
 1.9105290892e+000	 1.1403962465e+000	-6.3232397612e-001
 1.8987929407e+000	 1.1598320431e+000	-6.4871298981e-001
 1.8868444397e+000	 1.1791704967e+000	-6.4636270623e-001
 1.8746847261e+000	 1.1984081849e+000	-6.2392915797e-001
 1.8623150124e+000	 1.2175417013e+000	-5.2299035406e-001
 1.9986390154e+000	 1.0334128344e+000	-3.2043632888e-001
 1.9880795152e+000	 1.0535842829e+000	-4.6228138878e-001
 1.9772999064e+000	 1.0736782945e+000	-5.8196681647e-001
 1.9663009000e+000	 1.0936913507e+000	-6.7927650649e-001
 1.9550832805e+000	 1.1136199380e+000	-7.5401900299e-001
 1.9436479059e+000	 1.1334605497e+000	-8.0602747584e-001
 1.9319957082e+000	 1.1532096875e+000	-8.3515965924e-001
 1.9201276929e+000	 1.1728638638e+000	-8.4129775331e-001
 1.9080449390e+000	 1.1924196034e+000	-8.2434828915e-001
 1.8957485995e+000	 1.2118734454e+000	-7.8424195803e-001
 1.8832399002e+000	 1.2312219451e+000	-7.2093340530e-001
 1.6739910224e+000	 1.0944195068e+000	-1.2602376282e+000
 1.6626845693e+000	 1.1115214900e+000	-1.4998418087e+000
 1.6511917266e+000	 1.1285237623e+000	-1.6873596656e+000
 1.6395137781e+000	 1.1454233153e+000	-1.8220241373e+000
 1.6276520721e+000	 1.1622171622e+000	-1.9031310600e+000
 1.6156080202e+000	 1.1789023391e+000	-1.9300413043e+000
 1.6033830974e+000	 1.1954759065e+000	-1.9021828138e+000
 1.5909788412e+000	 1.2119349516e+000	-1.8190525398e+000
 1.5783968513e+000	 1.2282765894e+000	-1.6802182675e+000
 1.5656387886e+000	 1.2444979645e+000	-1.4853203263e+000
 1.5527063751e+000	 1.2605962528e+000	-1.4445843045e+000
 1.6949159102e+000	 1.1080997506e+000	-9.3169364754e-001
 1.6834681265e+000	 1.1254155087e+000	-1.1483241321e+000
 1.6718316232e+000	 1.1426303093e+000	-1.3151945151e+000
 1.6600077003e+000	 1.1597411068e+000	-1.4314428092e+000
 1.6479977230e+000	 1.1767448768e+000	-1.4962681806e+000
 1.6358031204e+000	 1.1936386183e+000	-1.5089332179e+000
 1.6234253861e+000	 1.2104193553e+000	-1.4687661065e+000
 1.6108660767e+000	 1.2270841385e+000	-1.3751627000e+000
 1.5981268119e+000	 1.2436300467e+000	-1.2275884840e+000
 1.5852092735e+000	 1.2600541890e+000	-1.2255071684e+000
 1.5721152048e+000	 1.2763537060e+000	-1.2983431571e+000
 1.7158407980e+000	 1.1217799944e+000	-6.6180318996e-001
 1.7042516836e+000	 1.1393095273e+000	-8.5399562472e-001
 1.6924715197e+000	 1.1567368563e+000	-9.9862999115e-001
 1.6805016226e+000	 1.1740588982e+000	-1.0947486408e+000
 1.6683433739e+000	 1.1912725913e+000	-1.1414534360e+000
 1.6559982207e+000	 1.2083748975e+000	-1.1379081543e+000
 1.6434676748e+000	 1.2253628042e+000	-1.0833407992e+000
 1.6307533122e+000	 1.2422333254e+000	-9.7704581115e-001
 1.6178567725e+000	 1.2589835041e+000	-9.9640733611e-001
 1.6047797583e+000	 1.2756104136e+000	-1.1189586794e+000
 1.5915240345e+000	 1.2921111591e+000	-1.1932171923e+000
 1.7367656858e+000	 1.1354602383e+000	-4.5181828977e-001
 1.7250352407e+000	 1.1532035459e+000	-6.1822037607e-001
 1.7131114163e+000	 1.1708434034e+000	-7.3914448333e-001
 1.7009955448e+000	 1.1883766897e+000	-8.1353650521e-001
 1.6886890248e+000	 1.2058003058e+000	-8.4040030356e-001
 1.6761933210e+000	 1.2231111768e+000	-8.1880025068e-001
 1.6635099635e+000	 1.2403062530e+000	-7.4786367958e-001
 1.6506405477e+000	 1.2573825123e+000	-7.7197091254e-001
 1.6375867332e+000	 1.2743369615e+000	-9.3706990527e-001
 1.6243502432e+000	 1.2911666381e+000	-1.0548604275e+000
 1.6109328642e+000	 1.3078686123e+000	-1.1266666897e+000
 1.7576905735e+000	 1.1491404821e+000	-3.0301579470e-001
 1.7458187978e+000	 1.1670975645e+000	-4.4238315962e-001
 1.7337513129e+000	 1.1849499504e+000	-5.3823279303e-001
 1.7214894670e+000	 1.2026944811e+000	-5.8941327378e-001
 1.7090346757e+000	 1.2203280204e+000	-5.9482970541e-001
 1.6963884212e+000	 1.2378474560e+000	-5.5344639857e-001
 1.6835522522e+000	 1.2552497018e+000	-5.6634524691e-001
 1.6705277832e+000	 1.2725316992e+000	-7.6701157197e-001
 1.6573166938e+000	 1.2896904188e+000	-9.2132088889e-001
 1.6439207281e+000	 1.3067228627e+000	-1.0305810739e+000
 1.6303416939e+000	 1.3236260655e+000	-1.0961292320e+000
 1.7786154613e+000	 1.1628207260e+000	-2.1669590617e-001
 1.7666023549e+000	 1.1809915832e+000	-3.2788821616e-001
 1.7543912095e+000	 1.1990564974e+000	-3.9740516809e-001
 1.7419833892e+000	 1.2170122725e+000	-4.2399711053e-001
 1.7293803266e+000	 1.2348557349e+000	-4.0646957116e-001
 1.7165835215e+000	 1.2525837353e+000	-3.9314819416e-001
 1.7035945410e+000	 1.2701931507e+000	-6.2260380378e-001
 1.6904150188e+000	 1.2876808861e+000	-8.0660556318e-001
 1.6770466545e+000	 1.3050438762e+000	-9.4645249084e-001
 1.6634912129e+000	 1.3222790873e+000	-1.0434729527e+000
 1.6497505236e+000	 1.3393835186e+000	-1.0990210400e+000
 1.7995403491e+000	 1.1765009698e+000	-1.9418082156e-001
 1.7873859120e+000	 1.1948856018e+000	-2.7615812199e-001
 1.7750311061e+000	 1.2131630445e+000	-3.1818640471e-001
 1.7624773115e+000	 1.2313300640e+000	-3.1891681545e-001
 1.7497259775e+000	 1.2493834494e+000	-2.7705443028e-001
 1.7367786217e+000	 1.2673200145e+000	-5.1715867924e-001
 1.7236368297e+000	 1.2851365995e+000	-7.2422898214e-001
 1.7103022543e+000	 1.3028300730e+000	-8.8798247547e-001
 1.6967766151e+000	 1.3203973336e+000	-1.0097461663e+000
 1.6830616978e+000	 1.3378353118e+000	-1.0908730203e+000
 1.6691593533e+000	 1.3551409718e+000	-1.1327382152e+000
 1.8204652369e+000	 1.1901812136e+000	-2.3681347007e-001
 1.8081694692e+000	 1.2087796204e+000	-2.8863273515e-001
 1.7956710026e+000	 1.2272695915e+000	-3.0211501132e-001
 1.7829712337e+000	 1.2456478554e+000	-2.7581121324e-001
 1.7700716284e+000	 1.2639111639e+000	-4.6348386588e-001
 1.7569737220e+000	 1.2820562937e+000	-6.8721724248e-001
 1.7436791184e+000	 1.3000800483e+000	-8.6840039800e-001
 1.7301894898e+000	 1.3179792599e+000	-1.0083660220e+000
 1.7165065757e+000	 1.3357507909e+000	-1.1084732396e+000
 1.7026321826e+000	 1.3533915364e+000	-1.1701037391e+000
 1.6885681830e+000	 1.3708984249e+000	-1.1946578951e+000
 1.8413901247e+000	 1.2038614575e+000	-3.4595633477e-001
 1.8289530263e+000	 1.2226736390e+000	-3.6676821348e-001
 1.8163108992e+000	 1.2413761385e+000	-3.5074242955e-001
 1.8034651559e+000	 1.2599656469e+000	-4.7388358914e-001
 1.7904172793e+000	 1.2784388785e+000	-7.0810926933e-001
 1.7771688222e+000	 1.2967925730e+000	-9.0046507161e-001
 1.7637214071e+000	 1.3150234972e+000	-1.0522960343e+000
 1.7500767253e+000	 1.3331284468e+000	-1.1649743736e+000
 1.7362365364e+000	 1.3511042483e+000	-1.2398954796e+000
 1.7222026675e+000	 1.3689477609e+000	-1.2784739010e+000
 1.7079770127e+000	 1.3866558781e+000	-1.2821393316e+000
 1.8623150124e+000	 1.2175417013e+000	-5.2299035406e-001
 1.8497365834e+000	 1.2365676577e+000	-5.1203609895e-001
 1.8369507958e+000	 1.2554826855e+000	-5.6015718887e-001
 1.8239590782e+000	 1.2742834383e+000	-7.9895557750e-001
 1.8107629302e+000	 1.2929665930e+000	-9.9646376773e-001
 1.7973639225e+000	 1.3115288522e+000	-1.1540454029e+000
 1.7837636958e+000	 1.3299669460e+000	-1.2730923325e+000
 1.7699639608e+000	 1.3482776336e+000	-1.3550204703e+000
 1.7559664970e+000	 1.3664577057e+000	-1.4012656369e+000
 1.7417731524e+000	 1.3845039855e+000	-1.4132793955e+000
 1.7273858424e+000	 1.4024133313e+000	-1.3925248952e+000
 1.8832399002e+000	 1.2312219451e+000	-7.2093340530e-001
 1.8705201405e+000	 1.2504616763e+000	-7.3359550507e-001
 1.8575906924e+000	 1.2695892326e+000	-9.7131477272e-001
 1.8444530004e+000	 1.2886012298e+000	-1.1682088820e+000
 1.8311085811e+000	 1.3074943075e+000	-1.3256658939e+000
 1.8175590227e+000	 1.3262651314e+000	-1.4451034076e+000
 1.8038059846e+000	 1.3449103948e+000	-1.5279642784e+000
 1.7898511964e+000	 1.3634268205e+000	-1.5757123118e+000
 1.7756964577e+000	 1.3818111630e+000	-1.5898279446e+000
 1.7613436372e+000	 1.4000602100e+000	-1.5718039264e+000
 1.7467946721e+000	 1.4181707844e+000	-1.5231410132e+000
 1.5527063751e+000	 1.2605962528e+000	-1.4445843045e+000
 1.5396013926e+000	 1.2765686632e+000	-1.5962140605e+000
 1.5263256822e+000	 1.2924124388e+000	-1.7460482526e+000
 1.5128811432e+000	 1.3081248589e+000	-1.8945142181e+000
 1.4992697328e+000	 1.3237032403e+000	-2.0420250437e+000
 1.4854934645e+000	 1.3391449388e+000	-2.1889773635e+000
 1.4715544074e+000	 1.3544473509e+000	-2.3357492250e+000
 1.4574546853e+000	 1.3696079148e+000	-2.4826980312e+000
 1.4431964755e+000	 1.3846241126e+000	-2.6301585637e+000
 1.4287820076e+000	 1.3994934709e+000	-2.7784410948e+000
 1.4142135624e+000	 1.4142135624e+000	-2.9278295928e+000
 1.5721152048e+000	 1.2763537060e+000	-1.2983431571e+000
 1.5588464100e+000	 1.2925257715e+000	-1.4214357001e+000
 1.5454047532e+000	 1.3085675943e+000	-1.5409562216e+000
 1.5317921575e+000	 1.3244764197e+000	-1.6575397469e+000
 1.5180106045e+000	 1.3402495308e+000	-1.7718073546e+000
 1.5040621328e+000	 1.3558842505e+000	-1.8843636887e+000
 1.4899488375e+000	 1.3713779427e+000	-1.9957945412e+000
 1.4756728689e+000	 1.3867280138e+000	-2.1066645107e+000
 1.4612364314e+000	 1.4019319140e+000	-2.2175147475e+000
 1.4466417827e+000	 1.4169871393e+000	-2.3288607879e+000
 1.4318912319e+000	 1.4318912319e+000	-2.4411904877e+000
 1.5915240345e+000	 1.2921111591e+000	-1.1932171923e+000
 1.5780914275e+000	 1.3084828798e+000	-1.2923728835e+000
 1.5644838242e+000	 1.3247227498e+000	-1.3862508512e+000
 1.5507031718e+000	 1.3408279804e+000	-1.4756938186e+000
 1.5367514761e+000	 1.3567958213e+000	-1.5615307703e+000
 1.5226308011e+000	 1.3726235623e+000	-1.6445741768e+000
 1.5083432676e+000	 1.3883085346e+000	-1.7256172905e+000
 1.4938910524e+000	 1.4038481127e+000	-1.8054315206e+000
 1.4792763874e+000	 1.4192397154e+000	-1.8847638967e+000
 1.4645015578e+000	 1.4344808076e+000	-1.9643346255e+000
 1.4495689015e+000	 1.4495689015e+000	-2.0448347505e+000
 1.6109328642e+000	 1.3078686123e+000	-1.1266666897e+000
 1.5973364449e+000	 1.3244399881e+000	-1.2062536980e+000
 1.5835628953e+000	 1.3408779053e+000	-1.2789281736e+000
 1.5696141861e+000	 1.3571795411e+000	-1.3457406857e+000
 1.5554923478e+000	 1.3733421118e+000	-1.4077281773e+000
 1.5411994694e+000	 1.3893628740e+000	-1.4659108988e+000
 1.5267376977e+000	 1.4052391265e+000	-1.5212894159e+000
 1.5121092360e+000	 1.4209682117e+000	-1.5748416988e+000
 1.4973163433e+000	 1.4365475169e+000	-1.6275203017e+000
 1.4823613329e+000	 1.4519744760e+000	-1.6802496413e+000
 1.4672465710e+000	 1.4672465710e+000	-1.7339233805e+000
 1.6303416939e+000	 1.3236260655e+000	-1.0961292320e+000
 1.6165814623e+000	 1.3403970964e+000	-1.1602928441e+000
 1.6026419663e+000	 1.3570330608e+000	-1.2159802050e+000
 1.5885252004e+000	 1.3735311019e+000	-1.2644500126e+000
 1.5742332195e+000	 1.3898884023e+000	-1.3069473539e+000
 1.5597681377e+000	 1.4061021858e+000	-1.3447003459e+000
 1.5451321278e+000	 1.4221697184e+000	-1.3789168526e+000
 1.5303274196e+000	 1.4380883106e+000	-1.4107812858e+000
 1.5153562993e+000	 1.4538553183e+000	-1.4414515002e+000
 1.5002211079e+000	 1.4694681444e+000	-1.4720557901e+000
 1.4849242405e+000	 1.4849242405e+000	-1.5036899970e+000
 1.6497505236e+000	 1.3393835186e+000	-1.0990210400e+000
 1.6358264797e+000	 1.3563542047e+000	-1.1516924224e+000
 1.6217210373e+000	 1.3731882162e+000	-1.1943951817e+000
 1.6074362147e+000	 1.3898826626e+000	-1.2285965572e+000
 1.5929740911e+000	 1.4064346928e+000	-1.2557500949e+000
 1.5783368060e+000	 1.4228414975e+000	-1.2772919936e+000
 1.5635265579e+000	 1.4391003103e+000	-1.2946375281e+000
 1.5485456031e+000	 1.4552084095e+000	-1.3091775598e+000
 1.5333962552e+000	 1.4711631197e+000	-1.3222751444e+000
 1.5180808830e+000	 1.4869618128e+000	-1.3352622465e+000
 1.5026019100e+000	 1.5026019100e+000	-1.3494365677e+000
 1.6691593533e+000	 1.3551409718e+000	-1.1327382152e+000
 1.6550714971e+000	 1.3723113129e+000	-1.1776426664e+000
 1.6408001083e+000	 1.3893433717e+000	-1.2111577798e+000
 1.6263472290e+000	 1.4062342233e+000	-1.2349598745e+000
 1.6117149628e+000	 1.4229809833e+000	-1.2507113961e+000
 1.5969054743e+000	 1.4395808092e+000	-1.2600569648e+000
 1.5819209879e+000	 1.4560309022e+000	-1.2646195025e+000
 1.5667637867e+000	 1.4723285085e+000	-1.2659964504e+000
 1.5514362112e+000	 1.4884709211e+000	-1.2657560880e+000
 1.5359406581e+000	 1.5044554812e+000	-1.2654339620e+000
 1.5202795796e+000	 1.5202795796e+000	-1.2665294347e+000
 1.6885681830e+000	 1.3708984249e+000	-1.1946578951e+000
 1.6743165145e+000	 1.3882684212e+000	-1.2353226246e+000
 1.6598791794e+000	 1.4054985272e+000	-1.2632493200e+000
 1.6452582433e+000	 1.4225857841e+000	-1.2803240413e+000
 1.6304558344e+000	 1.4395272738e+000	-1.2884186960e+000
 1.6154741426e+000	 1.4563201210e+000	-1.2893867860e+000
 1.6003154180e+000	 1.4729614941e+000	-1.2850592364e+000
 1.5849819703e+000	 1.4894486074e+000	-1.2772403177e+000
 1.5694761671e+000	 1.5057787225e+000	-1.2677036729e+000
 1.5538004332e+000	 1.5219491496e+000	-1.2581884593e+000
 1.5379572491e+000	 1.5379572491e+000	-1.2503956151e+000
 1.7079770127e+000	 1.3866558781e+000	-1.2821393316e+000
 1.6935615319e+000	 1.4042255295e+000	-1.3219007957e+000
 1.6789582504e+000	 1.4216536827e+000	-1.3476479581e+000
 1.6641692576e+000	 1.4389373448e+000	-1.3614773991e+000
 1.6491967061e+000	 1.4560735643e+000	-1.3654711685e+000
 1.6340428109e+000	 1.4730594327e+000	-1.3616922278e+000
 1.6187098481e+000	 1.4898920859e+000	-1.3521799777e+000
 1.6032001538e+000	 1.5065687063e+000	-1.3389458823e+000
 1.5875161230e+000	 1.5230865239e+000	-1.3239692018e+000
 1.5716602083e+000	 1.5394428180e+000	-1.3091928454e+000
 1.5556349186e+000	 1.5556349186e+000	-1.2965193533e+000
 1.7273858424e+000	 1.4024133313e+000	-1.3925248952e+000
 1.7128065493e+000	 1.4201826378e+000	-1.4345357217e+000
 1.6980373214e+000	 1.4378088382e+000	-1.4613288628e+000
 1.6830802719e+000	 1.4552889056e+000	-1.4752123145e+000
 1.6679375778e+000	 1.4726198548e+000	-1.4784790640e+000
 1.6526114792e+000	 1.4897987444e+000	-1.4734022241e+000
 1.6371042782e+000	 1.5068226778e+000	-1.4622302564e+000
 1.6214183374e+000	 1.5236888053e+000	-1.4471822947e+000
 1.6055560790e+000	 1.5403943253e+000	-1.4304435809e+000
 1.5895199834e+000	 1.5569364863e+000	-1.4141610260e+000
 1.5733125882e+000	 1.5733125882e+000	-1.4004389062e+000
 1.7467946721e+000	 1.4181707844e+000	-1.5231410132e+000
 1.7320515667e+000	 1.4361397461e+000	-1.5703765407e+000
 1.7171163925e+000	 1.4539639937e+000	-1.6012643816e+000
 1.7019912862e+000	 1.4716404663e+000	-1.6183249556e+000
 1.6866784494e+000	 1.4891661453e+000	-1.6240630937e+000
 1.6711801475e+000	 1.5065380562e+000	-1.6209628627e+000
 1.6554987083e+000	 1.5237532697e+000	-1.6114824800e+000
 1.6396365210e+000	 1.5408089042e+000	-1.5980493338e+000
 1.6235960349e+000	 1.5577021267e+000	-1.5830551193e+000
 1.6073797585e+000	 1.5744301547e+000	-1.5688511055e+000
 1.5909902577e+000	 1.5909902577e+000	-1.5577435425e+000
 1.4142135624e+000	 1.4142135624e+000	-2.9278295928e+000
 1.3994934709e+000	 1.4287820076e+000	-2.9857849345e+000
 1.3846241126e+000	 1.4431964755e+000	-3.0107184100e+000
 1.3696079148e+000	 1.4574546853e+000	-3.0044099884e+000
 1.3544473509e+000	 1.4715544074e+000	-2.9686383516e+000
 1.3391449388e+000	 1.4854934645e+000	-2.9051779019e+000
 1.3237032403e+000	 1.4992697328e+000	-2.8157958550e+000
 1.3081248589e+000	 1.5128811432e+000	-2.7022494242e+000
 1.2924124388e+000	 1.5263256822e+000	-2.5662831012e+000
 1.2765686632e+000	 1.5396013926e+000	-2.4096260407e+000
 1.2605962528e+000	 1.5527063751e+000	-2.2339895514e+000
 1.4318912319e+000	 1.4318912319e+000	-2.4411904877e+000
 1.4169871393e+000	 1.4466417827e+000	-2.5183210217e+000
 1.4019319140e+000	 1.4612364314e+000	-2.5699166472e+000
 1.3867280138e+000	 1.4756728689e+000	-2.5976070362e+000
 1.3713779427e+000	 1.4899488375e+000	-2.6030118619e+000
 1.3558842505e+000	 1.5040621328e+000	-2.5877379400e+000
 1.3402495308e+000	 1.5180106045e+000	-2.5533764710e+000
 1.3244764197e+000	 1.5317921575e+000	-2.5015003864e+000
 1.3085675943e+000	 1.5454047532e+000	-2.4336618066e+000
 1.2925257715e+000	 1.5588464100e+000	-2.3513896152e+000
 1.2763537060e+000	 1.5721152048e+000	-2.2561871541e+000
 1.4495689015e+000	 1.4495689015e+000	-2.0448347505e+000
 1.4344808076e+000	 1.4645015578e+000	-2.1331988877e+000
 1.4192397154e+000	 1.4792763874e+000	-2.2034036838e+000
 1.4038481127e+000	 1.4938910524e+000	-2.2569340045e+000
 1.3883085346e+000	 1.5083432676e+000	-2.2952560025e+000
 1.3726235623e+000	 1.5226308011e+000	-2.3198143873e+000
 1.3567958213e+000	 1.5367514761e+000	-2.3320298095e+000
 1.3408279804e+000	 1.5507031718e+000	-2.3332963639e+000
 1.3247227498e+000	 1.5644838242e+000	-2.3249792185e+000
 1.3084828798e+000	 1.5780914275e+000	-2.3084123727e+000
 1.2921111591e+000	 1.5915240345e+000	-2.2848965511e+000
 1.4672465710e+000	 1.4672465710e+000	-1.7339233805e+000
 1.4519744760e+000	 1.4823613329e+000	-1.8258333338e+000
 1.4365475169e+000	 1.4973163433e+000	-1.9068560280e+000
 1.4209682117e+000	 1.5121092360e+000	-1.9783369043e+000
 1.4052391265e+000	 1.5267376977e+000	-2.0415939690e+000
 1.3893628740e+000	 1.5411994694e+000	-2.0979151851e+000
 1.3733421118e+000	 1.5554923478e+000	-2.1485559932e+000
 1.3571795411e+000	 1.5696141861e+000	-2.1947369654e+000
 1.3408779053e+000	 1.5835628953e+000	-2.2376415992e+000
 1.3244399881e+000	 1.5973364449e+000	-2.2784142552e+000
 1.3078686123e+000	 1.6109328642e+000	-2.3181582428e+000
 1.4849242405e+000	 1.4849242405e+000	-1.5036899970e+000
 1.4694681444e+000	 1.5002211079e+000	-1.5916987158e+000
 1.4538553183e+000	 1.5153562993e+000	-1.6759963860e+000
 1.4380883106e+000	 1.5303274196e+000	-1.7577943046e+000
 1.4221697184e+000	 1.5451321278e+000	-1.8382675975e+000
 1.4061021858e+000	 1.5597681377e+000	-1.9185527280e+000
 1.3898884023e+000	 1.5742332195e+000	-1.9997451475e+000
 1.3735311019e+000	 1.5885252004e+000	-2.0828970952e+000
 1.3570330608e+000	 1.6026419663e+000	-2.1690155513e+000
 1.3403970964e+000	 1.6165814623e+000	-2.2590603479e+000
 1.3236260655e+000	 1.6303416939e+000	-2.3539424425e+000
 1.5026019100e+000	 1.5026019100e+000	-1.3494365677e+000
 1.4869618128e+000	 1.5180808830e+000	-1.4263254403e+000
 1.4711631197e+000	 1.5333962552e+000	-1.5065909448e+000
 1.4552084095e+000	 1.5485456031e+000	-1.5913154174e+000
 1.4391003103e+000	 1.5635265579e+000	-1.6815362687e+000
 1.4228414975e+000	 1.5783368060e+000	-1.7782436019e+000
 1.4064346928e+000	 1.5929740911e+000	-1.8823779883e+000
 1.3898826626e+000	 1.6074362147e+000	-1.9948284067e+000
 1.3731882162e+000	 1.6217210373e+000	-2.1164303503e+000
 1.3563542047e+000	 1.6358264797e+000	-2.2479641062e+000
 1.3393835186e+000	 1.6497505236e+000	-2.3901532107e+000
 1.5202795796e+000	 1.5202795796e+000	-1.2665294347e+000
 1.5044554812e+000	 1.5359406581e+000	-1.3252967063e+000
 1.4884709211e+000	 1.5514362112e+000	-1.3944468436e+000
 1.4723285085e+000	 1.5667637867e+000	-1.4749383158e+000
 1.4560309022e+000	 1.5819209879e+000	-1.5676758875e+000
 1.4395808092e+000	 1.5969054743e+000	-1.6735083405e+000
 1.4229809833e+000	 1.6117149628e+000	-1.7932263693e+000
 1.4062342233e+000	 1.6263472290e+000	-1.9275606538e+000
 1.3893433717e+000	 1.6408001083e+000	-2.0771801149e+000
 1.3723113129e+000	 1.6550714971e+000	-2.2426903573e+000
 1.3551409718e+000	 1.6691593533e+000	-2.4246323014e+000
 1.5379572491e+000	 1.5379572491e+000	-1.2503956151e+000
 1.5219491496e+000	 1.5538004332e+000	-1.2842454711e+000
 1.5057787225e+000	 1.5694761671e+000	-1.3354098210e+000
 1.4894486074e+000	 1.5849819703e+000	-1.4047282759e+000
 1.4729614941e+000	 1.6003154180e+000	-1.4929779334e+000
 1.4563201210e+000	 1.6154741426e+000	-1.6008711983e+000
 1.4395272738e+000	 1.6304558344e+000	-1.7290537912e+000
 1.4225857841e+000	 1.6452582433e+000	-1.8781029497e+000
 1.4054985272e+000	 1.6598791794e+000	-2.0485258275e+000
 1.3882684212e+000	 1.6743165145e+000	-2.2407580949e+000
 1.3708984249e+000	 1.6885681830e+000	-2.4551627429e+000
 1.5556349186e+000	 1.5556349186e+000	-1.2965193533e+000
 1.5394428180e+000	 1.5716602083e+000	-1.2988516230e+000
 1.5230865239e+000	 1.5875161230e+000	-1.3253620214e+000
 1.5065687063e+000	 1.6032001538e+000	-1.3767762304e+000
 1.4898920859e+000	 1.6187098481e+000	-1.4537485756e+000
 1.4730594327e+000	 1.6340428109e+000	-1.5568599392e+000
 1.4560735643e+000	 1.6491967061e+000	-1.6866158762e+000
 1.4389373448e+000	 1.6641692576e+000	-1.8434449397e+000
 1.4216536827e+000	 1.6789582504e+000	-2.0276972171e+000
 1.4042255295e+000	 1.6935615319e+000	-2.2396430836e+000
 1.3866558781e+000	 1.7079770127e+000	-2.4794721743e+000
 1.5733125882e+000	 1.5733125882e+000	-1.4004389062e+000
 1.5569364863e+000	 1.5895199834e+000	-1.3648393448e+000
 1.5403943253e+000	 1.6055560790e+000	-1.3602199496e+000
 1.5236888053e+000	 1.6214183374e+000	-1.3871973279e+000
 1.5068226778e+000	 1.6371042782e+000	-1.4463078480e+000
 1.4897987444e+000	 1.6526114792e+000	-1.5380056392e+000
 1.4726198548e+000	 1.6679375778e+000	-1.6626608110e+000
 1.4552889056e+000	 1.6830802719e+000	-1.8205578948e+000
 1.4378088382e+000	 1.6980373214e+000	-2.0118945146e+000
 1.4201826378e+000	 1.7128065493e+000	-2.2367802873e+000
 1.4024133313e+000	 1.7273858424e+000	-2.4952359574e+000
 1.5909902577e+000	 1.5909902577e+000	-1.5577435425e+000
 1.5744301547e+000	 1.6073797585e+000	-1.4779746530e+000
 1.5577021267e+000	 1.6235960349e+000	-1.4359325623e+000
 1.5408089042e+000	 1.6396365210e+000	-1.4321295870e+000
 1.5237532697e+000	 1.6554987083e+000	-1.4669888783e+000
 1.5065380562e+000	 1.6711801475e+000	-1.5408425028e+000
 1.4891661453e+000	 1.6866784494e+000	-1.6539297592e+000
 1.4716404663e+000	 1.7019912862e+000	-1.8063957326e+000
 1.4539639937e+000	 1.7171163925e+000	-1.9982900922e+000
 1.4361397461e+000	 1.7320515667e+000	-2.2295661358e+000
 1.4181707844e+000	 1.7467946721e+000	-2.5000800812e+000
 1.2605962528e+000	 1.5527063751e+000	-2.2339895514e+000
 1.2444979645e+000	 1.5656387886e+000	-1.7443363580e+000
 1.2282765894e+000	 1.5783968513e+000	-1.9999241809e+000
 1.2119349516e+000	 1.5909788412e+000	-2.2207062403e+000
 1.1954759065e+000	 1.6033830974e+000	-2.4060749714e+000
 1.1789023391e+000	 1.6156080202e+000	-2.5555192237e+000
 1.1622171622e+000	 1.6276520721e+000	-2.6686249136e+000
 1.1454233153e+000	 1.6395137781e+000	-2.7450754585e+000
 1.1285237623e+000	 1.6511917266e+000	-2.7846519943e+000
 1.1115214900e+000	 1.6626845693e+000	-2.7872333756e+000
 1.0944195068e+000	 1.6739910224e+000	-2.7527959615e+000
 1.2763537060e+000	 1.5721152048e+000	-2.2561871541e+000
 1.2600541890e+000	 1.5852092735e+000	-1.4457606060e+000
 1.2436300467e+000	 1.5981268119e+000	-1.0635549200e+000
 1.2270841385e+000	 1.6108660767e+000	-1.3872935458e+000
 1.2104193553e+000	 1.6234253861e+000	-1.6749292173e+000
 1.1936386183e+000	 1.6358031204e+000	-1.9258593971e+000
 1.1767448768e+000	 1.6479977230e+000	-2.1395820181e+000
 1.1597411068e+000	 1.6600077003e+000	-2.3156960049e+000
 1.1426303093e+000	 1.6718316232e+000	-2.4539015695e+000
 1.1254155087e+000	 1.6834681265e+000	-2.5540002813e+000
 1.1080997506e+000	 1.6949159102e+000	-2.6158949148e+000
 1.2921111591e+000	 1.5915240345e+000	-2.2848965511e+000
 1.2756104136e+000	 1.6047797583e+000	-1.5574435276e+000
 1.2589835041e+000	 1.6178567725e+000	-7.9070757745e-001
 1.2422333254e+000	 1.6307533122e+000	-5.5578627808e-001
 1.2253628042e+000	 1.6434676748e+000	-9.4492181618e-001
 1.2083748975e+000	 1.6559982207e+000	-1.2964639411e+000
 1.1912725913e+000	 1.6683433739e+000	-1.6098221324e+000
 1.1740588982e+000	 1.6805016226e+000	-1.8845104944e+000
 1.1567368563e+000	 1.6924715197e+000	-2.1201481301e+000
 1.1393095273e+000	 1.7042516836e+000	-2.3164592811e+000
 1.1217799944e+000	 1.7158407980e+000	-2.4732732368e+000
 1.3078686123e+000	 1.6109328642e+000	-2.3181582428e+000
 1.2911666381e+000	 1.6243502432e+000	-1.6728396776e+000
 1.2743369615e+000	 1.6375867332e+000	-9.8961247911e-001
 1.2573825123e+000	 1.6506405477e+000	-2.7016741557e-001
 1.2403062530e+000	 1.6635099635e+000	-2.2068839391e-001
 1.2231111768e+000	 1.6761933210e+000	-6.7201597976e-001
 1.2058003058e+000	 1.6886890248e+000	-1.0840747946e+000
 1.1883766897e+000	 1.7009955448e+000	-1.4562937622e+000
 1.1708434034e+000	 1.7131114163e+000	-1.7882106607e+000
 1.1532035459e+000	 1.7250352407e+000	-2.0794723326e+000
 1.1354602383e+000	 1.7367656858e+000	-2.3298346536e+000
 1.3236260655e+000	 1.6303416939e+000	-2.3539424425e+000
 1.3067228627e+000	 1.6439207281e+000	-1.7899579127e+000
 1.2896904188e+000	 1.6573166938e+000	-1.1894901097e+000
 1.2725316992e+000	 1.6705277832e+000	-5.5422297703e-001
 1.2552497018e+000	 1.6835522522e+000	 1.1418095781e-001
 1.2378474560e+000	 1.6963884212e+000	-5.7117913825e-002
 1.2203280204e+000	 1.7090346757e+000	-5.6698661704e-001
 1.2026944811e+000	 1.7214894670e+000	-1.0357354798e+000
 1.1849499504e+000	 1.7337513129e+000	-1.4628207099e+000
 1.1670975645e+000	 1.7458187978e+000	-1.8478116510e+000
 1.1491404821e+000	 1.7576905735e+000	-2.1903908114e+000
 1.3393835186e+000	 1.6497505236e+000	-2.3901532107e+000
 1.3222790873e+000	 1.6634912129e+000	-1.9067390477e+000
 1.3050438762e+000	 1.6770466545e+000	-1.3883208169e+000
 1.2876808861e+000	 1.6904150188e+000	-8.3657675996e-001
 1.2701931507e+000	 1.7035945410e+000	-2.5315984896e-001
 1.2525837353e+000	 1.7165835215e+000	 3.6030417825e-001
 1.2348557349e+000	 1.7293803266e+000	-6.3126164133e-002
 1.2170122725e+000	 1.7419833892e+000	-6.2744516441e-001
 1.1990564974e+000	 1.7543912095e+000	-1.1486275331e+000
 1.1809915832e+000	 1.7666023549e+000	-1.6261649884e+000
 1.1628207260e+000	 1.7786154613e+000	-2.0596666926e+000
 1.3551409718e+000	 1.6691593533e+000	-2.4246323014e+000
 1.3378353118e+000	 1.6830616978e+000	-2.0210598121e+000
 1.3203973336e+000	 1.6967766151e+000	-1.5840190470e+000
 1.3028300730e+000	 1.7103022543e+000	-1.1151836567e+000
 1.2851365995e+000	 1.7236368297e+000	-6.1619804879e-001
 1.2673200145e+000	 1.7367786217e+000	-8.8675431611e-002
 1.2493834494e+000	 1.7497259775e+000	 4.2301150992e-001
 1.2313300640e+000	 1.7624773115e+000	-2.3595683931e-001
 1.2131630445e+000	 1.7750311061e+000	-8.5020287713e-001
 1.1948856018e+000	 1.7873859120e+000	-1.4191405445e+000
 1.1765009698e+000	 1.7995403491e+000	-1.9423056543e+000
 1.3708984249e+000	 1.6885681830e+000	-2.4551627429e+000
 1.3533915364e+000	 1.7026321826e+000	-2.1307365324e+000
 1.3357507909e+000	 1.7165065757e+000	-1.7744371324e+000
 1.3179792599e+000	 1.7301894898e+000	-1.3879347009e+000
 1.3000800483e+000	 1.7436791184e+000	-9.7286605762e-001
 1.2820562937e+000	 1.7569737220e+000	-5.3083273522e-001
 1.2639111639e+000	 1.7700716284e+000	-6.3399195297e-002
 1.2456478554e+000	 1.7829712337e+000	 1.3426662760e-001
 1.2272695915e+000	 1.7956710026e+000	-5.7204543499e-001
 1.2087796204e+000	 1.8081694692e+000	-1.2312715382e+000
 1.1901812136e+000	 1.8204652369e+000	-1.8428741199e+000
 1.3866558781e+000	 1.7079770127e+000	-2.4794721743e+000
 1.3689477609e+000	 1.7222026675e+000	-2.2335285647e+000
 1.3511042483e+000	 1.7362365364e+000	-1.9573688206e+000
 1.3331284468e+000	 1.7500767253e+000	-1.6526606955e+000
 1.3150234972e+000	 1.7637214071e+000	-1.3210343844e+000
 1.2967925730e+000	 1.7771688222e+000	-9.6408058168e-001
 1.2784388785e+000	 1.7904172793e+000	-5.8334871375e-001
 1.2599656469e+000	 1.8034651559e+000	-1.8034534804e-001
 1.2413761385e+000	 1.8163108992e+000	-3.1858499635e-001
 1.2226736390e+000	 1.8289530263e+000	-1.0670204682e+000
 1.2038614575e+000	 1.8413901247e+000	-1.7658659499e+000
 1.4024133313e+000	 1.7273858424e+000	-2.4952359574e+000
 1.3845039855e+000	 1.7417731524e+000	-2.3271414949e+000
 1.3664577057e+000	 1.7559664970e+000	-2.1305525658e+000
 1.3482776336e+000	 1.7699639608e+000	-1.9071355970e+000
 1.3299669460e+000	 1.7837636958e+000	-1.6585151091e+000
 1.3115288522e+000	 1.7973639225e+000	-1.3862717805e+000
 1.2929665930e+000	 1.8107629302e+000	-1.0919406964e+000
 1.2742834383e+000	 1.8239590782e+000	-7.7700978278e-001
 1.2554826855e+000	 1.8369507958e+000	-4.4291842889e-001
 1.2365676577e+000	 1.8497365834e+000	-9.3078308600e-001
 1.2175417013e+000	 1.8623150124e+000	-1.7157065186e+000
 1.4181707844e+000	 1.7467946721e+000	-2.5000800812e+000
 1.4000602100e+000	 1.7613436372e+000	-2.4092301261e+000
 1.3818111630e+000	 1.7756964577e+000	-2.2916746005e+000
 1.3634268205e+000	 1.7898511964e+000	-2.1490796731e+000
 1.3449103948e+000	 1.8038059846e+000	-1.9830651286e+000
 1.3262651314e+000	 1.8175590227e+000	-1.7952024373e+000
 1.3074943075e+000	 1.8311085811e+000	-1.5870130195e+000
 1.2886012298e+000	 1.8444530004e+000	-1.3599667058e+000
 1.2695892326e+000	 1.8575906924e+000	-1.1154803944e+000
 1.2504616763e+000	 1.8705201405e+000	-8.5491690458e-001
 1.2312219451e+000	 1.8832399002e+000	-1.6657210597e+000
 1.0944195068e+000	 1.6739910224e+000	-2.7527959615e+000
 1.0772208403e+000	 1.6851098662e+000	-2.5165161987e+000
 1.0599285364e+000	 1.6960399458e+000	-2.3080654121e+000
 1.0425456567e+000	 1.7067801714e+000	-2.1256234244e+000
 1.0250752778e+000	 1.7173295184e+000	-1.9674169265e+000
 1.0075204886e+000	 1.7276870275e+000	-1.8317208745e+000
 9.8988438938e-001	 1.7378518049e+000	-1.7168597295e+000
 9.7217008953e-001	 1.7478230222e+000	-1.6212085418e+000
 9.5438070623e-001	 1.7575999168e+000	-1.5431938802e+000
 9.3651936262e-001	 1.7671817913e+000	-1.4812946089e+000
 9.1858918611e-001	 1.7765680137e+000	-1.4340425122e+000
 1.1080997506e+000	 1.6949159102e+000	-2.6158949148e+000
 1.0906861008e+000	 1.7061737395e+000	-2.4023497524e+000
 1.0731776431e+000	 1.7172404451e+000	-2.2091998791e+000
 1.0555774775e+000	 1.7281149236e+000	-2.0347484845e+000
 1.0378887188e+000	 1.7387961374e+000	-1.8773534660e+000
 1.0201144947e+000	 1.7492831153e+000	-1.7354286218e+000
 1.0022579442e+000	 1.7595749524e+000	-1.6074446762e+000
 9.8432221564e-001	 1.7696708100e+000	-1.4919301387e+000
 9.6631046506e-001	 1.7795699158e+000	-1.3874719981e+000
 9.4822585465e-001	 1.7892715637e+000	-1.2927162539e+000
 9.3007155093e-001	 1.7987751138e+000	-1.2063682879e+000
 1.1217799944e+000	 1.7158407980e+000	-2.4732732368e+000
 1.1041513613e+000	 1.7272376128e+000	-2.2875979667e+000
 1.0864267498e+000	 1.7384409444e+000	-2.1149217768e+000
 1.0686092982e+000	 1.7494496757e+000	-1.9536680413e+000
 1.0507021598e+000	 1.7602627564e+000	-1.8023227501e+000
 1.0327085009e+000	 1.7708792032e+000	-1.6594355003e+000
 1.0146314991e+000	 1.7812981000e+000	-1.5236203093e+000
 9.9647434176e-001	 1.7915185978e+000	-1.3935562496e+000
 9.7824022389e-001	 1.8015399147e+000	-1.2679879097e+000
 9.5993234668e-001	 1.8113613361e+000	-1.1457256816e+000
 9.4155391576e-001	 1.8209822140e+000	-1.0256458801e+000
 1.1354602383e+000	 1.7367656858e+000	-2.3298346536e+000
 1.1176166218e+000	 1.7483014862e+000	-2.1769645429e+000
 1.0996758565e+000	 1.7596414438e+000	-2.0297282987e+000
 1.0816411189e+000	 1.7707844278e+000	-1.8866664094e+000
 1.0635156007e+000	 1.7817293753e+000	-1.7463899599e+000
 1.0453025070e+000	 1.7924752910e+000	-1.6075814239e+000
 1.0270050540e+000	 1.8030212475e+000	-1.4689952655e+000
 1.0086264679e+000	 1.8133663856e+000	-1.3294583530e+000
 9.9016998271e-001	 1.8235099137e+000	-1.1878701864e+000
 9.7163883872e-001	 1.8334511084e+000	-1.0432029432e+000
 9.5303628058e-001	 1.8431893142e+000	-8.9450134576e-001
 1.1491404821e+000	 1.7576905735e+000	-2.1903908114e+000
 1.1310818823e+000	 1.7693653595e+000	-2.0750701886e+000
 1.1129249632e+000	 1.7808419431e+000	-1.9580429503e+000
 1.0946729396e+000	 1.7921191800e+000	-1.8379637355e+000
 1.0763290417e+000	 1.8031959943e+000	-1.7135658377e+000
 1.0578965131e+000	 1.8140713789e+000	-1.5836617994e+000
 1.0393786088e+000	 1.8247443951e+000	-1.4471438052e+000
 1.0207785940e+000	 1.8352141733e+000	-1.3029838740e+000
 1.0020997415e+000	 1.8454799126e+000	-1.1502338561e+000
 9.8334533075e-001	 1.8555408808e+000	-9.8802523756e-001
 9.6451864541e-001	 1.8653964143e+000	-8.1556875644e-001
 1.1628207260e+000	 1.7786154613e+000	-2.0596666926e+000
 1.1445471428e+000	 1.7904292328e+000	-1.9864574997e+000
 1.1261740699e+000	 1.8020424424e+000	-1.9042198837e+000
 1.1077047603e+000	 1.8134539321e+000	-1.8117197728e+000
 1.0891424827e+000	 1.8246626133e+000	-1.7078098884e+000
 1.0704905192e+000	 1.8356674667e+000	-1.5914301451e+000
 1.0517521637e+000	 1.8464675427e+000	-1.4616078344e+000
 1.0329307201e+000	 1.8570619611e+000	-1.3174575993e+000
 1.0140295004e+000	 1.8674499116e+000	-1.1581812002e+000
 9.9505182278e-001	 1.8776306532e+000	-9.7998106914e-001
 9.7600101023e-001	 1.8876035145e+000	-7.7762417339e-001
 1.1765009698e+000	 1.7995403491e+000	-1.9423056543e+000
 1.1580124033e+000	 1.8114931061e+000	-1.9155955016e+000
 1.1394231766e+000	 1.8232429417e+000	-1.8725479299e+000
 1.1207365810e+000	 1.8347886843e+000	-1.8120373922e+000
 1.1019559236e+000	 1.8461292323e+000	-1.7330333593e+000
 1.0830845253e+000	 1.8572635545e+000	-1.6346005255e+000
 1.0641257186e+000	 1.8681906902e+000	-1.5158987860e+000
 1.0450828462e+000	 1.8789097489e+000	-1.3696845516e+000
 1.0259592592e+000	 1.8894199106e+000	-1.1908149322e+000
 1.0067583148e+000	 1.8997204256e+000	-9.9158758509e-001
 9.8748337506e-001	 1.9098106147e+000	-7.7337805570e-001
 1.1901812136e+000	 1.8204652369e+000	-1.8428741199e+000
 1.1714776638e+000	 1.8325569795e+000	-1.8668838777e+000
 1.1526722833e+000	 1.8444434411e+000	-1.8672543526e+000
 1.1337684017e+000	 1.8561234364e+000	-1.8429658515e+000
 1.1147693646e+000	 1.8675958513e+000	-1.7931020128e+000
 1.0956785314e+000	 1.8788596424e+000	-1.7085345587e+000
 1.0764992734e+000	 1.8899138378e+000	-1.5800434464e+000
 1.0572349723e+000	 1.9007575367e+000	-1.4241123020e+000
 1.0378890180e+000	 1.9113899095e+000	-1.2423939039e+000
 1.0184648068e+000	 1.9218101980e+000	-1.0364922752e+000
 9.9896573988e-001	 1.9320177149e+000	-8.0796192462e-001
 1.2038614575e+000	 1.8413901247e+000	-1.7658659499e+000
 1.1849429244e+000	 1.8536208528e+000	-1.8446569090e+000
 1.1659213900e+000	 1.8656439404e+000	-1.8925083467e+000
 1.1468002224e+000	 1.8774581886e+000	-1.9020661567e+000
 1.1275828056e+000	 1.8890624702e+000	-1.8523418103e+000
 1.1082725375e+000	 1.9004557302e+000	-1.7673395559e+000
 1.0888728283e+000	 1.9116369853e+000	-1.6489838258e+000
 1.0693870985e+000	 1.9226053244e+000	-1.4991522995e+000
 1.0498187768e+000	 1.9333599085e+000	-1.3196746544e+000
 1.0301712989e+000	 1.9438999704e+000	-1.1123314800e+000
 1.0104481047e+000	 1.9542248150e+000	-8.7885335424e-001
 1.2175417013e+000	 1.8623150124e+000	-1.7157065186e+000
 1.1984081849e+000	 1.8746847261e+000	-1.8531871487e+000
 1.1791704967e+000	 1.8868444397e+000	-1.9130114983e+000
 1.1598320431e+000	 1.8987929407e+000	-1.9280341274e+000
 1.1403962465e+000	 1.9105290892e+000	-1.9013962056e+000
 1.1208665436e+000	 1.9220518181e+000	-1.8352422686e+000
 1.1012463832e+000	 1.9333601329e+000	-1.7316715538e+000
 1.0815392246e+000	 1.9444531122e+000	-1.5927364090e+000
 1.0617485357e+000	 1.9553299075e+000	-1.4204408720e+000
 1.0418777909e+000	 1.9659897428e+000	-1.2167394189e+000
 1.0219304695e+000	 1.9764319152e+000	-9.8353587973e-001
 1.2312219451e+000	 1.8832399002e+000	-1.6657210597e+000
 1.2118734454e+000	 1.8957485995e+000	-1.8112694246e+000
 1.1924196034e+000	 1.9080449390e+000	-1.9061338275e+000
 1.1728638638e+000	 1.9201276929e+000	-1.9527163774e+000
 1.1532096875e+000	 1.9319957082e+000	-1.9533778283e+000
 1.1334605497e+000	 1.9436479059e+000	-1.9104354633e+000
 1.1136199380e+000	 1.9550832805e+000	-1.8261611547e+000
 1.0936913507e+000	 1.9663009000e+000	-1.7027795995e+000
 1.0736782945e+000	 1.9772999064e+000	-1.5424667318e+000
 1.0535842829e+000	 1.9880795152e+000	-1.3473483079e+000
 1.0334128344e+000	 1.9986390154e+000	-1.1194986661e+000
 9.1858918611e-001	 1.7765680137e+000	-1.4340425122e+000
 9.0059330673e-001	 1.7857580172e+000	-1.4968301993e+000
 8.8253485550e-001	 1.7947513000e+000	-1.5374327469e+000
 8.6441696276e-001	 1.8035474251e+000	-1.5562128818e+000
 8.4624275656e-001	 1.8121460198e+000	-1.5536012663e+000
 8.2801536107e-001	 1.8205467755e+000	-1.5300945070e+000
 8.0973789495e-001	 1.8287494474e+000	-1.4862530395e+000
 7.9141346985e-001	 1.8367538539e+000	-1.4226989009e+000
 7.7304518882e-001	 1.8445598760e+000	-1.3401133944e+000
 7.5463614479e-001	 1.8521674571e+000	-1.2392346557e+000
 7.3618941913e-001	 1.8595766021e+000	-1.1208551291e+000
 9.3007155093e-001	 1.7987751138e+000	-1.2063682879e+000
 9.1185072306e-001	 1.8080799924e+000	-1.2829313629e+000
 8.9356654119e-001	 1.8171856912e+000	-1.3372956664e+000
 8.7522217479e-001	 1.8260917679e+000	-1.3697437845e+000
 8.5682079102e-001	 1.8347978450e+000	-1.3806291293e+000
 8.3836555308e-001	 1.8433036102e+000	-1.3703739631e+000
 8.1985961864e-001	 1.8516088155e+000	-1.3394672947e+000
 8.0130613823e-001	 1.8597132771e+000	-1.2884626546e+000
 7.8270825368e-001	 1.8676168744e+000	-1.2179757589e+000
 7.6406909660e-001	 1.8753195503e+000	-1.1289096897e+000
 7.4539178687e-001	 1.8828213097e+000	-1.0294053094e+000
 9.4155391576e-001	 1.8209822140e+000	-1.0256458801e+000
 9.2310813940e-001	 1.8304019676e+000	-1.1114817564e+000
 9.0459822689e-001	 1.8396200825e+000	-1.1749831757e+000
 8.8602738683e-001	 1.8486361107e+000	-1.2163554155e+000
 8.6739882548e-001	 1.8574496703e+000	-1.2358775885e+000
 8.4871574509e-001	 1.8660604449e+000	-1.2339006775e+000
 8.2998134233e-001	 1.8744681836e+000	-1.2108454378e+000
 8.1119880660e-001	 1.8826727002e+000	-1.1708085402e+000
 7.9237131854e-001	 1.8906738729e+000	-1.1156750189e+000
 7.7350204841e-001	 1.8984716435e+000	-1.0467155038e+000
 7.5459415461e-001	 1.9060660172e+000	-9.6527029475e-001
 9.5303628058e-001	 1.8431893142e+000	-8.9450134576e-001
 9.3436555573e-001	 1.8527239428e+000	-9.8520515050e-001
 9.1562991258e-001	 1.8620544737e+000	-1.0533163084e+000
 8.9683259886e-001	 1.8711804535e+000	-1.0989655800e+000
 8.7797685993e-001	 1.8801014955e+000	-1.1216548000e+000
 8.5906593711e-001	 1.8888172796e+000	-1.1250703877e+000
 8.4010306601e-001	 1.8973275517e+000	-1.1118641683e+000
 8.2109147497e-001	 1.9056321234e+000	-1.0834150177e+000
 8.0203438340e-001	 1.9137308713e+000	-1.0410596267e+000
 7.8293500022e-001	 1.9216237367e+000	-9.8609253040e-001
 7.6379652235e-001	 1.9293107247e+000	-9.1976624215e-001
 9.6451864541e-001	 1.8653964143e+000	-8.1556875644e-001
 9.4562297206e-001	 1.8750459180e+000	-9.0679443795e-001
 9.2666159827e-001	 1.8844888650e+000	-9.6958484169e-001
 9.0763781090e-001	 1.8937247963e+000	-1.0130768493e+000
 8.8855489439e-001	 1.9027533208e+000	-1.0387029034e+000
 8.6941612912e-001	 1.9115741143e+000	-1.0478509770e+000
 8.5022478970e-001	 1.9201869198e+000	-1.0418644046e+000
 8.3098414334e-001	 1.9285915466e+000	-1.0220418329e+000
 8.1169744825e-001	 1.9367878698e+000	-9.8963728858e-001
 7.9236795203e-001	 1.9447758299e+000	-9.4586035747e-001
 7.7299889008e-001	 1.9525554322e+000	-8.9187647133e-001
 9.7600101023e-001	 1.8876035145e+000	-7.7762417339e-001
 9.5688038840e-001	 1.8973678932e+000	-8.5738498585e-001
 9.3769328397e-001	 1.9069232562e+000	-9.1817223342e-001
 9.1844302293e-001	 1.9162691391e+000	-9.6139466050e-001
 8.9913292885e-001	 1.9254051460e+000	-9.8841375148e-001
 8.7976632113e-001	 1.9343309490e+000	-1.0005435734e+000
 8.6034651339e-001	 1.9430462879e+000	-9.9905074719e-001
 8.4087681172e-001	 1.9515509698e+000	-9.8515454305e-001
 8.2136051311e-001	 1.9598448682e+000	-9.6002709607e-001
 8.0180090384e-001	 1.9679279231e+000	-9.2479373696e-001
 7.8220125782e-001	 1.9758001398e+000	-8.8053343325e-001
 9.8748337506e-001	 1.9098106147e+000	-7.7337805570e-001
 9.6813780473e-001	 1.9196898685e+000	-8.4662534641e-001
 9.4872496966e-001	 1.9293576475e+000	-9.0272377981e-001
 9.2924823496e-001	 1.9388134820e+000	-9.4301533216e-001
 9.0971096330e-001	 1.9480569713e+000	-9.6879155082e-001
 8.9011651315e-001	 1.9570877837e+000	-9.8129353365e-001
 8.7046823707e-001	 1.9659056560e+000	-9.8171204150e-001
 8.5076948009e-001	 1.9745103929e+000	-9.7118773922e-001
 8.3102357797e-001	 1.9829018667e+000	-9.5081156050e-001
 8.1123385565e-001	 1.9910800163e+000	-9.2162519144e-001
 7.9140362556e-001	 1.9990448473e+000	-8.8462166753e-001
 9.9896573988e-001	 1.9320177149e+000	-8.0796192462e-001
 9.7939522106e-001	 1.9420118437e+000	-8.7211280844e-001
 9.5975665535e-001	 1.9517920388e+000	-9.2096539638e-001
 9.4005344700e-001	 1.9613578248e+000	-9.5579593047e-001
 9.2028899776e-001	 1.9707087965e+000	-9.7782696816e-001
 9.0046670516e-001	 1.9798446184e+000	-9.8822749936e-001
 8.8058996076e-001	 1.9887650241e+000	-9.8811320120e-001
 8.6066214846e-001	 1.9974698161e+000	-9.7854682573e-001
 8.4068664283e-001	 2.0059588651e+000	-9.6053871547e-001
 8.2066680746e-001	 2.0142321096e+000	-9.3504744110e-001
 8.0060599330e-001	 2.0222895548e+000	-9.0298055594e-001
 1.0104481047e+000	 1.9542248150e+000	-8.7885335424e-001
 9.9065263740e-001	 1.9643338189e+000	-9.3144627557e-001
 9.7078834105e-001	 1.9742264300e+000	-9.7061986378e-001
 9.5085865903e-001	 1.9839021676e+000	-9.9758559075e-001
 9.3086703222e-001	 1.9933606218e+000	-1.0134978996e+000
 9.1081689717e-001	 2.0026014531e+000	-1.0194544604e+000
 8.9071168444e-001	 2.0116243922e+000	-1.0164965682e+000
 8.7055481683e-001	 2.0204292393e+000	-1.0056096786e+000
 8.5034970769e-001	 2.0290158636e+000	-9.8772407572e-001
 8.3009975926e-001	 2.0373842028e+000	-9.6371566527e-001
 8.0980836103e-001	 2.0455342623e+000	-9.3440688824e-001
 1.0219304695e+000	 1.9764319152e+000	-9.8353587973e-001
 1.0019100537e+000	 1.9866557941e+000	-1.0222261756e+000
 9.8182002674e-001	 1.9966608213e+000	-1.0494070039e+000
 9.6166387107e-001	 2.0064465104e+000	-1.0662259630e+000
 9.4144506667e-001	 2.0160124470e+000	-1.0737701882e+000
 9.2116708919e-001	 2.0253582878e+000	-1.0730667466e+000
 9.0083340813e-001	 2.0344837603e+000	-1.0650831806e+000
 8.8044748521e-001	 2.0433886625e+000	-1.0507281921e+000
 8.6001277255e-001	 2.0520728620e+000	-1.0308524641e+000
 8.3953271107e-001	 2.0605362960e+000	-1.0062496114e+000
 8.1901072877e-001	 2.0687789699e+000	-9.7765725493e-001
 1.0334128344e+000	 1.9986390154e+000	-1.1194986661e+000
 1.0131674701e+000	 2.0089777693e+000	-1.1420543756e+000
 9.9285171243e-001	 2.0190952125e+000	-1.1550438443e+000
 9.7246908310e-001	 2.0289908532e+000	-1.1595516279e+000
 9.5202310113e-001	 2.0386642723e+000	-1.1565982932e+000
 9.3151728120e-001	 2.0481151225e+000	-1.1471409533e+000
 9.1095513182e-001	 2.0573431284e+000	-1.1320739565e+000
 8.9034015358e-001	 2.0663480856e+000	-1.1122297222e+000
 8.6967583741e-001	 2.0751298605e+000	-1.0883797167e+000
 8.4896566288e-001	 2.0836883892e+000	-1.0612355636e+000
 8.2821309651e-001	 2.0920236774e+000	-1.0314502806e+000
 7.3618941913e-001	 1.8595766021e+000	-1.1208551291e+000
 7.1770808012e-001	 1.8667873772e+000	-1.0473008485e+000
 6.9919518155e-001	 1.8737999088e+000	-9.6966461110e-001
 6.8065376130e-001	 1.8806143829e+000	-8.9644201416e-001
 6.6208683995e-001	 1.8872310448e+000	-8.2573201294e-001
 6.4349741945e-001	 1.8936501977e+000	-7.5674066629e-001
 6.2488848178e-001	 1.8998722024e+000	-6.9016505526e-001
 6.0626298769e-001	 1.9058974762e+000	-6.6935789011e-001
 5.8762387544e-001	 1.9117264922e+000	-6.7777243693e-001
 5.6897405956e-001	 1.9173597783e+000	-7.1318514010e-001
 5.5031642970e-001	 1.9227979164e+000	-7.7349102085e-001
 7.4539178687e-001	 1.8828213097e+000	-1.0294053094e+000
 7.2667943112e-001	 1.8901222194e+000	-9.5154683650e-001
 7.0793512132e-001	 1.8972224076e+000	-8.7325314260e-001
 6.8916193331e-001	 1.9041220627e+000	-7.9517271094e-001
 6.7036292545e-001	 1.9108214328e+000	-7.1791568693e-001
 6.5154113719e-001	 1.9173208252e+000	-6.4205483457e-001
 6.3269958780e-001	 1.9236206049e+000	-5.6812655766e-001
 6.1384127504e-001	 1.9297211947e+000	-5.4587459614e-001
 5.9496917388e-001	 1.9356230734e+000	-5.7921315924e-001
 5.7608623530e-001	 1.9413267756e+000	-6.3708750114e-001
 5.5719538508e-001	 1.9468328903e+000	-7.1738351123e-001
 7.5459415461e-001	 1.9060660172e+000	-9.6527029475e-001
 7.3565078212e-001	 1.9134570617e+000	-8.8334959562e-001
 7.1667506109e-001	 1.9206449065e+000	-8.0066592559e-001
 6.9767010533e-001	 1.9276297425e+000	-7.1788529559e-001
 6.7863901094e-001	 1.9344118209e+000	-6.3563364934e-001
 6.5958485493e-001	 1.9409914526e+000	-5.5449787202e-001
 6.4051069382e-001	 1.9473690074e+000	-4.7502686636e-001
 6.2141956238e-001	 1.9535449131e+000	-4.2040784948e-001
 6.0231447232e-001	 1.9595196545e+000	-4.7905704485e-001
 5.8319841105e-001	 1.9652937728e+000	-5.5965346211e-001
 5.6407434045e-001	 1.9708678643e+000	-6.6007415118e-001
 7.6379652235e-001	 1.9293107247e+000	-9.1976624215e-001
 7.4462213312e-001	 1.9367919039e+000	-8.3520908399e-001
 7.2541500086e-001	 1.9440674054e+000	-7.4960910852e-001
 7.0617827734e-001	 1.9511374223e+000	-6.6364834096e-001
 6.8691509644e-001	 1.9580022090e+000	-5.7796694931e-001
 6.6762857267e-001	 1.9646620801e+000	-4.9316430869e-001
 6.4832179984e-001	 1.9711174100e+000	-4.0980013557e-001
 6.2899784972e-001	 1.9773686316e+000	-3.2839568645e-001
 6.0965977076e-001	 1.9834162357e+000	-3.8039425457e-001
 5.9031058679e-001	 1.9892607700e+000	-4.8390960629e-001
 5.7095329582e-001	 1.9949028382e+000	-6.0452323756e-001
 7.7299889008e-001	 1.9525554322e+000	-8.9187647133e-001
 7.5359348412e-001	 1.9601267461e+000	-8.0611927640e-001
 7.3415494062e-001	 1.9674899042e+000	-7.1908839329e-001
 7.1468644936e-001	 1.9746451021e+000	-6.3148032939e-001
 6.9519118194e-001	 1.9815925970e+000	-5.4394788324e-001
 6.7567229041e-001	 1.9883327076e+000	-4.5710126775e-001
 6.5613290586e-001	 1.9948658125e+000	-3.7150930629e-001
 6.3657613707e-001	 2.0011923500e+000	-2.8770069549e-001
 6.1700506920e-001	 2.0073128168e+000	-2.8627162243e-001
 5.9742276253e-001	 2.0132277673e+000	-4.1284056218e-001
 5.7783225119e-001	 2.0189378122e+000	-5.5365048943e-001
 7.8220125782e-001	 1.9758001398e+000	-8.8053343325e-001
 7.6256483512e-001	 1.9834615883e+000	-7.9502451107e-001
 7.4289488039e-001	 1.9909124031e+000	-7.0806108705e-001
 7.2319462137e-001	 1.9981527819e+000	-6.2035259926e-001
 7.0346726743e-001	 2.0051829851e+000	-5.3256286252e-001
 6.8371600815e-001	 2.0120033350e+000	-4.4531125408e-001
 6.6394401188e-001	 2.0186142150e+000	-3.5917397497e-001
 6.4415442441e-001	 2.0250160685e+000	-2.7468538054e-001
 6.2435036764e-001	 2.0312093980e+000	-1.9969520426e-001
 6.0453493827e-001	 2.0371947645e+000	-3.4939147144e-001
 5.8471120656e-001	 2.0429727862e+000	-5.1033743501e-001
 7.9140362556e-001	 1.9990448473e+000	-8.8462166753e-001
 7.7153618612e-001	 2.0067964305e+000	-8.0082237556e-001
 7.5163482016e-001	 2.0143349019e+000	-7.1543891591e-001
 7.3170279338e-001	 2.0216604616e+000	-6.2919208588e-001
 7.1174335293e-001	 2.0287733731e+000	-5.4275508133e-001
 6.9175972589e-001	 2.0356739625e+000	-4.5675474842e-001
 6.7175511790e-001	 2.0423626176e+000	-3.7177291364e-001
 6.5173271175e-001	 2.0488397869e+000	-2.8834778586e-001
 6.3169566608e-001	 2.0551059791e+000	-2.0697542366e-001
 6.1164711402e-001	 2.0611617617e+000	-2.9647028466e-001
 5.9159016193e-001	 2.0670077601e+000	-4.7742963206e-001
 8.0060599330e-001	 2.0222895548e+000	-9.0298055594e-001
 7.8050753712e-001	 2.0301312727e+000	-8.2236639354e-001
 7.6037475992e-001	 2.0377574008e+000	-7.4009064450e-001
 7.4021096540e-001	 2.0451681414e+000	-6.5688387339e-001
 7.2001943843e-001	 2.0523637612e+000	-5.7342700037e-001
 6.9980344363e-001	 2.0593445900e+000	-4.9035262247e-001
 6.7956622392e-001	 2.0661110201e+000	-4.0824641608e-001
 6.5931099910e-001	 2.0726635054e+000	-3.2764861398e-001
 6.3904096452e-001	 2.0790025603e+000	-2.4905555006e-001
 6.1875928976e-001	 2.0851287589e+000	-2.5694989873e-001
 5.9846911730e-001	 2.0910427341e+000	-4.5773873518e-001
 8.0980836103e-001	 2.0455342623e+000	-9.3440688824e-001
 7.8947888812e-001	 2.0534661149e+000	-8.5846852842e-001
 7.6911469969e-001	 2.0611798997e+000	-7.8084451697e-001
 7.4871913741e-001	 2.0686758212e+000	-7.0227357269e-001
 7.2829552392e-001	 2.0759541493e+000	-6.2344266123e-001
 7.0784716137e-001	 2.0830152175e+000	-5.4498838947e-001
 6.8737732993e-001	 2.0898594226e+000	-4.6749848411e-001
 6.6688928644e-001	 2.0964872238e+000	-3.9151334739e-001
 6.4638626296e-001	 2.1028991414e+000	-3.1752768297e-001
 6.2587146550e-001	 2.1090957562e+000	-2.4599218490e-001
 6.0534807266e-001	 2.1150777080e+000	-4.5404442208e-001
 8.1901072877e-001	 2.0687789699e+000	-9.7765725493e-001
 7.9845023912e-001	 2.0768009572e+000	-9.0790151825e-001
 7.7785463946e-001	 2.0846023985e+000	-8.3649053344e-001
 7.5722730942e-001	 2.0921835010e+000	-7.6416953903e-001
 7.3657160942e-001	 2.0995445373e+000	-6.9162984481e-001
 7.1589087911e-001	 2.1066858449e+000	-6.1951030297e-001
 6.9518843595e-001	 2.1136078252e+000	-5.4839886646e-001
 6.7446757378e-001	 2.1203109423e+000	-4.7883422721e-001
 6.5373156140e-001	 2.1267957226e+000	-4.1130752690e-001
 6.3298364124e-001	 2.1330627534e+000	-3.4626413298e-001
 6.1222702803e-001	 2.1391126820e+000	-4.6909619007e-001
 8.2821309651e-001	 2.0920236774e+000	-1.0314502806e+000
 8.0742159012e-001	 2.1001357994e+000	-9.6940105484e-001
 7.8659457923e-001	 2.1080248974e+000	-9.0578257463e-001
 7.6573548144e-001	 2.1156911808e+000	-8.4134494176e-001
 7.4484769492e-001	 2.1231349254e+000	-7.7678208579e-001
 7.2393459685e-001	 2.1303564724e+000	-7.1273331569e-001
 7.0299954197e-001	 2.1373562277e+000	-6.4978496171e-001
 6.8204586113e-001	 2.1441346607e+000	-5.8847209989e-001
 6.6107685984e-001	 2.1506923038e+000	-5.2928035158e-001
 6.4009581698e-001	 2.1570297506e+000	-4.7264775036e-001
 6.1910598340e-001	 2.1631476559e+000	-5.0561503272e-001
 5.5031642970e-001	 1.9227979164e+000	-7.7349102085e-001
 5.3165384949e-001	 1.9280415411e+000	-6.6013659052e-001
 5.1298915537e-001	 1.9330913394e+000	-5.6551049580e-001
 4.9432515561e-001	 1.9379480490e+000	-4.8742434390e-001
 4.7566462918e-001	 1.9426124576e+000	-4.2381333205e-001
 4.5701032483e-001	 1.9470854021e+000	-3.7273479755e-001
 4.3836496008e-001	 1.9513677669e+000	-3.3236656170e-001
 4.1973122034e-001	 1.9554604835e+000	-3.0100507881e-001
 4.0111175798e-001	 1.9593645290e+000	-2.7706340128e-001
 3.8250919152e-001	 1.9630809251e+000	-2.5906897207e-001
 3.6392610484e-001	 1.9666107368e+000	-2.4566125596e-001
 5.5719538508e-001	 1.9468328903e+000	-7.1738351123e-001
 5.3829952261e-001	 1.9521420604e+000	-6.0191614623e-001
 5.1940151982e-001	 1.9572549812e+000	-5.0449054496e-001
 5.0050422005e-001	 1.9621723996e+000	-4.2296166476e-001
 4.8161043705e-001	 1.9668951134e+000	-3.5531135848e-001
 4.6272295389e-001	 1.9714239696e+000	-2.9964677455e-001
 4.4384452209e-001	 1.9757598640e+000	-2.5419854699e-001
 4.2497786060e-001	 1.9799037396e+000	-2.1731878671e-001
 4.0612565496e-001	 1.9838565856e+000	-1.8747888595e-001
 3.8729055642e-001	 1.9876194366e+000	-1.6326714739e-001
 3.6847518115e-001	 1.9911933711e+000	-1.4338624982e-001
 5.6407434045e-001	 1.9708678643e+000	-6.6007415118e-001
 5.4494519573e-001	 1.9762425797e+000	-5.4482911613e-001
 5.2581388426e-001	 1.9814186229e+000	-4.4676657845e-001
 5.0668328450e-001	 1.9863967502e+000	-3.6378506389e-001
 4.8755624491e-001	 1.9911777691e+000	-2.9391350391e-001
 4.6843558295e-001	 1.9957625371e+000	-2.3530948069e-001
 4.4932408409e-001	 2.0001519611e+000	-1.8625725796e-001
 4.3022450086e-001	 2.0043469956e+000	-1.4516560928e-001
 4.1113955194e-001	 2.0083486423e+000	-1.1056545610e-001
 3.9207192132e-001	 2.0121579482e+000	-8.1107327735e-002
 3.7302425746e-001	 2.0157760053e+000	-5.5558655582e-002
 5.7095329582e-001	 1.9949028382e+000	-6.0452323756e-001
 5.5159086884e-001	 2.0003430989e+000	-4.9168276876e-001
 5.3222624870e-001	 2.0055822646e+000	-3.9499195026e-001
 5.1286234895e-001	 2.0106211008e+000	-3.1239316516e-001
 4.9350205278e-001	 2.0154604248e+000	-2.4196291794e-001
 4.7414821202e-001	 2.0201011047e+000	-1.8190991953e-001
 4.5480364609e-001	 2.0245440582e+000	-1.3057295349e-001
 4.3547114111e-001	 2.0287902517e+000	-8.6418535767e-002
 4.1615344891e-001	 2.0328406989e+000	-4.8038380717e-002
 3.9685328622e-001	 2.0366964598e+000	-1.4146686036e-002
 3.7757333378e-001	 2.0403586395e+000	 1.6422750536e-002
 5.7783225119e-001	 2.0189378122e+000	-5.5365048943e-001
 5.5823654196e-001	 2.0244436182e+000	-4.4524917978e-001
 5.3863861314e-001	 2.0297459064e+000	-3.5179012771e-001
 5.1904141339e-001	 2.0348454514e+000	-2.7125993139e-001
 4.9944786064e-001	 2.0397430805e+000	-2.0178323273e-001
 4.7986084108e-001	 2.0444396722e+000	-1.4162063714e-001
 4.6028320810e-001	 2.0489361553e+000	-8.9166409760e-002
 4.4071778137e-001	 2.0532335077e+000	-4.2945961066e-002
 4.2116734589e-001	 2.0573327555e+000	-1.6131349920e-003
 4.0163465111e-001	 2.0612349713e+000	 3.6052687109e-002
 3.8212241009e-001	 2.0649412737e+000	 7.1149653432e-002
 5.8471120656e-001	 2.0429727862e+000	-5.1033743501e-001
 5.6488221508e-001	 2.0485441375e+000	-4.0826730224e-001
 5.4505097759e-001	 2.0539095481e+000	-3.1975644948e-001
 5.2522047784e-001	 2.0590698020e+000	-2.4283611505e-001
 5.0539366851e-001	 2.0640257362e+000	-1.7567971102e-001
 4.8557347014e-001	 2.0687782397e+000	-1.1660057245e-001
 4.6576277010e-001	 2.0733282524e+000	-6.4049478069e-002
 4.4596442162e-001	 2.0776767638e+000	-1.6611956005e-002
 4.2618124287e-001	 2.0818248121e+000	 2.6994611792e-002
 4.0641601601e-001	 2.0857734829e+000	 6.7924072695e-002
 3.8667148640e-001	 2.0895239079e+000	 1.0720476024e-001
 5.9159016193e-001	 2.0670077601e+000	-4.7742963206e-001
 5.7152788820e-001	 2.0726446567e+000	-3.8344489227e-001
 5.5146334203e-001	 2.0780731899e+000	-3.0145976098e-001
 5.3139954228e-001	 2.0832941527e+000	-2.2955060763e-001
 5.1133947637e-001	 2.0883083920e+000	-1.6594031419e-001
 4.9128609920e-001	 2.0931168073e+000	-1.0899584846e-001
 4.7124233210e-001	 2.0977203495e+000	-5.7225603719e-002
 4.5121106188e-001	 2.1021200198e+000	-9.2765187326e-003
 4.3119513984e-001	 2.1063168687e+000	 3.6069007556e-002
 4.1119738090e-001	 2.1103119945e+000	 7.9896392402e-002
 3.9122056271e-001	 2.1141065421e+000	 1.2316232229e-001
 5.9846911730e-001	 2.0910427341e+000	-4.5773873518e-001
 5.7817356131e-001	 2.0967451760e+000	-3.7346030199e-001
 5.5787570647e-001	 2.1022368316e+000	-2.9944393700e-001
 5.3757860672e-001	 2.1075185033e+000	-2.3381169610e-001
 5.1728528424e-001	 2.1125910477e+000	-1.7483669653e-001
 4.9699872826e-001	 2.1174553748e+000	-1.2094050871e-001
 4.7672189410e-001	 2.1221124465e+000	-7.0690309122e-002
 4.5645770213e-001	 2.1265632759e+000	-2.2795808787e-002
 4.3620903682e-001	 2.1308089253e+000	 2.3894027928e-002
 4.1597874580e-001	 2.1348505060e+000	 7.0394459137e-002
 3.9576963903e-001	 2.1386891763e+000	 1.1758862106e-001
 6.0534807266e-001	 2.1150777080e+000	-4.5404442208e-001
 5.8481923443e-001	 2.1208456953e+000	-3.8096415024e-001
 5.6428807091e-001	 2.1264004734e+000	-3.1622930043e-001
 5.4375767117e-001	 2.1317428539e+000	-2.5800823356e-001
 5.2323109210e-001	 2.1368737034e+000	-2.0462513182e-001
 5.0271135732e-001	 2.1417939423e+000	-1.5455720363e-001
 4.8220145610e-001	 2.1465045436e+000	-1.0643164396e-001
 4.6170434238e-001	 2.1510065319e+000	-5.9022365192e-002
 4.4122293379e-001	 2.1553009819e+000	-1.1246513967e-002
 4.2076011069e-001	 2.1593890176e+000	 3.7839210482e-002
 4.0031871534e-001	 2.1632718105e+000	 8.9042421050e-002
 6.1222702803e-001	 2.1391126820e+000	-4.6909619007e-001
 5.9146490754e-001	 2.1449462145e+000	-4.0858088058e-001
 5.7070043534e-001	 2.1505641151e+000	-3.5431394547e-001
 5.4993673561e-001	 2.1559672045e+000	-3.0451073105e-001
 5.2917689996e-001	 2.1611563591e+000	-2.5754737737e-001
 5.0842398637e-001	 2.1661325098e+000	-2.1195783063e-001
 4.8768101810e-001	 2.1708966407e+000	-1.6643060501e-001
 4.6695098264e-001	 2.1754497879e+000	-1.1980530986e-001
 4.4623683076e-001	 2.1797930386e+000	-7.1068958381e-002
 4.2554147558e-001	 2.1839275292e+000	-1.9352073589e-002
 4.0486779165e-001	 2.1878544447e+000	 3.6075392033e-002
 6.1910598340e-001	 2.1631476559e+000	-5.0561503272e-001
 5.9811058066e-001	 2.1690467338e+000	-4.5891021551e-001
 5.7711279978e-001	 2.1747277568e+000	-4.1617497251e-001
 5.5611580005e-001	 2.1801915551e+000	-3.7567237655e-001
 5.3512270782e-001	 2.1854390149e+000	-3.3583148054e-001
 5.1413661543e-001	 2.1904710774e+000	-2.9524413148e-001
 4.9316058010e-001	 2.1952887378e+000	-2.5266152795e-001
 4.7219762289e-001	 2.1998930440e+000	-2.0699053744e-001
 4.5125072774e-001	 2.2042850952e+000	-1.5728979042e-001
 4.3032284048e-001	 2.2084660407e+000	-1.0276556751e-001
 4.0941686796e-001	 2.2124370789e+000	-4.2767496763e-002
 3.6392610484e-001	 1.9666107368e+000	-2.4566125596e-001
 3.4536504635e-001	 1.9699550718e+000	-1.8383598416e-001
 3.2682852835e-001	 1.9731150785e+000	-1.2477512339e-001
 3.0831902626e-001	 1.9760919458e+000	-6.7720311950e-002
 2.8983897805e-001	 1.9788869010e+000	-1.2008627576e-002
 2.7139078356e-001	 1.9815012093e+000	 4.2930565063e-002
 2.5297680396e-001	 1.9839361725e+000	 9.7578850051e-002
 2.3459936123e-001	 1.9861931275e+000	 1.5233206828e-001
 2.1626073764e-001	 1.9882734453e+000	 2.0750368721e-001
 1.9796317532e-001	 1.9901785300e+000	 2.6332822199e-001
 1.7970887579e-001	 1.9919098172e+000	 3.1996469778e-001
 3.6847518115e-001	 1.9911933711e+000	-1.4338624982e-001
 3.4968210943e-001	 1.9945795102e+000	-8.8119553934e-002
 3.3091388495e-001	 1.9977790170e+000	-3.5532519459e-002
 3.1217301410e-001	 2.0007930951e+000	 1.5067488478e-002
 2.9346196528e-001	 2.0036229872e+000	 6.4275990149e-002
 2.7478316835e-001	 2.0062699745e+000	 1.1259471064e-001
 2.5613901401e-001	 2.0087353747e+000	 1.6043498215e-001
 2.3753185325e-001	 2.0110205416e+000	 2.0812121786e-001
 2.1896399687e-001	 2.0131268634e+000	 2.5589444651e-001
 2.0043771501e-001	 2.0150557616e+000	 3.0391589681e-001
 1.8195523674e-001	 2.0168086899e+000	 3.5227062121e-001
 3.7302425746e-001	 2.0157760053e+000	-5.5558655582e-002
 3.5399917252e-001	 2.0192039486e+000	-7.2746243912e-003
 3.3499924156e-001	 2.0224429555e+000	 3.8577667824e-002
 3.1602700193e-001	 2.0254942444e+000	 8.2623012104e-002
 2.9708495251e-001	 2.0283590735e+000	 1.2538726383e-001
 2.7817555315e-001	 2.0310387396e+000	 1.6730083560e-001
 2.5930122406e-001	 2.0335345769e+000	 2.0870227272e-001
 2.4046434526e-001	 2.0358479557e+000	 2.4984189958e-001
 2.2166725609e-001	 2.0379802815e+000	 2.9088552565e-001
 2.0291225470e-001	 2.0399329932e+000	 3.3191819987e-001
 1.8420159768e-001	 2.0417075627e+000	 3.7294800262e-001
 3.7757333378e-001	 2.0403586395e+000	 1.6422750536e-002
 3.5831623560e-001	 2.0438283870e+000	 5.7450788322e-002
 3.3908459817e-001	 2.0471068940e+000	 9.6458287523e-002
 3.1988098976e-001	 2.0501953937e+000	 1.3400000619e-001
 3.0070793974e-001	 2.0530951598e+000	 1.7052979971e-001
 2.8156793795e-001	 2.0558075047e+000	 2.0640429381e-001
 2.6246343411e-001	 2.0583337790e+000	 2.4188663987e-001
 2.4339683728e-001	 2.0606753698e+000	 2.7715034057e-001
 2.2437051531e-001	 2.0628336995e+000	 3.1228313401e-001
 2.0538679439e-001	 2.0648102249e+000	 3.4729092487e-001
 1.8644795863e-001	 2.0666064354e+000	 3.8210175135e-001
 3.8212241009e-001	 2.0649412737e+000	 7.1149653432e-002
 3.6263329868e-001	 2.0684528254e+000	 1.0479497375e-001
 3.4316995478e-001	 2.0717708325e+000	 1.3699443353e-001
 3.2373497759e-001	 2.0748965430e+000	 1.6823049732e-001
 3.0433092696e-001	 2.0778312460e+000	 1.9888261401e-001
 2.8496032274e-001	 2.0805762698e+000	 2.2923107658e-001
 2.6562564417e-001	 2.0831329812e+000	 2.5946096406e-001
 2.4632932930e-001	 2.0855027839e+000	 2.8966615320e-001
 2.2707377453e-001	 2.0876871176e+000	 3.1985338761e-001
 2.0786133409e-001	 2.0896874565e+000	 3.4994639248e-001
 1.8869431958e-001	 2.0915053081e+000	 3.7979002331e-001
 3.8667148640e-001	 2.0895239079e+000	 1.0720476024e-001
 3.6695036176e-001	 2.0930772638e+000	 1.3348333269e-001
 3.4725531138e-001	 2.0964347709e+000	 1.5905448896e-001
 3.2758896542e-001	 2.0995976924e+000	 1.8432606911e-001
 3.0795391419e-001	 2.1025673323e+000	 2.0960063824e-001
 2.8835270754e-001	 2.1053450349e+000	 2.3507953989e-001
 2.6878785422e-001	 2.1079321833e+000	 2.6086703150e-001
 2.4926182132e-001	 2.1103301980e+000	 2.8697448893e-001
 2.2977703375e-001	 2.1125405357e+000	 3.1332466758e-001
 2.1033587378e-001	 2.1145646881e+000	 3.3975600758e-001
 1.9094068053e-001	 2.1164041808e+000	 3.6602697122e-001
 3.9122056271e-001	 2.1141065421e+000	 1.2316232229e-001
 3.7126742484e-001	 2.1177017022e+000	 1.4222912649e-001
 3.5134066799e-001	 2.1210987094e+000	 1.6149109776e-001
 3.3144295325e-001	 2.1242988417e+000	 1.8127905075e-001
 3.1157690142e-001	 2.1273034185e+000	 2.0181611945e-001
 2.9174509234e-001	 2.1301138000e+000	 2.2322201109e-001
 2.7195006427e-001	 2.1327313855e+000	 2.4551734194e-001
 2.5219431333e-001	 2.1351576121e+000	 2.6862804182e-001
 2.3248029298e-001	 2.1373939537e+000	 2.9238981402e-001
 2.1281041347e-001	 2.1394419197e+000	 3.1655263809e-001
 1.9318704148e-001	 2.1413030535e+000	 3.4078530291e-001
 3.9576963903e-001	 2.1386891763e+000	 1.1758862106e-001
 3.7558448792e-001	 2.1423261406e+000	 1.2973417478e-001
 3.5542602459e-001	 2.1457626479e+000	 1.4314206920e-001
 3.3529694108e-001	 2.1489999910e+000	 1.5806362355e-001
 3.1519988865e-001	 2.1520395048e+000	 1.7463992396e-001
 2.9513747713e-001	 2.1548825652e+000	 1.9290628477e-001
 2.7511227432e-001	 2.1575305876e+000	 2.1279679182e-001
 2.5512680535e-001	 2.1599850262e+000	 2.3414891388e-001
 2.3518355220e-001	 2.1622473718e+000	 2.5670816858e-001
 2.1528495317e-001	 2.1643191514e+000	 2.8013282973e-001
 1.9543340243e-001	 2.1662019262e+000	 3.0399866322e-001
 4.0031871534e-001	 2.1632718105e+000	 8.9042421050e-002
 3.7990155100e-001	 2.1669505789e+000	 9.4689505536e-002
 3.5951138120e-001	 2.1704265864e+000	 1.0283122080e-001
 3.3915092891e-001	 2.1737011403e+000	 1.1363685212e-001
 3.1882287587e-001	 2.1767755911e+000	 1.2716275214e-001
 2.9852986193e-001	 2.1796513303e+000	 1.4335701668e-001
 2.7827448437e-001	 2.1823297898e+000	 1.6206424262e-001
 2.5805929737e-001	 2.1848124402e+000	 1.8303035333e-001
 2.3788681142e-001	 2.1871007899e+000	 2.0590747781e-001
 2.1775949286e-001	 2.1891963830e+000	 2.3025886979e-001
 1.9767976337e-001	 2.1911007990e+000	 2.5556385349e-001
 4.0486779165e-001	 2.1878544447e+000	 3.6075392033e-002
 3.8421861408e-001	 2.1915750173e+000	 3.5775961343e-002
 3.6359673781e-001	 2.1950905249e+000	 3.9369164349e-002
 3.4300491674e-001	 2.1984022896e+000	 4.6939645938e-002
 3.2244586310e-001	 2.2015116773e+000	 5.8456271361e-002
 3.0192224673e-001	 2.2044200954e+000	 7.3777023713e-002
 2.8143669442e-001	 2.2071289919e+000	 9.2653983511e-002
 2.6099178938e-001	 2.2096398543e+000	 1.1473837549e-001
 2.4059007064e-001	 2.2119542079e+000	 1.3958566814e-001
 2.2023403255e-001	 2.2140736146e+000	 1.6666071176e-001
 1.9992612432e-001	 2.2159996717e+000	 1.9534290144e-001
 4.0941686796e-001	 2.2124370789e+000	-4.2767496763e-002
 3.8853567716e-001	 2.2161994557e+000	-4.8335234724e-002
 3.6768209441e-001	 2.2197544633e+000	-4.8445960427e-002
 3.4685890457e-001	 2.2231034390e+000	-4.3102343128e-002
 3.2606885033e-001	 2.2262477636e+000	-3.2425826629e-002
 3.0531463152e-001	 2.2291888605e+000	-1.6651502910e-002
 2.8459890447e-001	 2.2319281941e+000	 3.8770964756e-003
 2.6392428140e-001	 2.2344672684e+000	 2.8713275834e-002
 2.4329332986e-001	 2.2368076260e+000	 5.7312502578e-002
 2.2270857224e-001	 2.2389508462e+000	 8.9037771656e-002
 2.0217248527e-001	 2.2408985444e+000	 1.2316499297e-001
 1.7970887579e-001	 1.9919098172e+000	 3.1996469778e-001
 1.6149999964e-001	 1.9934687733e+000	 3.6143052989e-001
 1.4333866613e-001	 1.9948568938e+000	 4.0993654532e-001
 1.2522695292e-001	 1.9960757025e+000	 4.6531156653e-001
 1.0716689577e-001	 1.9971267502e+000	 5.2732042086e-001
 8.9160488287e-002	 1.9980116134e+000	 5.9566764417e-001
 7.1209681760e-002	 1.9987318933e+000	 6.7000116946e-001
 5.3316384950e-002	 1.9992892145e+000	 7.4991599262e-001
 3.5482463963e-002	 1.9996852239e+000	 8.3495780738e-001
 1.7709742145e-002	 1.9999215897e+000	 9.2462660250e-001
 0.0000000000e+000	 2.0000000000e+000	 1.0183802139e+000
 1.8195523674e-001	 2.0168086899e+000	 3.5227062121e-001
 1.6351874963e-001	 2.0183871330e+000	 3.8164711842e-001
 1.4513039946e-001	 2.0197926050e+000	 4.1716092751e-001
 1.2679228983e-001	 2.0210266488e+000	 4.5856549329e-001
 1.0850648196e-001	 2.0220908346e+000	 5.0555040904e-001
 9.0274994390e-002	 2.0229867586e+000	 5.5774526395e-001
 7.2099802782e-002	 2.0237160419e+000	 6.1472347205e-001
 5.3982839761e-002	 2.0242803297e+000	 6.7600607422e-001
 3.5925994762e-002	 2.0246812892e+000	 7.4106550551e-001
 1.7931113921e-002	 2.0249206096e+000	 8.0932932025e-001
 0.0000000000e+000	 2.0250000000e+000	 8.8018386790e-001
 1.8420159768e-001	 2.0417075627e+000	 3.7294800262e-001
 1.6553749963e-001	 2.0433054926e+000	 3.9118949093e-001
 1.4692213278e-001	 2.0447283162e+000	 4.1480905854e-001
 1.2835762674e-001	 2.0459775951e+000	 4.4348147257e-001
 1.0984606816e-001	 2.0470549190e+000	 4.7681770884e-001
 9.1389500493e-002	 2.0479619037e+000	 5.1436894978e-001
 7.2989923804e-002	 2.0487001906e+000	 5.5563056010e-001
 5.4649294573e-002	 2.0492714448e+000	 6.0004603159e-001
 3.6369525562e-002	 2.0496773545e+000	 6.4701088906e-001
 1.8152485698e-002	 2.0499196295e+000	 6.9587654974e-001
 0.0000000000e+000	 2.0500000000e+000	 7.4595412884e-001
 1.8644795863e-001	 2.0666064354e+000	 3.8210175135e-001
 1.6755624962e-001	 2.0682238523e+000	 3.9031626335e-001
 1.4871386611e-001	 2.0696640273e+000	 4.0329238465e-001
 1.2992296366e-001	 2.0709285414e+000	 4.2062283649e-001
 1.1118565436e-001	 2.0720190034e+000	 4.4183652652e-001
 9.2504006597e-002	 2.0729370489e+000	 4.6640270396e-001
 7.3880044825e-002	 2.0736843393e+000	 4.9373508847e-001
 5.5315749384e-002	 2.0742625600e+000	 5.2319596435e-001
 3.6813056361e-002	 2.0746734198e+000	 5.5410023144e-001
 1.8373857475e-002	 2.0749186493e+000	 5.8571940509e-001
 0.0000000000e+000	 2.0750000000e+000	 6.1728555765e-001
 1.8869431958e-001	 2.0915053081e+000	 3.7979002331e-001
 1.6957499962e-001	 2.0931422120e+000	 3.7923587313e-001
 1.5050559944e-001	 2.0945997385e+000	 3.8296886119e-001
 1.3148830057e-001	 2.0958794877e+000	 3.9049622657e-001
 1.1252524055e-001	 2.0969830877e+000	 4.0126129091e-001
 9.3618512700e-002	 2.0979121941e+000	 4.1464777736e-001
 7.4770165847e-002	 2.0986684879e+000	 4.2998409949e-001
 5.5982204196e-002	 2.0992536752e+000	 4.4654761123e-001
 3.7256587160e-002	 2.0996694851e+000	 4.6356880934e-001
 1.8595229251e-002	 2.0999176692e+000	 4.8023548026e-001
 0.0000000000e+000	 2.1000000000e+000	 4.9569678379e-001
 1.9094068053e-001	 2.1164041808e+000	 3.6602697122e-001
 1.7159374962e-001	 2.1180605716e+000	 3.5810953096e-001
 1.5229733276e-001	 2.1195354497e+000	 3.5414609910e-001
 1.3305363748e-001	 2.1208304339e+000	 3.5355492846e-001
 1.1386482675e-001	 2.1219471721e+000	 3.5569016969e-001
 9.4733018803e-002	 2.1228873393e+000	 3.5984636074e-001
 7.5660286868e-002	 2.1236526366e+000	 3.6526288252e-001
 5.6648659007e-002	 2.1242447904e+000	 3.7112837128e-001
 3.7700117959e-002	 2.1246655504e+000	 3.7658507902e-001
 1.8816601028e-002	 2.1249166891e+000	 3.8073317379e-001
 0.0000000000e+000	 2.1250000000e+000	 3.8263497177e-001
 1.9318704148e-001	 2.1413030535e+000	 3.4078530291e-001
 1.7361249961e-001	 2.1429789313e+000	 3.2705396647e-001
 1.5408906609e-001	 2.1444711609e+000	 3.1708429194e-001
 1.3461897439e-001	 2.1457813802e+000	 3.1020197407e-001
 1.1520441295e-001	 2.1469112565e+000	 3.0566834043e-001
 9.5847524906e-002	 2.1478624844e+000	 3.0268501842e-001
 7.6550407890e-002	 2.1486367853e+000	 3.0039856424e-001
 5.7315113819e-002	 2.1492359056e+000	 2.9790504449e-001
 3.8143648758e-002	 2.1496616157e+000	 2.9425456119e-001
 1.9037972804e-002	 2.1499157090e+000	 2.8845571178e-001
 0.0000000000e+000	 2.1500000000e+000	 2.7947997614e-001
 1.9543340243e-001	 2.1662019262e+000	 3.0399866322e-001
 1.7563124961e-001	 2.1678972910e+000	 2.8614398464e-001
 1.5588079942e-001	 2.1694068720e+000	 2.7199894101e-001
 1.3618431130e-001	 2.1707323265e+000	 2.6079302963e-001
 1.1654399914e-001	 2.1718753409e+000	 2.5169103599e-001
 9.6962031009e-002	 2.1728376296e+000	 2.4379788521e-001
 7.7440528911e-002	 2.1736209339e+000	 2.3616345131e-001
 5.7981568630e-002	 2.1742270207e+000	 2.2778731460e-001
 3.8587179558e-002	 2.1746576810e+000	 2.1762345801e-001
 1.9259344581e-002	 2.1749147288e+000	 2.0458489342e-001
 0.0000000000e+000	 2.1750000000e+000	 1.8754820989e-001
 1.9767976337e-001	 2.1911007990e+000	 2.5556385349e-001
 1.7764999960e-001	 2.1928156506e+000	 2.3541484785e-001
 1.5767253274e-001	 2.1943425832e+000	 2.1906339471e-001
 1.3774964821e-001	 2.1956832728e+000	 2.0563908701e-001
 1.1788358534e-001	 2.1968394252e+000	 1.9420638227e-001
 9.8076537113e-002	 2.1978127748e+000	 1.8376964540e-001
 7.8330649933e-002	 2.1986050826e+000	 1.7327814516e-001
 5.8648023441e-002	 2.1992181359e+000	 1.6163099423e-001
 3.9030710357e-002	 2.1996537463e+000	 1.4768202346e-001
 1.9480716358e-002	 2.1999137487e+000	 1.3024458116e-001
 0.0000000000e+000	 2.2000000000e+000	 1.0809624900e-001
 1.9992612432e-001	 2.2159996717e+000	 1.9534290144e-001
 1.7966874960e-001	 2.2177340103e+000	 1.7486449740e-001
 1.5946426607e-001	 2.2192782944e+000	 1.5841121666e-001
 1.3931498512e-001	 2.2206342191e+000	 1.4500897347e-001
 1.1922317154e-001	 2.2218035096e+000	 1.3361804468e-001
 9.9191043216e-002	 2.2227879199e+000	 1.2313831083e-001
 7.9220770954e-002	 2.2235892313e+000	 1.1241444679e-001
 5.9314478253e-002	 2.2242092511e+000	 1.0024105142e-001
 3.9474241156e-002	 2.2246498116e+000	 8.5367706510e-002
 1.9702088134e-002	 2.2249127686e+000	 6.6503955600e-002
 0.0000000000e+000	 2.2250000000e+000	 4.2324194168e-002
 2.0217248527e-001	 2.2408985444e+000	 1.2316499297e-001
 1.8168749959e-001	 2.2426523700e+000	 1.0445562693e-001
 1.6125599940e-001	 2.2442140055e+000	 9.0138395948e-002
 1.4088032204e-001	 2.2455851654e+000	 7.9131694159e-002
 1.2056275773e-001	 2.2467675940e+000	 7.0287698181e-002
 1.0030554932e-001	 2.2477630651e+000	 6.2397813825e-002
 8.0110891976e-002	 2.2485733799e+000	 5.4198067889e-002
 5.9980933064e-002	 2.2492003663e+000	 4.4374434332e-002
 3.9917771955e-002	 2.2496458769e+000	 3.1568084710e-002
 1.9923459911e-002	 2.2499117884e+000	 1.4380553344e-002
 0.0000000000e+000	 2.2500000000e+000	-8.6211917302e-003
 2.2500000000e+000	 0.0000000000e+000	 2.6334967546e+000
 2.2499117884e+000	 1.9923459911e-002	 2.6423932861e+000
 2.2496458769e+000	 3.9917771955e-002	 2.6497134398e+000
 2.2492003663e+000	 5.9980933064e-002	 2.6542186847e+000
 2.2485733799e+000	 8.0110891976e-002	 2.6547584377e+000
 2.2477630651e+000	 1.0030554932e-001	 2.6502744552e+000
 2.2467675940e+000	 1.2056275773e-001	 2.6398051561e+000
 2.2455851654e+000	 1.4088032204e-001	 2.6224898636e+000
 2.2442140055e+000	 1.6125599940e-001	 2.5975729544e+000
 2.2426523700e+000	 1.8168749959e-001	 2.5644079014e+000
 2.2408985444e+000	 2.0217248527e-001	 2.5224611982e+000
 2.2750000000e+000	 0.0000000000e+000	 2.5553018882e+000
 2.2749108083e+000	 2.0144831687e-002	 2.5554039379e+000
 2.2746419422e+000	 4.0361302754e-002	 2.5548271302e+000
 2.2741914815e+000	 6.0647387876e-002	 2.5523357825e+000
 2.2735575286e+000	 8.1001012998e-002	 2.5467844570e+000
 2.2727382103e+000	 1.0142005542e-001	 2.5371224338e+000
 2.2717316784e+000	 1.2190234393e-001	 2.5223981124e+000
 2.2705361116e+000	 1.4244565895e-001	 2.5017633288e+000
 2.2691497167e+000	 1.6304773272e-001	 2.4744775750e+000
 2.2675707296e+000	 1.8370624959e-001	 2.4399121094e+000
 2.2657974171e+000	 2.0441884622e-001	 2.3975539429e+000
 2.3000000000e+000	 0.0000000000e+000	 2.4795869264e+000
 2.2999098282e+000	 2.0366203464e-002	 2.4733949935e+000
 2.2996380075e+000	 4.0804833554e-002	 2.4672180784e+000
 2.2991825966e+000	 6.1313842688e-002	 2.4598203778e+000
 2.2985416773e+000	 8.1891134020e-002	 2.4500587783e+000
 2.2977133554e+000	 1.0253456153e-001	 2.4368874178e+000
 2.2966957628e+000	 1.2324193013e-001	 2.4193621720e+000
 2.2954870579e+000	 1.4401099586e-001	 2.3966450522e+000
 2.2940854279e+000	 1.6483946605e-001	 2.3680085027e+000
 2.2924890893e+000	 1.8572499959e-001	 2.3328395837e+000
 2.2906962898e+000	 2.0666520717e-001	 2.2906440258e+000
 2.3250000000e+000	 0.0000000000e+000	 2.4061184955e+000
 2.3249088481e+000	 2.0587575241e-002	 2.3961026489e+000
 2.3246340728e+000	 4.1248364354e-002	 2.3865928594e+000
 2.3241737118e+000	 6.1980297500e-002	 2.3763502546e+000
 2.3235258259e+000	 8.2781255043e-002	 2.3642312470e+000
 2.3226885006e+000	 1.0364906763e-001	 2.3491921892e+000
 2.3216598471e+000	 1.2458151633e-001	 2.3302939521e+000
 2.3204380042e+000	 1.4557633277e-001	 2.3067064102e+000
 2.3190211390e+000	 1.6663119938e-001	 2.2777128222e+000
 2.3174074490e+000	 1.8774374958e-001	 2.2427140933e+000
 2.3155951625e+000	 2.0891156812e-001	 2.2012329033e+000
 2.3500000000e+000	 0.0000000000e+000	 2.3346731523e+000
 2.3499078679e+000	 2.0808947019e-002	 2.3232743072e+000
 2.3496301381e+000	 4.1691895154e-002	 2.3126704137e+000
 2.3491648270e+000	 6.2646752313e-002	 2.3016166022e+000
 2.3485099746e+000	 8.3671376066e-002	 2.2889660324e+000
 2.3476636458e+000	 1.0476357374e-001	 2.2736746502e+000
 2.3466239315e+000	 1.2592110253e-001	 2.2548058632e+000
 2.3453889505e+000	 1.4714166968e-001	 2.2315351196e+000
 2.3439568502e+000	 1.6842293271e-001	 2.2031543792e+000
 2.3423258086e+000	 1.8976249958e-001	 2.1690764600e+000
 2.3404940352e+000	 2.1115792906e-001	 2.1288392471e+000
 2.3750000000e+000	 0.0000000000e+000	 2.2650368621e+000
 2.3749068878e+000	 2.1030318796e-002	 2.2546679882e+000
 2.3746262034e+000	 4.2135425955e-002	 2.2451813964e+000
 2.3741559422e+000	 6.3313207127e-002	 2.2353233091e+000
 2.3734941233e+000	 8.4561497090e-002	 2.2239408739e+000
 2.3726387909e+000	 1.0587807984e-001	 2.2099870281e+000
 2.3715880159e+000	 1.2726068872e-001	 2.1925252778e+000
 2.3703398968e+000	 1.4870700660e-001	 2.1707343779e+000
 2.3688925614e+000	 1.7021466604e-001	 2.1439128980e+000
 2.3672441683e+000	 1.9178124958e-001	 2.1114836609e+000
 2.3653929079e+000	 2.1340429001e-001	 2.0729980374e+000
 2.4000000000e+000	 0.0000000000e+000	 2.1970045078e+000
 2.3999059077e+000	 2.1251690574e-002	 2.1900517755e+000
 2.3996222687e+000	 4.2578956756e-002	 2.1838675667e+000
 2.3991470574e+000	 6.3979661940e-002	 2.1771863018e+000
 2.3984782719e+000	 8.5451618114e-002	 2.1688463740e+000
 2.3976139361e+000	 1.0699258595e-001	 2.1577951284e+000
 2.3965521003e+000	 1.2860027492e-001	 2.1430937513e+000
 2.3952908430e+000	 1.5027234351e-001	 2.1239220568e+000
 2.3938282726e+000	 1.7200639936e-001	 2.0995831549e+000
 2.3921625279e+000	 1.9379999957e-001	 2.0695079871e+000
 2.3902917807e+000	 2.1565065096e-001	 2.0332597139e+000
 2.4250000000e+000	 0.0000000000e+000	 2.1303794313e+000
 2.4249049275e+000	 2.1473062351e-002	 2.1292032978e+000
 2.4246183340e+000	 4.3022487557e-002	 2.1284812159e+000
 2.4241381725e+000	 6.4646116755e-002	 2.1269329242e+000
 2.4234624206e+000	 8.6341739139e-002	 2.1233853354e+000
 2.4225890813e+000	 1.0810709205e-001	 2.1167776357e+000
 2.4215161846e+000	 1.2993986112e-001	 2.1061662910e+000
 2.4202417893e+000	 1.5183768043e-001	 2.0907299462e+000
 2.4187639837e+000	 1.7379813269e-001	 2.0697742020e+000
 2.4170808876e+000	 1.9581874957e-001	 2.0427362542e+000
 2.4151906534e+000	 2.1789701191e-001	 2.0091893789e+000
 2.4500000000e+000	 0.0000000000e+000	 2.0649730010e+000
 2.4499039474e+000	 2.1694434129e-002	 2.0719092423e+000
 2.4496143993e+000	 4.3466018359e-002	 2.0787846299e+000
 2.4491292877e+000	 6.5312571569e-002	 2.0843013552e+000
 2.4484465693e+000	 8.7231860164e-002	 2.0872721386e+000
 2.4475642264e+000	 1.0922159816e-001	 2.0866254562e+000
 2.4464802690e+000	 1.3127944732e-001	 2.0814106694e+000
 2.4451927356e+000	 1.5340301734e-001	 2.0708030434e+000
 2.4436996949e+000	 1.7558986602e-001	 2.0541086391e+000
 2.4419992473e+000	 1.9783749957e-001	 2.0307690613e+000
 2.4400895261e+000	 2.2014337286e-001	 2.0003660489e+000
 2.4750000000e+000	 0.0000000000e+000	 2.0006042068e+000
 2.4749029673e+000	 2.1915805907e-002	 2.0179648964e+000
 2.4746104646e+000	 4.3909549161e-002	 2.0345495845e+000
 2.4741204029e+000	 6.5979026384e-002	 2.0490400615e+000
 2.4734307179e+000	 8.8121981189e-002	 2.0602321570e+000
 2.4725393716e+000	 1.1033610427e-001	 2.0670411003e+000
 2.4714443534e+000	 1.3261903353e-001	 2.0685067797e+000
 2.4701436819e+000	 1.5496835426e-001	 2.0637988867e+000
 2.4686354061e+000	 1.7738159935e-001	 2.0522219290e+000
 2.4669176069e+000	 1.9985624957e-001	 2.0332200947e+000
 2.4649883988e+000	 2.2238973381e-001	 2.0063819523e+000
 2.5000000000e+000	 0.0000000000e+000	 1.9370992792e+000
 2.4999019872e+000	 2.2137177686e-002	 1.9671737185e+000
 2.4996065299e+000	 4.4353079963e-002	 1.9955568708e+000
 2.4991115181e+000	 6.6645481200e-002	 2.0209072829e+000
 2.4984148666e+000	 8.9012102215e-002	 2.0420012074e+000
 2.4975145168e+000	 1.1145061038e-001	 2.0577381028e+000
 2.4964084378e+000	 1.3395861973e-001	 2.0671460299e+000
 2.4950946282e+000	 1.5653369117e-001	 2.0693869281e+000
 2.4935711173e+000	 1.7917333268e-001	 2.0637617551e+000
 2.4918359666e+000	 2.0187499956e-001	 2.0497154738e+000
 2.4898872715e+000	 2.2463609475e-001	 2.0268418687e+000
 2.2408985444e+000	 2.0217248527e-001	 2.5224611982e+000
 2.2389508462e+000	 2.2270857224e-001	 2.5147159294e+000
 2.2368076260e+000	 2.4329332986e-001	 2.4967717619e+000
 2.2344672684e+000	 2.6392428140e-001	 2.4684224266e+000
 2.2319281941e+000	 2.8459890447e-001	 2.4295885308e+000
 2.2291888605e+000	 3.0531463152e-001	 2.3803207103e+000
 2.2262477636e+000	 3.2606885033e-001	 2.3208025858e+000
 2.2231034390e+000	 3.4685890457e-001	 2.2513535106e+000
 2.2197544633e+000	 3.6768209441e-001	 2.1724310948e+000
 2.2161994557e+000	 3.8853567716e-001	 2.0846334960e+000
 2.2124370789e+000	 4.0941686796e-001	 1.9887014624e+000
 2.2657974171e+000	 2.0441884622e-001	 2.3975539429e+000
 2.2638280779e+000	 2.2518311194e-001	 2.3893600846e+000
 2.2616610440e+000	 2.4599658909e-001	 2.3721691277e+000
 2.2592946825e+000	 2.6685677342e-001	 2.3457945859e+000
 2.2567273962e+000	 2.8776111452e-001	 2.3101794557e+000
 2.2539576256e+000	 3.0870701632e-001	 2.2653994050e+000
 2.2509838498e+000	 3.2969183756e-001	 2.2116657606e+000
 2.2478045883e+000	 3.5071289240e-001	 2.1493282786e+000
 2.2444184018e+000	 3.7176745101e-001	 2.0788776875e+000
 2.2408238941e+000	 3.9285274024e-001	 2.0009479877e+000
 2.2370197131e+000	 4.1396594427e-001	 1.9163184979e+000
 2.2906962898e+000	 2.0666520717e-001	 2.2906440258e+000
 2.2887053095e+000	 2.2765765163e-001	 2.2819005257e+000
 2.2865144621e+000	 2.4869984831e-001	 2.2651306366e+000
 2.2841220966e+000	 2.6978926543e-001	 2.2401665797e+000
 2.2815265984e+000	 2.9092332457e-001	 2.2069728783e+000
 2.2787263907e+000	 3.1209940111e-001	 2.1656495886e+000
 2.2757199361e+000	 3.3331482478e-001	 2.1164353217e+000
 2.2725057376e+000	 3.5456688023e-001	 2.0597100436e+000
 2.2690823403e+000	 3.7585280762e-001	 1.9959976390e+000
 2.2654483325e+000	 3.9716980332e-001	 1.9259682259e+000
 2.2616023474e+000	 4.1851502058e-001	 1.8504402080e+000
 2.3155951625e+000	 2.0891156812e-001	 2.2012329033e+000
 2.3135825411e+000	 2.3013219132e-001	 2.1918319651e+000
 2.3113678802e+000	 2.5140310753e-001	 2.1751454851e+000
 2.3089495107e+000	 2.7272175745e-001	 2.1510233429e+000
 2.3063258005e+000	 2.9408553462e-001	 2.1194507531e+000
 2.3034951558e+000	 3.1549178591e-001	 2.0805515433e+000
 2.3004560224e+000	 3.3693781201e-001	 2.0345912164e+000
 2.2972068869e+000	 3.5842086805e-001	 1.9819797834e+000
 2.2937462788e+000	 3.7993816422e-001	 1.9232743533e+000
 2.2900727709e+000	 4.0148686640e-001	 1.8591814667e+000
 2.2861849816e+000	 4.2306409689e-001	 1.7905591582e+000
 2.3404940352e+000	 2.1115792906e-001	 2.1288392471e+000
 2.3384597727e+000	 2.3260673101e-001	 2.1186657422e+000
 2.3362212982e+000	 2.5410636675e-001	 2.1017187692e+000
 2.3337769248e+000	 2.7565424947e-001	 2.0778648416e+000
 2.3311250027e+000	 2.9724774467e-001	 2.0471090557e+000
 2.3282639210e+000	 3.1888417070e-001	 2.0095984203e+000
 2.3251921086e+000	 3.4056079923e-001	 1.9656249642e+000
 2.3219080362e+000	 3.6227485588e-001	 1.9156286072e+000
 2.3184102172e+000	 3.8402352083e-001	 1.8601997800e+000
 2.3146972093e+000	 4.0580392948e-001	 1.8000817802e+000
 2.3107676158e+000	 4.2761317319e-001	 1.7361728497e+000
 2.3653929079e+000	 2.1340429001e-001	 2.0729980374e+000
 2.3633370043e+000	 2.3508127071e-001	 2.0619289485e+000
 2.3610747163e+000	 2.5680962597e-001	 2.0443706480e+000
 2.3586043389e+000	 2.7858674148e-001	 2.0202052826e+000
 2.3559242049e+000	 3.0040995472e-001	 1.9894570453e+000
 2.3530326861e+000	 3.2227655550e-001	 1.9522955618e+000
 2.3499281949e+000	 3.4418378646e-001	 1.9090390479e+000
 2.3466091856e+000	 3.6612884371e-001	 1.8601572228e+000
 2.3430741557e+000	 3.8810887743e-001	 1.8062739644e+000
 2.3393216477e+000	 4.1012099256e-001	 1.7481696915e+000
 2.3353502500e+000	 4.3216224950e-001	 1.6867834594e+000
 2.3902917807e+000	 2.1565065096e-001	 2.0332597139e+000
 2.3882142360e+000	 2.3755581040e-001	 2.0211636070e+000
 2.3859281344e+000	 2.5951288519e-001	 2.0026355584e+000
 2.3834317530e+000	 2.8151923350e-001	 1.9775723709e+000
 2.3807234070e+000	 3.0357216477e-001	 1.9460165728e+000
 2.3778014512e+000	 3.2566894029e-001	 1.9081598669e+000
 2.3746642811e+000	 3.4780677368e-001	 1.8643463425e+000
 2.3713103349e+000	 3.6998283154e-001	 1.8150754363e+000
 2.3677380942e+000	 3.9219423403e-001	 1.7610046263e+000
 2.3639460861e+000	 4.1443805563e-001	 1.7029518448e+000
 2.3599328842e+000	 4.3671132581e-001	 1.6418975964e+000
 2.4151906534e+000	 2.1789701191e-001	 2.0091893789e+000
 2.4130914676e+000	 2.4003035009e-001	 1.9959259025e+000
 2.4107815524e+000	 2.6221614441e-001	 1.9760614802e+000
 2.4082591671e+000	 2.8445172551e-001	 1.9495066147e+000
 2.4055226092e+000	 3.0673437482e-001	 1.9163214316e+000
 2.4025702163e+000	 3.2906132508e-001	 1.8767191951e+000
 2.3994003674e+000	 3.5142976091e-001	 1.8310695799e+000
 2.3960114842e+000	 3.7383681936e-001	 1.7799016834e+000
 2.3924020327e+000	 3.9627959064e-001	 1.7239067639e+000
 2.3885705245e+000	 4.1875511871e-001	 1.6639406878e+000
 2.3845155184e+000	 4.4126040212e-001	 1.6010260736e+000
 2.4400895261e+000	 2.2014337286e-001	 2.0003660489e+000
 2.4379686992e+000	 2.4250488978e-001	 1.9857854594e+000
 2.4356349705e+000	 2.6491940363e-001	 1.9642092440e+000
 2.4330865812e+000	 2.8738421752e-001	 1.9355606714e+000
 2.4303218113e+000	 3.0989658487e-001	 1.8999167483e+000
 2.4273389814e+000	 3.3245370987e-001	 1.8575118076e+000
 2.4241364537e+000	 3.5505274813e-001	 1.8087408453e+000
 2.4207126335e+000	 3.7769080719e-001	 1.7541625887e+000
 2.4170659712e+000	 4.0036494724e-001	 1.6945022826e+000
 2.4131949629e+000	 4.2307218179e-001	 1.6306541756e+000
 2.4090981526e+000	 4.4580947843e-001	 1.5636836931e+000
 2.4649883988e+000	 2.2238973381e-001	 2.0063819523e+000
 2.4628459308e+000	 2.4497942947e-001	 1.9903246623e+000
 2.4604883886e+000	 2.6762266285e-001	 1.9666518831e+000
 2.4579139953e+000	 2.9031670954e-001	 1.9352987347e+000
 2.4551210135e+000	 3.1305879491e-001	 1.8963584103e+000
 2.4521077465e+000	 3.3584609467e-001	 1.8500858418e+000
 2.4488725399e+000	 3.5867573535e-001	 1.7969011055e+000
 2.4454137828e+000	 3.8154479501e-001	 1.7373925526e+000
 2.4417299097e+000	 4.0445030384e-001	 1.6723196465e+000
 2.4378194013e+000	 4.2738924487e-001	 1.6026154926e+000
 2.4336807868e+000	 4.5035855474e-001	 1.5293890449e+000
 2.4898872715e+000	 2.2463609475e-001	 2.0268418687e+000
 2.4877231625e+000	 2.4745396916e-001	 2.0091380188e+000
 2.4853418066e+000	 2.7032592207e-001	 1.9829740227e+000
 2.4827414094e+000	 2.9324920155e-001	 1.9482959574e+000
 2.4799202156e+000	 3.1622100496e-001	 1.9052125281e+000
 2.4768765117e+000	 3.3923847946e-001	 1.8539988173e+000
 2.4736086262e+000	 3.6229872257e-001	 1.7950997646e+000
 2.4701149322e+000	 3.8539878284e-001	 1.7291333623e+000
 2.4663938481e+000	 4.0853566044e-001	 1.6568935499e+000
 2.4624438397e+000	 4.3170630795e-001	 1.5793527912e+000
 2.4582634210e+000	 4.5490763105e-001	 1.4976643172e+000
 2.2124370789e+000	 4.0941686796e-001	 1.9887014624e+000
 2.2084660407e+000	 4.3032284048e-001	 1.9430531868e+000
 2.2042850952e+000	 4.5125072774e-001	 1.8933976297e+000
 2.1998930440e+000	 4.7219762289e-001	 1.8408690105e+000
 2.1952887378e+000	 4.9316058010e-001	 1.7867471485e+000
 2.1904710774e+000	 5.1413661543e-001	 1.7324580919e+000
 2.1854390149e+000	 5.3512270782e-001	 1.6795744373e+000
 2.1801915551e+000	 5.5611580005e-001	 1.6298153274e+000
 2.1747277568e+000	 5.7711279978e-001	 1.5850461208e+000
 2.1690467338e+000	 5.9811058066e-001	 1.5472777239e+000
 2.1631476559e+000	 6.1910598340e-001	 1.5186655796e+000
 2.2370197131e+000	 4.1396594427e-001	 1.9163184979e+000
 2.2330045523e+000	 4.3510420537e-001	 1.8809741677e+000
 2.2287771518e+000	 4.5626462471e-001	 1.8413782728e+000
 2.2243363000e+000	 4.7744426314e-001	 1.7987256381e+000
 2.2196808349e+000	 4.9864014209e-001	 1.7543611434e+000
 2.2148096449e+000	 5.1984924449e-001	 1.7097803342e+000
 2.2097216706e+000	 5.4106851568e-001	 1.6666297115e+000
 2.2044159057e+000	 5.6229486449e-001	 1.6267066897e+000
 2.1988913986e+000	 5.8352516422e-001	 1.5919592148e+000
 2.1931472531e+000	 6.0475625377e-001	 1.5644850340e+000
 2.1871826299e+000	 6.2598493877e-001	 1.5459893765e+000
 2.2616023474e+000	 4.1851502058e-001	 1.8504402080e+000
 2.2575430638e+000	 4.3988557026e-001	 1.8240871694e+000
 2.2532692084e+000	 4.6127852168e-001	 1.7930482296e+000
 2.2487795561e+000	 4.8269090339e-001	 1.7585799462e+000
 2.2440729320e+000	 5.0411970409e-001	 1.7220936134e+000
 2.2391482124e+000	 5.2556187355e-001	 1.6851558564e+000
 2.2340043263e+000	 5.4701432354e-001	 1.6494888924e+000
 2.2286402563e+000	 5.6847392893e-001	 1.6169704502e+000
 2.2230550403e+000	 5.8993752866e-001	 1.5896333380e+000
 2.2172477723e+000	 6.1140192689e-001	 1.5696646507e+000
 2.2112176038e+000	 6.3286389413e-001	 1.5528245866e+000
 2.2861849816e+000	 4.2306409689e-001	 1.7905591582e+000
 2.2820815754e+000	 4.4466693515e-001	 1.7718553912e+000
 2.2777612650e+000	 4.6629241865e-001	 1.7478415109e+000
 2.2732228121e+000	 4.8793754364e-001	 1.7198369730e+000
 2.2684650291e+000	 5.0959926609e-001	 1.6893208790e+000
 2.2634867799e+000	 5.3127450260e-001	 1.6579325556e+000
 2.2582869820e+000	 5.5296013141e-001	 1.6274717902e+000
 2.2528646070e+000	 5.7465299337e-001	 1.5998987119e+000
 2.2472186821e+000	 5.9634989310e-001	 1.5773333102e+000
 2.2413482916e+000	 6.1804760000e-001	 1.5620545805e+000
 2.2352525778e+000	 6.3974284950e-001	 1.5406580817e+000
 2.3107676158e+000	 4.2761317319e-001	 1.7361728497e+000
 2.3066200870e+000	 4.4944830005e-001	 1.7237464811e+000
 2.3022533216e+000	 4.7130631563e-001	 1.7051960001e+000
 2.2976660682e+000	 4.9318418390e-001	 1.6819049620e+000
 2.2928571261e+000	 5.1507882809e-001	 1.6554217067e+000
 2.2878253475e+000	 5.3698713166e-001	 1.6274599248e+000
 2.2825696377e+000	 5.5890593927e-001	 1.5998988684e+000
 2.2770889576e+000	 5.8083205782e-001	 1.5747831959e+000
 2.2713823238e+000	 6.0276225754e-001	 1.5543224414e+000
 2.2654488109e+000	 6.2469327312e-001	 1.5408900995e+000
 2.2592875518e+000	 6.4662180487e-001	 1.5097183538e+000
 2.3353502500e+000	 4.3216224950e-001	 1.6867834594e+000
 2.3311585985e+000	 4.5422966494e-001	 1.6792323025e+000
 2.3267453782e+000	 4.7632021260e-001	 1.6645532494e+000
 2.3221093242e+000	 4.9843082415e-001	 1.6441951933e+000
 2.3172492232e+000	 5.2055839009e-001	 1.6197771810e+000
 2.3121639150e+000	 5.4269976072e-001	 1.5930889688e+000
 2.3068522935e+000	 5.6485174713e-001	 1.5660912094e+000
 2.3013133082e+000	 5.8701112226e-001	 1.5409152616e+000
 2.2955459656e+000	 6.0917462198e-001	 1.5198626115e+000
 2.2895493301e+000	 6.3133894624e-001	 1.4924126905e+000
 2.2833225257e+000	 6.5350076025e-001	 1.4602300630e+000
 2.3599328842e+000	 4.3671132581e-001	 1.6418975964e+000
 2.3556971101e+000	 4.5901102983e-001	 1.6377887141e+000
 2.3512374348e+000	 4.8133410958e-001	 1.6253582887e+000
 2.3465525803e+000	 5.0367746441e-001	 1.6061218249e+000
 2.3416413203e+000	 5.2603795209e-001	 1.5817705832e+000
 2.3365024825e+000	 5.4841238978e-001	 1.5541721258e+000
 2.3311349492e+000	 5.7079755500e-001	 1.5253704825e+000
 2.3255376588e+000	 5.9319018671e-001	 1.4975859257e+000
 2.3197096073e+000	 6.1558698643e-001	 1.4732143446e+000
 2.3136498494e+000	 6.3798461936e-001	 1.4260401886e+000
 2.3073574997e+000	 6.6037971562e-001	 1.3924142370e+000
 2.3845155184e+000	 4.4126040212e-001	 1.6010260736e+000
 2.3802356217e+000	 4.6379239473e-001	 1.5988953641e+000
 2.3757294915e+000	 4.8634800655e-001	 1.5870594461e+000
 2.3709958363e+000	 5.0892410466e-001	 1.5671017451e+000
 2.3660334174e+000	 5.3151751410e-001	 1.5407872784e+000
 2.3608410500e+000	 5.5412501884e-001	 1.5100631933e+000
 2.3554176049e+000	 5.7674336287e-001	 1.4770589133e+000
 2.3497620094e+000	 5.9936925116e-001	 1.4440858795e+000
 2.3438732491e+000	 6.2199935087e-001	 1.4136368789e+000
 2.3377503686e+000	 6.4463029248e-001	 1.3425196074e+000
 2.3313924736e+000	 6.6725867099e-001	 1.3064884586e+000
 2.4090981526e+000	 4.4580947843e-001	 1.5636836931e+000
 2.4047741332e+000	 4.6857375962e-001	 1.5620354969e+000
 2.4002215481e+000	 4.9136190353e-001	 1.5491081800e+000
 2.3954390923e+000	 5.1417074492e-001	 1.5265544328e+000
 2.3904255145e+000	 5.3699707610e-001	 1.4962146090e+000
 2.3851796176e+000	 5.5983764791e-001	 1.4601172587e+000
 2.3797002606e+000	 5.8268917073e-001	 1.4204792554e+000
 2.3739863600e+000	 6.0554831560e-001	 1.3797055061e+000
 2.3680368908e+000	 6.2841171532e-001	 1.3290153315e+000
 2.3618508879e+000	 6.5127596560e-001	 1.2420332343e+000
 2.3554274476e+000	 6.7413762637e-001	 1.2026670410e+000
 2.4336807868e+000	 4.5035855474e-001	 1.5293890449e+000
 2.4293126448e+000	 4.7335512452e-001	 1.5266957715e+000
 2.4247136047e+000	 4.9637580050e-001	 1.5109589209e+000
 2.4198823484e+000	 5.1941738517e-001	 1.4839018266e+000
 2.4148176116e+000	 5.4247663810e-001	 1.4474417950e+000
 2.4095181851e+000	 5.6555027697e-001	 1.4036906343e+000
 2.4039829163e+000	 5.8863497860e-001	 1.3549547642e+000
 2.3982107106e+000	 6.1172738005e-001	 1.3037348951e+000
 2.3922005325e+000	 6.3482407976e-001	 1.2189232711e+000
 2.3859514072e+000	 6.5792163873e-001	 1.1247612612e+000
 2.3794624215e+000	 6.8101658174e-001	 1.0811611933e+000
 2.4582634210e+000	 4.5490763105e-001	 1.4976643172e+000
 2.4538511564e+000	 4.7813648941e-001	 1.4923660908e+000
 2.4492056613e+000	 5.0138969748e-001	 1.4720689224e+000
 2.4443256044e+000	 5.2466402543e-001	 1.4385682019e+000
 2.4392097087e+000	 5.4795620010e-001	 1.3938598400e+000
 2.4338567526e+000	 5.7126290603e-001	 1.3401407959e+000
 2.4282655721e+000	 5.9458078647e-001	 1.2798091710e+000
 2.4224350612e+000	 6.1790644450e-001	 1.2154638583e+000
 2.4163641743e+000	 6.4123644421e-001	 1.0930519518e+000
 2.4100519264e+000	 6.6456731185e-001	 9.9088188890e-001
 2.4034973955e+000	 6.8789553712e-001	 9.4217917559e-001
 2.1631476559e+000	 6.1910598340e-001	 1.5186655796e+000
 2.1570297506e+000	 6.4009581698e-001	 1.3498882616e+000
 2.1506923038e+000	 6.6107685984e-001	 1.1949805218e+000
 2.1441346607e+000	 6.8204586113e-001	 1.0555842492e+000
 2.1373562277e+000	 7.0299954197e-001	 9.3206398125e-001
 2.1303564724e+000	 7.2393459685e-001	 8.2476074144e-001
 2.1231349254e+000	 7.4484769492e-001	 7.3399157837e-001
 2.1156911808e+000	 7.6573548144e-001	 6.6004914092e-001
 2.1080248974e+000	 7.8659457923e-001	 6.0320129148e-001
 2.1001357994e+000	 8.0742159012e-001	 5.6369075817e-001
 2.0920236774e+000	 8.2821309651e-001	 5.4173482692e-001
 2.1871826299e+000	 6.2598493877e-001	 1.5459893765e+000
 2.1809967479e+000	 6.4720799272e-001	 1.3867902926e+000
 2.1745888849e+000	 6.6842215828e-001	 1.2405117069e+000
 2.1679583792e+000	 6.8962414847e-001	 1.1075495017e+000
 2.1611046302e+000	 7.1081064799e-001	 9.8827833097e-001
 2.1540270999e+000	 7.3197831459e-001	 8.8305115049e-001
 2.1467253135e+000	 7.5312378041e-001	 7.9219878245e-001
 2.1391988606e+000	 7.7424365345e-001	 7.1602951499e-001
 2.1314473962e+000	 7.9533451899e-001	 6.5482873825e-001
 2.1234706416e+000	 8.1639294112e-001	 6.0885861774e-001
 2.1152683849e+000	 8.3741546425e-001	 5.7835780591e-001
 2.2112176038e+000	 6.3286389413e-001	 1.5528245866e+000
 2.2049637451e+000	 6.5432016846e-001	 1.4053061001e+000
 2.1984854661e+000	 6.7576745672e-001	 1.2685732825e+000
 2.1917820976e+000	 6.9720243581e-001	 1.1430301038e+000
 2.1848530328e+000	 7.1862175401e-001	 1.0290610421e+000
 2.1776977274e+000	 7.4002203233e-001	 9.2703064173e-001
 2.1703157015e+000	 7.6139986591e-001	 8.3728310253e-001
 2.1627065404e+000	 7.8275182547e-001	 7.6014190414e-001
 2.1548698951e+000	 8.0407445876e-001	 6.9590946468e-001
 2.1468054838e+000	 8.2536429212e-001	 6.4486683530e-001
 2.1385130925e+000	 8.4661783199e-001	 6.0727343142e-001
 2.2352525778e+000	 6.3974284950e-001	 1.5406580817e+000
 2.2289307423e+000	 6.6143234421e-001	 1.4056425467e+000
 2.2223820472e+000	 6.8311275516e-001	 1.2793446943e+000
 2.2156058161e+000	 7.0478072316e-001	 1.1621763365e+000
 2.2086014353e+000	 7.2643286003e-001	 1.0545314799e+000
 2.2013683548e+000	 7.4806575007e-001	 9.5678591045e-001
 2.1939060896e+000	 7.6967595141e-001	 8.6929680806e-001
 2.1862142202e+000	 7.9125999748e-001	 7.9240239527e-001
 2.1782923940e+000	 8.1281439853e-001	 7.2642161853e-001
 2.1701403260e+000	 8.3433564312e-001	 6.7165386407e-001
 2.1617578000e+000	 8.5582019972e-001	 6.2837870889e-001
 2.2592875518e+000	 6.4662180487e-001	 1.5097183538e+000
 2.2528977396e+000	 6.6854451995e-001	 1.3880038491e+000
 2.2462786284e+000	 6.9045805361e-001	 1.2730042200e+000
 2.2394295346e+000	 7.1235901050e-001	 1.1651388704e+000
 2.2323498378e+000	 7.3424396605e-001	 1.0648110360e+000
 2.2250389823e+000	 7.5610946781e-001	 9.7240739418e-001
 2.2174964776e+000	 7.7795203691e-001	 8.8829770567e-001
 2.2097219000e+000	 7.9976816950e-001	 8.1283448605e-001
 2.2017148928e+000	 8.2155433830e-001	 7.4635271031e-001
 2.1934751683e+000	 8.4330699412e-001	 6.8916954997e-001
 2.1850025075e+000	 8.6502256746e-001	 6.4158414403e-001
 2.2833225257e+000	 6.5350076025e-001	 1.4602300630e+000
 2.2768647368e+000	 6.7565669569e-001	 1.3525917169e+000
 2.2701752095e+000	 6.9780335205e-001	 1.2497290307e+000
 2.2632532530e+000	 7.1993729785e-001	 1.1520687453e+000
 2.2560982403e+000	 7.4205507208e-001	 1.0600230214e+000
 2.2487096098e+000	 7.6415318556e-001	 9.7398907581e-001
 2.2410868657e+000	 7.8622812241e-001	 8.9434884776e-001
 2.2332295797e+000	 8.0827634151e-001	 8.2146869490e-001
 2.2251373917e+000	 8.3029427807e-001	 7.5569912049e-001
 2.2168100105e+000	 8.5227834513e-001	 6.9737453202e-001
 2.2082472150e+000	 8.7422493520e-001	 6.4681303222e-001
 2.3073574997e+000	 6.6037971562e-001	 1.3924142370e+000
 2.3008317340e+000	 6.8276887144e-001	 1.2996054836e+000
 2.2940717907e+000	 7.0514865049e-001	 1.2096952485e+000
 2.2870769715e+000	 7.2751558520e-001	 1.1231173503e+000
 2.2798466429e+000	 7.4986617810e-001	 1.0402925670e+000
 2.2723802372e+000	 7.7219690330e-001	 9.6162829886e-001
 2.2646772538e+000	 7.9450420791e-001	 8.8751825926e-001
 2.2567372595e+000	 8.1678451353e-001	 8.1834219529e-001
 2.2485598905e+000	 8.3903421784e-001	 7.5446563751e-001
 2.2401448527e+000	 8.6124969613e-001	 6.9623968017e-001
 2.2314919226e+000	 8.8342730294e-001	 6.4400079247e-001
 2.3313924736e+000	 6.6725867099e-001	 1.3064884586e+000
 2.3247987313e+000	 6.8988104719e-001	 1.2292422287e+000
 2.3179683718e+000	 7.1249394894e-001	 1.1530780006e+000
 2.3109006899e+000	 7.3509387254e-001	 1.0784364065e+000
 2.3035950454e+000	 7.5767728412e-001	 1.0057465297e+000
 2.2960508647e+000	 7.8024062105e-001	 9.3542559429e-001
 2.2882676418e+000	 8.0278029341e-001	 8.6787868132e-001
 2.2802449393e+000	 8.2529268555e-001	 8.0349847274e-001
 2.2719823894e+000	 8.4777415761e-001	 7.4266502440e-001
 2.2634796949e+000	 8.7022104713e-001	 6.8574556794e-001
 2.2547366301e+000	 8.9262967068e-001	 6.3309434244e-001
 2.3554274476e+000	 6.7413762637e-001	 1.2026670410e+000
 2.3487657285e+000	 6.9699322293e-001	 1.1416968927e+000
 2.3418649530e+000	 7.1983924738e-001	 1.0800514704e+000
 2.3347244084e+000	 7.4267215989e-001	 1.0181779497e+000
 2.3273434479e+000	 7.6548839015e-001	 9.5651340378e-001
 2.3197214922e+000	 7.8828433879e-001	 8.9548451786e-001
 2.3118580299e+000	 8.1105637891e-001	 8.3550733070e-001
 2.3037526191e+000	 8.3380085757e-001	 7.7698700276e-001
 2.2954048883e+000	 8.5651409738e-001	 7.2031761192e-001
 2.2868145371e+000	 8.7919239814e-001	 6.6588197736e-001
 2.2779813376e+000	 9.0183203843e-001	 6.1405151175e-001
 2.3794624215e+000	 6.8101658174e-001	 1.0811611933e+000
 2.3727327257e+000	 7.0410539868e-001	 1.0371623856e+000
 2.3657615341e+000	 7.2718454583e-001	 9.9078894431e-001
 2.3585481268e+000	 7.5025044724e-001	 9.4249431469e-001
 2.3510918505e+000	 7.7329949618e-001	 8.9272323904e-001
 2.3433921197e+000	 7.9632805654e-001	 8.4191149738e-001
 2.3354484179e+000	 8.1933246442e-001	 7.9048567373e-001
 2.3272602989e+000	 8.4230902959e-001	 7.3886294829e-001
 2.3188273871e+000	 8.6525403716e-001	 6.8745091631e-001
 2.3101493793e+000	 8.8816374914e-001	 6.3664743385e-001
 2.3012260451e+000	 9.1103440617e-001	 5.8684049093e-001
 2.4034973955e+000	 6.8789553712e-001	 9.4217917559e-001
 2.3966997229e+000	 7.1121757443e-001	 9.1582968788e-001
 2.3896581153e+000	 7.3452984428e-001	 8.8546285756e-001
 2.3823718453e+000	 7.5782873460e-001	 8.5153812012e-001
 2.3748402530e+000	 7.8111060220e-001	 8.1450756241e-001
 2.3670627471e+000	 8.0437177429e-001	 7.7481568910e-001
 2.3590388060e+000	 8.2760854992e-001	 7.3289921379e-001
 2.3507679787e+000	 8.5081720161e-001	 6.8918687540e-001
 2.3422498860e+000	 8.7399397693e-001	 6.4409928007e-001
 2.3334842215e+000	 8.9713510015e-001	 5.9804876912e-001
 2.3244707527e+000	 9.2023677391e-001	 5.5143931334e-001
 2.0920236774e+000	 8.2821309651e-001	 5.4173482692e-001
 2.0836883892e+000	 8.4896566288e-001	 5.0557492568e-001
 2.0751298605e+000	 8.6967583741e-001	 4.5764764722e-001
 2.0663480856e+000	 8.9034015358e-001	 3.9818922785e-001
 2.0573431284e+000	 9.1095513182e-001	 3.2743861684e-001
 2.0481151225e+000	 9.3151728120e-001	 2.4563763445e-001
 2.0386642723e+000	 9.5202310113e-001	 1.5303113950e-001
 2.0289908532e+000	 9.7246908310e-001	 4.9867205944e-002
 2.0190952125e+000	 9.9285171243e-001	-6.3602692428e-002
 2.0089777693e+000	 1.0131674701e+000	-1.8712348970e-001
 1.9986390154e+000	 1.0334128344e+000	-3.2043632888e-001
 2.1152683849e+000	 8.3741546425e-001	 5.7835780591e-001
 2.1068404824e+000	 8.5839861469e-001	 5.4095413997e-001
 2.0981868589e+000	 8.7933890227e-001	 4.9311260150e-001
 2.0893075088e+000	 9.0023282195e-001	 4.3505244816e-001
 2.0802024965e+000	 9.2107685550e-001	 3.6699420189e-001
 2.0708719572e+000	 9.4186747321e-001	 2.8915982173e-001
 2.0613160975e+000	 9.6260113559e-001	 2.0177288856e-001
 2.0515351960e+000	 9.8327429514e-001	 1.0505880118e-001
 2.0415296038e+000	 1.0038833981e+000	-7.5501702193e-004
 2.0312997445e+000	 1.0244248864e+000	-1.1543890162e-001
 2.0208461156e+000	 1.0448951992e+000	-2.3876072162e-001
 2.1385130925e+000	 8.4661783199e-001	 6.0727343142e-001
 2.1299925756e+000	 8.6783156650e-001	 5.6785543108e-001
 2.1212438574e+000	 8.8900196713e-001	 5.1931511840e-001
 2.1122669320e+000	 9.1012549032e-001	 4.6185462301e-001
 2.1030618646e+000	 9.3119857919e-001	 3.9567589278e-001
 2.0936287919e+000	 9.5221766522e-001	 3.2098088202e-001
 2.0839679228e+000	 9.7317917004e-001	 2.3797175389e-001
 2.0740795389e+000	 9.9407950717e-001	 1.4685109658e-001
 2.0639639950e+000	 1.0149150838e+000	 4.7822152422e-002
 2.0536217198e+000	 1.0356823027e+000	-5.8910940850e-002
 2.0430532157e+000	 1.0563775640e+000	-1.7314289749e-001
 2.1617578000e+000	 8.5582019972e-001	 6.2837870889e-001
 2.1531446689e+000	 8.7726451831e-001	 5.8620639415e-001
 2.1443008558e+000	 8.9866503199e-001	 5.3621414646e-001
 2.1352263552e+000	 9.2001815870e-001	 4.7858680367e-001
 2.1259212327e+000	 9.4132030288e-001	 4.1350757797e-001
 2.1163856266e+000	 9.6256785724e-001	 3.4115825981e-001
 2.1066197480e+000	 9.8375720450e-001	 2.6171943868e-001
 2.0966238817e+000	 1.0048847192e+000	 1.7537073986e-001
 2.0863983863e+000	 1.0259467695e+000	 8.2291076571e-002
 2.0759436950e+000	 1.0469397191e+000	-1.7341083380e-002
 2.0652603159e+000	 1.0678599288e+000	-1.2334743731e-001
 2.1850025075e+000	 8.6502256746e-001	 6.4158414403e-001
 2.1762967621e+000	 8.8669747012e-001	 5.9594716937e-001
 2.1673578543e+000	 9.0832809685e-001	 5.4378019384e-001
 2.1581857783e+000	 9.2991082707e-001	 4.8525058580e-001
 2.1487806008e+000	 9.5144202657e-001	 4.2052264539e-001
 2.1391424613e+000	 9.7291804925e-001	 3.4975782487e-001
 2.1292715733e+000	 9.9433523896e-001	 2.7311496821e-001
 2.1191682245e+000	 1.0156899312e+000	 1.9075056900e-001
 2.1088327775e+000	 1.0369784552e+000	 1.0281904627e-001
 2.0982656702e+000	 1.0581971354e+000	 9.4730370481e-003
 2.0874674161e+000	 1.0793422937e+000	-8.9136295036e-002
 2.2082472150e+000	 8.7422493520e-001	 6.4681303222e-001
 2.1994488553e+000	 8.9613042193e-001	 5.9702978171e-001
 2.1904148527e+000	 9.1799116171e-001	 5.4199472000e-001
 2.1811452015e+000	 9.3980349544e-001	 4.8185755446e-001
 2.1716399689e+000	 9.6156375025e-001	 4.1676348247e-001
 2.1618992960e+000	 9.8326824127e-001	 3.4685342881e-001
 2.1519233985e+000	 1.0049132734e+000	 2.7226430445e-001
 2.1417125673e+000	 1.0264951433e+000	 1.9312928645e-001
 2.1312671688e+000	 1.0480101409e+000	 1.0957811781e-001
 2.1205876454e+000	 1.0694545517e+000	 2.1737426703e-002
 2.1096745162e+000	 1.0908246585e+000	-7.0268936063e-002
 2.2314919226e+000	 8.8342730294e-001	 6.4400079247e-001
 2.2226009485e+000	 9.0556337374e-001	 5.8941752192e-001
 2.2134718512e+000	 9.2765422657e-001	 5.3084956527e-001
 2.2041046247e+000	 9.4969616382e-001	 4.6842876383e-001
 2.1944993369e+000	 9.7168547394e-001	 4.0228100745e-001
 2.1846561306e+000	 9.9361843328e-001	 3.3252648932e-001
 2.1745752237e+000	 1.0154913079e+000	 2.5927998480e-001
 2.1642569101e+000	 1.0373003553e+000	 1.8265115365e-001
 2.1537015600e+000	 1.0590418266e+000	 1.0274486471e-001
 2.1429096206e+000	 1.0807119681e+000	 1.9661542284e-002
 2.1318816164e+000	 1.1023070233e+000	-6.6502466799e-002
 2.2547366301e+000	 8.9262967068e-001	 6.3309434244e-001
 2.2457530417e+000	 9.1499632555e-001	 5.7308436580e-001
 2.2365288496e+000	 9.3731729143e-001	 5.1034641575e-001
 2.2270640479e+000	 9.5958883219e-001	 4.4499424915e-001
 2.2173587050e+000	 9.8180719763e-001	 3.7713422960e-001
 2.2074129653e+000	 1.0039686253e+000	 3.0686560023e-001
 2.1972270490e+000	 1.0260693423e+000	 2.3428078314e-001
 2.1868012529e+000	 1.0481055673e+000	 1.5946570453e-001
 2.1761359513e+000	 1.0700735123e+000	 8.2500144862e-002
 2.1652315958e+000	 1.0919693844e+000	 3.4581130655e-003
 2.1540887166e+000	 1.1137893881e+000	-7.7591756276e-002
 2.2779813376e+000	 9.0183203843e-001	 6.1405151175e-001
 2.2689051349e+000	 9.2442927736e-001	 5.4801442911e-001
 2.2595858481e+000	 9.4698035630e-001	 4.8049630101e-001
 2.2500234710e+000	 9.6948150057e-001	 4.1159256845e-001
 2.2402180731e+000	 9.9192892132e-001	 3.4138983642e-001
 2.2301698000e+000	 1.0143188173e+000	 2.6996616533e-001
 2.2198788742e+000	 1.0366473768e+000	 1.9739139162e-001
 2.2093455957e+000	 1.0589107794e+000	 1.2372747645e-001
 2.1985703425e+000	 1.0811051980e+000	 4.9028881979e-002
 2.1875535710e+000	 1.1032268007e+000	-2.6657026073e-002
 2.1762958168e+000	 1.1252717530e+000	-1.0328955031e-001
 2.3012260451e+000	 9.1103440617e-001	 5.8684049093e-001
 2.2920572281e+000	 9.3386222918e-001	 5.1420145536e-001
 2.2826428465e+000	 9.5664342116e-001	 4.4131912217e-001
 2.2729828942e+000	 9.7937416894e-001	 3.6827037216e-001
 2.2630774412e+000	 1.0020506450e+000	 2.9512180588e-001
 2.2529266347e+000	 1.0246690093e+000	 2.2193005446e-001
 2.2425306995e+000	 1.0472254113e+000	 1.4874212179e-001
 2.2318899385e+000	 1.0697159914e+000	 7.5595757584e-002
 2.2210047338e+000	 1.0921368837e+000	 2.5198602136e-003
 2.2098755463e+000	 1.1144842171e+000	-7.0465091495e-002
 2.1985029169e+000	 1.1367541178e+000	-1.4334657870e-001
 2.3244707527e+000	 9.2023677391e-001	 5.5143931334e-001
 2.3152093213e+000	 9.4329518099e-001	 4.7164833451e-001
 2.3056998450e+000	 9.6630648602e-001	 3.9284320835e-001
 2.2959423174e+000	 9.8926683732e-001	 3.1508199842e-001
 2.2859368093e+000	 1.0121723687e+000	 2.3841104188e-001
 2.2756834694e+000	 1.0350192013e+000	 1.6286528018e-001
 2.2651825247e+000	 1.0578034457e+000	 8.8468623632e-002
 2.2544342814e+000	 1.0805212035e+000	 1.5234349286e-002
 2.2434391250e+000	 1.1031685694e+000	-5.6834468849e-002
 2.2321975215e+000	 1.1257416334e+000	-1.2774449825e-001
 2.2207100171e+000	 1.1482364826e+000	-1.9751165610e-001
 1.9986390154e+000	 1.0334128344e+000	-3.2043632888e-001
 1.9880795152e+000	 1.0535842829e+000	-4.6228138878e-001
 1.9772999064e+000	 1.0736782945e+000	-5.8196681647e-001
 1.9663009000e+000	 1.0936913507e+000	-6.7927650649e-001
 1.9550832805e+000	 1.1136199380e+000	-7.5401900299e-001
 1.9436479059e+000	 1.1334605497e+000	-8.0602747584e-001
 1.9319957082e+000	 1.1532096875e+000	-8.3515965924e-001
 1.9201276929e+000	 1.1728638638e+000	-8.4129775331e-001
 1.9080449390e+000	 1.1924196034e+000	-8.2434828915e-001
 1.8957485995e+000	 1.2118734454e+000	-7.8424195803e-001
 1.8832399002e+000	 1.2312219451e+000	-7.2093340530e-001
 2.0208461156e+000	 1.0448951992e+000	-2.3876072162e-001
 2.0101692876e+000	 1.0652907750e+000	-3.7489857840e-001
 1.9992699054e+000	 1.0856080533e+000	-4.8738657251e-001
 1.9881486878e+000	 1.1058434768e+000	-5.7602336276e-001
 1.9768064280e+000	 1.1259934929e+000	-6.4063391130e-001
 1.9652439938e+000	 1.1460545558e+000	-6.8106944350e-001
 1.9534623272e+000	 1.1660231285e+000	-6.9720736774e-001
 1.9414624450e+000	 1.1858956845e+000	-6.8895115592e-001
 1.9292454384e+000	 1.2056687101e+000	-6.5623018483e-001
 1.9168124728e+000	 1.2253387059e+000	-5.9899953940e-001
 1.9041647880e+000	 1.2449021889e+000	-5.1723977833e-001
 2.0430532157e+000	 1.0563775640e+000	-1.7314289749e-001
 2.0322590600e+000	 1.0769972670e+000	-3.0394569709e-001
 2.0212399043e+000	 1.0975378121e+000	-4.0963147654e-001
 2.0099964756e+000	 1.1179956029e+000	-4.9001404214e-001
 1.9985295756e+000	 1.1383670478e+000	-5.4493514579e-001
 1.9868400816e+000	 1.1586485619e+000	-5.7426442773e-001
 1.9749289462e+000	 1.1788365695e+000	-5.7789931677e-001
 1.9627971972e+000	 1.1989275052e+000	-5.5576488872e-001
 1.9504459377e+000	 1.2189178168e+000	-5.0781368336e-001
 1.9378763461e+000	 1.2388039664e+000	-4.3402548083e-001
 1.9250896758e+000	 1.2585824328e+000	-4.6467292597e-001
 2.0652603159e+000	 1.0678599288e+000	-1.2334743731e-001
 2.0543488324e+000	 1.0887037590e+000	-2.4916737124e-001
 2.0432099033e+000	 1.1094675710e+000	-3.4842535529e-001
 2.0318442634e+000	 1.1301477291e+000	-4.2095073742e-001
 2.0202527232e+000	 1.1507406026e+000	-4.6660244264e-001
 2.0084361695e+000	 1.1712425680e+000	-4.8526889766e-001
 1.9963955652e+000	 1.1916500104e+000	-4.7686791075e-001
 1.9841319493e+000	 1.2119593259e+000	-4.4134650716e-001
 1.9716464370e+000	 1.2321669235e+000	-3.7868072086e-001
 1.9589402195e+000	 1.2522692269e+000	-3.2189760718e-001
 1.9460145636e+000	 1.2722626766e+000	-4.9242466163e-001
 2.0874674161e+000	 1.0793422937e+000	-8.9136295036e-002
 2.0764386048e+000	 1.1004102511e+000	-2.1030609588e-001
 2.0651799023e+000	 1.1213973298e+000	-3.0349043688e-001
 2.0536920511e+000	 1.1422998552e+000	-3.6853461278e-001
 2.0419758707e+000	 1.1631141575e+000	-4.0531511653e-001
 2.0300322573e+000	 1.1838365741e+000	-4.1373954502e-001
 2.0178621842e+000	 1.2044634514e+000	-3.9374645760e-001
 2.0054667014e+000	 1.2249911467e+000	-3.4530518775e-001
 1.9928469363e+000	 1.2454160302e+000	-2.6841560856e-001
 1.9800040928e+000	 1.2657344874e+000	-3.7993077565e-001
 1.9669394514e+000	 1.2859429204e+000	-5.1916963555e-001
 2.1096745162e+000	 1.0908246585e+000	-7.0268936063e-002
 2.0985283772e+000	 1.1121167431e+000	-1.8710234685e-001
 2.0871499012e+000	 1.1333270886e+000	-2.7454743495e-001
 2.0755398389e+000	 1.1544519813e+000	-3.3246585789e-001
 2.0636990183e+000	 1.1754877124e+000	-3.6075208278e-001
 2.0516283452e+000	 1.1964305802e+000	-3.5933327236e-001
 2.0393288031e+000	 1.2172768924e+000	-3.2816912122e-001
 2.0268014536e+000	 1.2380229674e+000	-2.6725164280e-001
 2.0140474357e+000	 1.2586651369e+000	-2.9072884830e-001
 2.0010679661e+000	 1.2791997479e+000	-4.3652903221e-001
 1.9878643392e+000	 1.2996231643e+000	-5.4502954877e-001
 2.1318816164e+000	 1.1023070233e+000	-6.6502466799e-002
 2.1206181496e+000	 1.1238232351e+000	-1.7929468593e-001
 2.1091199002e+000	 1.1452568475e+000	-2.6131562756e-001
 2.0973876267e+000	 1.1666041074e+000	-3.1244373870e-001
 2.0854221659e+000	 1.1878612672e+000	-3.3259187820e-001
 2.0732244330e+000	 1.2090245863e+000	-3.2170718214e-001
 2.0607954221e+000	 1.2300903333e+000	-2.7977087685e-001
 2.0481362057e+000	 1.2510547881e+000	-2.2005102870e-001
 2.0352479350e+000	 1.2719142436e+000	-3.7508937602e-001
 2.0221318395e+000	 1.2926650084e+000	-4.9182944125e-001
 2.0087892269e+000	 1.3133034081e+000	-5.7012968698e-001
 2.1540887166e+000	 1.1137893881e+000	-7.7591756276e-002
 2.1427079219e+000	 1.1355297272e+000	-1.8661985955e-001
 2.1310898991e+000	 1.1571866063e+000	-2.6351293115e-001
 2.1192354145e+000	 1.1787562335e+000	-3.0816664503e-001
 2.1071453134e+000	 1.2002348221e+000	-3.2051268056e-001
 2.0948205209e+000	 1.2216185925e+000	-3.0051856637e-001
 2.0822620411e+000	 1.2429037743e+000	-2.4818746931e-001
 2.0694709579e+000	 1.2640866088e+000	-3.3017617871e-001
 2.0564484343e+000	 1.2851633503e+000	-4.5778572327e-001
 2.0431957128e+000	 1.3061302689e+000	-5.4597176325e-001
 2.0297141147e+000	 1.3269836519e+000	-5.9459873570e-001
 2.1762958168e+000	 1.1252717530e+000	-1.0328955031e-001
 2.1647976943e+000	 1.1472362192e+000	-2.0881289137e-001
 2.1530598981e+000	 1.1691163651e+000	-2.8085597005e-001
 2.1410832022e+000	 1.1909083597e+000	-3.1933213530e-001
 2.1288684610e+000	 1.2126083770e+000	-3.2419232694e-001
 2.1164166087e+000	 1.2342125986e+000	-2.9542489700e-001
 2.1037286601e+000	 1.2557172153e+000	-2.9728801898e-001
 2.0908057100e+000	 1.2771184295e+000	-4.3831346681e-001
 2.0776489336e+000	 1.2984124570e+000	-5.3896989679e-001
 2.0642595861e+000	 1.3195955294e+000	-5.9909831722e-001
 2.0506390025e+000	 1.3406638958e+000	-6.1856860686e-001
 2.1985029169e+000	 1.1367541178e+000	-1.4334657870e-001
 2.1868874667e+000	 1.1589427112e+000	-2.4560716931e-001
 2.1750298971e+000	 1.1810461240e+000	-3.1306014171e-001
 2.1629309900e+000	 1.2030604858e+000	-3.4563697848e-001
 2.1505916085e+000	 1.2249819318e+000	-3.4330833090e-001
 2.1380126965e+000	 1.2468066047e+000	-3.0608381676e-001
 2.1251952790e+000	 1.2685306563e+000	-4.2899728197e-001
 2.1121404622e+000	 1.2901502502e+000	-5.4462511394e-001
 2.0988494330e+000	 1.3116615637e+000	-6.1879572617e-001
 2.0853234594e+000	 1.3330607899e+000	-6.5135385150e-001
 2.0715638903e+000	 1.3543441396e+000	-6.4217427582e-001
 2.2207100171e+000	 1.1482364826e+000	-1.9751165610e-001
 2.2089772391e+000	 1.1706492033e+000	-2.9673452735e-001
 2.1969998960e+000	 1.1929758828e+000	-3.5983967806e-001
 2.1847787778e+000	 1.2152126119e+000	-3.8677719362e-001
 2.1723147561e+000	 1.2373554867e+000	-3.7753789870e-001
 2.1596087844e+000	 1.2594006108e+000	-4.2559185728e-001
 2.1466618980e+000	 1.2813440973e+000	-5.5860473691e-001
 2.1334752143e+000	 1.3031820709e+000	-6.4927452292e-001
 2.1200499323e+000	 1.3249106704e+000	-6.9741877267e-001
 2.1063873328e+000	 1.3465260504e+000	-7.0288542231e-001
 2.0924887780e+000	 1.3680243835e+000	-6.6555362821e-001
 1.8832399002e+000	 1.2312219451e+000	-7.2093340530e-001
 1.8705201405e+000	 1.2504616763e+000	-7.3359550507e-001
 1.8575906924e+000	 1.2695892326e+000	-9.7131477272e-001
 1.8444530004e+000	 1.2886012298e+000	-1.1682088820e+000
 1.8311085811e+000	 1.3074943075e+000	-1.3256658939e+000
 1.8175590227e+000	 1.3262651314e+000	-1.4451034076e+000
 1.8038059846e+000	 1.3449103948e+000	-1.5279642784e+000
 1.7898511964e+000	 1.3634268205e+000	-1.5757123118e+000
 1.7756964577e+000	 1.3818111630e+000	-1.5898279446e+000
 1.7613436372e+000	 1.4000602100e+000	-1.5718039264e+000
 1.7467946721e+000	 1.4181707844e+000	-1.5231410132e+000
 1.9041647880e+000	 1.2449021889e+000	-5.1723977833e-001
 1.8913036977e+000	 1.2643556949e+000	-7.4649726260e-001
 1.8782305890e+000	 1.2836957796e+000	-1.0439044281e+000
 1.8649469226e+000	 1.3029190212e+000	-1.2301116999e+000
 1.8514542320e+000	 1.3220220220e+000	-1.3497869333e+000
 1.8377541230e+000	 1.3410014107e+000	-1.4330340863e+000
 1.8238482733e+000	 1.3598538436e+000	-1.4814835012e+000
 1.8097384319e+000	 1.3785760074e+000	-1.4967842571e+000
 1.7954264183e+000	 1.3971646204e+000	-1.4805995469e+000
 1.7809141221e+000	 1.4156164346e+000	-1.4346020572e+000
 1.7662035017e+000	 1.4339282376e+000	-1.3604693654e+000
 1.9250896758e+000	 1.2585824328e+000	-4.6467292597e-001
 1.9120872548e+000	 1.2782497135e+000	-7.3016176299e-001
 1.8988704856e+000	 1.2978023266e+000	-9.8416716175e-001
 1.8854408449e+000	 1.3172368126e+000	-1.2262691468e+000
 1.8717998829e+000	 1.3365497366e+000	-1.4197914050e+000
 1.8579492232e+000	 1.3557376899e+000	-1.4680714100e+000
 1.8438905620e+000	 1.3747972925e+000	-1.4833176758e+000
 1.8296256674e+000	 1.3937251943e+000	-1.4673666416e+000
 1.8151563790e+000	 1.4125180778e+000	-1.4220663170e+000
 1.8004846069e+000	 1.4311726591e+000	-1.3492713567e+000
 1.7856123314e+000	 1.4496856907e+000	-1.2508381553e+000
 1.9460145636e+000	 1.2722626766e+000	-4.9242466163e-001
 1.9328708119e+000	 1.2921437321e+000	-7.1539469773e-001
 1.9195103822e+000	 1.3119088736e+000	-9.2865170815e-001
 1.9059347671e+000	 1.3315546041e+000	-1.1318523428e+000
 1.8921455338e+000	 1.3510774511e+000	-1.3246565127e+000
 1.8781443235e+000	 1.3704739692e+000	-1.5067281273e+000
 1.8639328507e+000	 1.3897407413e+000	-1.5299961582e+000
 1.8495129029e+000	 1.4088743812e+000	-1.4838650918e+000
 1.8348863396e+000	 1.4278715351e+000	-1.4105129056e+000
 1.8200550918e+000	 1.4467288837e+000	-1.3119783451e+000
 1.8050211611e+000	 1.4654431439e+000	-1.1902987085e+000
 1.9669394514e+000	 1.2859429204e+000	-5.1916963555e-001
 1.9536543690e+000	 1.3060377508e+000	-7.0223301061e-001
 1.9401502787e+000	 1.3260154207e+000	-8.7731519164e-001
 1.9264286893e+000	 1.3458723955e+000	-1.0441477612e+000
 1.9124911847e+000	 1.3656051656e+000	-1.2024642885e+000
 1.8983394238e+000	 1.3852102484e+000	-1.3520009957e+000
 1.8839751394e+000	 1.4046841901e+000	-1.4924974260e+000
 1.8694001384e+000	 1.4240235681e+000	-1.5427148582e+000
 1.8546163002e+000	 1.4432249925e+000	-1.4422570041e+000
 1.8396255767e+000	 1.4622851082e+000	-1.3189259337e+000
 1.8244299908e+000	 1.4812005971e+000	-1.1749420238e+000
 1.9878643392e+000	 1.2996231643e+000	-5.4502954877e-001
 1.9744379261e+000	 1.3199317694e+000	-6.9072105733e-001
 1.9607901753e+000	 1.3401219677e+000	-8.3012572808e-001
 1.9469226115e+000	 1.3601901869e+000	-9.6304841925e-001
 1.9328368356e+000	 1.3801328802e+000	-1.0892947199e+000
 1.9185345240e+000	 1.3999465276e+000	-1.2086715472e+000
 1.9040174282e+000	 1.4196276390e+000	-1.3209877470e+000
 1.8892873739e+000	 1.4391727550e+000	-1.4260546954e+000
 1.8743462609e+000	 1.4585784499e+000	-1.5136476056e+000
 1.8591960615e+000	 1.4778413328e+000	-1.3663515098e+000
 1.8438388205e+000	 1.4969580502e+000	-1.2008966848e+000
 2.0087892269e+000	 1.3133034081e+000	-5.7012968698e-001
 1.9952214832e+000	 1.3338257880e+000	-6.8091021948e-001
 1.9814300719e+000	 1.3542285147e+000	-7.8706185237e-001
 1.9674165338e+000	 1.3745079784e+000	-8.8846109653e-001
 1.9531824865e+000	 1.3946605947e+000	-9.8498395591e-001
 1.9387296243e+000	 1.4146828069e+000	-1.0765064579e+000
 1.9240597169e+000	 1.4345710878e+000	-1.1629051880e+000
 1.9091746095e+000	 1.4543219419e+000	-1.2440578271e+000
 1.8940762215e+000	 1.4739319072e+000	-1.3198436902e+000
 1.8787665464e+000	 1.4933975573e+000	-1.3901442640e+000
 1.8632476502e+000	 1.5127155034e+000	-1.2643269032e+000
 2.0297141147e+000	 1.3269836519e+000	-5.9459873570e-001
 2.0160050404e+000	 1.3477198066e+000	-6.7285854240e-001
 2.0020699685e+000	 1.3683350618e+000	-7.4811198138e-001
 1.9879104560e+000	 1.3888257698e+000	-8.2030562558e-001
 1.9735281374e+000	 1.4091883092e+000	-8.8938432074e-001
 1.9589247245e+000	 1.4294190861e+000	-9.5529165076e-001
 1.9441020056e+000	 1.4495145366e+000	-1.0179704084e+000
 1.9290618450e+000	 1.4694711288e+000	-1.0773630703e+000
 1.9138061822e+000	 1.4892853646e+000	-1.1334122740e+000
 1.8983370312e+000	 1.5089537819e+000	-1.1860612967e+000
 1.8826564799e+000	 1.5284729565e+000	-1.2352545329e+000
 2.0506390025e+000	 1.3406638958e+000	-6.1856860686e-001
 2.0367885975e+000	 1.3616138253e+000	-6.6663039515e-001
 2.0227098651e+000	 1.3824416088e+000	-7.1327390983e-001
 2.0084043782e+000	 1.4031435613e+000	-7.5851422593e-001
 1.9938737883e+000	 1.4237160237e+000	-8.0236348821e-001
 1.9791198248e+000	 1.4441553653e+000	-8.4483131314e-001
 1.9641442943e+000	 1.4644579854e+000	-8.8592519762e-001
 1.9489490805e+000	 1.4846203157e+000	-9.2565093309e-001
 1.9335361428e+000	 1.5046388219e+000	-9.6401302358e-001
 1.9179075161e+000	 1.5245100065e+000	-1.0010151063e+000
 1.9020653096e+000	 1.5442304097e+000	-1.0366603733e+000
 2.0715638903e+000	 1.3543441396e+000	-6.4217427582e-001
 2.0575721546e+000	 1.3755078439e+000	-6.6229615116e-001
 2.0433497617e+000	 1.3965481558e+000	-6.8255433659e-001
 2.0288983004e+000	 1.4174613527e+000	-7.0303087853e-001
 2.0142194392e+000	 1.4382437383e+000	-7.2380370670e-001
 1.9993149250e+000	 1.4588916446e+000	-7.4494697453e-001
 1.9841865830e+000	 1.4794014343e+000	-7.6653140760e-001
 1.9688363160e+000	 1.4997695026e+000	-7.8862465875e-001
 1.9532661034e+000	 1.5199922793e+000	-8.1129166862e-001
 1.9374780009e+000	 1.5400662310e+000	-8.3459503016e-001
 1.9214741392e+000	 1.5599878628e+000	-8.5859535570e-001
 2.0924887780e+000	 1.3680243835e+000	-6.6555362821e-001
 2.0783557117e+000	 1.3894018625e+000	-6.5993188800e-001
 2.0639896582e+000	 1.4106547028e+000	-6.5596841949e-001
 2.0493922227e+000	 1.4317791441e+000	-6.5381073763e-001
 2.0345650901e+000	 1.4527714528e+000	-6.5360107040e-001
 2.0195100253e+000	 1.4736279238e+000	-6.5547663942e-001
 2.0042288717e+000	 1.4943448831e+000	-6.5956994993e-001
 1.9887235515e+000	 1.5149186895e+000	-6.6600908859e-001
 1.9729960641e+000	 1.5353457367e+000	-6.7491802824e-001
 1.9570484858e+000	 1.5556224556e+000	-6.8641693796e-001
 1.9408829689e+000	 1.5757453160e+000	-7.0062249745e-001
 1.7467946721e+000	 1.4181707844e+000	-1.5231410132e+000
 1.7320515667e+000	 1.4361397461e+000	-1.5703765407e+000
 1.7171163925e+000	 1.4539639937e+000	-1.6012643816e+000
 1.7019912862e+000	 1.4716404663e+000	-1.6183249556e+000
 1.6866784494e+000	 1.4891661453e+000	-1.6240630937e+000
 1.6711801475e+000	 1.5065380562e+000	-1.6209628627e+000
 1.6554987083e+000	 1.5237532697e+000	-1.6114824800e+000
 1.6396365210e+000	 1.5408089042e+000	-1.5980493338e+000
 1.6235960349e+000	 1.5577021267e+000	-1.5830551193e+000
 1.6073797585e+000	 1.5744301547e+000	-1.5688511055e+000
 1.5909902577e+000	 1.5909902577e+000	-1.5577435425e+000
 1.7662035017e+000	 1.4339282376e+000	-1.3604693654e+000
 1.7512965841e+000	 1.4520968544e+000	-1.4170035525e+000
 1.7361954635e+000	 1.4701191492e+000	-1.4598824504e+000
 1.7209023004e+000	 1.4879920270e+000	-1.4915811658e+000
 1.7054193211e+000	 1.5057124358e+000	-1.5145546478e+000
 1.6897488158e+000	 1.5232773679e+000	-1.5312324681e+000
 1.6738931384e+000	 1.5406838616e+000	-1.5440137021e+000
 1.6578547045e+000	 1.5579290031e+000	-1.5552619229e+000
 1.6416359909e+000	 1.5750099281e+000	-1.5673003219e+000
 1.6252395336e+000	 1.5919238231e+000	-1.5824069681e+000
 1.6086679272e+000	 1.6086679272e+000	-1.6028102192e+000
 1.7856123314e+000	 1.4496856907e+000	-1.2508381553e+000
 1.7705416015e+000	 1.4680539627e+000	-1.3105166926e+000
 1.7552745345e+000	 1.4862743046e+000	-1.3592282296e+000
 1.7398133147e+000	 1.5043435878e+000	-1.3994079466e+000
 1.7241601927e+000	 1.5222587263e+000	-1.4334662504e+000
 1.7083174841e+000	 1.5400166796e+000	-1.4637835045e+000
 1.6922875685e+000	 1.5576144535e+000	-1.4927048676e+000
 1.6760728881e+000	 1.5750491021e+000	-1.5225352558e+000
 1.6596759468e+000	 1.5923177295e+000	-1.5555344397e+000
 1.6430993087e+000	 1.6094174915e+000	-1.5939122910e+000
 1.6263455968e+000	 1.6263455968e+000	-1.6398241895e+000
 1.8050211611e+000	 1.4654431439e+000	-1.1902987085e+000
 1.7897866190e+000	 1.4840110710e+000	-1.2470912063e+000
 1.7743536055e+000	 1.5024294601e+000	-1.2956040340e+000
 1.7587243290e+000	 1.5206951485e+000	-1.3382378020e+000
 1.7429010644e+000	 1.5388050168e+000	-1.3773636821e+000
 1.7268861525e+000	 1.5567559914e+000	-1.4153180802e+000
 1.7106819986e+000	 1.5745450454e+000	-1.4543974257e+000
 1.6942910717e+000	 1.5921692010e+000	-1.4968530946e+000
 1.6777159028e+000	 1.6096255309e+000	-1.5448864767e+000
 1.6609590838e+000	 1.6269111599e+000	-1.6006442024e+000
 1.6440232663e+000	 1.6440232663e+000	-1.6662135394e+000
 1.8244299908e+000	 1.4812005971e+000	-1.1749420238e+000
 1.8090316364e+000	 1.4999681792e+000	-1.2229351775e+000
 1.7934326766e+000	 1.5185846156e+000	-1.2653381095e+000
 1.7776353433e+000	 1.5370467092e+000	-1.3045221893e+000
 1.7616419361e+000	 1.5553513073e+000	-1.3428246317e+000
 1.7454548208e+000	 1.5734953031e+000	-1.3825431030e+000
 1.7290764287e+000	 1.5914756372e+000	-1.4259304564e+000
 1.7125092552e+000	 1.6092892999e+000	-1.4751896070e+000
 1.6957558587e+000	 1.6269333323e+000	-1.5324685636e+000
 1.6788188589e+000	 1.6444048283e+000	-1.5998556282e+000
 1.6617009358e+000	 1.6617009358e+000	-1.6793747773e+000
 1.8438388205e+000	 1.4969580502e+000	-1.2008966848e+000
 1.8282766538e+000	 1.5159252875e+000	-1.2342878008e+000
 1.8125117476e+000	 1.5347397711e+000	-1.2647832681e+000
 1.7965463576e+000	 1.5533982700e+000	-1.2947305214e+000
 1.7803828077e+000	 1.5718975978e+000	-1.3264380690e+000
 1.7640234891e+000	 1.5902346148e+000	-1.3621700280e+000
 1.7474708588e+000	 1.6084062291e+000	-1.4041407954e+000
 1.7307274388e+000	 1.6264093989e+000	-1.4545098710e+000
 1.7137958146e+000	 1.6442411337e+000	-1.5153768453e+000
 1.6966786340e+000	 1.6618984966e+000	-1.5887765660e+000
 1.6793786053e+000	 1.6793786053e+000	-1.6766744966e+000
 1.8632476502e+000	 1.5127155034e+000	-1.2643269032e+000
 1.8475216712e+000	 1.5318823958e+000	-1.2774177607e+000
 1.8315908186e+000	 1.5508949266e+000	-1.2903156087e+000
 1.8154573719e+000	 1.5697498307e+000	-1.3053492312e+000
 1.7991236794e+000	 1.5884438884e+000	-1.3248036581e+000
 1.7825921574e+000	 1.6069739266e+000	-1.3509146201e+000
 1.7658652889e+000	 1.6253368210e+000	-1.3858631508e+000
 1.7489456224e+000	 1.6435294978e+000	-1.4317703484e+000
 1.7318357706e+000	 1.6615489351e+000	-1.4906923142e+000
 1.7145384091e+000	 1.6793921650e+000	-1.5646152792e+000
 1.6970562749e+000	 1.6970562749e+000	-1.6554509333e+000
 1.8826564799e+000	 1.5284729565e+000	-1.2352545329e+000
 1.8667666886e+000	 1.5478395041e+000	-1.3486217119e+000
 1.8506698896e+000	 1.5670500821e+000	-1.3383333164e+000
 1.8343683862e+000	 1.5861013914e+000	-1.3328808949e+000
 1.8178645510e+000	 1.6049901789e+000	-1.3345312052e+000
 1.8011608257e+000	 1.6237132383e+000	-1.3454967325e+000
 1.7842597190e+000	 1.6422674129e+000	-1.3679302128e+000
 1.7671638059e+000	 1.6606495967e+000	-1.4039193289e+000
 1.7498757265e+000	 1.6788567365e+000	-1.4554815908e+000
 1.7323981842e+000	 1.6968858334e+000	-1.5245594172e+000
 1.7147339444e+000	 1.7147339444e+000	-1.6130154281e+000
 1.9020653096e+000	 1.5442304097e+000	-1.0366603733e+000
 1.8860117060e+000	 1.5637966124e+000	-1.2603355294e+000
 1.8697489607e+000	 1.5832052375e+000	-1.4052555360e+000
 1.8532794005e+000	 1.6024529522e+000	-1.3738434077e+000
 1.8366054227e+000	 1.6215364694e+000	-1.3522401421e+000
 1.8197294940e+000	 1.6404525500e+000	-1.3426400978e+000
 1.8026541490e+000	 1.6591980048e+000	-1.3471727571e+000
 1.7853819895e+000	 1.6777696957e+000	-1.3678973471e+000
 1.7679156825e+000	 1.6961645380e+000	-1.4067976573e+000
 1.7502579593e+000	 1.7143795018e+000	-1.4657770673e+000
 1.7324116139e+000	 1.7324116139e+000	-1.5466537983e+000
 1.9214741392e+000	 1.5599878628e+000	-8.5859535570e-001
 1.9052567234e+000	 1.5797537207e+000	-1.0523592487e+000
 1.8888280317e+000	 1.5993603930e+000	-1.2567880777e+000
 1.8721904147e+000	 1.6188045129e+000	-1.4247692108e+000
 1.8553462943e+000	 1.6380827599e+000	-1.3745590392e+000
 1.8382981623e+000	 1.6571918618e+000	-1.3390721321e+000
 1.8210485791e+000	 1.6761285967e+000	-1.3204197408e+000
 1.8036001731e+000	 1.6948897946e+000	-1.3206375742e+000
 1.7859556384e+000	 1.7134723394e+000	-1.3416805460e+000
 1.7681177343e+000	 1.7318731702e+000	-1.3854177427e+000
 1.7500892834e+000	 1.7500892834e+000	-1.4536276270e+000
 1.9408829689e+000	 1.5757453160e+000	-7.0062249745e-001
 1.9245017408e+000	 1.5957108290e+000	-8.6059593005e-001
 1.9079071027e+000	 1.6155155485e+000	-1.0331870573e+000
 1.8911014290e+000	 1.6351560736e+000	-1.2175603904e+000
 1.8740871660e+000	 1.6546290504e+000	-1.3981251490e+000
 1.8568668306e+000	 1.6739311735e+000	-1.3315237507e+000
 1.8394430092e+000	 1.6930591885e+000	-1.2844983939e+000
 1.8218183566e+000	 1.7120098935e+000	-1.2590661862e+000
 1.8039955943e+000	 1.7307801408e+000	-1.2571579872e+000
 1.7859775094e+000	 1.7493668386e+000	-1.2806133111e+000
 1.7677669530e+000	 1.7677669530e+000	-1.3311754747e+000
 1.5909902577e+000	 1.5909902577e+000	-1.5577435425e+000
 1.5744301547e+000	 1.6073797585e+000	-1.4779746530e+000
 1.5577021267e+000	 1.6235960349e+000	-1.4359325623e+000
 1.5408089042e+000	 1.6396365210e+000	-1.4321295870e+000
 1.5237532697e+000	 1.6554987083e+000	-1.4669888783e+000
 1.5065380562e+000	 1.6711801475e+000	-1.5408425028e+000
 1.4891661453e+000	 1.6866784494e+000	-1.6539297592e+000
 1.4716404663e+000	 1.7019912862e+000	-1.8063957326e+000
 1.4539639937e+000	 1.7171163925e+000	-1.9982900922e+000
 1.4361397461e+000	 1.7320515667e+000	-2.2295661358e+000
 1.4181707844e+000	 1.7467946721e+000	-2.5000800812e+000
 1.6086679272e+000	 1.6086679272e+000	-1.6028102192e+000
 1.5919238231e+000	 1.6252395336e+000	-1.5042706955e+000
 1.5750099281e+000	 1.6416359909e+000	-1.4417558213e+000
 1.5579290031e+000	 1.6578547045e+000	-1.4159685451e+000
 1.5406838616e+000	 1.6738931384e+000	-1.4275211277e+000
 1.5232773679e+000	 1.6897488158e+000	-1.4769329730e+000
 1.5057124358e+000	 1.7054193211e+000	-1.5646286996e+000
 1.4879920270e+000	 1.7209023004e+000	-1.6909364583e+000
 1.4701191492e+000	 1.7361954635e+000	-1.8560865001e+000
 1.4520968544e+000	 1.7512965841e+000	-2.0602099994e+000
 1.4339282376e+000	 1.7662035017e+000	-2.3033381320e+000
 1.6263455968e+000	 1.6263455968e+000	-1.6398241895e+000
 1.6094174915e+000	 1.6430993087e+000	-1.5262427724e+000
 1.5923177295e+000	 1.6596759468e+000	-1.4471132151e+000
 1.5750491021e+000	 1.6760728881e+000	-1.4033289795e+000
 1.5576144535e+000	 1.6922875685e+000	-1.3956911593e+000
 1.5400166796e+000	 1.7083174841e+000	-1.4249060578e+000
 1.5222587263e+000	 1.7241601927e+000	-1.4915830156e+000
 1.5043435878e+000	 1.7398133147e+000	-1.5962324894e+000
 1.4862743046e+000	 1.7552745345e+000	-1.7392643915e+000
 1.4680539627e+000	 1.7705416015e+000	-1.9209866903e+000
 1.4496856907e+000	 1.7856123314e+000	-2.1416042767e+000
 1.6440232663e+000	 1.6440232663e+000	-1.6662135394e+000
 1.6269111599e+000	 1.6609590838e+000	-1.5411601674e+000
 1.6096255309e+000	 1.6777159028e+000	-1.4491152909e+000
 1.5921692010e+000	 1.6942910717e+000	-1.3911628631e+000
 1.5745450454e+000	 1.7106819986e+000	-1.3682926278e+000
 1.5567559914e+000	 1.7268861525e+000	-1.3813974450e+000
 1.5388050168e+000	 1.7429010644e+000	-1.4312708713e+000
 1.5206951485e+000	 1.7587243290e+000	-1.5186050020e+000
 1.5024294601e+000	 1.7743536055e+000	-1.6439885794e+000
 1.4840110710e+000	 1.7897866190e+000	-1.8079053725e+000
 1.4654431439e+000	 1.8050211611e+000	-2.0107328314e+000
 1.6617009358e+000	 1.6617009358e+000	-1.6793747773e+000
 1.6444048283e+000	 1.6788188589e+000	-1.5462664686e+000
 1.6269333323e+000	 1.6957558587e+000	-1.4448528563e+000
 1.6092892999e+000	 1.7125092552e+000	-1.3764084557e+000
 1.5914756372e+000	 1.7290764287e+000	-1.3421115709e+000
 1.5734953031e+000	 1.7454548208e+000	-1.3430413658e+000
 1.5553513073e+000	 1.7616419361e+000	-1.3801751977e+000
 1.5370467092e+000	 1.7776353433e+000	-1.4543862207e+000
 1.5185846156e+000	 1.7934326766e+000	-1.5664412636e+000
 1.4999681792e+000	 1.8090316364e+000	-1.7169989882e+000
 1.4812005971e+000	 1.8244299908e+000	-1.9066083315e+000
 1.6793786053e+000	 1.6793786053e+000	-1.6766744966e+000
 1.6618984966e+000	 1.6966786340e+000	-1.5387809214e+000
 1.6442411337e+000	 1.7137958146e+000	-1.4313980186e+000
 1.6264093989e+000	 1.7307274388e+000	-1.3559910270e+000
 1.6084062291e+000	 1.7474708588e+000	-1.3139268102e+000
 1.5902346148e+000	 1.7640234891e+000	-1.3064706717e+000
 1.5718975978e+000	 1.7803828077e+000	-1.3347834412e+000
 1.5533982700e+000	 1.7965463576e+000	-1.3999188373e+000
 1.5347397711e+000	 1.8125117476e+000	-1.5028211160e+000
 1.5159252875e+000	 1.8282766538e+000	-1.6443230062e+000
 1.4969580502e+000	 1.8438388205e+000	-1.8251439412e+000
 1.6970562749e+000	 1.6970562749e+000	-1.6554509333e+000
 1.6793921650e+000	 1.7145384091e+000	-1.5158996957e+000
 1.6615489351e+000	 1.7318357706e+000	-1.4058051582e+000
 1.6435294978e+000	 1.7489456224e+000	-1.3268235322e+000
 1.6253368210e+000	 1.7658652889e+000	-1.2805103267e+000
 1.6069739266e+000	 1.7825921574e+000	-1.2683169065e+000
 1.5884438884e+000	 1.7991236794e+000	-1.2915873285e+000
 1.5697498307e+000	 1.8154573719e+000	-1.3515554656e+000
 1.5508949266e+000	 1.8315908186e+000	-1.4493424219e+000
 1.5318823958e+000	 1.8475216712e+000	-1.5859542487e+000
 1.5127155034e+000	 1.8632476502e+000	-1.7622799622e+000
 1.7147339444e+000	 1.7147339444e+000	-1.6130154281e+000
 1.6968858334e+000	 1.7323981842e+000	-1.4747970758e+000
 1.6788567365e+000	 1.7498757265e+000	-1.3651118427e+000
 1.6606495967e+000	 1.7671638059e+000	-1.2858072472e+000
 1.6422674129e+000	 1.7842597190e+000	-1.2386276140e+000
 1.6237132383e+000	 1.8011608257e+000	-1.2252103730e+000
 1.6049901789e+000	 1.8178645510e+000	-1.2470826464e+000
 1.5861013914e+000	 1.8343683862e+000	-1.3056581295e+000
 1.5670500821e+000	 1.8506698896e+000	-1.4022342760e+000
 1.5478395041e+000	 1.8667666886e+000	-1.5379897904e+000
 1.5284729565e+000	 1.8826564799e+000	-1.6725897332e+000
 1.7324116139e+000	 1.7324116139e+000	-1.5466537983e+000
 1.7143795018e+000	 1.7502579593e+000	-1.4126265769e+000
 1.6961645380e+000	 1.7679156825e+000	-1.3063396846e+000
 1.6777696957e+000	 1.7853819895e+000	-1.2298323644e+000
 1.6591980048e+000	 1.8026541490e+000	-1.1850380085e+000
 1.6404525500e+000	 1.8197294940e+000	-1.1737801974e+000
 1.6215364694e+000	 1.8366054227e+000	-1.1977690339e+000
 1.6024529522e+000	 1.8532794005e+000	-1.2585977837e+000
 1.5832052375e+000	 1.8697489607e+000	-1.3577398262e+000
 1.5637966124e+000	 1.8860117060e+000	-1.4362511141e+000
 1.5442304097e+000	 1.9020653096e+000	-1.5204045900e+000
 1.7500892834e+000	 1.7500892834e+000	-1.4536276270e+000
 1.7318731702e+000	 1.7681177343e+000	-1.3265219940e+000
 1.7134723394e+000	 1.7859556384e+000	-1.2264951471e+000
 1.6948897946e+000	 1.8036001731e+000	-1.1557785524e+000
 1.6761285967e+000	 1.8210485791e+000	-1.1164950013e+000
 1.6571918618e+000	 1.8382981623e+000	-1.1106543875e+000
 1.6380827599e+000	 1.8553462943e+000	-1.1401497886e+000
 1.6188045129e+000	 1.8721904147e+000	-1.2067538621e+000
 1.5993603930e+000	 1.8888280317e+000	-1.2364254315e+000
 1.5797537207e+000	 1.9052567234e+000	-1.2846096275e+000
 1.5599878628e+000	 1.9214741392e+000	-1.3647599039e+000
 1.7677669530e+000	 1.7677669530e+000	-1.3311754747e+000
 1.7493668386e+000	 1.7859775094e+000	-1.2135983879e+000
 1.7307801408e+000	 1.8039955943e+000	-1.1225703017e+000
 1.7120098935e+000	 1.8218183566e+000	-1.0605154824e+000
 1.6930591885e+000	 1.8394430092e+000	-1.0297465297e+000
 1.6739311735e+000	 1.8568668306e+000	-1.0324598898e+000
 1.6546290504e+000	 1.8740871660e+000	-1.0707316827e+000
 1.6351560736e+000	 1.8911014290e+000	-1.0594645890e+000
 1.6155155485e+000	 1.9079071027e+000	-1.0767789514e+000
 1.5957108290e+000	 1.9245017408e+000	-1.1261417190e+000
 1.5757453160e+000	 1.9408829689e+000	-1.2062240411e+000
 1.4181707844e+000	 1.7467946721e+000	-2.5000800812e+000
 1.4000602100e+000	 1.7613436372e+000	-2.4092301261e+000
 1.3818111630e+000	 1.7756964577e+000	-2.2916746005e+000
 1.3634268205e+000	 1.7898511964e+000	-2.1490796731e+000
 1.3449103948e+000	 1.8038059846e+000	-1.9830651286e+000
 1.3262651314e+000	 1.8175590227e+000	-1.7952024373e+000
 1.3074943075e+000	 1.8311085811e+000	-1.5870130195e+000
 1.2886012298e+000	 1.8444530004e+000	-1.3599667058e+000
 1.2695892326e+000	 1.8575906924e+000	-1.1154803944e+000
 1.2504616763e+000	 1.8705201405e+000	-8.5491690458e-001
 1.2312219451e+000	 1.8832399002e+000	-1.6657210597e+000
 1.4339282376e+000	 1.7662035017e+000	-2.3033381320e+000
 1.4156164346e+000	 1.7809141221e+000	-2.2484373032e+000
 1.3971646204e+000	 1.7954264183e+000	-2.1754798812e+000
 1.3785760074e+000	 1.8097384319e+000	-2.0859709611e+000
 1.3598538436e+000	 1.8238482733e+000	-1.9813591765e+000
 1.3410014107e+000	 1.8377541230e+000	-1.8630349792e+000
 1.3220220220e+000	 1.8514542320e+000	-1.7323291281e+000
 1.3029190212e+000	 1.8649469226e+000	-1.5905113915e+000
 1.2836957796e+000	 1.8782305890e+000	-1.4257329301e+000
 1.2643556949e+000	 1.8913036977e+000	-1.2047266755e+000
 1.2449021889e+000	 1.9041647880e+000	-1.2576621927e+000
 1.4496856907e+000	 1.7856123314e+000	-2.1416042767e+000
 1.4311726591e+000	 1.8004846069e+000	-2.1169913036e+000
 1.4125180778e+000	 1.8151563790e+000	-2.0829094260e+000
 1.3937251943e+000	 1.8296256674e+000	-2.0407064759e+000
 1.3747972925e+000	 1.8438905620e+000	-1.9916636878e+000
 1.3557376899e+000	 1.8579492232e+000	-1.9369941826e+000
 1.3365497366e+000	 1.8717998829e+000	-1.8778416802e+000
 1.3172368126e+000	 1.8854408449e+000	-1.7668618194e+000
 1.2978023266e+000	 1.8988704856e+000	-1.6283369463e+000
 1.2782497135e+000	 1.9120872548e+000	-1.4754273950e+000
 1.2585824328e+000	 1.9250896758e+000	-1.3078811369e+000
 1.4654431439e+000	 1.8050211611e+000	-2.0107328314e+000
 1.4467288837e+000	 1.8200550918e+000	-2.0109363227e+000
 1.4278715351e+000	 1.8348863396e+000	-2.0102041586e+000
 1.4088743812e+000	 1.8495129029e+000	-2.0097306231e+000
 1.3897407413e+000	 1.8639328507e+000	-2.0106332008e+000
 1.3704739692e+000	 1.8781443235e+000	-1.9991808881e+000
 1.3510774511e+000	 1.8921455338e+000	-1.9327704555e+000
 1.3315546041e+000	 1.9059347671e+000	-1.8585219777e+000
 1.3119088736e+000	 1.9195103822e+000	-1.7758637534e+000
 1.2921437321e+000	 1.9328708119e+000	-1.6842613759e+000
 1.2722626766e+000	 1.9460145636e+000	-1.5832184991e+000
 1.4812005971e+000	 1.8244299908e+000	-1.9066083315e+000
 1.4622851082e+000	 1.8396255767e+000	-1.9263386313e+000
 1.4432249925e+000	 1.8546163002e+000	-1.9536187282e+000
 1.4240235681e+000	 1.8694001384e+000	-1.9894929806e+000
 1.4046841901e+000	 1.8839751394e+000	-1.9892258290e+000
 1.3852102484e+000	 1.8983394238e+000	-1.9621814352e+000
 1.3656051656e+000	 1.9124911847e+000	-1.9339094354e+000
 1.3458723955e+000	 1.9264286893e+000	-1.9035687721e+000
 1.3260154207e+000	 1.9401502787e+000	-1.8703517210e+000
 1.3060377508e+000	 1.9536543690e+000	-1.8334850439e+000
 1.2859429204e+000	 1.9669394514e+000	-1.7922310333e+000
 1.4969580502e+000	 1.8438388205e+000	-1.8251439412e+000
 1.4778413328e+000	 1.8591960615e+000	-1.8592854141e+000
 1.4585784499e+000	 1.8743462609e+000	-1.9094207870e+000
 1.4391727550e+000	 1.8892873739e+000	-1.8994520963e+000
 1.4196276390e+000	 1.9040174282e+000	-1.8930449801e+000
 1.3999465276e+000	 1.9185345240e+000	-1.8923620614e+000
 1.3801328802e+000	 1.9328368356e+000	-1.8963030117e+000
 1.3601901869e+000	 1.9469226115e+000	-1.9037963314e+000
 1.3401219677e+000	 1.9607901753e+000	-1.9138008854e+000
 1.3199317694e+000	 1.9744379261e+000	-1.9253073319e+000
 1.2996231643e+000	 1.9878643392e+000	-1.9373394445e+000
 1.5127155034e+000	 1.8632476502e+000	-1.7622799622e+000
 1.4933975573e+000	 1.8787665464e+000	-1.7860701541e+000
 1.4739319072e+000	 1.8940762215e+000	-1.7671346155e+000
 1.4543219419e+000	 1.9091746095e+000	-1.7625718777e+000
 1.4345710878e+000	 1.9240597169e+000	-1.7710111085e+000
 1.4146828069e+000	 1.9387296243e+000	-1.7911032566e+000
 1.3946605947e+000	 1.9531824865e+000	-1.8215230633e+000
 1.3745079784e+000	 1.9674165338e+000	-1.8609709736e+000
 1.3542285147e+000	 1.9814300719e+000	-1.9081749456e+000
 1.3338257880e+000	 1.9952214832e+000	-1.9618921540e+000
 1.3133034081e+000	 2.0087892269e+000	-2.0209105851e+000
 1.5284729565e+000	 1.8826564799e+000	-1.6725897332e+000
 1.5089537819e+000	 1.8983370312e+000	-1.6288302397e+000
 1.4892853646e+000	 1.9138061822e+000	-1.6072634663e+000
 1.4694711288e+000	 1.9290618450e+000	-1.6062867849e+000
 1.4495145366e+000	 1.9441020056e+000	-1.6243134242e+000
 1.4294190861e+000	 1.9589247245e+000	-1.6597748458e+000
 1.4091883092e+000	 1.9735281374e+000	-1.7111230262e+000
 1.3888257698e+000	 1.9879104560e+000	-1.7768326392e+000
 1.3683350618e+000	 2.0020699685e+000	-1.8554031371e+000
 1.3477198066e+000	 2.0160050404e+000	-1.9453607255e+000
 1.3269836519e+000	 2.0297141147e+000	-2.0452602308e+000
 1.5442304097e+000	 1.9020653096e+000	-1.5204045900e+000
 1.5245100065e+000	 1.9179075161e+000	-1.4629388991e+000
 1.5046388219e+000	 1.9335361428e+000	-1.4339459482e+000
 1.4846203157e+000	 1.9489490805e+000	-1.4316126914e+000
 1.4644579854e+000	 1.9641442943e+000	-1.4541382456e+000
 1.4441553653e+000	 1.9791198248e+000	-1.4997365336e+000
 1.4237160237e+000	 1.9938737883e+000	-1.5666388349e+000
 1.4031435613e+000	 2.0084043782e+000	-1.6530962376e+000
 1.3824416088e+000	 2.0227098651e+000	-1.7573819894e+000
 1.3616138253e+000	 2.0367885975e+000	-1.8777937417e+000
 1.3406638958e+000	 2.0506390025e+000	-2.0126556864e+000
 1.5599878628e+000	 1.9214741392e+000	-1.3647599039e+000
 1.5400662310e+000	 1.9374780009e+000	-1.2890972650e+000
 1.5199922793e+000	 1.9532661034e+000	-1.2480410605e+000
 1.4997695026e+000	 1.9688363160e+000	-1.2395694405e+000
 1.4794014343e+000	 1.9841865830e+000	-1.2616691453e+000
 1.4588916446e+000	 1.9993149250e+000	-1.3123384148e+000
 1.4382437383e+000	 2.0142194392e+000	-1.3895898055e+000
 1.4174613527e+000	 2.0288983004e+000	-1.4914529107e+000
 1.3965481558e+000	 2.0433497617e+000	-1.6159769785e+000
 1.3755078439e+000	 2.0575721546e+000	-1.7612334246e+000
 1.3543441396e+000	 2.0715638903e+000	-1.9253182342e+000
 1.5757453160e+000	 1.9408829689e+000	-1.2062240411e+000
 1.5556224556e+000	 1.9570484858e+000	-1.1080225656e+000
 1.5353457367e+000	 1.9729960641e+000	-1.0504178095e+000
 1.5149186895e+000	 1.9887235515e+000	-1.0311806465e+000
 1.4943448831e+000	 2.0042288717e+000	-1.0480870875e+000
 1.4736279238e+000	 2.0195100253e+000	-1.0989214554e+000
 1.4527714528e+000	 2.0345650901e+000	-1.1814794675e+000
 1.4317791441e+000	 2.0493922227e+000	-1.2935712214e+000
 1.4106547028e+000	 2.0639896582e+000	-1.4330240793e+000
 1.3894018625e+000	 2.0783557117e+000	-1.5976854459e+000
 1.3680243835e+000	 2.0924887780e+000	-1.7854254346e+000
 1.2312219451e+000	 1.8832399002e+000	-1.6657210597e+000
 1.2118734454e+000	 1.8957485995e+000	-1.8112694246e+000
 1.1924196034e+000	 1.9080449390e+000	-1.9061338275e+000
 1.1728638638e+000	 1.9201276929e+000	-1.9527163774e+000
 1.1532096875e+000	 1.9319957082e+000	-1.9533778283e+000
 1.1334605497e+000	 1.9436479059e+000	-1.9104354633e+000
 1.1136199380e+000	 1.9550832805e+000	-1.8261611547e+000
 1.0936913507e+000	 1.9663009000e+000	-1.7027795995e+000
 1.0736782945e+000	 1.9772999064e+000	-1.5424667318e+000
 1.0535842829e+000	 1.9880795152e+000	-1.3473483079e+000
 1.0334128344e+000	 1.9986390154e+000	-1.1194986661e+000
 1.2449021889e+000	 1.9041647880e+000	-1.2576621927e+000
 1.2253387059e+000	 1.9168124728e+000	-1.4666653663e+000
 1.2056687101e+000	 1.9292454384e+000	-1.6185604716e+000
 1.1858956845e+000	 1.9414624450e+000	-1.7159419707e+000
 1.1660231285e+000	 1.9534623272e+000	-1.7613647416e+000
 1.1460545558e+000	 1.9652439938e+000	-1.7573417421e+000
 1.1259934929e+000	 1.9768064280e+000	-1.7063418540e+000
 1.1058434768e+000	 1.9881486878e+000	-1.6107879069e+000
 1.0856080533e+000	 1.9992699054e+000	-1.4730548812e+000
 1.0652907750e+000	 2.0101692876e+000	-1.2954682902e+000
 1.0448951992e+000	 2.0208461156e+000	-1.0803027391e+000
 1.2585824328e+000	 1.9250896758e+000	-1.3078811369e+000
 1.2388039664e+000	 1.9378763461e+000	-1.1047142203e+000
 1.2189178168e+000	 1.9504459377e+000	-1.3179061600e+000
 1.1989275052e+000	 1.9627971972e+000	-1.4705450021e+000
 1.1788365695e+000	 1.9749289462e+000	-1.5653775760e+000
 1.1586485619e+000	 1.9868400816e+000	-1.6051101631e+000
 1.1383670478e+000	 1.9985295756e+000	-1.5924061285e+000
 1.1179956029e+000	 2.0099964756e+000	-1.5298837361e+000
 1.0975378121e+000	 2.0212399043e+000	-1.4201141471e+000
 1.0769972670e+000	 2.0322590600e+000	-1.2656196024e+000
 1.0563775640e+000	 2.0430532157e+000	-1.0688717867e+000
 1.2722626766e+000	 1.9460145636e+000	-1.5832184991e+000
 1.2522692269e+000	 1.9589402195e+000	-8.4490468167e-001
 1.2321669235e+000	 1.9716464370e+000	-1.0027852706e+000
 1.2119593259e+000	 1.9841319493e+000	-1.2150030797e+000
 1.1916500104e+000	 1.9963955652e+000	-1.3637547218e+000
 1.1712425680e+000	 2.0084361695e+000	-1.4519375312e+000
 1.1507406026e+000	 2.0202527232e+000	-1.4824069106e+000
 1.1301477291e+000	 2.0318442634e+000	-1.4579739406e+000
 1.1094675710e+000	 2.0432099033e+000	-1.3814031790e+000
 1.0887037590e+000	 2.0543488324e+000	-1.2554106462e+000
 1.0678599288e+000	 2.0652603159e+000	-1.0826619994e+000
 1.2859429204e+000	 1.9669394514e+000	-1.7922310333e+000
 1.2657344874e+000	 1.9800040928e+000	-1.1367038066e+000
 1.2454160302e+000	 1.9928469363e+000	-6.7176416453e-001
 1.2249911467e+000	 2.0054667014e+000	-9.4775203726e-001
 1.2044634514e+000	 2.0178621842e+000	-1.1547992100e+000
 1.1838365741e+000	 2.0300322573e+000	-1.2959918764e+000
 1.1631141575e+000	 2.0419758707e+000	-1.3743751077e+000
 1.1422998552e+000	 2.0536920511e+000	-1.3929502613e+000
 1.1213973298e+000	 2.0651799023e+000	-1.3546725835e+000
 1.1004102511e+000	 2.0764386048e+000	-1.2624490037e+000
 1.0793422937e+000	 2.0874674161e+000	-1.1191361215e+000
 1.2996231643e+000	 1.9878643392e+000	-1.9373394445e+000
 1.2791997479e+000	 2.0010679661e+000	-1.3684583874e+000
 1.2586651369e+000	 2.0140474357e+000	-7.5106263324e-001
 1.2380229674e+000	 2.0268014536e+000	-6.6718813262e-001
 1.2172768924e+000	 2.0393288031e+000	-9.3678057351e-001
 1.1964305802e+000	 2.0516283452e+000	-1.1354139685e+000
 1.1754877124e+000	 2.0636990183e+000	-1.2663207620e+000
 1.1544519813e+000	 2.0755398389e+000	-1.3326901215e+000
 1.1333270886e+000	 2.0871499012e+000	-1.3376653475e+000
 1.1121167431e+000	 2.0985283772e+000	-1.2843414806e+000
 1.0908246585e+000	 2.1096745162e+000	-1.1757631064e+000
 1.3133034081e+000	 2.0087892269e+000	-2.0209105851e+000
 1.2926650084e+000	 2.0221318395e+000	-1.5424127178e+000
 1.2719142436e+000	 2.0352479350e+000	-1.0090561489e+000
 1.2510547881e+000	 2.0481362057e+000	-4.2154864091e-001
 1.2300903333e+000	 2.0607954221e+000	-7.0793659151e-001
 1.2090245863e+000	 2.0732244330e+000	-9.6831873663e-001
 1.1878612672e+000	 2.0854221659e+000	-1.1562341367e+000
 1.1666041074e+000	 2.0973876267e+000	-1.2750573726e+000
 1.1452568475e+000	 2.1091199002e+000	-1.3281172348e+000
 1.1238232351e+000	 2.1206181496e+000	-1.3186941468e+000
 1.1023070233e+000	 2.1318816164e+000	-1.2500177928e+000
 1.3269836519e+000	 2.0297141147e+000	-2.0452602308e+000
 1.3061302689e+000	 2.0431957128e+000	-1.6607650276e+000
 1.2851633503e+000	 2.0564484343e+000	-1.2151476817e+000
 1.2640866088e+000	 2.0694709579e+000	-7.0922442214e-001
 1.2429037743e+000	 2.0822620411e+000	-4.6647492640e-001
 1.2216185925e+000	 2.0948205209e+000	-7.9279660138e-001
 1.2002348221e+000	 2.1071453134e+000	-1.0420867359e+000
 1.1787562335e+000	 2.1192354145e+000	-1.2179029941e+000
 1.1571866063e+000	 2.1310898991e+000	-1.3237571585e+000
 1.1355297272e+000	 2.1427079219e+000	-1.3631123740e+000
 1.1137893881e+000	 2.1540887166e+000	-1.3393806020e+000
 1.3406638958e+000	 2.0506390025e+000	-2.0126556864e+000
 1.3195955294e+000	 2.0642595861e+000	-1.7256698330e+000
 1.2984124570e+000	 2.0776489336e+000	-1.3713747747e+000
 1.2771184295e+000	 2.0908057100e+000	-9.5069275081e-001
 1.2557172153e+000	 2.1037286601e+000	-4.6463231662e-001
 1.2342125986e+000	 2.1164166087e+000	-6.0691472525e-001
 1.2126083770e+000	 2.1288684610e+000	-9.2183226136e-001
 1.1909083597e+000	 2.1410832022e+000	-1.1590657498e+000
 1.1691163651e+000	 2.1530598981e+000	-1.3223075305e+000
 1.1472362192e+000	 2.1647976943e+000	-1.4152008714e+000
 1.1252717530e+000	 2.1762958168e+000	-1.4413372525e+000
 1.3543441396e+000	 2.0715638903e+000	-1.9253182342e+000
 1.3330607899e+000	 2.0853234594e+000	-1.7392401443e+000
 1.3116615637e+000	 2.0988494330e+000	-1.4797381200e+000
 1.2901502502e+000	 2.1121404622e+000	-1.1478380163e+000
 1.2685306563e+000	 2.1251952790e+000	-7.4465851962e-001
 1.2468066047e+000	 2.1380126965e+000	-4.0871818728e-001
 1.2249819318e+000	 2.1505916085e+000	-7.9340751198e-001
 1.2030604858e+000	 2.1629309900e+000	-1.0963728051e+000
 1.1810461240e+000	 2.1750298971e+000	-1.3214845902e+000
 1.1589427112e+000	 2.1868874667e+000	-1.4725637195e+000
 1.1367541178e+000	 2.1985029169e+000	-1.5533784927e+000
 1.3680243835e+000	 2.0924887780e+000	-1.7854254346e+000
 1.3465260504e+000	 2.1063873328e+000	-1.7035495413e+000
 1.3249106704e+000	 2.1200499323e+000	-1.5422034016e+000
 1.3031820709e+000	 2.1334752143e+000	-1.3025141507e+000
 1.2813440973e+000	 2.1466618980e+000	-9.8570827898e-001
 1.2594006108e+000	 2.1596087844e+000	-5.9310979333e-001
 1.2373554867e+000	 2.1723147561e+000	-6.5473322859e-001
 1.2152126119e+000	 2.1847787778e+000	-1.0276403069e+000
 1.1929758828e+000	 2.1969998960e+000	-1.3189987126e+000
 1.1706492033e+000	 2.2089772391e+000	-1.5328044010e+000
 1.1482364826e+000	 2.2207100171e+000	-1.6729998493e+000
 1.0334128344e+000	 1.9986390154e+000	-1.1194986661e+000
 1.0131674701e+000	 2.0089777693e+000	-1.1420543756e+000
 9.9285171243e-001	 2.0190952125e+000	-1.1550438443e+000
 9.7246908310e-001	 2.0289908532e+000	-1.1595516279e+000
 9.5202310113e-001	 2.0386642723e+000	-1.1565982932e+000
 9.3151728120e-001	 2.0481151225e+000	-1.1471409533e+000
 9.1095513182e-001	 2.0573431284e+000	-1.1320739565e+000
 8.9034015358e-001	 2.0663480856e+000	-1.1122297222e+000
 8.6967583741e-001	 2.0751298605e+000	-1.0883797167e+000
 8.4896566288e-001	 2.0836883892e+000	-1.0612355636e+000
 8.2821309651e-001	 2.0920236774e+000	-1.0314502806e+000
 1.0448951992e+000	 2.0208461156e+000	-1.0803027391e+000
 1.0244248864e+000	 2.0312997445e+000	-1.0862576161e+000
 1.0038833981e+000	 2.0415296038e+000	-1.0851471972e+000
 9.8327429514e-001	 2.0515351960e+000	-1.0780102492e+000
 9.6260113559e-001	 2.0613160975e+000	-1.0658172859e+000
 9.4186747321e-001	 2.0708719572e+000	-1.0494712359e+000
 9.2107685550e-001	 2.0802024965e+000	-1.0298082705e+000
 9.0023282195e-001	 2.0893075088e+000	-1.0075987837e+000
 8.7933890227e-001	 2.0981868589e+000	-9.8354851831e-001
 8.5839861469e-001	 2.1068404824e+000	-9.5829983184e-001
 8.3741546425e-001	 2.1152683849e+000	-9.3243309278e-001
 1.0563775640e+000	 2.0430532157e+000	-1.0688717867e+000
 1.0356823027e+000	 2.0536217198e+000	-1.0569078496e+000
 1.0149150838e+000	 2.0639639950e+000	-1.0404060804e+000
 9.9407950717e-001	 2.0740795389e+000	-1.0203599036e+000
 9.7317917004e-001	 2.0839679228e+000	-9.9769014070e-001
 9.5221766522e-001	 2.0936287919e+000	-9.7324581219e-001
 9.3119857919e-001	 2.1030618646e+000	-9.4780510539e-001
 9.1012549032e-001	 2.1122669320e+000	-9.2207650094e-001
 8.8900196713e-001	 2.1212438574e+000	-8.9670005118e-001
 8.6783156650e-001	 2.1299925756e+000	-8.7224880257e-001
 8.4661783199e-001	 2.1385130925e+000	-8.4923035445e-001
 1.0678599288e+000	 2.0652603159e+000	-1.0826619994e+000
 1.0469397191e+000	 2.0759436950e+000	-1.0515401313e+000
 1.0259467695e+000	 2.0863983863e+000	-1.0184371313e+000
 1.0048847192e+000	 2.0966238817e+000	-9.8430147649e-001
 9.8375720450e-001	 2.1066197480e+000	-9.5000460380e-001
 9.6256785724e-001	 2.1163856266e+000	-9.1634184668e-001
 9.4132030288e-001	 2.1259212327e+000	-8.8403354495e-001
 9.2001815870e-001	 2.1352263552e+000	-8.5372631941e-001
 8.9866503199e-001	 2.1443008558e+000	-8.2599450415e-001
 8.7726451831e-001	 2.1531446689e+000	-8.0134172815e-001
 8.5582019972e-001	 2.1617578000e+000	-7.8020263820e-001
 1.0793422937e+000	 2.0874674161e+000	-1.1191361215e+000
 1.0581971354e+000	 2.0982656702e+000	-1.0676936767e+000
 1.0369784552e+000	 2.1088327775e+000	-1.0168587025e+000
 1.0156899312e+000	 2.1191682245e+000	-9.6753507459e-001
 9.9433523896e-001	 2.1292715733e+000	-9.2054510075e-001
 9.7291804925e-001	 2.1391424613e+000	-8.7663059499e-001
 9.5144202657e-001	 2.1487806008e+000	-8.3645413057e-001
 9.2991082707e-001	 2.1581857783e+000	-8.0060046478e-001
 9.0832809685e-001	 2.1673578543e+000	-7.6957812700e-001
 8.8669747012e-001	 2.1762967621e+000	-7.4382116176e-001
 8.6502256746e-001	 2.1850025075e+000	-7.2369101805e-001
 1.0908246585e+000	 2.1096745162e+000	-1.1757631064e+000
 1.0694545517e+000	 2.1205876454e+000	-1.1029116423e+000
 1.0480101409e+000	 2.1312671688e+000	-1.0332907721e+000
 1.0264951433e+000	 2.1417125673e+000	-9.6776006706e-001
 1.0049132734e+000	 2.1519233985e+000	-9.0709291136e-001
 9.8326824127e-001	 2.1618992960e+000	-8.5197771469e-001
 9.6156375025e-001	 2.1716399689e+000	-8.0301931068e-001
 9.3980349544e-001	 2.1811452015e+000	-7.6074053350e-001
 9.1799116171e-001	 2.1904148527e+000	-7.2558396400e-001
 8.9613042193e-001	 2.1994488553e+000	-6.9791383628e-001
 8.7422493520e-001	 2.2082472150e+000	-6.7801809575e-001
 1.1023070233e+000	 2.1318816164e+000	-1.2500177928e+000
 1.0807119681e+000	 2.1429096206e+000	-1.1547409202e+000
 1.0590418266e+000	 2.1537015600e+000	-1.0653548583e+000
 1.0373003553e+000	 2.1642569101e+000	-9.8267512378e-001
 1.0154913079e+000	 2.1745752237e+000	-9.0742633349e-001
 9.9361843328e-001	 2.1846561306e+000	-8.4024355696e-001
 9.7168547394e-001	 2.1944993369e+000	-7.8167386224e-001
 9.4969616382e-001	 2.2041046247e+000	-7.3217804640e-001
 9.2765422657e-001	 2.2134718512e+000	-6.9213254173e-001
 9.0556337374e-001	 2.2226009485e+000	-6.6183148825e-001
 8.8342730294e-001	 2.2314919226e+000	-6.4148896285e-001
 1.1137893881e+000	 2.1540887166e+000	-1.3393806020e+000
 1.0919693844e+000	 2.1652315958e+000	-1.2207319458e+000
 1.0700735123e+000	 2.1761359513e+000	-1.1106739404e+000
 1.0481055673e+000	 2.1868012529e+000	-1.0099782515e+000
 1.0260693423e+000	 2.1972270490e+000	-9.1932083676e-001
 1.0039686253e+000	 2.2074129653e+000	-8.3928344002e-001
 9.8180719763e-001	 2.2173587050e+000	-7.7035528625e-001
 9.5958883219e-001	 2.2270640479e+000	-7.1293496806e-001
 9.3731729143e-001	 2.2365288496e+000	-6.6733251431e-001
 9.1499632555e-001	 2.2457530417e+000	-6.3377163085e-001
 8.9262967068e-001	 2.2547366301e+000	-6.1239210328e-001
 1.1252717530e+000	 2.1762958168e+000	-1.4413372525e+000
 1.1032268007e+000	 2.1875535710e+000	-1.2984385171e+000
 1.0811051980e+000	 2.1985703425e+000	-1.1668723842e+000
 1.0589107794e+000	 2.2093455957e+000	-1.0473668275e+000
 1.0366473768e+000	 2.2198788742e+000	-9.4054920686e-001
 1.0143188173e+000	 2.2301698000e+000	-8.4694790601e-001
 9.9192892132e-001	 2.2402180731e+000	-7.6699417891e-001
 9.6948150057e-001	 2.2500234710e+000	-7.0102419435e-001
 9.4698035630e-001	 2.2595858481e+000	-6.4928126915e-001
 9.2442927736e-001	 2.2689051349e+000	-6.1191827965e-001
 9.0183203843e-001	 2.2779813376e+000	-5.8900024067e-001
 1.1367541178e+000	 2.1985029169e+000	-1.5533784927e+000
 1.1144842171e+000	 2.2098755463e+000	-1.3854176245e+000
 1.0921368837e+000	 2.2210047338e+000	-1.2315758720e+000
 1.0697159914e+000	 2.2318899385e+000	-1.0925376317e+000
 1.0472254113e+000	 2.2425306995e+000	-9.6888168111e-001
 1.0246690093e+000	 2.2529266347e+000	-8.6108296212e-001
 1.0020506450e+000	 2.2630774412e+000	-7.6951458040e-001
 9.7937416894e-001	 2.2729828942e+000	-6.9445001047e-001
 9.5664342116e-001	 2.2826428465e+000	-6.3606549596e-001
 9.3386222918e-001	 2.2920572281e+000	-5.9444263426e-001
 9.1103440617e-001	 2.3012260451e+000	-5.6957113435e-001
 1.1482364826e+000	 2.2207100171e+000	-1.6729998493e+000
 1.1257416334e+000	 2.2321975215e+000	-1.4792292916e+000
 1.1031685694e+000	 2.2434391250e+000	-1.3024113367e+000
 1.0805212035e+000	 2.2544342814e+000	-1.1431868761e+000
 1.0578034457e+000	 2.2651825247e+000	-1.0020860759e+000
 1.0350192013e+000	 2.2756834694e+000	-8.7953030741e-001
 1.0121723687e+000	 2.2859368093e+000	-7.7583430264e-001
 9.8926683732e-001	 2.2959423174e+000	-6.9120852147e-001
 9.6630648602e-001	 2.3056998450e+000	-6.2576172164e-001
 9.4329518099e-001	 2.3152093213e+000	-5.7950371911e-001
 9.2023677391e-001	 2.3244707527e+000	-5.5234832757e-001
 8.2821309651e-001	 2.0920236774e+000	-1.0314502806e+000
 8.0742159012e-001	 2.1001357994e+000	-9.6940105484e-001
 7.8659457923e-001	 2.1080248974e+000	-9.0578257463e-001
 7.6573548144e-001	 2.1156911808e+000	-8.4134494176e-001
 7.4484769492e-001	 2.1231349254e+000	-7.7678208579e-001
 7.2393459685e-001	 2.1303564724e+000	-7.1273331569e-001
 7.0299954197e-001	 2.1373562277e+000	-6.4978496171e-001
 6.8204586113e-001	 2.1441346607e+000	-5.8847209989e-001
 6.6107685984e-001	 2.1506923038e+000	-5.2928035158e-001
 6.4009581698e-001	 2.1570297506e+000	-4.7264775036e-001
 6.1910598340e-001	 2.1631476559e+000	-5.0561503272e-001
 8.3741546425e-001	 2.1152683849e+000	-9.3243309278e-001
 8.1639294112e-001	 2.1234706416e+000	-8.8420878932e-001
 7.9533451899e-001	 2.1314473962e+000	-8.3487591746e-001
 7.7424365345e-001	 2.1391988606e+000	-7.8505012266e-001
 7.5312378041e-001	 2.1467253135e+000	-7.3529015264e-001
 7.3197831459e-001	 2.1540270999e+000	-6.8609960830e-001
 7.1081064799e-001	 2.1611046302e+000	-6.3792878402e-001
 6.8962414847e-001	 2.1679583792e+000	-5.9117658919e-001
 6.6842215828e-001	 2.1745888849e+000	-5.4619254315e-001
 6.4720799272e-001	 2.1809967479e+000	-5.0327883530e-001
 6.2598493877e-001	 2.1871826299e+000	-4.6269244253e-001
 8.4661783199e-001	 2.1385130925e+000	-8.4923035445e-001
 8.2536429212e-001	 2.1468054838e+000	-8.1141109272e-001
 8.0407445876e-001	 2.1548698951e+000	-7.7300607211e-001
 7.8275182547e-001	 2.1627065404e+000	-7.3449697337e-001
 7.6139986591e-001	 2.1703157015e+000	-6.9630775830e-001
 7.4002203233e-001	 2.1776977274e+000	-6.5880662225e-001
 7.1862175401e-001	 2.1848530328e+000	-6.2230803522e-001
 6.9720243581e-001	 2.1917820976e+000	-5.8707486298e-001
 6.7576745672e-001	 2.1984854661e+000	-5.5332055994e-001
 6.5432016846e-001	 2.2049637451e+000	-5.2121142522e-001
 6.3286389413e-001	 2.2112176038e+000	-4.9086891356e-001
 8.5582019972e-001	 2.1617578000e+000	-7.8020263820e-001
 8.3433564312e-001	 2.1701403260e+000	-7.4954873387e-001
 8.1281439853e-001	 2.1782923940e+000	-7.1889500667e-001
 7.9125999748e-001	 2.1862142202e+000	-6.8858957028e-001
 7.6967595141e-001	 2.1939060896e+000	-6.5892190236e-001
 7.4806575007e-001	 2.2013683548e+000	-6.3012500098e-001
 7.2643286003e-001	 2.2086014353e+000	-6.0237762901e-001
 7.0478072316e-001	 2.2156058161e+000	-5.7580663746e-001
 6.8311275516e-001	 2.2223820472e+000	-5.5048935894e-001
 6.6143234421e-001	 2.2289307423e+000	-5.2645606249e-001
 6.3974284950e-001	 2.2352525778e+000	-5.0369246079e-001
 8.6502256746e-001	 2.1850025075e+000	-7.2369101805e-001
 8.4330699412e-001	 2.1934751683e+000	-6.9713688285e-001
 8.2155433830e-001	 2.2017148928e+000	-6.7123300181e-001
 7.9976816950e-001	 2.2097219000e+000	-6.4619422792e-001
 7.7795203691e-001	 2.2174964776e+000	-6.2217576490e-001
 7.5610946781e-001	 2.2250389823e+000	-5.9927553013e-001
 7.3424396605e-001	 2.2323498378e+000	-5.7753660492e-001
 7.1235901050e-001	 2.2394295346e+000	-5.5694976268e-001
 6.9045805361e-001	 2.2462786284e+000	-5.3745606586e-001
 6.6854451995e-001	 2.2528977396e+000	-5.1894952230e-001
 6.4662180487e-001	 2.2592875518e+000	-5.0127979184e-001
 8.7422493520e-001	 2.2082472150e+000	-6.7801809575e-001
 8.5227834513e-001	 2.2168100105e+000	-6.5266645831e-001
 8.3029427807e-001	 2.2251373917e+000	-6.2868031859e-001
 8.0827634151e-001	 2.2332295797e+000	-6.0614148641e-001
 7.8622812241e-001	 2.2410868657e+000	-5.8507101274e-001
 7.6415318556e-001	 2.2487096098e+000	-5.6543176164e-001
 7.4205507208e-001	 2.2560982403e+000	-5.4713106904e-001
 7.1993729785e-001	 2.2632532530e+000	-5.3002347865e-001
 6.9780335205e-001	 2.2701752095e+000	-5.1391354519e-001
 6.7565669569e-001	 2.2768647368e+000	-4.9855869523e-001
 6.5350076025e-001	 2.2833225257e+000	-4.8367213620e-001
 8.8342730294e-001	 2.2314919226e+000	-6.4148896285e-001
 8.6124969613e-001	 2.2401448527e+000	-6.1460539054e-001
 8.3903421784e-001	 2.2485598905e+000	-5.8986876190e-001
 8.1678451353e-001	 2.2567372595e+000	-5.6722797473e-001
 7.9450420791e-001	 2.2646772538e+000	-5.4656996166e-001
 7.7219690330e-001	 2.2723802372e+000	-5.2772247381e-001
 7.4986617810e-001	 2.2798466429e+000	-5.1045695097e-001
 7.2751558520e-001	 2.2870769715e+000	-4.9449146796e-001
 7.0514865049e-001	 2.2940717907e+000	-4.7949374717e-001
 6.8276887144e-001	 2.3008317340e+000	-4.6508422702e-001
 6.6037971562e-001	 2.3073574997e+000	-4.5083917638e-001
 8.9262967068e-001	 2.2547366301e+000	-6.1239210328e-001
 8.7022104713e-001	 2.2634796949e+000	-5.8139980645e-001
 8.4777415761e-001	 2.2719823894e+000	-5.5340314737e-001
 8.2529268555e-001	 2.2802449393e+000	-5.2821815871e-001
 8.0278029341e-001	 2.2882676418e+000	-5.0559760471e-001
 7.8024062105e-001	 2.2960508647e+000	-4.8523397926e-001
 7.5767728412e-001	 2.3035950454e+000	-4.6676259026e-001
 7.3509387254e-001	 2.3109006899e+000	-4.4976471954e-001
 7.1249394894e-001	 2.3179683718e+000	-4.3377084769e-001
 6.8988104719e-001	 2.3247987313e+000	-4.1826393327e-001
 6.6725867099e-001	 2.3313924736e+000	-4.0268273590e-001
 9.0183203843e-001	 2.2779813376e+000	-5.8900024067e-001
 8.7919239814e-001	 2.2868145371e+000	-5.5147514198e-001
 8.5651409738e-001	 2.2954048883e+000	-5.1786267828e-001
 8.3380085757e-001	 2.3037526191e+000	-4.8784598202e-001
 8.1105637891e-001	 2.3118580299e+000	-4.6104351654e-001
 7.8828433879e-001	 2.3197214922e+000	-4.3701229152e-001
 7.6548839015e-001	 2.3273434479e+000	-4.1525116445e-001
 7.4267215989e-001	 2.3347244084e+000	-3.9520421711e-001
 7.1983924738e-001	 2.3418649530e+000	-3.7626419593e-001
 6.9699322293e-001	 2.3487657285e+000	-3.5777600506e-001
 6.7413762637e-001	 2.3554274476e+000	-3.3904024149e-001
 9.1103440617e-001	 2.3012260451e+000	-5.6957113435e-001
 8.8816374914e-001	 2.3101493793e+000	-5.2323718712e-001
 8.6525403716e-001	 2.3188273871e+000	-4.8180223919e-001
 8.4230902959e-001	 2.3272602989e+000	-4.4481640765e-001
 8.1933246442e-001	 2.3354484179e+000	-4.1176364210e-001
 7.9632805654e-001	 2.3433921197e+000	-3.8206516033e-001
 7.7329949618e-001	 2.3510918505e+000	-3.5508296997e-001
 7.5025044724e-001	 2.3585481268e+000	-3.3012346474e-001
 7.2718454583e-001	 2.3657615341e+000	-3.0644108343e-001
 7.0410539868e-001	 2.3727327257e+000	-2.8324202029e-001
 6.8101658174e-001	 2.3794624215e+000	-2.5968797545e-001
 9.2023677391e-001	 2.3244707527e+000	-5.5234832757e-001
 8.9713510015e-001	 2.3334842215e+000	-4.9507306819e-001
 8.7399397693e-001	 2.3422498860e+000	-4.4375361183e-001
 8.5081720161e-001	 2.3507679787e+000	-3.9780686701e-001
 8.2760854992e-001	 2.3590388060e+000	-3.5658197821e-001
 8.0437177429e-001	 2.3670627471e+000	-3.1936398484e-001
 7.8111060220e-001	 2.3748402530e+000	-2.8537756624e-001
 7.5782873460e-001	 2.3823718453e+000	-2.5379086079e-001
 7.3452984428e-001	 2.3896581153e+000	-2.2371934695e-001
 7.1121757443e-001	 2.3966997229e+000	-1.9422977433e-001
 6.8789553712e-001	 2.4034973955e+000	-1.6434413287e-001
 6.1910598340e-001	 2.1631476559e+000	-5.0561503272e-001
 5.9811058066e-001	 2.1690467338e+000	-4.5891021551e-001
 5.7711279978e-001	 2.1747277568e+000	-4.1617497251e-001
 5.5611580005e-001	 2.1801915551e+000	-3.7567237655e-001
 5.3512270782e-001	 2.1854390149e+000	-3.3583148054e-001
 5.1413661543e-001	 2.1904710774e+000	-2.9524413148e-001
 4.9316058010e-001	 2.1952887378e+000	-2.5266152795e-001
 4.7219762289e-001	 2.1998930440e+000	-2.0699053744e-001
 4.5125072774e-001	 2.2042850952e+000	-1.5728979042e-001
 4.3032284048e-001	 2.2084660407e+000	-1.0276556751e-001
 4.0941686796e-001	 2.2124370789e+000	-4.2767496763e-002
 6.2598493877e-001	 2.1871826299e+000	-4.6269244253e-001
 6.0475625377e-001	 2.1931472531e+000	-4.2089476470e-001
 5.8352516422e-001	 2.1988913986e+000	-3.9362271926e-001
 5.6229486449e-001	 2.2044159057e+000	-3.6471323379e-001
 5.4106851568e-001	 2.2097216706e+000	-3.3268898523e-001
 5.1984924449e-001	 2.2148096449e+000	-2.9624110360e-001
 4.9864014209e-001	 2.2196808349e+000	-2.5422547269e-001
 4.7744426314e-001	 2.2243363000e+000	-2.0565878564e-001
 4.5626462471e-001	 2.2287771518e+000	-1.4971437245e-001
 4.3510420537e-001	 2.2330045523e+000	-8.5717817053e-002
 4.1396594427e-001	 2.2370197131e+000	-1.3142381256e-002
 6.3286389413e-001	 2.2112176038e+000	-4.9086891356e-001
 6.1140192689e-001	 2.2172477723e+000	-3.7037357981e-001
 5.8993752866e-001	 2.2230550403e+000	-3.6048160256e-001
 5.6847392893e-001	 2.2286402563e+000	-3.4491981397e-001
 5.4701432354e-001	 2.2340043263e+000	-3.2230494909e-001
 5.2556187355e-001	 2.2391482124e+000	-2.9142806132e-001
 5.0411970409e-001	 2.2440729320e+000	-2.5125056091e-001
 4.8269090339e-001	 2.2487795561e+000	-2.0090000278e-001
 4.6127852168e-001	 2.2532692084e+000	-1.3966564172e-001
 4.3988557026e-001	 2.2575430638e+000	-6.6993773123e-002
 4.1851502058e-001	 2.2616023474e+000	 1.7517122726e-002
 6.3974284950e-001	 2.2352525778e+000	-5.0369246079e-001
 6.1804760000e-001	 2.2413482916e+000	-3.1118160177e-001
 5.9634989310e-001	 2.2472186821e+000	-3.2043885120e-001
 5.7465299337e-001	 2.2528646070e+000	-3.1982949922e-001
 5.5296013141e-001	 2.2582869820e+000	-3.0806485283e-001
 5.3127450260e-001	 2.2634867799e+000	-2.8403661049e-001
 5.0959926609e-001	 2.2684650291e+000	-2.4681263271e-001
 4.8793754364e-001	 2.2732228121e+000	-1.9563245635e-001
 4.6629241865e-001	 2.2777612650e+000	-1.2990257135e-001
 4.4466693515e-001	 2.2820815754e+000	-4.9191478908e-002
 4.2306409689e-001	 2.2861849816e+000	 4.6775450301e-002
 6.4662180487e-001	 2.2592875518e+000	-5.0127979184e-001
 6.2469327312e-001	 2.2654488109e+000	-2.4707859185e-001
 6.0276225754e-001	 2.2713823238e+000	-2.7711099201e-001
 5.8083205782e-001	 2.2770889576e+000	-2.9291343167e-001
 5.5890593927e-001	 2.2825696377e+000	-2.9329238153e-001
 5.3698713166e-001	 2.2878253475e+000	-2.7724098628e-001
 5.1507882809e-001	 2.2928571261e+000	-2.4393456149e-001
 4.9318418390e-001	 2.2976660682e+000	-1.9272582833e-001
 4.7130631563e-001	 2.3022533216e+000	-1.2313990579e-001
 4.4944830005e-001	 2.3066200870e+000	-3.4869079771e-002
 4.2761317319e-001	 2.3107676158e+000	 7.2232631147e-002
 6.5350076025e-001	 2.2833225257e+000	-4.8367213620e-001
 6.3133894624e-001	 2.2895493301e+000	-2.5950692806e-001
 6.0917462198e-001	 2.2955459656e+000	-2.3404757111e-001
 5.8701112226e-001	 2.3013133082e+000	-2.6757999979e-001
 5.6485174713e-001	 2.3068522935e+000	-2.8125267702e-001
 5.4269976072e-001	 2.3121639150e+000	-2.7416107274e-001
 5.2055839009e-001	 2.3172492232e+000	-2.4558904165e-001
 4.9843082415e-001	 2.3221093242e+000	-1.9500377236e-001
 4.7632021260e-001	 2.3267453782e+000	-1.2205048864e-001
 4.5422966494e-001	 2.3311585985e+000	-2.6546923134e-002
 4.3216224950e-001	 2.3353502500e+000	 9.1522416102e-002
 6.6037971562e-001	 2.3073574997e+000	-4.5083917638e-001
 6.3798461936e-001	 2.3136498494e+000	-2.6527546926e-001
 6.1558698643e-001	 2.3197096073e+000	-1.9473464240e-001
 5.9319018671e-001	 2.3255376588e+000	-2.4717810677e-001
 5.7079755500e-001	 2.3311349492e+000	-2.7515538700e-001
 5.4841238978e-001	 2.3365024825e+000	-2.7786523353e-001
 5.2603795209e-001	 2.3416413203e+000	-2.5470120211e-001
 5.0367746441e-001	 2.3465525803e+000	-2.0524631101e-001
 4.8133410958e-001	 2.3512374348e+000	-1.2926744502e-001
 4.5901102983e-001	 2.3556971101e+000	-2.6709527121e-002
 4.3671132581e-001	 2.3599328842e+000	 1.0231052086e-001
 6.6725867099e-001	 2.3313924736e+000	-4.0268273590e-001
 6.4463029248e-001	 2.3377503686e+000	-2.6023681549e-001
 6.2199935087e-001	 2.3438732491e+000	-1.6259804042e-001
 5.9936925116e-001	 2.3497620094e+000	-2.3500023681e-001
 5.7674336287e-001	 2.3554176049e+000	-2.7815752554e-001
 5.5412501884e-001	 2.3608410500e+000	-2.9137296766e-001
 5.3151751410e-001	 2.3660334174e+000	-2.7415105811e-001
 5.0892410466e-001	 2.3709958363e+000	-2.2619208482e-001
 4.8634800655e-001	 2.3757294915e+000	-1.4738622886e-001
 4.6379239473e-001	 2.3802356217e+000	-3.7807427427e-002
 4.4126040212e-001	 2.3845155184e+000	 1.0229297830e-001
 6.7413762637e-001	 2.3554274476e+000	-3.3904024149e-001
 6.5127596560e-001	 2.3618508879e+000	-2.4419111850e-001
 6.2841171532e-001	 2.3680368908e+000	-1.6703179223e-001
 6.0554831560e-001	 2.3739863600e+000	-2.3428533362e-001
 5.8268917073e-001	 2.3797002606e+000	-2.9336615852e-001
 5.5983764791e-001	 2.3851796176e+000	-3.1765740255e-001
 5.3699707610e-001	 2.3904255145e+000	-3.0677581293e-001
 5.1417074492e-001	 2.3954390923e+000	-2.6054046363e-001
 4.9136190353e-001	 2.4002215481e+000	-1.7896654495e-001
 4.6857375962e-001	 2.4047741332e+000	-6.2258911116e-002
 4.4580947843e-001	 2.4090981526e+000	 8.9194591666e-002
 6.8101658174e-001	 2.3794624215e+000	-2.5968797545e-001
 6.5792163873e-001	 2.3859514072e+000	-2.1688083281e-001
 6.3482407976e-001	 2.3922005325e+000	-1.9197011089e-001
 6.1172738005e-001	 2.3982107106e+000	-2.4822150450e-001
 5.8863497860e-001	 2.4039829163e+000	-3.2384092625e-001
 5.6555027697e-001	 2.4095181851e+000	-3.5964763605e-001
 5.4247663810e-001	 2.4148176116e+000	-3.5537202015e-001
 5.1941738517e-001	 2.4198823484e+000	-3.1095352995e-001
 4.9637580050e-001	 2.4247136047e+000	-2.2653415443e-001
 4.7335512452e-001	 2.4293126448e+000	-1.0245164534e-001
 4.5035855474e-001	 2.4336807868e+000	 6.0767481562e-002
 6.8789553712e-001	 2.4034973955e+000	-1.6434413287e-001
 6.6456731185e-001	 2.4100519264e+000	-1.7799360057e-001
 6.4123644421e-001	 2.4163641743e+000	-2.0978218015e-001
 6.1790644450e-001	 2.4224350612e+000	-2.7994856212e-001
 5.9458078647e-001	 2.4282655721e+000	-3.7259641472e-001
 5.7126290603e-001	 2.4338567526e+000	-4.2023093792e-001
 5.4795620010e-001	 2.4392097087e+000	-4.2269761608e-001
 5.2466402543e-001	 2.4443256044e+000	-3.8005794332e-001
 5.0138969748e-001	 2.4492056613e+000	-2.9258257198e-001
 4.7813648941e-001	 2.4538511564e+000	-1.6074420835e-001
 4.5490763105e-001	 2.4582634210e+000	 1.4789720045e-002
 4.0941686796e-001	 2.2124370789e+000	-4.2767496763e-002
 3.8853567716e-001	 2.2161994557e+000	-4.8335234724e-002
 3.6768209441e-001	 2.2197544633e+000	-4.8445960427e-002
 3.4685890457e-001	 2.2231034390e+000	-4.3102343128e-002
 3.2606885033e-001	 2.2262477636e+000	-3.2425826629e-002
 3.0531463152e-001	 2.2291888605e+000	-1.6651502910e-002
 2.8459890447e-001	 2.2319281941e+000	 3.8770964756e-003
 2.6392428140e-001	 2.2344672684e+000	 2.8713275834e-002
 2.4329332986e-001	 2.2368076260e+000	 5.7312502578e-002
 2.2270857224e-001	 2.2389508462e+000	 8.9037771656e-002
 2.0217248527e-001	 2.2408985444e+000	 1.2316499297e-001
 4.1396594427e-001	 2.2370197131e+000	-1.3142381256e-002
 3.9285274024e-001	 2.2408238941e+000	-1.6862769657e-002
 3.7176745101e-001	 2.2444184018e+000	-1.4007683652e-002
 3.5071289240e-001	 2.2478045883e+000	-4.7670874313e-003
 3.2969183756e-001	 2.2509838498e+000	 1.0549570355e-002
 3.0870701632e-001	 2.2539576256e+000	 3.1518760539e-002
 2.8776111452e-001	 2.2567273962e+000	 5.7608355887e-002
 2.6685677342e-001	 2.2592946825e+000	 8.8183176166e-002
 2.4599658909e-001	 2.2616610440e+000	 1.2251058033e-001
 2.2518311194e-001	 2.2638280779e+000	 1.5976609074e-001
 2.0441884622e-001	 2.2657974171e+000	 1.9903903484e-001
 4.1851502058e-001	 2.2616023474e+000	 1.7517122726e-002
 3.9716980332e-001	 2.2654483325e+000	 1.2364726337e-002
 3.7585280762e-001	 2.2690823403e+000	 1.5103891710e-002
 3.5456688023e-001	 2.2725057376e+000	 2.5355994986e-002
 3.3331482478e-001	 2.2757199361e+000	 4.2622031219e-002
 3.1209940111e-001	 2.2787263907e+000	 6.6288302859e-002
 2.9092332457e-001	 2.2815265984e+000	 9.5632183099e-002
 2.6978926543e-001	 2.2841220966e+000	 1.2982793771e-001
 2.4869984831e-001	 2.2865144621e+000	 1.6795258936e-001
 2.2765765163e-001	 2.2887053095e+000	 2.0899180891e-001
 2.0666520717e-001	 2.2906962898e+000	 2.5184581851e-001
 4.2306409689e-001	 2.2861849816e+000	 4.6775450301e-002
 4.0148686640e-001	 2.2900727709e+000	 3.7165653244e-002
 3.7993816422e-001	 2.2937462788e+000	 3.6961012322e-002
 3.5842086805e-001	 2.2972068869e+000	 4.5592766963e-002
 3.3693781201e-001	 2.3004560224e+000	 6.2370692841e-002
 3.1549178591e-001	 2.3034951558e+000	 8.6489081945e-002
 2.9408553462e-001	 2.3063258005e+000	 1.1703279399e-001
 2.7272175745e-001	 2.3089495107e+000	 1.5298336225e-001
 2.5140310753e-001	 2.3113678802e+000	 1.9322513732e-001
 2.3013219132e-001	 2.3135825411e+000	 2.3655145274e-001
 2.0891156812e-001	 2.3155951625e+000	 2.8167079706e-001
 4.2761317319e-001	 2.3107676158e+000	 7.2232631147e-002
 4.0580392948e-001	 2.3146972093e+000	 5.5385900554e-002
 3.8402352083e-001	 2.3184102172e+000	 4.9655403301e-002
 3.6227485588e-001	 2.3219080362e+000	 5.4280655192e-002
 3.4056079923e-001	 2.3251921086e+000	 6.8378440140e-002
 3.1888417070e-001	 2.3282639210e+000	 9.0949088983e-002
 2.9724774467e-001	 2.3311250027e+000	 1.2088282621e-001
 2.7565424947e-001	 2.3337769248e+000	 1.5696616714e-001
 2.5410636675e-001	 2.3362212982e+000	 1.9788834847e-001
 2.3260673101e-001	 2.3384597727e+000	 2.4224777577e-001
 2.1115792906e-001	 2.3404940352e+000	 2.8855847182e-001
 4.3216224950e-001	 2.3353502500e+000	 9.1522416102e-002
 4.1012099256e-001	 2.3393216477e+000	 6.4897400446e-002
 3.8810887743e-001	 2.3430741557e+000	 5.1297243033e-002
 3.6612884371e-001	 2.3466091856e+000	 4.9768041587e-002
 3.4418378646e-001	 2.3499281949e+000	 5.9231708811e-002
 3.2227655550e-001	 2.3530326861e+000	 7.8492557225e-002
 3.0040995472e-001	 2.3559242049e+000	 1.0624394857e-001
 2.7858674148e-001	 2.3586043389e+000	 1.4107498974e-001
 2.5680962597e-001	 2.3610747163e+000	 1.8147725764e-001
 2.3508127071e-001	 2.3633370043e+000	 2.2585153604e-001
 2.1340429001e-001	 2.3653929079e+000	 2.7251454778e-001
 4.3671132581e-001	 2.3599328842e+000	 1.0231052086e-001
 4.1443805563e-001	 2.3639460861e+000	 6.3596771394e-002
 3.9219423403e-001	 2.3677380942e+000	 4.0014202068e-002
 3.6998283154e-001	 2.3713103349e+000	 3.0413692704e-002
 3.4780677368e-001	 2.3746642811e+000	 3.3520300391e-002
 3.2566894029e-001	 2.3778014512e+000	 4.7940157717e-002
 3.0357216477e-001	 2.3807234070e+000	 7.2167432311e-002
 2.8151923350e-001	 2.3834317530e+000	 1.0459132906e-001
 2.5951288519e-001	 2.3859281344e+000	 1.4350311688e-001
 2.3755581040e-001	 2.3882142360e+000	 1.8710316250e-001
 2.1565065096e-001	 2.3902917807e+000	 2.3350795422e-001
 4.4126040212e-001	 2.3845155184e+000	 1.0229297830e-001
 4.1875511871e-001	 2.3885705245e+000	 4.9404045681e-002
 3.9627959064e-001	 2.3924020327e+000	 1.3950541463e-002
 3.7383681936e-001	 2.3960114842e+000	-5.4137755493e-003
 3.5142976091e-001	 2.3994003674e+000	-1.0162791241e-002
 3.2906132508e-001	 2.4025702163e+000	-1.8908170853e-003
 3.0673437482e-001	 2.4055226092e+000	 1.7694687089e-002
 2.8445172551e-001	 2.4082591671e+000	 4.6780429238e-002
 2.6221614441e-001	 2.4107815524e+000	 8.3454621450e-002
 2.4003035009e-001	 2.4130914676e+000	 1.2571431839e-001
 2.1789701191e-001	 2.4151906534e+000	 1.7147274033e-001
 4.4580947843e-001	 2.4090981526e+000	 8.9194591666e-002
 4.2307218179e-001	 2.4131949629e+000	 2.0261474814e-002
 4.0036494724e-001	 2.4170659712e+000	-2.8733733676e-002
 3.7769080719e-001	 2.4207126335e+000	-5.9336400435e-002
 3.5505274813e-001	 2.4241364537e+000	-7.3221542735e-002
 3.3245370987e-001	 2.4273389814e+000	-7.2186280936e-002
 3.0989658487e-001	 2.4303218113e+000	-5.8142235896e-002
 2.8738421752e-001	 2.4330865812e+000	-3.3107891184e-002
 2.6491940363e-001	 2.4356349705e+000	 7.9906061875e-004
 2.4250488978e-001	 2.4379686992e+000	 4.1369368844e-002
 2.2014337286e-001	 2.4400895261e+000	 8.6309854850e-002
 4.5035855474e-001	 2.4336807868e+000	 6.0767481562e-002
 4.2738924487e-001	 2.4378194013e+000	-2.5867592654e-002
 4.0445030384e-001	 2.4417299097e+000	-8.9863669344e-002
 3.8154479501e-001	 2.4454137828e+000	-1.3296734445e-001
 3.5867573535e-001	 2.4488725399e+000	-1.5705705428e-001
 3.3584609467e-001	 2.4521077465e+000	-1.6413519187e-001
 3.1305879491e-001	 2.4551210135e+000	-1.5632017125e-001
 2.9031670954e-001	 2.4579139953e+000	-1.3583846016e-001
 2.6762266285e-001	 2.4604883886e+000	-1.0501660118e-001
 2.4497942947e-001	 2.4628459308e+000	-6.6273240377e-002
 2.2238973381e-001	 2.4649883988e+000	-2.2111182201e-002
 4.5490763105e-001	 2.4582634210e+000	 1.4789720045e-002
 4.3170630795e-001	 2.4624438397e+000	-9.0999765982e-002
 4.0853566044e-001	 2.4663938481e+000	-1.7125011008e-001
 3.8539878284e-001	 2.4701149322e+000	-2.2791133904e-001
 3.6229872257e-001	 2.4736086262e+000	-2.6306769342e-001
 3.3923847946e-001	 2.4768765117e+000	-2.7892940000e-001
 3.1622100496e-001	 2.4799202156e+000	-2.7782439509e-001
 2.9324920155e-001	 2.4827414094e+000	-2.6219001984e-001
 2.7032592207e-001	 2.4853418066e+000	-2.3456470815e-001
 2.4745396916e-001	 2.4877231625e+000	-1.9757968694e-001
 2.2463609475e-001	 2.4898872715e+000	-1.5395070810e-001
 2.0217248527e-001	 2.2408985444e+000	 1.2316499297e-001
 1.8168749959e-001	 2.2426523700e+000	 1.0445562693e-001
 1.6125599940e-001	 2.2442140055e+000	 9.0138395948e-002
 1.4088032204e-001	 2.2455851654e+000	 7.9131694159e-002
 1.2056275773e-001	 2.2467675940e+000	 7.0287698181e-002
 1.0030554932e-001	 2.2477630651e+000	 6.2397813825e-002
 8.0110891976e-002	 2.2485733799e+000	 5.4198067889e-002
 5.9980933064e-002	 2.2492003663e+000	 4.4374434332e-002
 3.9917771955e-002	 2.2496458769e+000	 3.1568084710e-002
 1.9923459911e-002	 2.2499117884e+000	 1.4380553344e-002
 0.0000000000e+000	 2.2500000000e+000	-8.6211917302e-003
 2.0441884622e-001	 2.2657974171e+000	 1.9903903484e-001
 1.8370624959e-001	 2.2675707296e+000	 1.8183986542e-001
 1.6304773272e-001	 2.2691497167e+000	 1.6858258583e-001
 1.4244565895e-001	 2.2705361116e+000	 1.5804863364e-001
 1.2190234393e-001	 2.2717316784e+000	 1.4895386278e-001
 1.0142005542e-001	 2.2727382103e+000	 1.3995419736e-001
 8.1001012998e-002	 2.2735575286e+000	 1.2965122469e-001
 6.0647387876e-002	 2.2741914815e+000	 1.1659771673e-001
 4.0361302754e-002	 2.2746419422e+000	 9.9303069358e-002
 2.0144831687e-002	 2.2749108083e+000	 7.6238649844e-002
 0.0000000000e+000	 2.2750000000e+000	 4.5843043378e-002
 2.0666520717e-001	 2.2906962898e+000	 2.5184581851e-001
 1.8572499959e-001	 2.2924890893e+000	 2.3693552890e-001
 1.6483946605e-001	 2.2940854279e+000	 2.2568003176e-001
 1.4401099586e-001	 2.2954870579e+000	 2.1672019601e-001
 1.2324193013e-001	 2.2966957628e+000	 2.0863184468e-001
 1.0253456153e-001	 2.2977133554e+000	 1.9993162321e-001
 8.1891134020e-002	 2.2985416773e+000	 1.8908280109e-001
 6.1313842688e-002	 2.2991825966e+000	 1.7450099567e-001
 4.0804833554e-002	 2.2996380075e+000	 1.5455980743e-001
 2.0366203464e-002	 2.2999098282e+000	 1.2759635682e-001
 0.0000000000e+000	 2.3000000000e+000	 9.1916713186e-002
 2.0891156812e-001	 2.3155951625e+000	 2.8167079706e-001
 1.8774374958e-001	 2.3174074490e+000	 2.7000608973e-001
 1.6663119938e-001	 2.3190211390e+000	 2.6187145420e-001
 1.4557633277e-001	 2.3204380042e+000	 2.5576349992e-001
 1.2458151633e-001	 2.3216598471e+000	 2.5011423313e-001
 1.0364906763e-001	 2.3226885006e+000	 2.4329714699e-001
 8.2781255043e-002	 2.3235258259e+000	 2.3363323920e-001
 6.1980297500e-002	 2.3241737118e+000	 2.1939694554e-001
 4.1248364354e-002	 2.3246340728e+000	 1.9882197827e-001
 2.0587575241e-002	 2.3249088481e+000	 1.7010705938e-001
 0.0000000000e+000	 2.3250000000e+000	 1.3142153892e-001
 2.1115792906e-001	 2.3404940352e+000	 2.8855847182e-001
 1.8976249958e-001	 2.3423258086e+000	 2.8126997326e-001
 1.6842293271e-001	 2.3439568502e+000	 2.7754852747e-001
 1.4714166968e-001	 2.3453889505e+000	 2.7574271556e-001
 1.2592110253e-001	 2.3466239315e+000	 2.7413686382e-001
 1.0476357374e-001	 2.3476636458e+000	 2.7095736331e-001
 8.3671376066e-002	 2.3485099746e+000	 2.6437891088e-001
 6.2646752313e-002	 2.3491648270e+000	 2.5253065971e-001
 4.1691895154e-002	 2.3496301381e+000	 2.3350226816e-001
 2.0808947019e-002	 2.3499078679e+000	 2.0534983652e-001
 0.0000000000e+000	 2.3500000000e+000	 1.6610172175e-001
 2.1340429001e-001	 2.3653929079e+000	 2.7251454778e-001
 1.9178124958e-001	 2.3672441683e+000	 2.7090292877e-001
 1.7021466604e-001	 2.3688925614e+000	 2.7305646120e-001
 1.4870700660e-001	 2.3703398968e+000	 2.7717185138e-001
 1.2726068872e-001	 2.3715880159e+000	 2.8138180585e-001
 1.0587807984e-001	 2.3726387909e+000	 2.8376158798e-001
 8.4561497090e-002	 2.3734941233e+000	 2.8233548988e-001
 6.3313207127e-002	 2.3741559422e+000	 2.7508320741e-001
 4.2135425955e-002	 2.3746262034e+000	 2.5994610678e-001
 2.1030318796e-002	 2.3749068878e+000	 2.3483337194e-001
 0.0000000000e+000	 2.3750000000e+000	 1.9762802281e-001
 2.1565065096e-001	 2.3902917807e+000	 2.3350795422e-001
 1.9379999957e-001	 2.3921625279e+000	 2.3904025213e-001
 1.7200639936e-001	 2.3938282726e+000	 2.4869642030e-001
 1.5027234351e-001	 2.3952908430e+000	 2.6051736672e-001
 1.2860027492e-001	 2.3965521003e+000	 2.7248016213e-001
 1.0699258595e-001	 2.3976139361e+000	 2.8250484125e-001
 8.5451618114e-002	 2.3984782719e+000	 2.8846111318e-001
 6.3979661940e-002	 2.3991470574e+000	 2.8817496835e-001
 4.2578956756e-002	 2.3996222687e+000	 2.7943517019e-001
 2.1251690574e-002	 2.3999059077e+000	 2.5999962049e-001
 0.0000000000e+000	 2.4000000000e+000	 2.2760158819e-001
 2.1789701191e-001	 2.4151906534e+000	 1.7147274033e-001
 1.9581874957e-001	 2.4170808876e+000	 1.8577887109e-001
 1.7379813269e-001	 2.4187639837e+000	 2.0472779535e-001
 1.5183768043e-001	 2.4202417893e+000	 2.2620062279e-001
 1.2993986112e-001	 2.4215161846e+000	 2.4801469647e-001
 1.0810709205e-001	 2.4225890813e+000	 2.6793064657e-001
 8.6341739139e-002	 2.4234624206e+000	 2.8365934683e-001
 6.4646116755e-002	 2.4241381725e+000	 2.9286876101e-001
 4.3022487557e-002	 2.4246183340e+000	 2.9319066706e-001
 2.1473062351e-002	 2.4249049275e+000	 2.8222724777e-001
 0.0000000000e+000	 2.4250000000e+000	 2.5755753731e-001
 2.2014337286e-001	 2.4400895261e+000	 8.6309854850e-002
 1.9783749957e-001	 2.4419992473e+000	 1.1117930280e-001
 1.7558986602e-001	 2.4436996949e+000	 1.4137033395e-001
 1.5340301734e-001	 2.4451927356e+000	 1.7460018357e-001
 1.3127944732e-001	 2.4464802690e+000	 2.0852229988e-001
 1.0922159816e-001	 2.4475642264e+000	 2.4073365798e-001
 8.7231860164e-002	 2.4484465693e+000	 2.6878197017e-001
 6.5312571569e-002	 2.4491292877e+000	 2.9017277946e-001
 4.3466018359e-002	 2.4496143993e+000	 3.0237642376e-001
 2.1694434129e-002	 2.4499039474e+000	 3.0283485921e-001
 0.0000000000e+000	 2.4500000000e+000	 2.8896833171e-001
 2.2238973381e-001	 2.4649883988e+000	-2.2111182201e-002
 1.9985624957e-001	 2.4669176069e+000	 1.5267492719e-002
 1.7738159935e-001	 2.4686354061e+000	 5.8806142831e-002
 1.5496835426e-001	 2.4701436819e+000	 1.0605397730e-001
 1.3261903353e-001	 2.4714443534e+000	 1.5449630735e-001
 1.1033610427e-001	 2.4725393716e+000	 2.0156212825e-001
 8.8121981189e-002	 2.4734307179e+000	 2.4463159132e-001
 6.5979026384e-002	 2.4741204029e+000	 2.8104335215e-001
 4.3909549161e-002	 2.4746104646e+000	 3.0810178245e-001
 2.1915805907e-002	 2.4749029673e+000	 3.2308403340e-001
 0.0000000000e+000	 2.4750000000e+000	 3.2324693949e-001
 2.2463609475e-001	 2.4898872715e+000	-1.5395070810e-001
 2.0187499956e-001	 2.4918359666e+000	-1.0196345677e-001
 1.7917333268e-001	 2.4935711173e+000	-4.2818430030e-002
 1.5653369117e-001	 2.4950946282e+000	 2.0861328300e-002
 1.3395861973e-001	 2.4964084378e+000	 8.6388675679e-002
 1.1145061038e-001	 2.4975145168e+000	 1.5102022894e-001
 8.9012102215e-002	 2.4984148666e+000	 2.1196410571e-001
 6.6645481200e-002	 2.4991115181e+000	 2.6638753522e-001
 4.4353079963e-002	 2.4996065299e+000	 3.1142432531e-001
 2.2137177686e-002	 2.4999019872e+000	 3.4418217342e-001
 0.0000000000e+000	 2.5000000000e+000	 3.6174981005e-001
 2.5000000000e+000	 0.0000000000e+000	 1.9370992792e+000
 2.4999019872e+000	 2.2137177686e-002	 1.9671737185e+000
 2.4996065299e+000	 4.4353079963e-002	 1.9955568708e+000
 2.4991115181e+000	 6.6645481200e-002	 2.0209072829e+000
 2.4984148666e+000	 8.9012102215e-002	 2.0420012074e+000
 2.4975145168e+000	 1.1145061038e-001	 2.0577381028e+000
 2.4964084378e+000	 1.3395861973e-001	 2.0671460299e+000
 2.4950946282e+000	 1.5653369117e-001	 2.0693869281e+000
 2.4935711173e+000	 1.7917333268e-001	 2.0637617551e+000
 2.4918359666e+000	 2.0187499956e-001	 2.0497154738e+000
 2.4898872715e+000	 2.2463609475e-001	 2.0268418687e+000
 2.5250000000e+000	 0.0000000000e+000	 1.8752926585e+000
 2.5249010070e+000	 2.2358549464e-002	 1.9061938649e+000
 2.5246025952e+000	 4.4796610765e-002	 1.9231365519e+000
 2.5241026333e+000	 6.7311936015e-002	 1.9276710749e+000
 2.5233990153e+000	 8.9902223242e-002	 1.9212960760e+000
 2.5224896619e+000	 1.1256511648e-001	 1.9054526558e+000
 2.5213725222e+000	 1.3529820593e-001	 1.8815184577e+000
 2.5200455744e+000	 1.5809902809e-001	 1.8508016766e+000
 2.5185068284e+000	 1.8096506601e-001	 1.8145350018e+000
 2.5167543263e+000	 2.0389374956e-001	 1.7738695078e+000
 2.5147861442e+000	 2.2688245570e-001	 1.7298685033e+000
 2.5500000000e+000	 0.0000000000e+000	 1.8132746298e+000
 2.5499000269e+000	 2.2579921242e-002	 1.8508944670e+000
 2.5495986605e+000	 4.5240141567e-002	 1.8744400807e+000
 2.5490937484e+000	 6.7978390830e-002	 1.8855926905e+000
 2.5483831639e+000	 9.0792344267e-002	 1.8859819102e+000
 2.5474648071e+000	 1.1367962259e-001	 1.8771797057e+000
 2.5463366065e+000	 1.3663779213e-001	 1.8606942602e+000
 2.5449965207e+000	 1.5966436500e-001	 1.8379637577e+000
 2.5434425396e+000	 1.8275679934e-001	 1.8103500973e+000
 2.5416726859e+000	 2.0591249956e-001	 1.7791325486e+000
 2.5396850170e+000	 2.2912881665e-001	 1.7455013633e+000
 2.5750000000e+000	 0.0000000000e+000	 1.7519796174e+000
 2.5748990468e+000	 2.2801293020e-002	 1.7950714921e+000
 2.5745947258e+000	 4.5683672368e-002	 1.8240241914e+000
 2.5740848636e+000	 6.8644845644e-002	 1.8406523014e+000
 2.5733673126e+000	 9.1682465292e-002	 1.8467188802e+000
 2.5724399523e+000	 1.1479412870e-001	 1.8439291972e+000
 2.5713006909e+000	 1.3797737833e-001	 1.8339243747e+000
 2.5699474670e+000	 1.6122970192e-001	 1.8182749416e+000
 2.5683782508e+000	 1.8454853267e-001	 1.7984743132e+000
 2.5665910456e+000	 2.0793124956e-001	 1.7759322077e+000
 2.5645838897e+000	 2.3137517760e-001	 1.7519680142e+000
 2.6000000000e+000	 0.0000000000e+000	 1.6923061066e+000
 2.5998980666e+000	 2.3022664798e-002	 1.7394992731e+000
 2.5995907911e+000	 4.6127203170e-002	 1.7725395088e+000
 2.5990759788e+000	 6.9311300459e-002	 1.7933773347e+000
 2.5983514613e+000	 9.2572586317e-002	 1.8039117922e+000
 2.5974150974e+000	 1.1590863480e-001	 1.8059839598e+000
 2.5962647753e+000	 1.3931696453e-001	 1.8013703650e+000
 2.5948984133e+000	 1.6279503883e-001	 1.7917763048e+000
 2.5933139620e+000	 1.8634026600e-001	 1.7788290849e+000
 2.5915094053e+000	 2.0994999955e-001	 1.7640711933e+000
 2.5894827624e+000	 2.3362153855e-001	 1.7489534185e+000
 2.6250000000e+000	 0.0000000000e+000	 1.6351183545e+000
 2.6248970865e+000	 2.3244036575e-002	 1.6849202097e+000
 2.6245868564e+000	 4.6570733970e-002	 1.7206070316e+000
 2.6240670940e+000	 6.9977755272e-002	 1.7442679099e+000
 2.6233356099e+000	 9.3462707341e-002	 1.7579404745e+000
 2.6223902426e+000	 1.1702314091e-001	 1.7636041841e+000
 2.6212288597e+000	 1.4065655073e-001	 1.7631735048e+000
 2.6198493596e+000	 1.6436037574e-001	 1.7584909907e+000
 2.6182496731e+000	 1.8813199933e-001	 1.7513202796e+000
 2.6164277650e+000	 2.1196874955e-001	 1.7433390164e+000
 2.6143816351e+000	 2.3586789950e-001	 1.7361317187e+000
 2.6500000000e+000	 0.0000000000e+000	 1.5812480049e+000
 2.6498961064e+000	 2.3465408353e-002	 1.6320462747e+000
 2.6495829217e+000	 4.7014264771e-002	 1.6688195299e+000
 2.6490582092e+000	 7.0644210086e-002	 1.6937981272e+000
 2.6483197586e+000	 9.4352828365e-002	 1.7091609554e+000
 2.6473653878e+000	 1.1813764702e-001	 1.7170284902e+000
 2.6461929440e+000	 1.4199613693e-001	 1.7194557347e+000
 2.6448003059e+000	 1.6592571266e-001	 1.7184250557e+000
 2.6431853843e+000	 1.8992373266e-001	 1.7158389299e+000
 2.6413461246e+000	 2.1398749955e-001	 1.7135126134e+000
 2.6392805078e+000	 2.3811426044e-001	 1.7131667477e+000
 2.6750000000e+000	 0.0000000000e+000	 1.5314956119e+000
 2.6748951263e+000	 2.3686780130e-002	 1.5815604359e+000
 2.6745789870e+000	 4.7457795571e-002	 1.6177428640e+000
 2.6740493244e+000	 7.1310664899e-002	 1.6424172833e+000
 2.6733039073e+000	 9.5242949388e-002	 1.6579065756e+000
 2.6723405329e+000	 1.1925215312e-001	 1.6664749351e+000
 2.6711570284e+000	 1.4333572313e-001	 1.6703205656e+000
 2.6697512521e+000	 1.6749104957e-001	 1.6715682671e+000
 2.6681210955e+000	 1.9171546598e-001	 1.6722619278e+000
 2.6662644843e+000	 2.1600624954e-001	 1.6743569336e+000
 2.6641793805e+000	 2.4036062139e-001	 1.6797125106e+000
 2.7000000000e+000	 0.0000000000e+000	 1.4866320795e+000
 2.6998941461e+000	 2.3908151907e-002	 1.5341179985e+000
 2.6995750523e+000	 4.7901326371e-002	 1.5679172308e+000
 2.6990404395e+000	 7.1977119711e-002	 1.5905510196e+000
 2.6982880559e+000	 9.6133070411e-002	 1.6044890381e+000
 2.6973156781e+000	 1.2036665923e-001	 1.6121419649e+000
 2.6961211128e+000	 1.4467530933e-001	 1.6158539321e+000
 2.6947021984e+000	 1.6905638648e-001	 1.6178948579e+000
 2.6930568066e+000	 1.9350719931e-001	 1.6204526788e+000
 2.6911828440e+000	 2.1802499954e-001	 1.6256254942e+000
 2.6890782533e+000	 2.4260698234e-001	 1.6354136395e+000
 2.7250000000e+000	 0.0000000000e+000	 1.4474000218e+000
 2.7248931660e+000	 2.4129523684e-002	 1.4903478747e+000
 2.7245711176e+000	 4.8344857171e-002	 1.5198583404e+000
 2.7240315547e+000	 7.2643574523e-002	 1.5386024072e+000
 2.7232722046e+000	 9.7023191433e-002	 1.5491994012e+000
 2.7222908233e+000	 1.2148116533e-001	 1.5542093144e+000
 2.7210851972e+000	 1.4601489552e-001	 1.5561249985e+000
 2.7196531447e+000	 1.7062172340e-001	 1.5573642389e+000
 2.7179925178e+000	 1.9529893264e-001	 1.5602617209e+000
 2.7161012036e+000	 2.2004374954e-001	 1.5670609048e+000
 2.7139771260e+000	 2.4485334329e-001	 1.5799058237e+000
 2.7500000000e+000	 0.0000000000e+000	 1.4145150486e+000
 2.7498921859e+000	 2.4350895461e-002	 1.4508537828e+000
 2.7495671829e+000	 4.8788387970e-002	 1.4740585295e+000
 2.7490226699e+000	 7.3310029335e-002	 1.4869529731e+000
 2.7482563533e+000	 9.7913312455e-002	 1.4923090169e+000
 2.7472659684e+000	 1.2259567143e-001	 1.4928388577e+000
 2.7460492816e+000	 1.4735448172e-001	 1.4911869216e+000
 2.7446040910e+000	 1.7218706031e-001	 1.4899216728e+000
 2.7429282290e+000	 1.9709066597e-001	 1.4915273094e+000
 2.7410195633e+000	 2.2206249953e-001	 1.4983953629e+000
 2.7388759987e+000	 2.4709970424e-001	 1.5128162163e+000
 2.4898872715e+000	 2.2463609475e-001	 2.0268418687e+000
 2.4877231625e+000	 2.4745396916e-001	 2.0091380188e+000
 2.4853418066e+000	 2.7032592207e-001	 1.9829740227e+000
 2.4827414094e+000	 2.9324920155e-001	 1.9482959574e+000
 2.4799202156e+000	 3.1622100496e-001	 1.9052125281e+000
 2.4768765117e+000	 3.3923847946e-001	 1.8539988173e+000
 2.4736086262e+000	 3.6229872257e-001	 1.7950997646e+000
 2.4701149322e+000	 3.8539878284e-001	 1.7291333623e+000
 2.4663938481e+000	 4.0853566044e-001	 1.6568935499e+000
 2.4624438397e+000	 4.3170630795e-001	 1.5793527912e+000
 2.4582634210e+000	 4.5490763105e-001	 1.4976643172e+000
 2.5147861442e+000	 2.2688245570e-001	 1.7298685033e+000
 2.5126003941e+000	 2.4992850885e-001	 1.6919231208e+000
 2.5101952247e+000	 2.7302918129e-001	 1.6514218726e+000
 2.5075688234e+000	 2.9618169356e-001	 1.6089859403e+000
 2.5047194178e+000	 3.1938321501e-001	 1.5651217074e+000
 2.5016452768e+000	 3.4263086425e-001	 1.5202146952e+000
 2.4983447125e+000	 3.6592170980e-001	 1.4973853011e+000
 2.4948160815e+000	 3.8925277066e-001	 1.4882362971e+000
 2.4910577866e+000	 4.1262101704e-001	 1.4668732741e+000
 2.4870682781e+000	 4.3602337102e-001	 1.4343404677e+000
 2.4828460553e+000	 4.5945670736e-001	 1.3918732011e+000
 2.5396850170e+000	 2.2912881665e-001	 1.7455013633e+000
 2.5374776257e+000	 2.5240304855e-001	 1.7129966707e+000
 2.5350486428e+000	 2.7573244051e-001	 1.6773672376e+000
 2.5323962375e+000	 2.9911418558e-001	 1.6393357359e+000
 2.5295186200e+000	 3.2254542506e-001	 1.5995089073e+000
 2.5264140419e+000	 3.4602324904e-001	 1.5583712882e+000
 2.5230807987e+000	 3.6954469702e-001	 1.5162789834e+000
 2.5195172308e+000	 3.9310675849e-001	 1.4734535047e+000
 2.5157217251e+000	 4.1670637365e-001	 1.4299756924e+000
 2.5116927165e+000	 4.4034043410e-001	 1.3857797363e+000
 2.5074286895e+000	 4.6400578367e-001	 1.3406473143e+000
 2.5645838897e+000	 2.3137517760e-001	 1.7519680142e+000
 2.5623548573e+000	 2.5487758824e-001	 1.7241289376e+000
 2.5599020608e+000	 2.7843569973e-001	 1.6927030048e+000
 2.5572236516e+000	 3.0204667759e-001	 1.6585167347e+000
 2.5543178221e+000	 3.2570763510e-001	 1.6222794920e+000
 2.5511828070e+000	 3.4941563383e-001	 1.5845769951e+000
 2.5478168850e+000	 3.7316768424e-001	 1.5458648723e+000
 2.5442183801e+000	 3.9696074632e-001	 1.5064622800e+000
 2.5403856636e+000	 4.2079173025e-001	 1.4665456038e+000
 2.5363171549e+000	 4.4465749718e-001	 1.4261422578e+000
 2.5320113237e+000	 4.6855485998e-001	 1.3851246017e+000
 2.5894827624e+000	 2.3362153855e-001	 1.7489534185e+000
 2.5872320890e+000	 2.5735212793e-001	 1.7248923426e+000
 2.5847554789e+000	 2.8113895895e-001	 1.6968892218e+000
 2.5820510657e+000	 3.0497916961e-001	 1.6658768355e+000
 2.5791170243e+000	 3.2886984515e-001	 1.6326694922e+000
 2.5759515721e+000	 3.5280801863e-001	 1.5979563167e+000
 2.5725529713e+000	 3.7679067147e-001	 1.5622945808e+000
 2.5689195295e+000	 4.0081473414e-001	 1.5261030975e+000
 2.5650496021e+000	 4.2487708685e-001	 1.4896556945e+000
 2.5609415933e+000	 4.4897456026e-001	 1.4530747871e+000
 2.5565939579e+000	 4.7310393629e-001	 1.4163250679e+000
 2.6143816351e+000	 2.3586789950e-001	 1.7361317187e+000
 2.6121093206e+000	 2.5982666762e-001	 1.7148507107e+000
 2.6096088970e+000	 2.8384221817e-001	 1.6893796044e+000
 2.6068784798e+000	 3.0791166162e-001	 1.6607599087e+000
 2.6039162264e+000	 3.3203205520e-001	 1.6299132539e+000
 2.6007203373e+000	 3.5620040342e-001	 1.5976344505e+000
 2.5972890575e+000	 3.8041365869e-001	 1.5645845911e+000
 2.5936206788e+000	 4.0466872197e-001	 1.5312842123e+000
 2.5897135406e+000	 4.2896244345e-001	 1.4981065370e+000
 2.5855660317e+000	 4.5329162333e-001	 1.4652708139e+000
 2.5811765921e+000	 4.7765301260e-001	 1.4328357752e+000
 2.6392805078e+000	 2.3811426044e-001	 1.7131667477e+000
 2.6369865522e+000	 2.6230120731e-001	 1.6935596766e+000
 2.6344623150e+000	 2.8654547739e-001	 1.6696218351e+000
 2.6317058939e+000	 3.1084415364e-001	 1.6425059870e+000
 2.6287154286e+000	 3.3519426525e-001	 1.6132435173e+000
 2.6254891024e+000	 3.5959278821e-001	 1.5827372581e+000
 2.6220251438e+000	 3.8403664592e-001	 1.5517543546e+000
 2.6183218281e+000	 4.0852270980e-001	 1.5209191902e+000
 2.6143774790e+000	 4.3304780006e-001	 1.4907063907e+000
 2.6101904701e+000	 4.5760868641e-001	 1.4614339257e+000
 2.6057592263e+000	 4.8220208891e-001	 1.4332563277e+000
 2.6641793805e+000	 2.4036062139e-001	 1.6797125106e+000
 2.6618637839e+000	 2.6477574700e-001	 1.6605670667e+000
 2.6593157331e+000	 2.8924873661e-001	 1.6370578451e+000
 2.6565333080e+000	 3.1377664565e-001	 1.6104514441e+000
 2.6535146308e+000	 3.3835647530e-001	 1.5818914922e+000
 2.6502578675e+000	 3.6298517301e-001	 1.5523912337e+000
 2.6467612300e+000	 3.8765963314e-001	 1.5228261535e+000
 2.6430229774e+000	 4.1237669763e-001	 1.4939266596e+000
 2.6390414175e+000	 4.3713315666e-001	 1.4662708431e+000
 2.6348149085e+000	 4.6192574949e-001	 1.4402773358e+000
 2.6303418605e+000	 4.8675116522e-001	 1.4161982852e+000
 2.6890782533e+000	 2.4260698234e-001	 1.6354136395e+000
 2.6867410155e+000	 2.6725028670e-001	 1.6154132615e+000
 2.6841691512e+000	 2.9195199583e-001	 1.5911240804e+000
 2.6813607221e+000	 3.1670913767e-001	 1.5639291645e+000
 2.6783138329e+000	 3.4151868535e-001	 1.5350869288e+000
 2.6750266326e+000	 3.6637755780e-001	 1.5057234751e+000
 2.6714973163e+000	 3.9128262037e-001	 1.4768249697e+000
 2.6677241268e+000	 4.1623068545e-001	 1.4492300770e+000
 2.6637053560e+000	 4.4121851326e-001	 1.4236224700e+000
 2.6594393469e+000	 4.6624281257e-001	 1.4005234376e+000
 2.6549244947e+000	 4.9130024153e-001	 1.3802846102e+000
 2.7139771260e+000	 2.4485334329e-001	 1.5799058237e+000
 2.7116182471e+000	 2.6972482639e-001	 1.5576315363e+000
 2.7090225692e+000	 2.9465525505e-001	 1.5312517537e+000
 2.7061881362e+000	 3.1964162968e-001	 1.5022687037e+000
 2.7031130351e+000	 3.4468089540e-001	 1.4720581848e+000
 2.6997953977e+000	 3.6976994260e-001	 1.4418616562e+000
 2.6962334026e+000	 3.9490560759e-001	 1.4127783609e+000
 2.6924252761e+000	 4.2008467328e-001	 1.3857575057e+000
 2.6883692945e+000	 4.4530386987e-001	 1.3615905151e+000
 2.6840637853e+000	 4.7055987565e-001	 1.3409033833e+000
 2.6795071290e+000	 4.9584931784e-001	 1.3241491440e+000
 2.7388759987e+000	 2.4709970424e-001	 1.5128162163e+000
 2.7364954787e+000	 2.7219936608e-001	 1.4867483847e+000
 2.7338759873e+000	 2.9735851428e-001	 1.4568670821e+000
 2.7310155503e+000	 3.2257412170e-001	 1.4247964387e+000
 2.7279122372e+000	 3.4784310545e-001	 1.3920322883e+000
 2.7245641628e+000	 3.7316232739e-001	 1.3599340002e+000
 2.7209694888e+000	 3.9852859482e-001	 1.3297163436e+000
 2.7171264254e+000	 4.2393866111e-001	 1.3024414063e+000
 2.7130332330e+000	 4.4938922647e-001	 1.2790105872e+000
 2.7086882237e+000	 4.7487693873e-001	 1.2601566863e+000
 2.7040897632e+000	 5.0039839415e-001	 1.2464361129e+000
 2.4582634210e+000	 4.5490763105e-001	 1.4976643172e+000
 2.4538511564e+000	 4.7813648941e-001	 1.4923660908e+000
 2.4492056613e+000	 5.0138969748e-001	 1.4720689224e+000
 2.4443256044e+000	 5.2466402543e-001	 1.4385682019e+000
 2.4392097087e+000	 5.4795620010e-001	 1.3938598400e+000
 2.4338567526e+000	 5.7126290603e-001	 1.3401407959e+000
 2.4282655721e+000	 5.9458078647e-001	 1.2798091710e+000
 2.4224350612e+000	 6.1790644450e-001	 1.2154638583e+000
 2.4163641743e+000	 6.4123644421e-001	 1.0930519518e+000
 2.4100519264e+000	 6.6456731185e-001	 9.9088188890e-001
 2.4034973955e+000	 6.8789553712e-001	 9.4217917559e-001
 2.4828460553e+000	 4.5945670736e-001	 1.3918732011e+000
 2.4783896679e+000	 4.8291785430e-001	 1.4258180909e+000
 2.4736977179e+000	 5.0640359445e-001	 1.4375395953e+000
 2.4687688605e+000	 5.2991066568e-001	 1.4288772676e+000
 2.4636018058e+000	 5.5343576211e-001	 1.4018821812e+000
 2.4581953202e+000	 5.7697553510e-001	 1.3588175613e+000
 2.4525482278e+000	 6.0052659434e-001	 1.3021589656e+000
 2.4466594119e+000	 6.2408550895e-001	 1.2345940022e+000
 2.4405278160e+000	 6.4764880865e-001	 1.0793934541e+000
 2.4341524457e+000	 6.7121298497e-001	 9.7065462008e-001
 2.4275323694e+000	 6.9477449249e-001	 9.1306063267e-001
 2.5074286895e+000	 4.6400578367e-001	 1.3406473143e+000
 2.5029281795e+000	 4.8769921920e-001	 1.3827645149e+000
 2.4981897745e+000	 5.1141749143e-001	 1.4122540498e+000
 2.4932121165e+000	 5.3515730594e-001	 1.4272589782e+000
 2.4879939028e+000	 5.5891532411e-001	 1.4167243636e+000
 2.4825338877e+000	 5.8268816416e-001	 1.3829821645e+000
 2.4768308835e+000	 6.0647240220e-001	 1.3285880512e+000
 2.4708837625e+000	 6.3026457340e-001	 1.2310866078e+000
 2.4646914578e+000	 6.5406117310e-001	 1.0679466995e+000
 2.4582529650e+000	 6.7785865809e-001	 9.5334955002e-001
 2.4515673434e+000	 7.0165344787e-001	 8.8764653136e-001
 2.5320113237e+000	 4.6855485998e-001	 1.3851246017e+000
 2.5274666911e+000	 4.9248058409e-001	 1.4333996993e+000
 2.5226818311e+000	 5.1643138840e-001	 1.4617868234e+000
 2.5176553726e+000	 5.4040394619e-001	 1.4695431188e+000
 2.5123859999e+000	 5.6439488611e-001	 1.4557635021e+000
 2.5068724552e+000	 5.8840079322e-001	 1.4193758535e+000
 2.5011135392e+000	 6.1241821007e-001	 1.3591364292e+000
 2.4951081131e+000	 6.3644363785e-001	 1.2244684687e+000
 2.4888550995e+000	 6.6047353755e-001	 1.0583432426e+000
 2.4823534842e+000	 6.8450433122e-001	 9.3858087037e-001
 2.4756023173e+000	 7.0853240324e-001	 8.6553210657e-001
 2.5565939579e+000	 4.7310393629e-001	 1.4163250679e+000
 2.5520052026e+000	 4.9726194898e-001	 1.4690827431e+000
 2.5471738878e+000	 5.2144528538e-001	 1.5010162463e+000
 2.5420986286e+000	 5.4565058645e-001	 1.5113994533e+000
 2.5367780970e+000	 5.6987444812e-001	 1.4993408388e+000
 2.5312110227e+000	 5.9411342228e-001	 1.4637785227e+000
 2.5253961950e+000	 6.1836401794e-001	 1.4034755430e+000
 2.5193324637e+000	 6.4262270229e-001	 1.2325046102e+000
 2.5130187412e+000	 6.6688590199e-001	 1.0617524247e+000
 2.5064540035e+000	 6.9115000434e-001	 9.3275100842e-001
 2.4996372913e+000	 7.1541135862e-001	 8.4633344893e-001
 2.5811765921e+000	 4.7765301260e-001	 1.4328357752e+000
 2.5765437142e+000	 5.0204331388e-001	 1.4883508007e+000
 2.5716659444e+000	 5.2645918235e-001	 1.5222562795e+000
 2.5665418847e+000	 5.5089722670e-001	 1.5338451057e+000
 2.5611701941e+000	 5.7535401012e-001	 1.5222414501e+000
 2.5555495903e+000	 5.9982605134e-001	 1.4863956558e+000
 2.5496788507e+000	 6.2430982580e-001	 1.4250793652e+000
 2.5435568143e+000	 6.4880176674e-001	 1.2256043318e+000
 2.5371823830e+000	 6.7329826643e-001	 1.0608501117e+000
 2.5305545228e+000	 6.9779567746e-001	 9.3536017874e-001
 2.5236722653e+000	 7.2229031399e-001	 8.4950118276e-001
 2.6057592263e+000	 4.8220208891e-001	 1.4332563277e+000
 2.6010822257e+000	 5.0682467877e-001	 1.4897539394e+000
 2.5961580010e+000	 5.3147307933e-001	 1.5240075763e+000
 2.5909851407e+000	 5.5614386696e-001	 1.5353314619e+000
 2.5855622912e+000	 5.8083357212e-001	 1.5228676257e+000
 2.5798881578e+000	 6.0553868040e-001	 1.4855806413e+000
 2.5739615064e+000	 6.3025563367e-001	 1.3921590096e+000
 2.5677811649e+000	 6.5498083118e-001	 1.1986571260e+000
 2.5613460247e+000	 6.7971063087e-001	 1.0416207730e+000
 2.5546550420e+000	 7.0444135058e-001	 9.2140221996e-001
 2.5477072392e+000	 7.2916926936e-001	 8.3833661900e-001
 2.6303418605e+000	 4.8675116522e-001	 1.4161982852e+000
 2.6256207373e+000	 5.1160604366e-001	 1.4718545366e+000
 2.6206500576e+000	 5.3648697630e-001	 1.5047835090e+000
 2.6154283968e+000	 5.6139050721e-001	 1.5143230930e+000
 2.6099543883e+000	 5.8631313412e-001	 1.4996353632e+000
 2.6042267253e+000	 6.1125130946e-001	 1.4597011547e+000
 2.5982441621e+000	 6.3620144153e-001	 1.3339185701e+000
 2.5920055155e+000	 6.6115989563e-001	 1.1522429534e+000
 2.5855096665e+000	 6.8612299532e-001	 1.0046598647e+000
 2.5787555613e+000	 7.1108702369e-001	 8.9148623734e-001
 2.5717422132e+000	 7.3604822473e-001	 8.1302421459e-001
 2.6549244947e+000	 4.9130024153e-001	 1.3802846102e+000
 2.6501592489e+000	 5.1638740856e-001	 1.4332267092e+000
 2.6451421142e+000	 5.4150087327e-001	 1.4631095809e+000
 2.6398716528e+000	 5.6663714746e-001	 1.4692971451e+000
 2.6343464854e+000	 5.9179269612e-001	 1.4509737335e+000
 2.6285652928e+000	 6.1696393852e-001	 1.4071384976e+000
 2.6225268178e+000	 6.4214724939e-001	 1.2550922821e+000
 2.6162298662e+000	 6.6733896007e-001	 1.0869566683e+000
 2.6096733082e+000	 6.9253535976e-001	 9.5057845279e-001
 2.6028560806e+000	 7.1773269681e-001	 8.4623771655e-001
 2.5957771871e+000	 7.4292718010e-001	 7.7420205349e-001
 2.6795071290e+000	 4.9584931784e-001	 1.3241491440e+000
 2.6746977604e+000	 5.2116877345e-001	 1.3724557754e+000
 2.6696341708e+000	 5.4651477025e-001	 1.3975228691e+000
 2.6643149089e+000	 5.7188378771e-001	 1.3987427624e+000
 2.6587385825e+000	 5.9727225811e-001	 1.3753242811e+000
 2.6529038604e+000	 6.2267656758e-001	 1.3262869719e+000
 2.6468094736e+000	 6.4809305726e-001	 1.1562706070e+000
 2.6404542168e+000	 6.7351802451e-001	 1.0034073355e+000
 2.6338369500e+000	 6.9894772419e-001	 8.8000249653e-001
 2.6269565998e+000	 7.2437836993e-001	 7.8629777228e-001
 2.6198121611e+000	 7.4980613547e-001	 7.2252463642e-001
 2.7040897632e+000	 5.0039839415e-001	 1.2464361129e+000
 2.6992362720e+000	 5.2595013834e-001	 1.2881377454e+000
 2.6941262274e+000	 5.5152866722e-001	 1.3065714989e+000
 2.6887581649e+000	 5.7713042797e-001	 1.3011605421e+000
 2.6831306796e+000	 6.0275182011e-001	 1.2711404569e+000
 2.6772424279e+000	 6.2838919664e-001	 1.2008788840e+000
 2.6710921293e+000	 6.5403886512e-001	 1.0380569687e+000
 2.6646785674e+000	 6.7969708895e-001	 9.0221758442e-001
 2.6580005917e+000	 7.0536008863e-001	 7.9357217203e-001
 2.6510571191e+000	 7.3102404304e-001	 7.1232243782e-001
 2.6438471350e+000	 7.5668509084e-001	 6.5866213470e-001
 2.4034973955e+000	 6.8789553712e-001	 9.4217917559e-001
 2.3966997229e+000	 7.1121757443e-001	 9.1582968788e-001
 2.3896581153e+000	 7.3452984428e-001	 8.8546285756e-001
 2.3823718453e+000	 7.5782873460e-001	 8.5153812012e-001
 2.3748402530e+000	 7.8111060220e-001	 8.1450756241e-001
 2.3670627471e+000	 8.0437177429e-001	 7.7481568910e-001
 2.3590388060e+000	 8.2760854992e-001	 7.3289921379e-001
 2.3507679787e+000	 8.5081720161e-001	 6.8918687540e-001
 2.3422498860e+000	 8.7399397693e-001	 6.4409928007e-001
 2.3334842215e+000	 8.9713510015e-001	 5.9804876912e-001
 2.3244707527e+000	 9.2023677391e-001	 5.5143931334e-001
 2.4275323694e+000	 6.9477449249e-001	 9.1306063267e-001
 2.4206667202e+000	 7.1832975018e-001	 8.9782663333e-001
 2.4135546964e+000	 7.4187514273e-001	 8.7785897641e-001
 2.4061955637e+000	 7.6540702195e-001	 8.5355631443e-001
 2.3985886555e+000	 7.8892170823e-001	 8.2530961877e-001
 2.3907333746e+000	 8.1241549204e-001	 7.9350201569e-001
 2.3826291940e+000	 8.3588463542e-001	 7.5850864904e-001
 2.3742756584e+000	 8.5932537363e-001	 7.2069657025e-001
 2.3656723848e+000	 8.8273391670e-001	 6.8042465574e-001
 2.3568190637e+000	 9.0610645115e-001	 6.3804355229e-001
 2.3477154602e+000	 9.2943914165e-001	 5.9389565038e-001
 2.4515673434e+000	 7.0165344787e-001	 8.8764653136e-001
 2.4446337174e+000	 7.2544192593e-001	 8.8167245437e-001
 2.4374512776e+000	 7.4922044118e-001	 8.7028236822e-001
 2.4300192822e+000	 7.7298530930e-001	 8.5381480692e-001
 2.4223370580e+000	 7.9673281426e-001	 8.3260026920e-001
 2.4144040021e+000	 8.2045920978e-001	 8.0696112340e-001
 2.4062195821e+000	 8.4416072093e-001	 7.7721154126e-001
 2.3977833382e+000	 8.6783354565e-001	 7.4365746103e-001
 2.3890948837e+000	 8.9147385648e-001	 7.0659657992e-001
 2.3801539060e+000	 9.1507780216e-001	 6.6631837642e-001
 2.3709601677e+000	 9.3864150939e-001	 6.2310416221e-001
 2.4756023173e+000	 7.0853240324e-001	 8.6553210657e-001
 2.4686007146e+000	 7.3255410168e-001	 8.6702074367e-001
 2.4613478587e+000	 7.5656573962e-001	 8.6244446654e-001
 2.4538430006e+000	 7.8056359665e-001	 8.5208232229e-001
 2.4460854606e+000	 8.0454392028e-001	 8.3620494671e-001
 2.4380746295e+000	 8.2850292753e-001	 8.1507453760e-001
 2.4298099702e+000	 8.5243680643e-001	 7.8894485909e-001
 2.4212910180e+000	 8.7634171767e-001	 7.5806127732e-001
 2.4125173825e+000	 9.0021379625e-001	 7.2266082757e-001
 2.4034887482e+000	 9.2404915316e-001	 6.8297231302e-001
 2.3942048752e+000	 9.4784387714e-001	 6.3921643502e-001
 2.4996372913e+000	 7.1541135862e-001	 8.4633344893e-001
 2.4925677118e+000	 7.3966627743e-001	 8.5354398178e-001
 2.4852444399e+000	 7.6391103807e-001	 8.5407364965e-001
 2.4776667191e+000	 7.8814188400e-001	 8.4814261246e-001
 2.4698338631e+000	 8.1235502631e-001	 8.3596222084e-001
 2.4617452570e+000	 8.3654664528e-001	 8.1773505728e-001
 2.4534003582e+000	 8.6071289193e-001	 7.9365501060e-001
 2.4447986978e+000	 8.8484988969e-001	 7.6390738372e-001
 2.4359398814e+000	 9.0895373602e-001	 7.2866903503e-001
 2.4268235904e+000	 9.3302050416e-001	 6.8810855324e-001
 2.4174495828e+000	 9.5704624488e-001	 6.4238646558e-001
 2.5236722653e+000	 7.2229031399e-001	 8.4950118276e-001
 2.5165347091e+000	 7.4677845317e-001	 8.5753502474e-001
 2.5091410210e+000	 7.7125633651e-001	 8.5551775598e-001
 2.5014904375e+000	 7.9572017134e-001	 8.4373718082e-001
 2.4935822656e+000	 8.2016613233e-001	 8.3172317212e-001
 2.4854158845e+000	 8.4459036302e-001	 8.1484621816e-001
 2.4769907463e+000	 8.6898897743e-001	 7.9129739376e-001
 2.4683063776e+000	 8.9335806171e-001	 7.6120241628e-001
 2.4593623803e+000	 9.1769367579e-001	 7.2467842099e-001
 2.4501584326e+000	 9.4199185517e-001	 6.8183421168e-001
 2.4406942903e+000	 9.6624861262e-001	 6.3277054648e-001
 2.5477072392e+000	 7.2916926936e-001	 8.3833661900e-001
 2.5405017063e+000	 7.5389062892e-001	 8.5619724994e-001
 2.5330376022e+000	 7.7860163495e-001	 8.6289875747e-001
 2.5253141560e+000	 8.0329845869e-001	 8.5864440317e-001
 2.5173306682e+000	 8.2797723835e-001	 8.4366938553e-001
 2.5090865119e+000	 8.5263408076e-001	 8.1824304911e-001
 2.5005811343e+000	 8.7726506293e-001	 7.8267107926e-001
 2.4918140574e+000	 9.0186623372e-001	 7.4995993951e-001
 2.4827848791e+000	 9.2643361556e-001	 7.1075152311e-001
 2.4734932748e+000	 9.5096320617e-001	 6.6426014129e-001
 2.4639389978e+000	 9.7545098036e-001	 6.1052715780e-001
 2.5717422132e+000	 7.3604822473e-001	 8.1302421459e-001
 2.5644687035e+000	 7.6100280466e-001	 8.4021311040e-001
 2.5569341833e+000	 7.8594693340e-001	 8.5513601069e-001
 2.5491378744e+000	 8.1087674604e-001	 8.5791086072e-001
 2.5410790707e+000	 8.3578834438e-001	 8.4868854731e-001
 2.5327571394e+000	 8.6067779851e-001	 8.2765526971e-001
 2.5241715224e+000	 8.8554114843e-001	 7.9503489708e-001
 2.5153217372e+000	 9.1037440574e-001	 7.5109130514e-001
 2.5062073780e+000	 9.3517355533e-001	 6.9613068379e-001
 2.4968281170e+000	 9.5993455717e-001	 6.3550075874e-001
 2.4871837053e+000	 9.8465334810e-001	 5.7581686489e-001
 2.5957771871e+000	 7.4292718010e-001	 7.7420205349e-001
 2.5884357008e+000	 7.6811498040e-001	 8.1029654352e-001
 2.5808307645e+000	 7.9329223184e-001	 8.3301832791e-001
 2.5729615929e+000	 8.1845503338e-001	 8.4239921262e-001
 2.5648274732e+000	 8.4359945040e-001	 8.3850496169e-001
 2.5564277669e+000	 8.6872151625e-001	 8.2143783200e-001
 2.5477619105e+000	 8.9381723393e-001	 7.9133909580e-001
 2.5388294169e+000	 9.1888257776e-001	 7.4839154292e-001
 2.5296298768e+000	 9.4391349510e-001	 6.9282195449e-001
 2.5201629592e+000	 9.6890590817e-001	 6.2490353970e-001
 2.5104284129e+000	 9.9385571584e-001	 5.4495832726e-001
 2.6198121611e+000	 7.4980613547e-001	 7.2252463642e-001
 2.6124026980e+000	 7.7522715614e-001	 7.6717635450e-001
 2.6047273457e+000	 8.0063753028e-001	 7.9734785960e-001
 2.5967853113e+000	 8.2603332072e-001	 8.1298394686e-001
 2.5885758757e+000	 8.5141055642e-001	 8.1406439807e-001
 2.5800983944e+000	 8.7676523399e-001	 8.0060668269e-001
 2.5713522985e+000	 9.0209331943e-001	 7.7266864761e-001
 2.5623370967e+000	 9.2739074977e-001	 7.3035118730e-001
 2.5530523757e+000	 9.5265343487e-001	 6.7380088574e-001
 2.5434978015e+000	 9.7787725917e-001	 6.0321262144e-001
 2.5336731204e+000	 1.0030580836e+000	 5.1883212663e-001
 2.6438471350e+000	 7.5668509084e-001	 6.5866213470e-001
 2.6363696952e+000	 7.8233933189e-001	 7.1159554051e-001
 2.6286239268e+000	 8.0798282872e-001	 7.4893948818e-001
 2.6206090298e+000	 8.3361160807e-001	 7.7055084262e-001
 2.6123242783e+000	 8.5922166244e-001	 7.7632249640e-001
 2.6037690218e+000	 8.8480895173e-001	 7.6618623924e-001
 2.5949426866e+000	 9.1036940492e-001	 7.4011561732e-001
 2.5858447765e+000	 9.3589892178e-001	 6.9812877376e-001
 2.5764748746e+000	 9.6139337463e-001	 6.4029126110e-001
 2.5668326437e+000	 9.8684861017e-001	 5.6671881685e-001
 2.5569178279e+000	 1.0122604513e+000	 4.7758009279e-001
 2.3244707527e+000	 9.2023677391e-001	 5.5143931334e-001
 2.3152093213e+000	 9.4329518099e-001	 4.7164833451e-001
 2.3056998450e+000	 9.6630648602e-001	 3.9284320835e-001
 2.2959423174e+000	 9.8926683732e-001	 3.1508199842e-001
 2.2859368093e+000	 1.0121723687e+000	 2.3841104188e-001
 2.2756834694e+000	 1.0350192013e+000	 1.6286528018e-001
 2.2651825247e+000	 1.0578034457e+000	 8.8468623632e-002
 2.2544342814e+000	 1.0805212035e+000	 1.5234349286e-002
 2.2434391250e+000	 1.1031685694e+000	-5.6834468849e-002
 2.2321975215e+000	 1.1257416334e+000	-1.2774449825e-001
 2.2207100171e+000	 1.1482364826e+000	-1.9751165610e-001
 2.3477154602e+000	 9.2943914165e-001	 5.9389565038e-001
 2.3383614145e+000	 9.5272813280e-001	 5.0701509591e-001
 2.3287568434e+000	 9.7596955088e-001	 4.2354183624e-001
 2.3189017405e+000	 9.9915950569e-001	 3.4354500204e-001
 2.3087961774e+000	 1.0222940924e+000	 2.6707972981e-001
 2.2984403041e+000	 1.0453693934e+000	 1.9418747124e-001
 2.2878343500e+000	 1.0683814802e+000	 1.2489633993e-001
 2.2769786242e+000	 1.0913264155e+000	 5.9221494235e-002
 2.2658735162e+000	 1.1142002551e+000	-2.8344442066e-003
 2.2545194967e+000	 1.1369990498e+000	-6.1280937460e-002
 2.2429171172e+000	 1.1597188475e+000	-1.1613904482e-001
 2.3709601677e+000	 9.3864150939e-001	 6.2310416221e-001
 2.3615135077e+000	 9.6216108461e-001	 5.2941513811e-001
 2.3518138419e+000	 9.8563261575e-001	 4.4152439418e-001
 2.3418611637e+000	 1.0090521741e+000	 3.5951136433e-001
 2.3316555455e+000	 1.0324158161e+000	 2.8343922748e-001
 2.3211971388e+000	 1.0557195854e+000	 2.1335519706e-001
 2.3104861752e+000	 1.0789595146e+000	 1.4929085077e-001
 2.2995229670e+000	 1.1021316275e+000	 9.1262499724e-002
 2.2883079075e+000	 1.1252319408e+000	 3.9271596404e-002
 2.2768414719e+000	 1.1482564661e+000	-6.6948196880e-003
 2.2651242174e+000	 1.1712012123e+000	-4.6663639633e-002
 2.3942048752e+000	 9.4784387714e-001	 6.3921643502e-001
 2.3846656010e+000	 9.7159403643e-001	 5.3900019785e-001
 2.3748708403e+000	 9.9529568061e-001	 4.4694396118e-001
 2.3648205869e+000	 1.0189448424e+000	 3.6313670007e-001
 2.3545149136e+000	 1.0425375398e+000	 2.8764888015e-001
 2.3439539735e+000	 1.0660697774e+000	 2.2053272835e-001
 2.3331380004e+000	 1.0895375491e+000	 1.6182254684e-001
 2.3220673098e+000	 1.1129368396e+000	 1.1153506972e-001
 2.3107422987e+000	 1.1362636265e+000	 6.9669861456e-002
 2.2991634471e+000	 1.1595138824e+000	 3.6209756479e-002
 2.2873313176e+000	 1.1826835771e+000	 1.1121338620e-002
 2.4174495828e+000	 9.5704624488e-001	 6.4238646558e-001
 2.4078176942e+000	 9.8102698824e-001	 5.3592472983e-001
 2.3979278388e+000	 1.0049587455e+000	 4.3995659783e-001
 2.3877800100e+000	 1.0288375108e+000	 3.5457982519e-001
 2.3773742817e+000	 1.0526592634e+000	 2.7987140929e-001
 2.3667108082e+000	 1.0764199694e+000	 2.1588784226e-001
 2.3557898257e+000	 1.1001155835e+000	 1.6266541044e-001
 2.3446116526e+000	 1.1237420516e+000	 1.2022053951e-001
 2.3331766900e+000	 1.1472953122e+000	 8.8550184864e-002
 2.3214854223e+000	 1.1707712988e+000	 6.7632266109e-002
 2.3095384178e+000	 1.1941659420e+000	 5.7426144883e-002
 2.4406942903e+000	 9.6624861262e-001	 6.3277054648e-001
 2.4309697874e+000	 9.9045994005e-001	 5.2034577729e-001
 2.4209848372e+000	 1.0146218103e+000	 4.2072120433e-001
 2.4107394332e+000	 1.0387301792e+000	 3.3400260431e-001
 2.4002336497e+000	 1.0627809871e+000	 2.6027275175e-001
 2.3894676429e+000	 1.0867701614e+000	 1.9959165544e-001
 2.3784416509e+000	 1.1106936180e+000	 1.5199684440e-001
 2.3671559954e+000	 1.1345472636e+000	 1.1750370283e-001
 2.3556110812e+000	 1.1583269979e+000	 9.6105853343e-002
 2.3438073975e+000	 1.1820287151e+000	 8.7775587759e-002
 2.3317455179e+000	 1.2056483068e+000	 9.2464344387e-002
 2.4639389978e+000	 9.7545098036e-001	 6.1052715780e-001
 2.4541218806e+000	 9.9989289186e-001	 4.9242284991e-001
 2.4440418357e+000	 1.0242848752e+000	 3.8939938658e-001
 2.4336988564e+000	 1.0486228476e+000	 3.0156980694e-001
 2.4230930178e+000	 1.0729027108e+000	 2.2902190815e-001
 2.4122244775e+000	 1.0971203534e+000	 1.7181846645e-001
 2.4010934762e+000	 1.1212716525e+000	 1.2999751080e-001
 2.3897003382e+000	 1.1453524757e+000	 1.0357264868e-001
 2.3780454725e+000	 1.1693586836e+000	 9.2533443540e-002
 2.3661293727e+000	 1.1932861314e+000	 9.6845842933e-002
 2.3539526181e+000	 1.2171306716e+000	 1.1645265651e-001
 2.4871837053e+000	 9.8465334810e-001	 5.7581686489e-001
 2.4772739738e+000	 1.0093258437e+000	 4.5231780853e-001
 2.4670988341e+000	 1.0339479401e+000	 3.4615532971e-001
 2.4566582796e+000	 1.0585155159e+000	 2.5744897173e-001
 2.4459523859e+000	 1.0830244345e+000	 1.8629079969e-001
 2.4349813122e+000	 1.1074705454e+000	 1.3274560715e-001
 2.4237453014e+000	 1.1318496869e+000	 9.6851178601e-002
 2.4122446810e+000	 1.1561576877e+000	 7.8618607365e-002
 2.4004798637e+000	 1.1803903692e+000	 7.8032668298e-002
 2.3884513479e+000	 1.2045435478e+000	 9.5052244538e-002
 2.3761597183e+000	 1.2286130364e+000	 1.2961080737e-001
 2.5104284129e+000	 9.9385571584e-001	 5.4495832726e-001
 2.5004260670e+000	 1.0187587955e+000	 4.0088909350e-001
 2.4901558326e+000	 1.0436110049e+000	 2.9115567869e-001
 2.4796177027e+000	 1.0684081843e+000	 2.0181027829e-001
 2.4688117540e+000	 1.0931461582e+000	 1.3225413294e-001
 2.4577381469e+000	 1.1178207375e+000	 8.2553302198e-002
 2.4463971267e+000	 1.1424277214e+000	 5.2744579856e-002
 2.4347890238e+000	 1.1669628997e+000	 4.2835805059e-002
 2.4229142550e+000	 1.1914220549e+000	 5.2806231464e-002
 2.4107733232e+000	 1.2158009641e+000	 8.2606953767e-002
 2.3983668184e+000	 1.2400954013e+000	 1.3216139065e-001
 2.5336731204e+000	 1.0030580836e+000	 5.1883212663e-001
 2.5235781602e+000	 1.0281917473e+000	 3.7302635963e-001
 2.5132128310e+000	 1.0532740698e+000	 2.4625167358e-001
 2.5025771259e+000	 1.0783008527e+000	 1.3920696432e-001
 2.4916711221e+000	 1.1032678819e+000	 6.7089272077e-002
 2.4804949816e+000	 1.1281709295e+000	 2.1424536399e-002
 2.4690489519e+000	 1.1530057558e+000	-2.1327262317e-003
 2.4573333667e+000	 1.1777681118e+000	-3.5786736185e-003
 2.4453486462e+000	 1.2024537406e+000	 1.7059690686e-002
 2.4330952984e+000	 1.2270583804e+000	 5.9724944858e-002
 2.4205739186e+000	 1.2515777661e+000	 1.1727640372e-001
 2.5569178279e+000	 1.0122604513e+000	 4.7758009279e-001
 2.5467302535e+000	 1.0376246991e+000	 3.3111351763e-001
 2.5362698295e+000	 1.0629371346e+000	 2.0494550953e-001
 2.5255365491e+000	 1.0881935211e+000	 9.9767329187e-002
 2.5145304902e+000	 1.1133896056e+000	 1.6304466859e-002
 2.5032518163e+000	 1.1385211215e+000	-4.4681710701e-002
 2.4917007772e+000	 1.1635837903e+000	-6.7588481814e-002
 2.4798777095e+000	 1.1885733238e+000	-6.0425015535e-002
 2.4677830375e+000	 1.2134854263e+000	-2.8998672306e-002
 2.4554172736e+000	 1.2383157968e+000	 2.6623877225e-002
 2.4427810188e+000	 1.2630601309e+000	 5.5785174907e-002
 2.2207100171e+000	 1.1482364826e+000	-1.9751165610e-001
 2.2089772391e+000	 1.1706492033e+000	-2.9673452735e-001
 2.1969998960e+000	 1.1929758828e+000	-3.5983967806e-001
 2.1847787778e+000	 1.2152126119e+000	-3.8677719362e-001
 2.1723147561e+000	 1.2373554867e+000	-3.7753789870e-001
 2.1596087844e+000	 1.2594006108e+000	-4.2559185728e-001
 2.1466618980e+000	 1.2813440973e+000	-5.5860473691e-001
 2.1334752143e+000	 1.3031820709e+000	-6.4927452292e-001
 2.1200499323e+000	 1.3249106704e+000	-6.9741877267e-001
 2.1063873328e+000	 1.3465260504e+000	-7.0288542231e-001
 2.0924887780e+000	 1.3680243835e+000	-6.6555362821e-001
 2.2429171172e+000	 1.1597188475e+000	-1.1613904482e-001
 2.2310670115e+000	 1.1823556953e+000	-2.0240686231e-001
 2.2189698950e+000	 1.2049056416e+000	-2.5629594187e-001
 2.2066265656e+000	 1.2273647380e+000	-2.7780720509e-001
 2.1940379036e+000	 1.2497290416e+000	-2.6697933490e-001
 2.1812048722e+000	 1.2719946169e+000	-4.2734090829e-001
 2.1681285170e+000	 1.2941575382e+000	-5.5218741394e-001
 2.1548099664e+000	 1.3162138916e+000	-6.3878528536e-001
 2.1412504316e+000	 1.3381597771e+000	-6.8696200174e-001
 2.1274512061e+000	 1.3599913109e+000	-6.9657169924e-001
 2.1134136658e+000	 1.3817046273e+000	-6.6749599123e-001
 2.2651242174e+000	 1.1712012123e+000	-4.6663639633e-002
 2.2531567839e+000	 1.1940621873e+000	-1.2052987279e-001
 2.2409398939e+000	 1.2168354005e+000	-1.6567404938e-001
 2.2284743533e+000	 1.2395168641e+000	-1.8214785218e-001
 2.2157610512e+000	 1.2621025965e+000	-2.7503608111e-001
 2.2028009601e+000	 1.2845886230e+000	-4.2603823015e-001
 2.1895951360e+000	 1.3069709792e+000	-5.4299027260e-001
 2.1761447186e+000	 1.3292457123e+000	-6.2570666930e-001
 2.1624509309e+000	 1.3514088839e+000	-6.7402404605e-001
 2.1485150794e+000	 1.3734565714e+000	-6.8780201100e-001
 2.1343385536e+000	 1.3953848711e+000	-6.6692395488e-001
 2.2873313176e+000	 1.1826835771e+000	 1.1121338620e-002
 2.2752465563e+000	 1.2057686794e+000	-5.0870253715e-002
 2.2629098929e+000	 1.2287651593e+000	-8.7716487710e-002
 2.2503221411e+000	 1.2516689903e+000	-1.1303726339e-001
 2.2374841988e+000	 1.2744761513e+000	-2.8243066702e-001
 2.2243970479e+000	 1.2971826291e+000	-4.2188715771e-001
 2.2110617550e+000	 1.3197844202e+000	-5.3121542292e-001
 2.1974794707e+000	 1.3422775331e+000	-6.1024190502e-001
 2.1836514302e+000	 1.3646579906e+000	-6.5881160566e-001
 2.1695789527e+000	 1.3869218319e+000	-6.7678887986e-001
 2.1552634414e+000	 1.4090651150e+000	-6.6405821760e-001
 2.3095384178e+000	 1.1941659420e+000	 5.7426144883e-002
 2.2973363287e+000	 1.2174751714e+000	 6.8080752384e-003
 2.2848798918e+000	 1.2406949181e+000	-2.2163581354e-002
 2.2721699289e+000	 1.2638211164e+000	-1.3247114476e-001
 2.2592073463e+000	 1.2868497062e+000	-2.8683355671e-001
 2.2459931357e+000	 1.3097766352e+000	-4.1509016677e-001
 2.2325283739e+000	 1.3325978612e+000	-5.1706437046e-001
 2.2188142229e+000	 1.3553093538e+000	-5.9259378203e-001
 2.2048519296e+000	 1.3779070973e+000	-6.4153101224e-001
 2.1906428261e+000	 1.4003870924e+000	-6.6374444050e-001
 2.1761883292e+000	 1.4227453588e+000	-6.5911897914e-001
 2.3317455179e+000	 1.2056483068e+000	 9.2464344387e-002
 2.3194261010e+000	 1.2291816635e+000	 5.2743837452e-002
 2.3068498908e+000	 1.2526246769e+000	 1.3220458255e-002
 2.2940177167e+000	 1.2759732425e+000	-1.4870193660e-001
 2.2809304939e+000	 1.2992232611e+000	-2.8844929846e-001
 2.2675892236e+000	 1.3223706413e+000	-4.0584891502e-001
 2.2539949929e+000	 1.3454113021e+000	-5.0073804503e-001
 2.2401489750e+000	 1.3683411745e+000	-5.7296466996e-001
 2.2260524289e+000	 1.3911562040e+000	-6.2238824657e-001
 2.2117066994e+000	 1.4138523529e+000	-6.4888045845e-001
 2.1971132169e+000	 1.4364256026e+000	-6.5232596426e-001
 2.3539526181e+000	 1.2171306716e+000	 1.1645265651e-001
 2.3415158734e+000	 1.2408881555e+000	 8.7178274712e-002
 2.3288198898e+000	 1.2645544358e+000	-1.7889737161e-002
 2.3158655044e+000	 1.2881253686e+000	-1.6193774715e-001
 2.3026536414e+000	 1.3115968159e+000	-2.8748134806e-001
 2.2891853114e+000	 1.3349646475e+000	-3.9436428065e-001
 2.2754616119e+000	 1.3582247431e+000	-4.8243682791e-001
 2.2614837271e+000	 1.3813729952e+000	-5.5155653843e-001
 2.2472529282e+000	 1.4044053107e+000	-6.0158895515e-001
 2.2327705727e+000	 1.4273176134e+000	-6.3240834754e-001
 2.2180381047e+000	 1.4501058465e+000	-6.4389844521e-001
 2.3761597183e+000	 1.2286130364e+000	 1.2961080737e-001
 2.3636056458e+000	 1.2525946475e+000	 9.5670990528e-002
 2.3507898887e+000	 1.2764841946e+000	-4.5736516688e-002
 2.3377132922e+000	 1.3002774948e+000	-1.7238526717e-001
 2.3243767890e+000	 1.3239703708e+000	-2.8413211987e-001
 2.3107813993e+000	 1.3475586536e+000	-3.8083639874e-001
 2.2969282309e+000	 1.3710381841e+000	-4.6236057744e-001
 2.2828184793e+000	 1.3944048159e+000	-5.2857097573e-001
 2.2684534275e+000	 1.4176544174e+000	-5.7933846577e-001
 2.2538344460e+000	 1.4407828739e+000	-6.1453918629e-001
 2.2389629925e+000	 1.4637860903e+000	-6.3405526278e-001
 2.3983668184e+000	 1.2400954013e+000	 1.3216139065e-001
 2.3856954182e+000	 1.2643011396e+000	 5.0428216247e-002
 2.3727598877e+000	 1.2884139534e+000	-7.0531053823e-002
 2.3595610800e+000	 1.3124296209e+000	-1.8024983556e-001
 2.3460999366e+000	 1.3363439257e+000	-2.7860303501e-001
 2.3323774871e+000	 1.3601526597e+000	-3.6546469567e-001
 2.3183948499e+000	 1.3838516251e+000	-4.4070865323e-001
 2.3041532314e+000	 1.4074366366e+000	-5.0420920645e-001
 2.2896539269e+000	 1.4309035241e+000	-5.5584180229e-001
 2.2748983194e+000	 1.4542481344e+000	-5.9548373346e-001
 2.2598878803e+000	 1.4774663341e+000	-6.2301484639e-001
 2.4205739186e+000	 1.2515777661e+000	 1.1727640372e-001
 2.4077851906e+000	 1.2760076316e+000	 8.5555404600e-003
 2.3947298867e+000	 1.3003437123e+000	-9.2482819743e-002
 2.3814088678e+000	 1.3245817470e+000	-1.8573550134e-001
 2.3678230841e+000	 1.3487174805e+000	-2.7109456696e-001
 2.3539735750e+000	 1.3727466658e+000	-3.4844792165e-001
 2.3398614688e+000	 1.3966650660e+000	-4.1767993906e-001
 2.3254879836e+000	 1.4204684573e+000	-4.7867210818e-001
 2.3108544262e+000	 1.4441526308e+000	-5.3130369859e-001
 2.2959621927e+000	 1.4677133949e+000	-5.7545244270e-001
 2.2808127681e+000	 1.4911465780e+000	-6.1099523283e-001
 2.4427810188e+000	 1.2630601309e+000	 5.5785174907e-002
 2.4298749630e+000	 1.2877141236e+000	-3.0161684648e-002
 2.4166998856e+000	 1.3122734711e+000	-1.1179966069e-001
 2.4032566556e+000	 1.3367338731e+000	-1.8904508232e-001
 2.3895462317e+000	 1.3610910354e+000	-2.6180628462e-001
 2.3755696628e+000	 1.3853406719e+000	-3.2998418144e-001
 2.3613280878e+000	 1.4094785070e+000	-3.9347286453e-001
 2.3468227357e+000	 1.4335002780e+000	-4.5216022730e-001
 2.3320549255e+000	 1.4574017375e+000	-5.0592861173e-001
 2.3170260660e+000	 1.4811786555e+000	-5.5465547644e-001
 2.3017376559e+000	 1.5048268218e+000	-5.9821408423e-001
 2.0924887780e+000	 1.3680243835e+000	-6.6555362821e-001
 2.0783557117e+000	 1.3894018625e+000	-6.5993188800e-001
 2.0639896582e+000	 1.4106547028e+000	-6.5596841949e-001
 2.0493922227e+000	 1.4317791441e+000	-6.5381073763e-001
 2.0345650901e+000	 1.4527714528e+000	-6.5360107040e-001
 2.0195100253e+000	 1.4736279238e+000	-6.5547663942e-001
 2.0042288717e+000	 1.4943448831e+000	-6.5956994993e-001
 1.9887235515e+000	 1.5149186895e+000	-6.6600908859e-001
 1.9729960641e+000	 1.5353457367e+000	-6.7491802824e-001
 1.9570484858e+000	 1.5556224556e+000	-6.8641693796e-001
 1.9408829689e+000	 1.5757453160e+000	-7.0062249745e-001
 2.1134136658e+000	 1.3817046273e+000	-6.6749599123e-001
 2.0991392688e+000	 1.4032958811e+000	-6.7426258244e-001
 2.0846295548e+000	 1.4247612499e+000	-6.8165704343e-001
 2.0698861449e+000	 1.4460969356e+000	-6.8977994074e-001
 2.0549107410e+000	 1.4672991673e+000	-6.9872725972e-001
 2.0397051255e+000	 1.4883642030e+000	-7.0859075238e-001
 2.0242711605e+000	 1.5092883319e+000	-7.1945829388e-001
 2.0086107870e+000	 1.5300678764e+000	-7.3141424622e-001
 1.9927260247e+000	 1.5506991940e+000	-7.4453982801e-001
 1.9766189706e+000	 1.5711786801e+000	-7.5891348855e-001
 1.9602917986e+000	 1.5915027692e+000	-7.7461128505e-001
 2.1343385536e+000	 1.3953848711e+000	-6.6692395488e-001
 2.1199228259e+000	 1.4171898998e+000	-6.8508642888e-001
 2.1052694514e+000	 1.4388677969e+000	-7.0286121456e-001
 2.0903800671e+000	 1.4604147270e+000	-7.2030205466e-001
 2.0752563919e+000	 1.4818268818e+000	-7.3745880877e-001
 2.0599002258e+000	 1.5031004823e+000	-7.5437786845e-001
 2.0443134492e+000	 1.5242317808e+000	-7.7110258056e-001
 2.0284980225e+000	 1.5452170632e+000	-7.8767367709e-001
 2.0124559853e+000	 1.5660526514e+000	-8.0412971010e-001
 1.9961894555e+000	 1.5867349047e+000	-8.2050749015e-001
 1.9797006283e+000	 1.6072602223e+000	-8.3684252660e-001
 2.1552634414e+000	 1.4090651150e+000	-6.6405821760e-001
 2.1407063830e+000	 1.4310839184e+000	-6.9265940534e-001
 2.1259093480e+000	 1.4529743439e+000	-7.1987163885e-001
 2.1108739893e+000	 1.4747325185e+000	-7.4570193979e-001
 2.0956020428e+000	 1.4963545964e+000	-7.7015413709e-001
 2.0800953260e+000	 1.5178367615e+000	-7.9322934970e-001
 2.0643557379e+000	 1.5391752296e+000	-8.1492647690e-001
 2.0483852580e+000	 1.5603662501e+000	-8.3524269458e-001
 2.0321859460e+000	 1.5814061088e+000	-8.5417395565e-001
 2.0157599404e+000	 1.6022911292e+000	-8.7171549303e-001
 1.9991094580e+000	 1.6230176755e+000	-8.8786232337e-001
 2.1761883292e+000	 1.4227453588e+000	-6.5911897914e-001
 2.1614899402e+000	 1.4449779370e+000	-6.9723583595e-001
 2.1465492446e+000	 1.4670808910e+000	-7.3297623255e-001
 2.1313679116e+000	 1.4890503099e+000	-7.6630055087e-001
 2.1159476937e+000	 1.5108823109e+000	-7.9716666321e-001
 2.1002904263e+000	 1.5325730408e+000	-8.2553048289e-001
 2.0843980266e+000	 1.5541186784e+000	-8.5134652190e-001
 2.0682724935e+000	 1.5755154370e+000	-8.7456845378e-001
 2.0519159066e+000	 1.5967595661e+000	-8.9514967990e-001
 2.0353304252e+000	 1.6178473538e+000	-9.1304389724e-001
 2.0185182877e+000	 1.6387751286e+000	-9.2820566587e-001
 2.1971132169e+000	 1.4364256026e+000	-6.5232596426e-001
 2.1822734973e+000	 1.4588719557e+000	-6.9906846970e-001
 2.1671891411e+000	 1.4811874380e+000	-7.4246025504e-001
 2.1518618338e+000	 1.5033681014e+000	-7.8241512302e-001
 2.1362933446e+000	 1.5254100254e+000	-8.1884504280e-001
 2.1204855265e+000	 1.5473093200e+000	-8.5166076883e-001
 2.1044403153e+000	 1.5690621273e+000	-8.8077246610e-001
 2.0881597291e+000	 1.5906646239e+000	-9.0609033999e-001
 2.0716458673e+000	 1.6121130235e+000	-9.2752526863e-001
 2.0549009101e+000	 1.6334035783e+000	-9.4498943588e-001
 2.0379271174e+000	 1.6545325818e+000	-9.5839696288e-001
 2.2180381047e+000	 1.4501058465e+000	-6.4389844521e-001
 2.2030570544e+000	 1.4727659743e+000	-6.9840855477e-001
 2.1878290377e+000	 1.4952939850e+000	-7.4860643414e-001
 2.1723557560e+000	 1.5176858928e+000	-7.9435934714e-001
 2.1566389955e+000	 1.5399377400e+000	-8.3553339331e-001
 2.1406806268e+000	 1.5620455992e+000	-8.7199419524e-001
 2.1244826040e+000	 1.5840055761e+000	-9.0360759179e-001
 2.1080469646e+000	 1.6058138108e+000	-9.3024033520e-001
 2.0913758279e+000	 1.6274664809e+000	-9.5176078993e-001
 2.0744713949e+000	 1.6489598029e+000	-9.6803963114e-001
 2.0573359470e+000	 1.6702900350e+000	-9.7895054061e-001
 2.2389629925e+000	 1.4637860903e+000	-6.3405526278e-001
 2.2238406115e+000	 1.4866599929e+000	-6.9550590862e-001
 2.2084689343e+000	 1.5094005321e+000	-7.5169508440e-001
 2.1928496783e+000	 1.5320036842e+000	-8.0244353558e-001
 2.1769846464e+000	 1.5544654545e+000	-8.4757150608e-001
 2.1608757270e+000	 1.5767818785e+000	-8.8689949441e-001
 2.1445248928e+000	 1.5989490249e+000	-9.2024901523e-001
 2.1279342001e+000	 1.6209629977e+000	-9.4744336405e-001
 2.1111057885e+000	 1.6428199382e+000	-9.6830838291e-001
 2.0940418798e+000	 1.6645160274e+000	-9.8267322470e-001
 2.0767447767e+000	 1.6860474881e+000	-9.9037111389e-001
 2.2598878803e+000	 1.4774663341e+000	-6.2301484639e-001
 2.2446241686e+000	 1.5005540115e+000	-6.9060898426e-001
 2.2291088309e+000	 1.5235070791e+000	-7.5200421886e-001
 2.2133436005e+000	 1.5463214757e+000	-8.0697477853e-001
 2.1973302973e+000	 1.5689931690e+000	-8.5529504658e-001
 2.1810708273e+000	 1.5915181577e+000	-8.9674038649e-001
 2.1645671815e+000	 1.6138924738e+000	-9.3108797215e-001
 2.1478214356e+000	 1.6361121846e+000	-9.5811762056e-001
 2.1308357492e+000	 1.6581733956e+000	-9.7761262473e-001
 2.1136123646e+000	 1.6800722520e+000	-9.8936058423e-001
 2.0961536064e+000	 1.7018049413e+000	-9.9315423105e-001
 2.2808127681e+000	 1.4911465780e+000	-6.1099523283e-001
 2.2654077258e+000	 1.5144480302e+000	-6.8396493285e-001
 2.2497487275e+000	 1.5376136261e+000	-7.4980965457e-001
 2.2338375227e+000	 1.5606392671e+000	-8.0825709182e-001
 2.2176759482e+000	 1.5835208835e+000	-8.5903574369e-001
 2.2012659275e+000	 1.6062544370e+000	-9.0187580939e-001
 2.1846094702e+000	 1.6288359226e+000	-9.3651008746e-001
 2.1677086711e+000	 1.6512613715e+000	-9.6267487687e-001
 2.1505657098e+000	 1.6735268530e+000	-9.8011087754e-001
 2.1331828495e+000	 1.6956284766e+000	-9.8856408754e-001
 2.1155624361e+000	 1.7175623944e+000	-9.8778669450e-001
 2.3017376559e+000	 1.5048268218e+000	-5.9821408423e-001
 2.2861912829e+000	 1.5283420488e+000	-6.7581966282e-001
 2.2703886241e+000	 1.5517201731e+000	-7.4538511247e-001
 2.2543314449e+000	 1.5749570586e+000	-8.0659155666e-001
 2.2380215991e+000	 1.5980485981e+000	-8.5912156865e-001
 2.2214610278e+000	 1.6209907162e+000	-9.0266013621e-001
 2.2046517589e+000	 1.6437793714e+000	-9.3689563033e-001
 2.1875959066e+000	 1.6664105584e+000	-9.6152077514e-001
 2.1702956705e+000	 1.6888803104e+000	-9.7623361638e-001
 2.1527533344e+000	 1.7111847011e+000	-9.8073848572e-001
 2.1349712658e+000	 1.7333198476e+000	-9.7474695820e-001
 1.9408829689e+000	 1.5757453160e+000	-7.0062249745e-001
 1.9245017408e+000	 1.5957108290e+000	-8.6059593005e-001
 1.9079071027e+000	 1.6155155485e+000	-1.0331870573e+000
 1.8911014290e+000	 1.6351560736e+000	-1.2175603904e+000
 1.8740871660e+000	 1.6546290504e+000	-1.3981251490e+000
 1.8568668306e+000	 1.6739311735e+000	-1.3315237507e+000
 1.8394430092e+000	 1.6930591885e+000	-1.2844983939e+000
 1.8218183566e+000	 1.7120098935e+000	-1.2590661862e+000
 1.8039955943e+000	 1.7307801408e+000	-1.2571579872e+000
 1.7859775094e+000	 1.7493668386e+000	-1.2806133111e+000
 1.7677669530e+000	 1.7677669530e+000	-1.3311754747e+000
 1.9602917986e+000	 1.5915027692e+000	-7.7461128505e-001
 1.9437467582e+000	 1.6116679373e+000	-9.0802451115e-001
 1.9269861737e+000	 1.6316707040e+000	-1.0543228683e+000
 1.9100124433e+000	 1.6515076344e+000	-1.2127167982e+000
 1.8928280376e+000	 1.6711753409e+000	-1.3824045856e+000
 1.8754354989e+000	 1.6906704852e+000	-1.5625736231e+000
 1.8578374393e+000	 1.7099897804e+000	-1.4934243034e+000
 1.8400365402e+000	 1.7291299925e+000	-1.4411270449e+000
 1.8220355503e+000	 1.7480879422e+000	-1.4145459801e+000
 1.8038372845e+000	 1.7668605069e+000	-1.4156795286e+000
 1.7854446225e+000	 1.7854446225e+000	-1.4464247870e+000
 1.9797006283e+000	 1.6072602223e+000	-8.3684252660e-001
 1.9629917756e+000	 1.6276250456e+000	-9.4550088537e-001
 1.9460652448e+000	 1.6478258595e+000	-1.0672951701e+000
 1.9289234576e+000	 1.6678591951e+000	-1.2014805083e+000
 1.9115689093e+000	 1.6877216314e+000	-1.3472996548e+000
 1.8940041672e+000	 1.7074097970e+000	-1.5039842230e+000
 1.8762318694e+000	 1.7269203723e+000	-1.6707559274e+000
 1.8582547237e+000	 1.7462500914e+000	-1.6103189632e+000
 1.8400755062e+000	 1.7653957436e+000	-1.5597564781e+000
 1.8216970596e+000	 1.7843541753e+000	-1.5393292114e+000
 1.8031222920e+000	 1.8031222920e+000	-1.5510899013e+000
 1.9991094580e+000	 1.6230176755e+000	-8.8786232337e-001
 1.9822367930e+000	 1.6435821538e+000	-9.7352293961e-001
 1.9651443158e+000	 1.6639810150e+000	-1.0725538232e+000
 1.9478344719e+000	 1.6842107558e+000	-1.1842535630e+000
 1.9303097810e+000	 1.7042679219e+000	-1.3079081727e+000
 1.9125728355e+000	 1.7241491087e+000	-1.4427922910e+000
 1.8946262995e+000	 1.7438509642e+000	-1.5881703925e+000
 1.8764729073e+000	 1.7633701903e+000	-1.7432980067e+000
 1.8581154622e+000	 1.7827035450e+000	-1.6893991483e+000
 1.8395568347e+000	 1.8018478437e+000	-1.6480983400e+000
 1.8207999616e+000	 1.8207999616e+000	-1.6416353542e+000
 2.0185182877e+000	 1.6387751286e+000	-9.2820566587e-001
 2.0014818104e+000	 1.6595392621e+000	-9.9257947642e-001
 1.9842233868e+000	 1.6801361704e+000	-1.0705416188e+000
 1.9667454862e+000	 1.7005623166e+000	-1.1614329375e+000
 1.9490506526e+000	 1.7208142124e+000	-1.2645815128e+000
 1.9311415038e+000	 1.7408884204e+000	-1.3793038316e+000
 1.9130207296e+000	 1.7607815561e+000	-1.5049059680e+000
 1.8946910909e+000	 1.7804902893e+000	-1.6406847729e+000
 1.8761554181e+000	 1.8000113464e+000	-1.7859290669e+000
 1.8574166098e+000	 1.8193415121e+000	-1.7385295253e+000
 1.8384776311e+000	 1.8384776311e+000	-1.7145342009e+000
 2.0379271174e+000	 1.6545325818e+000	-9.5839696288e-001
 2.0207268278e+000	 1.6754963704e+000	-1.0031506465e+000
 2.0033024578e+000	 1.6962913259e+000	-1.0616946153e+000
 1.9856565005e+000	 1.7169138773e+000	-1.1334107813e+000
 1.9677915243e+000	 1.7373605029e+000	-1.2176681169e+000
 1.9497101721e+000	 1.7576277322e+000	-1.3138237980e+000
 1.9314151596e+000	 1.7777121480e+000	-1.4212243555e+000
 1.9129092744e+000	 1.7976103882e+000	-1.5392068365e+000
 1.8941953740e+000	 1.8173191478e+000	-1.6670999691e+000
 1.8752763849e+000	 1.8368351805e+000	-1.8042253300e+000
 1.8561553006e+000	 1.8561553006e+000	-1.7662676098e+000
 2.0573359470e+000	 1.6702900350e+000	-9.7895054061e-001
 2.0399718452e+000	 1.6914534787e+000	-1.0057083569e+000
 2.0223815288e+000	 1.7124464814e+000	-1.0464424557e+000
 2.0045675147e+000	 1.7332654380e+000	-1.1005746453e+000
 1.9865323959e+000	 1.7539067934e+000	-1.1675136335e+000
 1.9682788404e+000	 1.7743670439e+000	-1.2466561421e+000
 1.9498095897e+000	 1.7946427398e+000	-1.3373880331e+000
 1.9311274580e+000	 1.8147304871e+000	-1.4390854414e+000
 1.9122353300e+000	 1.8346269492e+000	-1.5511159136e+000
 1.8931361600e+000	 1.8543288489e+000	-1.6728395475e+000
 1.8738329701e+000	 1.8738329701e+000	-1.7933244793e+000
 2.0767447767e+000	 1.6860474881e+000	-9.9037111389e-001
 2.0592168626e+000	 1.7074105870e+000	-1.0007166562e+000
 2.0414605999e+000	 1.7286016369e+000	-1.0252086675e+000
 2.0234785290e+000	 1.7496169988e+000	-1.0633076977e+000
 2.0052732676e+000	 1.7704530839e+000	-1.1144610482e+000
 1.9868475087e+000	 1.7911063556e+000	-1.1781038609e+000
 1.9682040198e+000	 1.8115733317e+000	-1.2536602186e+000
 1.9493456416e+000	 1.8318505861e+000	-1.3405442519e+000
 1.9302752859e+000	 1.8519347506e+000	-1.4381612523e+000
 1.9109959351e+000	 1.8718225172e+000	-1.5459087863e+000
 1.8915106397e+000	 1.8915106397e+000	-1.6028211121e+000
 2.0961536064e+000	 1.7018049413e+000	-9.9315423105e-001
 2.0784618800e+000	 1.7233676953e+000	-9.8863209834e-001
 2.0605396709e+000	 1.7447567924e+000	-9.9841094585e-001
 2.0423895433e+000	 1.7659685595e+000	-1.0219889258e+000
 2.0240141392e+000	 1.7869993744e+000	-1.0588508072e+000
 2.0054161770e+000	 1.8078456674e+000	-1.1084690410e+000
 1.9865984499e+000	 1.8285039236e+000	-1.1703048357e+000
 1.9675638251e+000	 1.8489706850e+000	-1.2438092408e+000
 1.9483152419e+000	 1.8692425520e+000	-1.3284242345e+000
 1.9288557102e+000	 1.8893161856e+000	-1.3745793604e+000
 1.9091883092e+000	 1.9091883092e+000	-1.4202427538e+000
 2.1155624361e+000	 1.7175623944e+000	-9.8778669450e-001
 2.0977068974e+000	 1.7393248036e+000	-9.6990408624e-001
 2.0796187419e+000	 1.7609119479e+000	-9.6646142118e-001
 2.0613005576e+000	 1.7823201203e+000	-9.7699332867e-001
 2.0427550109e+000	 1.8035456649e+000	-1.0010209338e+000
 2.0239848453e+000	 1.8245849791e+000	-1.0380528999e+000
 2.0049928800e+000	 1.8454345155e+000	-1.0875864813e+000
 1.9857820087e+000	 1.8660907839e+000	-1.1491085833e+000
 1.9663551978e+000	 1.8865503534e+000	-1.1848678577e+000
 1.9467154853e+000	 1.9068098540e+000	-1.2115141422e+000
 1.9268659787e+000	 1.9268659787e+000	-1.2596973035e+000
 2.1349712658e+000	 1.7333198476e+000	-9.7474695820e-001
 2.1169519149e+000	 1.7552819119e+000	-9.4497519717e-001
 2.0986978130e+000	 1.7770671034e+000	-9.2976691193e-001
 2.0802115719e+000	 1.7986716810e+000	-9.2869209776e-001
 2.0614958826e+000	 1.8200919554e+000	-9.4130713821e-001
 2.0425535136e+000	 1.8413242908e+000	-9.6715582620e-001
 2.0233873101e+000	 1.8623651074e+000	-1.0057703951e+000
 2.0040001923e+000	 1.8832108829e+000	-1.0315886882e+000
 1.9843951538e+000	 1.9038581548e+000	-1.0385204752e+000
 1.9645752604e+000	 1.9243035224e+000	-1.0681088783e+000
 1.9445436483e+000	 1.9445436482e+000	-1.1201583288e+000
 1.7677669530e+000	 1.7677669530e+000	-1.3311754747e+000
 1.7493668386e+000	 1.7859775094e+000	-1.2135983879e+000
 1.7307801408e+000	 1.8039955943e+000	-1.1225703017e+000
 1.7120098935e+000	 1.8218183566e+000	-1.0605154824e+000
 1.6930591885e+000	 1.8394430092e+000	-1.0297465297e+000
 1.6739311735e+000	 1.8568668306e+000	-1.0324598898e+000
 1.6546290504e+000	 1.8740871660e+000	-1.0707316827e+000
 1.6351560736e+000	 1.8911014290e+000	-1.0594645890e+000
 1.6155155485e+000	 1.9079071027e+000	-1.0767789514e+000
 1.5957108290e+000	 1.9245017408e+000	-1.1261417190e+000
 1.5757453160e+000	 1.9408829689e+000	-1.2062240411e+000
 1.7854446225e+000	 1.7854446225e+000	-1.4464247870e+000
 1.7668605069e+000	 1.8038372845e+000	-1.3390163780e+000
 1.7480879422e+000	 1.8220355503e+000	-1.2596537049e+000
 1.7291299925e+000	 1.8400365402e+000	-1.2107801868e+000
 1.7099897804e+000	 1.8578374393e+000	-1.1947229437e+000
 1.6906704852e+000	 1.8754354989e+000	-1.2114335677e+000
 1.6711753409e+000	 1.8928280376e+000	-1.1756389745e+000
 1.6515076344e+000	 1.9100124433e+000	-1.1741398259e+000
 1.6316707040e+000	 1.9269861737e+000	-1.2054807622e+000
 1.6116679373e+000	 1.9437467582e+000	-1.2682106056e+000
 1.5915027692e+000	 1.9602917986e+000	-1.3608850458e+000
 1.8031222920e+000	 1.8031222920e+000	-1.5510899013e+000
 1.7843541753e+000	 1.8216970596e+000	-1.4509821732e+000
 1.7653957436e+000	 1.8400755062e+000	-1.3805166003e+000
 1.7462500914e+000	 1.8582547237e+000	-1.3421590346e+000
 1.7269203723e+000	 1.8762318694e+000	-1.3320377355e+000
 1.7074097970e+000	 1.8940041672e+000	-1.2741299324e+000
 1.6877216314e+000	 1.9115689093e+000	-1.2516626271e+000
 1.6678591951e+000	 1.9289234576e+000	-1.2630573881e+000
 1.6478258595e+000	 1.9460652448e+000	-1.3067390556e+000
 1.6276250456e+000	 1.9629917756e+000	-1.3811386573e+000
 1.6072602223e+000	 1.9797006283e+000	-1.4846962467e+000
 1.8207999616e+000	 1.8207999616e+000	-1.6416353542e+000
 1.8018478437e+000	 1.8395568347e+000	-1.5460010718e+000
 1.7827035450e+000	 1.8581154622e+000	-1.4817066729e+000
 1.7633701903e+000	 1.8764729073e+000	-1.4440665512e+000
 1.7438509642e+000	 1.8946262995e+000	-1.3613960756e+000
 1.7241491087e+000	 1.9125728355e+000	-1.3155451579e+000
 1.7042679219e+000	 1.9303097810e+000	-1.3048113769e+000
 1.6842107558e+000	 1.9478344719e+000	-1.3274943180e+000
 1.6639810150e+000	 1.9651443158e+000	-1.3818987235e+000
 1.6435821538e+000	 1.9822367930e+000	-1.4663375683e+000
 1.6230176755e+000	 1.9991094580e+000	-1.5791350527e+000
 1.8384776311e+000	 1.8384776311e+000	-1.7145342009e+000
 1.8193415121e+000	 1.8574166098e+000	-1.6205845311e+000
 1.8000113464e+000	 1.8761554181e+000	-1.5543879554e+000
 1.7804902893e+000	 1.8946910909e+000	-1.4440377136e+000
 1.7607815561e+000	 1.9130207296e+000	-1.3721221748e+000
 1.7408884204e+000	 1.9311415038e+000	-1.3368144188e+000
 1.7208142124e+000	 1.9490506526e+000	-1.3362879023e+000
 1.7005623166e+000	 1.9667454862e+000	-1.3687198479e+000
 1.6801361704e+000	 1.9842233868e+000	-1.4322945606e+000
 1.6595392621e+000	 2.0014818104e+000	-1.5252066637e+000
 1.6387751286e+000	 2.0185182877e+000	-1.6456642477e+000
 1.8561553006e+000	 1.8561553006e+000	-1.7662676098e+000
 1.8368351805e+000	 1.8752763849e+000	-1.6700274426e+000
 1.8173191478e+000	 1.8941953740e+000	-1.5288084467e+000
 1.7976103882e+000	 1.9129092744e+000	-1.4278771233e+000
 1.7777121480e+000	 1.9314151596e+000	-1.3652819665e+000
 1.7576277322e+000	 1.9497101721e+000	-1.3390698454e+000
 1.7373605029e+000	 1.9677915243e+000	-1.3472896342e+000
 1.7169138773e+000	 1.9856565005e+000	-1.3879957718e+000
 1.6962913259e+000	 2.0033024578e+000	-1.4592517453e+000
 1.6754963704e+000	 2.0207268278e+000	-1.5591334883e+000
 1.6545325818e+000	 2.0379271174e+000	-1.6857326859e+000
 1.8738329701e+000	 1.8738329701e+000	-1.7933244793e+000
 1.8543288489e+000	 1.8931361600e+000	-1.6226265983e+000
 1.8346269492e+000	 1.9122353300e+000	-1.4894537432e+000
 1.8147304871e+000	 1.9311274580e+000	-1.3965849903e+000
 1.7946427398e+000	 1.9498095897e+000	-1.3419405924e+000
 1.7743670439e+000	 1.9682788404e+000	-1.3234406672e+000
 1.7539067934e+000	 1.9865323959e+000	-1.3390090039e+000
 1.7332654380e+000	 2.0045675147e+000	-1.3865767959e+000
 1.7124464814e+000	 2.0223815288e+000	-1.4640862931e+000
 1.6914534787e+000	 2.0399718452e+000	-1.5694943620e+000
 1.6702900350e+000	 2.0573359470e+000	-1.7007759499e+000
 1.8915106397e+000	 1.8915106397e+000	-1.6028211121e+000
 1.8718225172e+000	 1.9109959351e+000	-1.5636675224e+000
 1.8519347506e+000	 1.9302752859e+000	-1.4372616143e+000
 1.8318505861e+000	 1.9493456416e+000	-1.3511627899e+000
 1.8115733317e+000	 1.9682040198e+000	-1.3031624401e+000
 1.7911063556e+000	 1.9868475087e+000	-1.2910533483e+000
 1.7704530839e+000	 2.0052732676e+000	-1.3126336760e+000
 1.7496169988e+000	 2.0234785290e+000	-1.3657108705e+000
 1.7286016369e+000	 2.0414605999e+000	-1.4481054850e+000
 1.7074105870e+000	 2.0592168626e+000	-1.5576549050e+000
 1.6860474881e+000	 2.0767447767e+000	-1.6922169701e+000
 1.9091883092e+000	 1.9091883092e+000	-1.4202427538e+000
 1.8893161856e+000	 1.9288557102e+000	-1.4081686388e+000
 1.8692425520e+000	 1.9483152419e+000	-1.3731729704e+000
 1.8489706850e+000	 1.9675638251e+000	-1.2926132047e+000
 1.8285039236e+000	 1.9865984499e+000	-1.2500111776e+000
 1.8078456674e+000	 2.0054161770e+000	-1.2430317154e+000
 1.7869993744e+000	 2.0240141392e+000	-1.2693467700e+000
 1.7659685595e+000	 2.0423895433e+000	-1.3266395019e+000
 1.7447567924e+000	 2.0605396709e+000	-1.4126082719e+000
 1.7233676953e+000	 2.0784618800e+000	-1.5249705327e+000
 1.7018049413e+000	 2.0961536064e+000	-1.6614666108e+000
 1.9268659787e+000	 1.9268659787e+000	-1.2596973035e+000
 1.9068098540e+000	 1.9467154853e+000	-1.2511109891e+000
 1.8865503534e+000	 1.9663551978e+000	-1.2488533745e+000
 1.8660907839e+000	 1.9857820087e+000	-1.2219400683e+000
 1.8454345155e+000	 2.0049928800e+000	-1.1835497864e+000
 1.8245849791e+000	 2.0239848453e+000	-1.1804970793e+000
 1.8035456649e+000	 2.0427550109e+000	-1.2103270680e+000
 1.7823201203e+000	 2.0613005576e+000	-1.2705980487e+000
 1.7609119479e+000	 2.0796187419e+000	-1.3588856564e+000
 1.7393248036e+000	 2.0977068974e+000	-1.4727869237e+000
 1.7175623944e+000	 2.1155624361e+000	-1.6099242238e+000
 1.9445436483e+000	 1.9445436482e+000	-1.1201583288e+000
 1.9243035224e+000	 1.9645752604e+000	-1.1134096037e+000
 1.9038581548e+000	 1.9843951538e+000	-1.1129136974e+000
 1.8832108829e+000	 2.0040001923e+000	-1.1182405514e+000
 1.8623651074e+000	 2.0233873101e+000	-1.1048405929e+000
 1.8413242908e+000	 2.0425535136e+000	-1.1045683485e+000
 1.8200919554e+000	 2.0614958826e+000	-1.1367492123e+000
 1.7986716810e+000	 2.0802115719e+000	-1.1988160009e+000
 1.7770671034e+000	 2.0986978130e+000	-1.2882210546e+000
 1.7552819119e+000	 2.1169519149e+000	-1.4024404628e+000
 1.7333198476e+000	 2.1349712658e+000	-1.5389781714e+000
 1.5757453160e+000	 1.9408829689e+000	-1.2062240411e+000
 1.5556224556e+000	 1.9570484858e+000	-1.1080225656e+000
 1.5353457367e+000	 1.9729960641e+000	-1.0504178095e+000
 1.5149186895e+000	 1.9887235515e+000	-1.0311806465e+000
 1.4943448831e+000	 2.0042288717e+000	-1.0480870875e+000
 1.4736279238e+000	 2.0195100253e+000	-1.0989214554e+000
 1.4527714528e+000	 2.0345650901e+000	-1.1814794675e+000
 1.4317791441e+000	 2.0493922227e+000	-1.2935712214e+000
 1.4106547028e+000	 2.0639896582e+000	-1.4330240793e+000
 1.3894018625e+000	 2.0783557117e+000	-1.5976854459e+000
 1.3680243835e+000	 2.0924887780e+000	-1.7854254346e+000
 1.5915027692e+000	 1.9602917986e+000	-1.3608850458e+000
 1.5711786801e+000	 1.9766189706e+000	-1.2471743538e+000
 1.5506991940e+000	 1.9927260247e+000	-1.1705309956e+000
 1.5300678764e+000	 2.0086107870e+000	-1.1288171353e+000
 1.5092883319e+000	 2.0242711605e+000	-1.1199042368e+000
 1.4883642030e+000	 2.0397051255e+000	-1.1416761439e+000
 1.4672991673e+000	 2.0549107410e+000	-1.1920320623e+000
 1.4460969356e+000	 2.0698861449e+000	-1.2688894384e+000
 1.4247612499e+000	 2.0846295548e+000	-1.3701867294e+000
 1.4032958811e+000	 2.0991392688e+000	-1.4938860609e+000
 1.3817046273e+000	 2.1134136658e+000	-1.6379757674e+000
 1.6072602223e+000	 1.9797006283e+000	-1.4846962467e+000
 1.5867349047e+000	 1.9961894555e+000	-1.3598062599e+000
 1.5660526514e+000	 2.0124559853e+000	-1.2684898975e+000
 1.5452170632e+000	 2.0284980225e+000	-1.2086975521e+000
 1.5242317808e+000	 2.0443134492e+000	-1.1783931012e+000
 1.5031004823e+000	 2.0599002258e+000	-1.1755568965e+000
 1.4818268818e+000	 2.0752563919e+000	-1.1981886488e+000
 1.4604147270e+000	 2.0903800671e+000	-1.2443102022e+000
 1.4388677969e+000	 2.1052694514e+000	-1.3119681933e+000
 1.4171898998e+000	 2.1199228259e+000	-1.3992365912e+000
 1.3953848711e+000	 2.1343385536e+000	-1.5042191147e+000
 1.6230176755e+000	 1.9991094580e+000	-1.5791350527e+000
 1.6022911292e+000	 2.0157599404e+000	-1.4472840474e+000
 1.5814061088e+000	 2.0321859460e+000	-1.3455460826e+000
 1.5603662501e+000	 2.0483852580e+000	-1.2719567679e+000
 1.5391752296e+000	 2.0643557379e+000	-1.2245694073e+000
 1.5178367615e+000	 2.0800953260e+000	-1.2014579015e+000
 1.4963545964e+000	 2.0956020428e+000	-1.2007195388e+000
 1.4747325185e+000	 2.1108739893e+000	-1.2204776672e+000
 1.4529743439e+000	 2.1259093480e+000	-1.2588842460e+000
 1.4310839184e+000	 2.1407063830e+000	-1.3141222711e+000
 1.4090651150e+000	 2.1552634414e+000	-1.3844080707e+000
 1.6387751286e+000	 2.0185182877e+000	-1.6456642477e+000
 1.6178473538e+000	 2.0353304252e+000	-1.5109633930e+000
 1.5967595661e+000	 2.0519159066e+000	-1.4029456417e+000
 1.5755154370e+000	 2.0682724935e+000	-1.3197288559e+000
 1.5541186784e+000	 2.0843980266e+000	-1.2594528293e+000
 1.5325730408e+000	 2.1002904263e+000	-1.2202821044e+000
 1.5108823109e+000	 2.1159476937e+000	-1.2004086723e+000
 1.4890503099e+000	 2.1313679116e+000	-1.1980545463e+000
 1.4670808910e+000	 2.1465492446e+000	-1.2114742081e+000
 1.4449779370e+000	 2.1614899402e+000	-1.2389569212e+000
 1.4227453588e+000	 2.1761883292e+000	-1.2788289080e+000
 1.6545325818e+000	 2.0379271174e+000	-1.6857326859e+000
 1.6334035783e+000	 2.0549009101e+000	-1.5521903673e+000
 1.6121130235e+000	 2.0716458673e+000	-1.4419294493e+000
 1.5906646239e+000	 2.0881597291e+000	-1.3531471293e+000
 1.5690621273e+000	 2.1044403153e+000	-1.2840668008e+000
 1.5473093200e+000	 2.1204855265e+000	-1.2329407904e+000
 1.5254100254e+000	 2.1362933446e+000	-1.1980529683e+000
 1.5033681014e+000	 2.1518618338e+000	-1.1777212268e+000
 1.4811874380e+000	 2.1671891411e+000	-1.1702998239e+000
 1.4588719557e+000	 2.1822734973e+000	-1.1741815869e+000
 1.4364256026e+000	 2.1971132169e+000	-1.1877999746e+000
 1.6702900350e+000	 2.0573359470e+000	-1.7007759499e+000
 1.6489598029e+000	 2.0744713949e+000	-1.5723018873e+000
 1.6274664809e+000	 2.0913758279e+000	-1.4637334103e+000
 1.6058138108e+000	 2.1080469646e+000	-1.3733441773e+000
 1.5840055761e+000	 2.1244826040e+000	-1.2994383378e+000
 1.5620455992e+000	 2.1406806268e+000	-1.2403531914e+000
 1.5399377400e+000	 2.1566389955e+000	-1.1944617126e+000
 1.5176858928e+000	 2.1723557560e+000	-1.1601749368e+000
 1.4952939850e+000	 2.1878290377e+000	-1.1359442038e+000
 1.4727659743e+000	 2.2030570544e+000	-1.1202632546e+000
 1.4501058465e+000	 2.2180381047e+000	-1.1116701803e+000
 1.6860474881e+000	 2.0767447767e+000	-1.6922169701e+000
 1.6645160274e+000	 2.0940418798e+000	-1.5726261446e+000
 1.6428199382e+000	 2.1111057885e+000	-1.4695886918e+000
 1.6209629977e+000	 2.1279342001e+000	-1.3814518989e+000
 1.5989490249e+000	 2.1445248928e+000	-1.3065978709e+000
 1.5767818785e+000	 2.1608757270e+000	-1.2434461144e+000
 1.5544654545e+000	 2.1769846464e+000	-1.1904559801e+000
 1.5320036842e+000	 2.1928496783e+000	-1.1461289585e+000
 1.5094005321e+000	 2.2084689343e+000	-1.1090108261e+000
 1.4866599929e+000	 2.2238406115e+000	-1.0776936389e+000
 1.4637860903e+000	 2.2389629925e+000	-1.0508175690e+000
 1.7018049413e+000	 2.0961536064e+000	-1.6614666108e+000
 1.6800722520e+000	 2.1136123646e+000	-1.5544830089e+000
 1.6581733956e+000	 2.1308357492e+000	-1.4607219425e+000
 1.6361121846e+000	 2.1478214356e+000	-1.3786015349e+000
 1.6138924738e+000	 2.1645671815e+000	-1.3065790874e+000
 1.5915181577e+000	 2.1810708273e+000	-1.2431535910e+000
 1.5689931690e+000	 2.1973302973e+000	-1.1868680887e+000
 1.5463214757e+000	 2.2133436005e+000	-1.1363118843e+000
 1.5235070791e+000	 2.2291088309e+000	-1.0901225942e+000
 1.5005540115e+000	 2.2446241686e+000	-1.0469880384e+000
 1.4774663341e+000	 2.2598878803e+000	-1.0056479695e+000
 1.7175623944e+000	 2.1155624361e+000	-1.6099242238e+000
 1.6956284766e+000	 2.1331828495e+000	-1.5191844104e+000
 1.6735268530e+000	 2.1505657098e+000	-1.4383555001e+000
 1.6512613715e+000	 2.1677086711e+000	-1.3659236979e+000
 1.6288359226e+000	 2.1846094702e+000	-1.3004187820e+000
 1.6062544370e+000	 2.2012659275e+000	-1.2404165459e+000
 1.5835208835e+000	 2.2176759482e+000	-1.1845410838e+000
 1.5606392671e+000	 2.2338375227e+000	-1.1314669154e+000
 1.5376136261e+000	 2.2497487275e+000	-1.0799209449e+000
 1.5144480302e+000	 2.2654077258e+000	-1.0286842535e+000
 1.4911465780e+000	 2.2808127681e+000	-9.7659372134e-001
 1.7333198476e+000	 2.1349712658e+000	-1.5389781714e+000
 1.7111847011e+000	 2.1527533344e+000	-1.4680347000e+000
 1.6888803104e+000	 2.1702956705e+000	-1.4037075871e+000
 1.6664105584e+000	 2.1875959066e+000	-1.3445484013e+000
 1.6437793714e+000	 2.2046517589e+000	-1.2891567156e+000
 1.6209907162e+000	 2.2214610278e+000	-1.2361824835e+000
 1.5980485981e+000	 2.2380215991e+000	-1.1843282507e+000
 1.5749570586e+000	 2.2543314449e+000	-1.1323511970e+000
 1.5517201731e+000	 2.2703886241e+000	-1.0790650066e+000
 1.5283420488e+000	 2.2861912829e+000	-1.0233415634e+000
 1.5048268218e+000	 2.3017376559e+000	-9.6411246945e-001
 1.3680243835e+000	 2.0924887780e+000	-1.7854254346e+000
 1.3465260504e+000	 2.1063873328e+000	-1.7035495413e+000
 1.3249106704e+000	 2.1200499323e+000	-1.5422034016e+000
 1.3031820709e+000	 2.1334752143e+000	-1.3025141507e+000
 1.2813440973e+000	 2.1466618980e+000	-9.8570827898e-001
 1.2594006108e+000	 2.1596087844e+000	-5.9310979333e-001
 1.2373554867e+000	 2.1723147561e+000	-6.5473322859e-001
 1.2152126119e+000	 2.1847787778e+000	-1.0276403069e+000
 1.1929758828e+000	 2.1969998960e+000	-1.3189987126e+000
 1.1706492033e+000	 2.2089772391e+000	-1.5328044010e+000
 1.1482364826e+000	 2.2207100171e+000	-1.6729998493e+000
 1.3817046273e+000	 2.1134136658e+000	-1.6379757674e+000
 1.3599913109e+000	 2.1274512061e+000	-1.5953007281e+000
 1.3381597771e+000	 2.1412504316e+000	-1.4795027887e+000
 1.3162138916e+000	 2.1548099664e+000	-1.2914971184e+000
 1.2941575382e+000	 2.1681285170e+000	-1.0322958601e+000
 1.2719946169e+000	 2.1812048722e+000	-7.0300653504e-001
 1.2497290416e+000	 2.1940379036e+000	-3.1598697114e-001
 1.2273647380e+000	 2.2066265656e+000	-7.6388768750e-001
 1.2049056416e+000	 2.2189698950e+000	-1.1370479279e+000
 1.1823556953e+000	 2.2310670115e+000	-1.4392781463e+000
 1.1597188475e+000	 2.2429171172e+000	-1.6743278715e+000
 1.3953848711e+000	 2.1343385536e+000	-1.5042191147e+000
 1.3734565714e+000	 2.1485150794e+000	-1.4954134748e+000
 1.3514088839e+000	 2.1624509309e+000	-1.4196737873e+000
 1.3292457123e+000	 2.1761447186e+000	-1.2777058606e+000
 1.3069709792e+000	 2.1895951360e+000	-1.0703102182e+000
 1.2845886230e+000	 2.2028009601e+000	-7.9838074340e-001
 1.2621025965e+000	 2.2157610512e+000	-4.6290314446e-001
 1.2395168641e+000	 2.2284743533e+000	-4.8826737613e-001
 1.2168354005e+000	 2.2409398939e+000	-9.3754795416e-001
 1.1940621873e+000	 2.2531567839e+000	-1.3224999121e+000
 1.1712012123e+000	 2.2651242174e+000	-1.6466827801e+000
 1.4090651150e+000	 2.1552634414e+000	-1.3844080707e+000
 1.3869218319e+000	 2.1695789527e+000	-1.4042935755e+000
 1.3646579906e+000	 2.1836514302e+000	-1.3632782244e+000
 1.3422775331e+000	 2.1974794707e+000	-1.2618609816e+000
 1.3197844202e+000	 2.2110617550e+000	-1.1006333900e+000
 1.2971826291e+000	 2.2243970479e+000	-8.8027845235e-001
 1.2744761513e+000	 2.2374841988e+000	-6.0156933149e-001
 1.2516689903e+000	 2.2503221411e+000	-2.6536787513e-001
 1.2287651593e+000	 2.2629098929e+000	-7.1852209979e-001
 1.2057686794e+000	 2.2752465563e+000	-1.1806929701e+000
 1.1826835771e+000	 2.2873313176e+000	-1.5884922283e+000
 1.4227453588e+000	 2.1761883292e+000	-1.2788289080e+000
 1.4003870924e+000	 2.1906428261e+000	-1.3223745725e+000
 1.3779070973e+000	 2.2048519296e+000	-1.3108996059e+000
 1.3553093538e+000	 2.2188142229e+000	-1.2446985608e+000
 1.3325978612e+000	 2.2325283739e+000	-1.1241565518e+000
 1.3097766352e+000	 2.2459931357e+000	-9.4974837169e-001
 1.2868497062e+000	 2.2592073463e+000	-7.2203742362e-001
 1.2638211164e+000	 2.2721699289e+000	-4.4167447516e-001
 1.2406949181e+000	 2.2848798918e+000	-4.7797622426e-001
 1.2174751714e+000	 2.2973363287e+000	-1.0120562024e+000
 1.1941659420e+000	 2.3095384178e+000	-1.4981524289e+000
 1.4364256026e+000	 2.1971132169e+000	-1.1877999746e+000
 1.4138523529e+000	 2.2117066994e+000	-1.2501164347e+000
 1.3911562040e+000	 2.2260524289e+000	-1.2631420851e+000
 1.3683411745e+000	 2.2401489750e+000	-1.2269694160e+000
 1.3454113021e+000	 2.2539949929e+000	-1.1417795842e+000
 1.3223706413e+000	 2.2675892236e+000	-1.0078417597e+000
 1.2992232611e+000	 2.2809304939e+000	-8.2551228730e-001
 1.2759732425e+000	 2.2940177167e+000	-5.9523366719e-001
 1.2526246769e+000	 2.3068498908e+000	-3.1753335849e-001
 1.2291816635e+000	 2.3194261010e+000	-8.1476526282e-001
 1.2056483068e+000	 2.3317455179e+000	-1.3740296519e+000
 1.4501058465e+000	 2.2180381047e+000	-1.1116701803e+000
 1.4273176134e+000	 2.2327705727e+000	-1.1880043115e+000
 1.4044053107e+000	 2.2472529282e+000	-1.2206294878e+000
 1.3813729952e+000	 2.2614837271e+000	-1.2094384082e+000
 1.3582247431e+000	 2.2754616119e+000	-1.1544106617e+000
 1.3349646475e+000	 2.2891853114e+000	-1.0556123027e+000
 1.3115968159e+000	 2.3026536414e+000	-9.1319523851e-001
 1.2881253686e+000	 2.3158655044e+000	-7.2739643305e-001
 1.2645544358e+000	 2.3288198898e+000	-4.9853693101e-001
 1.2408881555e+000	 2.3415158734e+000	-5.8697367289e-001
 1.2171306716e+000	 2.3539526181e+000	-1.2144616365e+000
 1.4637860903e+000	 2.2389629925e+000	-1.0508175690e+000
 1.4407828739e+000	 2.2538344460e+000	-1.1365473559e+000
 1.4176544174e+000	 2.2684534275e+000	-1.1840043938e+000
 1.3944048159e+000	 2.2828184793e+000	-1.1928837852e+000
 1.3710381841e+000	 2.2969282309e+000	-1.1629658651e+000
 1.3475586536e+000	 2.3107813993e+000	-1.0941160020e+000
 1.3239703708e+000	 2.3243767890e+000	-9.8628420863e-001
 1.3002774948e+000	 2.3377132922e+000	-8.3950456592e-001
 1.2764841946e+000	 2.3507898887e+000	-6.5389446425e-001
 1.2525946475e+000	 2.3636056458e+000	-4.2965366604e-001
 1.2286130364e+000	 2.3761597183e+000	-1.0177589245e+000
 1.4774663341e+000	 2.2598878803e+000	-1.0056479695e+000
 1.4542481344e+000	 2.2748983194e+000	-1.0962776132e+000
 1.4309035241e+000	 2.2896539269e+000	-1.1539272683e+000
 1.4074366366e+000	 2.3041532314e+000	-1.1780965621e+000
 1.3838516251e+000	 2.3183948499e+000	-1.1683688154e+000
 1.3601526597e+000	 2.3323774871e+000	-1.1244110663e+000
 1.3363439257e+000	 2.3460999366e+000	-1.0459739011e+000
 1.3124296209e+000	 2.3595610800e+000	-9.3289109576e-001
 1.2884139534e+000	 2.3727598877e+000	-7.8507907089e-001
 1.2643011396e+000	 2.3856954182e+000	-6.0253616500e-001
 1.2400954013e+000	 2.3983668184e+000	-7.8220611949e-001
 1.4911465780e+000	 2.2808127681e+000	-9.7659372134e-001
 1.4677133949e+000	 2.2959621927e+000	-1.0677489710e+000
 1.4441526308e+000	 2.3108544262e+000	-1.1310756414e+000
 1.4204684573e+000	 2.3254879836e+000	-1.1658799354e+000
 1.3966650660e+000	 2.3398614688e+000	-1.1715503281e+000
 1.3727466658e+000	 2.3539735750e+000	-1.1475578108e+000
 1.3487174805e+000	 2.3678230841e+000	-1.0934559397e+000
 1.3245817470e+000	 2.3814088678e+000	-1.0088806913e+000
 1.3003437123e+000	 2.3947298867e+000	-8.9355012851e-001
 1.2760076316e+000	 2.4077851906e+000	-7.4726388116e-001
 1.2515777661e+000	 2.4205739186e+000	-5.6990244399e-001
 1.5048268218e+000	 2.3017376559e+000	-9.6411246945e-001
 1.4811786555e+000	 2.3170260660e+000	-1.0515361663e+000
 1.4574017375e+000	 2.3320549255e+000	-1.1161433326e+000
 1.4335002780e+000	 2.3468227357e+000	-1.1570487293e+000
 1.4094785070e+000	 2.3613280878e+000	-1.1734480857e+000
 1.3853406719e+000	 2.3755696628e+000	-1.1646185611e+000
 1.3610910354e+000	 2.3895462317e+000	-1.1299190082e+000
 1.3367338731e+000	 2.4032566556e+000	-1.0687900400e+000
 1.3122734711e+000	 2.4166998856e+000	-9.8075390389e-001
 1.2877141236e+000	 2.4298749630e+000	-8.6541416616e-001
 1.2630601309e+000	 2.4427810188e+000	-7.2245520971e-001
 1.1482364826e+000	 2.2207100171e+000	-1.6729998493e+000
 1.1257416334e+000	 2.2321975215e+000	-1.4792292916e+000
 1.1031685694e+000	 2.2434391250e+000	-1.3024113367e+000
 1.0805212035e+000	 2.2544342814e+000	-1.1431868761e+000
 1.0578034457e+000	 2.2651825247e+000	-1.0020860759e+000
 1.0350192013e+000	 2.2756834694e+000	-8.7953030741e-001
 1.0121723687e+000	 2.2859368093e+000	-7.7583430264e-001
 9.8926683732e-001	 2.2959423174e+000	-6.9120852147e-001
 9.6630648602e-001	 2.3056998450e+000	-6.2576172164e-001
 9.4329518099e-001	 2.3152093213e+000	-5.7950371911e-001
 9.2023677391e-001	 2.3244707527e+000	-5.5234832757e-001
 1.1597188475e+000	 2.2429171172e+000	-1.6743278715e+000
 1.1369990498e+000	 2.2545194967e+000	-1.4935834840e+000
 1.1142002551e+000	 2.2658735162e+000	-1.3270026960e+000
 1.0913264155e+000	 2.2769786242e+000	-1.1753069191e+000
 1.0683814802e+000	 2.2878343500e+000	-1.0391053891e+000
 1.0453693934e+000	 2.2984403041e+000	-9.1889707077e-001
 1.0222940924e+000	 2.3087961774e+000	-8.1507279201e-001
 9.9915950569e-001	 2.3189017405e+000	-7.2791759632e-001
 9.7596955088e-001	 2.3287568434e+000	-6.5761330252e-001
 9.5272813280e-001	 2.3383614145e+000	-6.0424126029e-001
 9.2943914165e-001	 2.3477154602e+000	-5.6778528966e-001
 1.1712012123e+000	 2.2651242174e+000	-1.6466827801e+000
 1.1482564661e+000	 2.2768414719e+000	-1.4814897481e+000
 1.1252319408e+000	 2.2883079075e+000	-1.3278221656e+000
 1.1021316275e+000	 2.2995229670e+000	-1.1864799688e+000
 1.0789595146e+000	 2.3104861752e+000	-1.0581493178e+000
 1.0557195854e+000	 2.3211971388e+000	-9.4340447974e-001
 1.0324158161e+000	 2.3316555455e+000	-8.4270994660e-001
 1.0090521741e+000	 2.3418611637e+000	-7.5642277709e-001
 9.8563261575e-001	 2.3518138419e+000	-6.8479515123e-001
 9.6216108461e-001	 2.3615135077e+000	-6.2797712603e-001
 9.3864150939e-001	 2.3709601677e+000	-5.8601958001e-001
 1.1826835771e+000	 2.2873313176e+000	-1.5884922283e+000
 1.1595138824e+000	 2.2991634471e+000	-1.4413437881e+000
 1.1362636265e+000	 2.3107422987e+000	-1.3032329250e+000
 1.1129368396e+000	 2.3220673098e+000	-1.1750361217e+000
 1.0895375491e+000	 2.3331380004e+000	-1.0575143344e+000
 1.0660697774e+000	 2.3439539735e+000	-9.5131485837e-001
 1.0425375398e+000	 2.3545149136e+000	-8.5697343370e-001
 1.0189448424e+000	 2.3648205869e+000	-7.7491658158e-001
 9.9529568061e-001	 2.3748708403e+000	-7.0546415843e-001
 9.7159403643e-001	 2.3846656010e+000	-6.4883211670e-001
 9.4784387714e-001	 2.3942048752e+000	-6.0513545970e-001
 1.1941659420e+000	 2.3095384178e+000	-1.4981524289e+000
 1.1707712988e+000	 2.3214854223e+000	-1.3715119662e+000
 1.1472953122e+000	 2.3331766900e+000	-1.2515709908e+000
 1.1237420516e+000	 2.3446116526e+000	-1.1392805700e+000
 1.1001155835e+000	 2.3557898257e+000	-1.0354743437e+000
 1.0764199694e+000	 2.3667108082e+000	-9.4087037604e-001
 1.0526592634e+000	 2.3773742817e+000	-8.5607325396e-001
 1.0288375108e+000	 2.3877800100e+000	-7.8157642238e-001
 1.0049587455e+000	 2.3979278388e+000	-7.1776474279e-001
 9.8102698824e-001	 2.4078176942e+000	-6.6491726421e-001
 9.5704624488e-001	 2.4174495828e+000	-6.2321019350e-001
 1.2056483068e+000	 2.3317455179e+000	-1.3740296519e+000
 1.1820287151e+000	 2.3438073975e+000	-1.2703327001e+000
 1.1583269979e+000	 2.3556110812e+000	-1.1711465102e+000
 1.1345472636e+000	 2.3671559954e+000	-1.0774947876e+000
 1.1106936180e+000	 2.3784416509e+000	-9.9028175747e-001
 1.0867701614e+000	 2.3894676429e+000	-9.1029400721e-001
 1.0627809871e+000	 2.4002336497e+000	-8.3820258263e-001
 1.0387301792e+000	 2.4107394332e+000	-7.7456532612e-001
 1.0146218103e+000	 2.4209848372e+000	-7.1982944493e-001
 9.9045994005e-001	 2.4309697874e+000	-6.7433429723e-001
 9.6624861262e-001	 2.4406942903e+000	-6.3831438301e-001
 1.2171306716e+000	 2.3539526181e+000	-1.2144616365e+000
 1.1932861314e+000	 2.3661293727e+000	-1.1361177808e+000
 1.1693586836e+000	 2.3780454725e+000	-1.0602449816e+000
 1.1453524757e+000	 2.3897003382e+000	-9.8793764898e-001
 1.1212716525e+000	 2.4010934762e+000	-9.2016850818e-001
 1.0971203534e+000	 2.4122244775e+000	-8.5779043689e-001
 1.0729027108e+000	 2.4230930178e+000	-8.0153856320e-001
 1.0486228476e+000	 2.4336988564e+000	-7.5203261205e-001
 1.0242848752e+000	 2.4440418357e+000	-7.0977948768e-001
 9.9989289186e-001	 2.4541218806e+000	-6.7517607995e-001
 9.7545098036e-001	 2.4639389978e+000	-6.4851228101e-001
 1.2286130364e+000	 2.3761597183e+000	-1.0177589245e+000
 1.2045435478e+000	 2.3884513479e+000	-9.6715361725e-001
 1.1803903692e+000	 2.4004798637e+000	-9.1712840600e-001
 1.1561576877e+000	 2.4122446810e+000	-8.6884648514e-001
 1.1318496869e+000	 2.4237453014e+000	-8.2334700622e-001
 1.1074705454e+000	 2.4349813122e+000	-7.8154691521e-001
 1.0830244345e+000	 2.4459523859e+000	-7.4424305659e-001
 1.0585155159e+000	 2.4566582796e+000	-7.1211453261e-001
 1.0339479401e+000	 2.4670988341e+000	-6.8572530498e-001
 1.0093258437e+000	 2.4772739738e+000	-6.6552702636e-001
 9.8465334810e-001	 2.4871837053e+000	-6.5186208806e-001
 1.2400954013e+000	 2.3983668184e+000	-7.8220611949e-001
 1.2158009641e+000	 2.4107733232e+000	-7.6170241098e-001
 1.1914220549e+000	 2.4229142550e+000	-7.4003637522e-001
 1.1669628997e+000	 2.4347890238e+000	-7.1843808107e-001
 1.1424277214e+000	 2.4463971267e+000	-6.9801104352e-001
 1.1178207375e+000	 2.4577381469e+000	-6.7973406467e-001
 1.0931461582e+000	 2.4688117540e+000	-6.6446334864e-001
 1.0684081843e+000	 2.4796177027e+000	-6.5293487834e-001
 1.0436110049e+000	 2.4901558326e+000	-6.4576704131e-001
 1.0187587955e+000	 2.5004260670e+000	-6.4253092903e-001
 9.9385571584e-001	 2.5104284129e+000	-6.1997642789e-001
 1.2515777661e+000	 2.4205739186e+000	-5.6990244399e-001
 1.2270583804e+000	 2.4330952984e+000	-5.1800326694e-001
 1.2024537406e+000	 2.4453486462e+000	-5.2718709956e-001
 1.1777681118e+000	 2.4573333667e+000	-5.3490961817e-001
 1.1530057558e+000	 2.4690489519e+000	-5.4233664765e-001
 1.1281709295e+000	 2.4804949816e+000	-5.5050664282e-001
 1.1032678819e+000	 2.4916711221e+000	-5.6033281869e-001
 1.0783008527e+000	 2.5025771259e+000	-5.6618062827e-001
 1.0532740698e+000	 2.5132128310e+000	-5.5166034045e-001
 1.0281917473e+000	 2.5235781602e+000	-5.3325483595e-001
 1.0030580836e+000	 2.5336731204e+000	-5.0806725027e-001
 1.2630601309e+000	 2.4427810188e+000	-7.2245520971e-001
 1.2383157968e+000	 2.4554172736e+000	-2.3427324315e-001
 1.2134854263e+000	 2.4677830375e+000	-2.7677837980e-001
 1.1885733238e+000	 2.4798777095e+000	-3.1643956534e-001
 1.1635837903e+000	 2.4917007772e+000	-3.5448288930e-001
 1.1385211215e+000	 2.5032518163e+000	-3.8353971576e-001
 1.1133896056e+000	 2.5145304902e+000	-3.9020212622e-001
 1.0881935211e+000	 2.5255365491e+000	-3.9239789918e-001
 1.0629371346e+000	 2.5362698295e+000	-3.8672219345e-001
 1.0376246991e+000	 2.5467302535e+000	-3.7010862658e-001
 1.0122604513e+000	 2.5569178279e+000	-3.3982058380e-001
 9.2023677391e-001	 2.3244707527e+000	-5.5234832757e-001
 8.9713510015e-001	 2.3334842215e+000	-4.9507306819e-001
 8.7399397693e-001	 2.3422498860e+000	-4.4375361183e-001
 8.5081720161e-001	 2.3507679787e+000	-3.9780686701e-001
 8.2760854992e-001	 2.3590388060e+000	-3.5658197821e-001
 8.0437177429e-001	 2.3670627471e+000	-3.1936398484e-001
 7.8111060220e-001	 2.3748402530e+000	-2.8537756624e-001
 7.5782873460e-001	 2.3823718453e+000	-2.5379086079e-001
 7.3452984428e-001	 2.3896581153e+000	-2.2371934695e-001
 7.1121757443e-001	 2.3966997229e+000	-1.9422977433e-001
 6.8789553712e-001	 2.4034973955e+000	-1.6434413287e-001
 9.2943914165e-001	 2.3477154602e+000	-5.6778528966e-001
 9.0610645115e-001	 2.3568190637e+000	-4.9120501139e-001
 8.8273391670e-001	 2.3656723848e+000	-4.1907450764e-001
 8.5932537363e-001	 2.3742756584e+000	-3.5105765067e-001
 8.3588463542e-001	 2.3826291940e+000	-2.8674623333e-001
 8.1241549204e-001	 2.3907333746e+000	-2.2566350769e-001
 7.8892170823e-001	 2.3985886555e+000	-1.6726781934e-001
 7.6540702195e-001	 2.4061955637e+000	-1.1095632512e-001
 7.4187514273e-001	 2.4135546964e+000	-5.6068782079e-002
 7.1832975018e-001	 2.4206667202e+000	-1.8913954893e-003
 6.9477449249e-001	 2.4275323694e+000	 5.2339286036e-002
 9.3864150939e-001	 2.3709601677e+000	-5.8601958001e-001
 9.1507780216e-001	 2.3801539060e+000	-5.0031077565e-001
 8.9147385648e-001	 2.3890948837e+000	-4.1764812559e-001
 8.6783354565e-001	 2.3977833382e+000	-3.3793654906e-001
 8.4416072093e-001	 2.4062195821e+000	-2.6100451236e-001
 8.2045920978e-001	 2.4144040021e+000	-1.8660745441e-001
 7.9673281426e-001	 2.4223370580e+000	-1.1443131771e-001
 7.7298530930e-001	 2.4300192822e+000	-4.4096172031e-002
 7.4922044118e-001	 2.4374512776e+000	 2.4840081448e-002
 7.2544192593e-001	 2.4446337174e+000	 9.2877937896e-002
 7.0165344787e-001	 2.4515673434e+000	 1.6057246067e-001
 9.4784387714e-001	 2.3942048752e+000	-6.0513545970e-001
 9.2404915316e-001	 2.4034887482e+000	-5.2025561998e-001
 9.0021379625e-001	 2.4125173825e+000	-4.3712094981e-001
 8.7634171767e-001	 2.4212910180e+000	-3.5587158816e-001
 8.5243680643e-001	 2.4298099702e+000	-2.7656678755e-001
 8.2850292753e-001	 2.4380746295e+000	-1.9918823408e-001
 8.0454392028e-001	 2.4460854606e+000	-1.2364348218e-001
 7.8056359665e-001	 2.4538430006e+000	-4.9769491600e-002
 7.5656573962e-001	 2.4613478587e+000	 2.2663746001e-002
 7.3255410168e-001	 2.4686007146e+000	 9.3949503392e-002
 7.0853240324e-001	 2.4756023173e+000	 1.6444054941e-001
 9.5704624488e-001	 2.4174495828e+000	-6.2321019350e-001
 9.3302050416e-001	 2.4268235904e+000	-5.4890764721e-001
 9.0895373602e-001	 2.4359398814e+000	-4.7515218870e-001
 8.8484988969e-001	 2.4447986978e+000	-4.0231343417e-001
 8.6071289193e-001	 2.4534003582e+000	-3.3067561840e-001
 8.3654664528e-001	 2.4617452570e+000	-2.6044081640e-001
 8.1235502631e-001	 2.4698338631e+000	-1.9173228934e-001
 7.8814188400e-001	 2.4776667191e+000	-1.2459794205e-001
 7.6391103807e-001	 2.4852444399e+000	-5.9013879298e-002
 7.3966627743e-001	 2.4925677118e+000	 5.1119519401e-003
 7.1541135862e-001	 2.4996372913e+000	 6.7936046780e-002
 9.6624861262e-001	 2.4406942903e+000	-6.3831438301e-001
 9.4199185517e-001	 2.4501584326e+000	-5.8413766855e-001
 9.1769367579e-001	 2.4593623803e+000	-5.2941316894e-001
 8.9335806171e-001	 2.4683063776e+000	-4.7473431547e-001
 8.6898897743e-001	 2.4769907463e+000	-4.2060459990e-001
 8.4459036302e-001	 2.4854158845e+000	-3.6744070499e-001
 8.2016613233e-001	 2.4935822656e+000	-3.1557576888e-001
 7.9572017134e-001	 2.5014904375e+000	-2.6470734875e-001
 7.7125633651e-001	 2.5091410210e+000	-2.0813535608e-001
 7.4677845317e-001	 2.5165347091e+000	-1.4422125221e-001
 7.2229031399e-001	 2.5236722653e+000	-7.2310457302e-002
 9.7545098036e-001	 2.4639389978e+000	-6.4851228101e-001
 9.5096320617e-001	 2.4734932748e+000	-6.2381907588e-001
 9.2643361556e-001	 2.4827848791e+000	-5.9758676393e-001
 9.0186623372e-001	 2.4918140574e+000	-5.7062700548e-001
 8.7726506293e-001	 2.5005811343e+000	-5.4298381531e-001
 8.5263408076e-001	 2.5090865119e+000	-5.0211448981e-001
 8.2797723835e-001	 2.5173306682e+000	-4.5291723467e-001
 8.0329845869e-001	 2.5253141560e+000	-3.9455503988e-001
 7.7860163495e-001	 2.5330376022e+000	-3.2639264124e-001
 7.5389062892e-001	 2.5405017063e+000	-2.4798562651e-001
 7.2916926936e-001	 2.5477072392e+000	-1.5906935418e-001
 9.8465334810e-001	 2.4871837053e+000	-6.5186208806e-001
 9.5993455717e-001	 2.4968281170e+000	-6.6582772112e-001
 9.3517355533e-001	 2.5062073780e+000	-6.6479196093e-001
 9.1037440574e-001	 2.5153217372e+000	-6.4881373261e-001
 8.8554114843e-001	 2.5241715224e+000	-6.2188995335e-001
 8.6067779851e-001	 2.5327571394e+000	-5.8311507376e-001
 8.3578834438e-001	 2.5410790707e+000	-5.3181324323e-001
 8.1087674604e-001	 2.5491378744e+000	-4.6752717927e-001
 7.8594693340e-001	 2.5569341833e+000	-3.9000677122e-001
 7.6100280466e-001	 2.5644687035e+000	-2.9919745884e-001
 7.3604822473e-001	 2.5717422132e+000	-1.9522842630e-001
 9.9385571584e-001	 2.5104284129e+000	-6.1997642789e-001
 9.6890590817e-001	 2.5201629592e+000	-6.4773750769e-001
 9.4391349510e-001	 2.5296298768e+000	-6.6127924519e-001
 9.1888257776e-001	 2.5388294169e+000	-6.5955787234e-001
 8.9381723393e-001	 2.5477619105e+000	-6.4178920448e-001
 8.6872151625e-001	 2.5564277669e+000	-6.0743743264e-001
 8.4359945040e-001	 2.5648274732e+000	-5.5620356323e-001
 8.1845503338e-001	 2.5729615929e+000	-4.8801354815e-001
 7.9329223184e-001	 2.5808307645e+000	-4.0300614823e-001
 7.6811498040e-001	 2.5884357008e+000	-3.0152057252e-001
 7.4292718010e-001	 2.5957771871e+000	-1.8408393538e-001
 1.0030580836e+000	 2.5336731204e+000	-5.0806725027e-001
 9.7787725917e-001	 2.5434978015e+000	-5.6402409569e-001
 9.5265343487e-001	 2.5530523757e+000	-5.9977220625e-001
 9.2739074977e-001	 2.5623370967e+000	-6.1462386442e-001
 9.0209331943e-001	 2.5713522985e+000	-6.0815978097e-001
 8.7676523399e-001	 2.5800983944e+000	-5.8021714363e-001
 8.5141055642e-001	 2.5885758757e+000	-5.3087730847e-001
 8.2603332072e-001	 2.5967853113e+000	-4.6045317891e-001
 8.0063753028e-001	 2.6047273457e+000	-3.6947631699e-001
 7.7522715614e-001	 2.6124026980e+000	-2.5868383121e-001
 7.4980613547e-001	 2.6198121611e+000	-1.2900508438e-001
 1.0122604513e+000	 2.5569178279e+000	-3.3982058380e-001
 9.8684861017e-001	 2.5668326437e+000	-4.2631368043e-001
 9.6139337463e-001	 2.5764748746e+000	-4.8643156907e-001
 9.3589892178e-001	 2.5858447765e+000	-5.1984553051e-001
 9.1036940492e-001	 2.5949426866e+000	-5.2650438050e-001
 8.8480895173e-001	 2.6037690218e+000	-5.0662176312e-001
 8.5922166244e-001	 2.6123242783e+000	-4.6066308204e-001
 8.3361160807e-001	 2.6206090298e+000	-3.8933211632e-001
 8.0798282872e-001	 2.6286239268e+000	-2.9355736732e-001
 7.8233933189e-001	 2.6363696952e+000	-1.7447818258e-001
 7.5668509084e-001	 2.6438471350e+000	-3.3430702052e-002
 6.8789553712e-001	 2.4034973955e+000	-1.6434413287e-001
 6.6456731185e-001	 2.4100519264e+000	-1.7799360057e-001
 6.4123644421e-001	 2.4163641743e+000	-2.0978218015e-001
 6.1790644450e-001	 2.4224350612e+000	-2.7994856212e-001
 5.9458078647e-001	 2.4282655721e+000	-3.7259641472e-001
 5.7126290603e-001	 2.4338567526e+000	-4.2023093792e-001
 5.4795620010e-001	 2.4392097087e+000	-4.2269761608e-001
 5.2466402543e-001	 2.4443256044e+000	-3.8005794332e-001
 5.0138969748e-001	 2.4492056613e+000	-2.9258257198e-001
 4.7813648941e-001	 2.4538511564e+000	-1.6074420835e-001
 4.5490763105e-001	 2.4582634210e+000	 1.4789720045e-002
 6.9477449249e-001	 2.4275323694e+000	 5.2339286036e-002
 6.7121298497e-001	 2.4341524457e+000	 2.7849515144e-003
 6.4764880865e-001	 2.4405278160e+000	-6.3636525645e-002
 6.2408550895e-001	 2.4466594119e+000	-1.4800309388e-001
 6.0052659434e-001	 2.4525482278e+000	-2.2823410354e-001
 5.7697553510e-001	 2.4581953202e+000	-2.5630793381e-001
 5.5343576211e-001	 2.4636018058e+000	-2.3212274401e-001
 5.2991066568e-001	 2.4687688605e+000	-1.5580317603e-001
 5.0640359445e-001	 2.4736977179e+000	-2.7693167570e-002
 4.8291785430e-001	 2.4783896679e+000	 1.5165149715e-001
 4.5945670736e-001	 2.4828460553e+000	 3.8147087378e-001
 7.0165344787e-001	 2.4515673434e+000	 1.6057246067e-001
 6.7785865809e-001	 2.4582529650e+000	 7.3950762975e-002
 6.5406117310e-001	 2.4646914578e+000	-2.8367729981e-002
 6.3026457340e-001	 2.4708837625e+000	-1.4682481812e-001
 6.0647240220e-001	 2.4768308835e+000	-2.2080575800e-001
 5.8268816416e-001	 2.4825338877e+000	-2.2644343954e-001
 5.5891532411e-001	 2.4879939028e+000	-1.7261722463e-001
 5.3515730594e-001	 2.4932121165e+000	-5.9517378831e-002
 5.1141749143e-001	 2.4981897745e+000	 1.1243624423e-001
 4.8769921920e-001	 2.5029281795e+000	 3.2092656478e-001
 4.6400578367e-001	 2.5074286895e+000	 5.6561349395e-001
 7.0853240324e-001	 2.4756023173e+000	 1.6444054941e-001
 6.8450433122e-001	 2.4823534842e+000	 3.9517445728e-002
 6.6047353755e-001	 2.4888550995e+000	-1.0003301955e-001
 6.3644363785e-001	 2.4951081131e+000	-2.5459435354e-001
 6.1241821007e-001	 2.5011135392e+000	-3.5260570658e-001
 5.8840079322e-001	 2.5068724552e+000	-3.4581069744e-001
 5.6439488611e-001	 2.5123859999e+000	-2.7468715738e-001
 5.4040394619e-001	 2.5176553726e+000	-1.4529621187e-001
 5.1643138840e-001	 2.5226818311e+000	 3.6838253678e-002
 4.9248058409e-001	 2.5274666911e+000	 2.6670630938e-001
 4.6855485998e-001	 2.5320113237e+000	 5.3978840086e-001
 7.1541135862e-001	 2.4996372913e+000	 6.7936046780e-002
 6.9115000434e-001	 2.5064540035e+000	-9.8926549518e-002
 6.6688590199e-001	 2.5130187412e+000	-2.7174578538e-001
 6.4262270229e-001	 2.5193324637e+000	-4.5025616681e-001
 6.1836401794e-001	 2.5253961950e+000	-5.8056453058e-001
 5.9411342228e-001	 2.5312110227e+000	-5.2941972583e-001
 5.6987444812e-001	 2.5367780970e+000	-4.2009931731e-001
 5.4565058645e-001	 2.5420986286e+000	-2.5839965407e-001
 5.2144528538e-001	 2.5471738878e+000	-4.9565748374e-002
 4.9726194898e-001	 2.5520052026e+000	 2.0168436234e-001
 4.7310393629e-001	 2.5565939579e+000	 4.9113496027e-001
 7.2229031399e-001	 2.5236722653e+000	-7.2310457302e-002
 6.9779567746e-001	 2.5305545228e+000	-2.4047809191e-001
 6.7329826643e-001	 2.5371823830e+000	-4.1087458122e-001
 6.4880176674e-001	 2.5435568143e+000	-5.8372072815e-001
 6.2430982580e-001	 2.5496788507e+000	-7.5276680303e-001
 5.9982605134e-001	 2.5555495903e+000	-6.6763339362e-001
 5.7535401012e-001	 2.5611701941e+000	-5.3091861756e-001
 5.5089722670e-001	 2.5665418847e+000	-3.4813800478e-001
 5.2645918235e-001	 2.5716659444e+000	-1.2424131439e-001
 5.0204331388e-001	 2.5765437142e+000	 1.3636199430e-001
 4.7765301260e-001	 2.5811765921e+000	 4.2977699983e-001
 7.2916926936e-001	 2.5477072392e+000	-1.5906935418e-001
 7.0444135058e-001	 2.5546550420e+000	-3.2171534766e-001
 6.7971063087e-001	 2.5613460247e+000	-4.8312088588e-001
 6.5498083118e-001	 2.5677811649e+000	-6.4366848380e-001
 6.3025563367e-001	 2.5739615064e+000	-8.0386176009e-001
 6.0553868040e-001	 2.5798881578e+000	-7.4856176299e-001
 5.8083357212e-001	 2.5855622912e+000	-5.9561526203e-001
 5.5614386696e-001	 2.5909851407e+000	-4.0334626237e-001
 5.3147307933e-001	 2.5961580010e+000	-1.7639262000e-001
 5.0682467877e-001	 2.6010822257e+000	 8.1161741139e-002
 4.8220208891e-001	 2.6057592263e+000	 3.6575992874e-001
 7.3604822473e-001	 2.5717422132e+000	-1.9522842630e-001
 7.1108702369e-001	 2.5787555613e+000	-3.4572322841e-001
 6.8612299532e-001	 2.5855096665e+000	-4.9143066591e-001
 6.6115989563e-001	 2.5920055155e+000	-6.3290254161e-001
 6.3620144153e-001	 2.5982441621e+000	-7.7081804669e-001
 6.1125130946e-001	 2.6042267253e+000	-7.6039168496e-001
 5.8631313412e-001	 2.6099543883e+000	-6.0273573050e-001
 5.6139050721e-001	 2.6154283968e+000	-4.1293524136e-001
 5.3648697630e-001	 2.6206500576e+000	-1.9529925038e-001
 5.1160604366e-001	 2.6256207373e+000	 4.6431083132e-002
 4.8675116522e-001	 2.6303418605e+000	 3.0905440212e-001
 7.4292718010e-001	 2.5957771871e+000	-1.8408393538e-001
 7.1773269681e-001	 2.6028560806e+000	-3.1566234807e-001
 6.9253535976e-001	 2.6096733082e+000	-4.3882489595e-001
 6.6733896007e-001	 2.6162298662e+000	-5.5430037478e-001
 6.4214724939e-001	 2.6225268178e+000	-6.6295132299e-001
 6.1696393852e-001	 2.6285652928e+000	-6.9138324432e-001
 5.9179269612e-001	 2.6343464854e+000	-5.4089924733e-001
 5.6663714746e-001	 2.6398716528e+000	-3.6588806252e-001
 5.4150087327e-001	 2.6451421142e+000	-1.7031270906e-001
 5.1638740856e-001	 2.6501592489e+000	 4.2445919767e-002
 4.9130024153e-001	 2.6549244947e+000	 2.6955978188e-001
 7.4980613547e-001	 2.6198121611e+000	-1.2900508438e-001
 7.2437836993e-001	 2.6269565998e+000	-2.3476555026e-001
 6.9894772419e-001	 2.6338369500e+000	-3.2839611798e-001
 6.7351802451e-001	 2.6404542168e+000	-4.1081041061e-001
 6.4809305726e-001	 2.6468094736e+000	-4.8306221959e-001
 6.2267656758e-001	 2.6529038604e+000	-5.2986640033e-001
 5.9727225811e-001	 2.6587385825e+000	-3.9879444460e-001
 5.7188378771e-001	 2.6643149089e+000	-2.5125683601e-001
 5.4651477025e-001	 2.6696341708e+000	-9.0853118913e-002
 5.2116877345e-001	 2.6746977604e+000	 7.9413853260e-002
 4.9584931784e-001	 2.6795071290e+000	 2.5710740700e-001
 7.5668509084e-001	 2.6438471350e+000	-3.3430702052e-002
 7.3102404304e-001	 2.6510571191e+000	-1.0633462514e-001
 7.0536008863e-001	 2.6580005917e+000	-1.6330518828e-001
 6.7969708895e-001	 2.6646785674e+000	-2.0544880531e-001
 6.5403886512e-001	 2.6710921293e+000	-2.3401855743e-001
 6.2838919664e-001	 2.6772424279e+000	-2.5040050539e-001
 6.0275182011e-001	 2.6831306796e+000	-1.6517620718e-001
 5.7713042797e-001	 2.6887581649e+000	-5.8159525486e-002
 5.5152866722e-001	 2.6941262274e+000	 5.3593896904e-002
 5.2595013834e-001	 2.6992362720e+000	 1.6747729298e-001
 5.0039839415e-001	 2.7040897632e+000	 2.8146368557e-001
 4.5490763105e-001	 2.4582634210e+000	 1.4789720045e-002
 4.3170630795e-001	 2.4624438397e+000	-9.0999765982e-002
 4.0853566044e-001	 2.4663938481e+000	-1.7125011008e-001
 3.8539878284e-001	 2.4701149322e+000	-2.2791133904e-001
 3.6229872257e-001	 2.4736086262e+000	-2.6306769342e-001
 3.3923847946e-001	 2.4768765117e+000	-2.7892940000e-001
 3.1622100496e-001	 2.4799202156e+000	-2.7782439509e-001
 2.9324920155e-001	 2.4827414094e+000	-2.6219001984e-001
 2.7032592207e-001	 2.4853418066e+000	-2.3456470815e-001
 2.4745396916e-001	 2.4877231625e+000	-1.9757968694e-001
 2.2463609475e-001	 2.4898872715e+000	-1.5395070810e-001
 4.5945670736e-001	 2.4828460553e+000	 3.8147087378e-001
 4.3602337102e-001	 2.4870682781e+000	 3.0658727065e-001
 4.1262101704e-001	 2.4910577866e+000	 2.6074718723e-001
 3.8925277066e-001	 2.4948160815e+000	 2.4232536556e-001
 3.6592170980e-001	 2.4983447125e+000	 2.4954903621e-001
 3.4263086425e-001	 2.5016452768e+000	 2.4852194772e-001
 3.1938321501e-001	 2.5047194178e+000	 2.2909043083e-001
 2.9618169356e-001	 2.5075688234e+000	 2.1689546359e-001
 2.7302918129e-001	 2.5101952247e+000	 2.0962648149e-001
 2.4992850885e-001	 2.5126003941e+000	 2.0526671814e-001
 2.2688245570e-001	 2.5147861442e+000	 2.0207187056e-001
 4.6400578367e-001	 2.5074286895e+000	 5.6561349395e-001
 4.4034043410e-001	 2.5116927165e+000	 4.8505155880e-001
 4.1670637365e-001	 2.5157217251e+000	 4.2170214317e-001
 3.9310675849e-001	 2.5195172308e+000	 3.7219347941e-001
 3.6954469702e-001	 2.5230807987e+000	 3.3355958424e-001
 3.4602324904e-001	 2.5264140419e+000	 3.0321676774e-001
 3.2254542506e-001	 2.5295186200e+000	 2.7894023647e-001
 2.9911418558e-001	 2.5323962375e+000	 2.5884085006e-001
 2.7573244051e-001	 2.5350486428e+000	 2.4134208803e-001
 2.5240304855e-001	 2.5374776257e+000	 2.2515728010e-001
 2.2912881665e-001	 2.5396850170e+000	 2.0926715099e-001
 4.6855485998e-001	 2.5320113237e+000	 5.3978840086e-001
 4.4465749718e-001	 2.5363171549e+000	 4.8381678289e-001
 4.2079173025e-001	 2.5403856636e+000	 4.3799407038e-001
 3.9696074632e-001	 2.5442183801e+000	 3.9969499572e-001
 3.7316768424e-001	 2.5478168850e+000	 3.6670246333e-001
 3.4941563383e-001	 2.5511828070e+000	 3.3718275187e-001
 3.2570763510e-001	 2.5543178221e+000	 3.0966083952e-001
 3.0204667759e-001	 2.5572236516e+000	 2.8299591363e-001
 2.7843569973e-001	 2.5599020608e+000	 2.5635712324e-001
 2.5487758824e-001	 2.5623548573e+000	 2.2919962965e-001
 2.3137517760e-001	 2.5645838897e+000	 2.0124100728e-001
 4.7310393629e-001	 2.5565939579e+000	 4.9113496027e-001
 4.4897456026e-001	 2.5609415933e+000	 4.6200990653e-001
 4.2487708685e-001	 2.5650496021e+000	 4.3565006627e-001
 4.0081473414e-001	 2.5689195295e+000	 4.1018783953e-001
 3.7679067147e-001	 2.5725529713e+000	 3.8416641665e-001
 3.5280801863e-001	 2.5759515721e+000	 3.5651364783e-001
 3.2886984515e-001	 2.5791170243e+000	 3.2651606500e-001
 3.0497916961e-001	 2.5820510657e+000	 2.9379311954e-001
 2.8113895895e-001	 2.5847554789e+000	 2.5827169586e-001
 2.5735212793e-001	 2.5872320890e+000	 2.2016095792e-001
 2.3362153855e-001	 2.5894827624e+000	 1.7992758270e-001
 4.7765301260e-001	 2.5811765921e+000	 4.2977699983e-001
 4.5329162333e-001	 2.5855660317e+000	 4.2895559252e-001
 4.2896244345e-001	 2.5897135406e+000	 4.2319189887e-001
 4.0466872197e-001	 2.5936206788e+000	 4.1138760464e-001
 3.8041365869e-001	 2.5972890575e+000	 3.9285803228e-001
 3.5620040342e-001	 2.6007203373e+000	 3.6730465165e-001
 3.3203205520e-001	 2.6039162264e+000	 3.3478777263e-001
 3.0791166162e-001	 2.6068784798e+000	 2.9569948529e-001
 2.8384221817e-001	 2.6096088970e+000	 2.5073690949e-001
 2.5982666762e-001	 2.6121093206e+000	 2.0087581296e-001
 2.3586789950e-001	 2.6143816351e+000	 1.4734465316e-001
 4.8220208891e-001	 2.6057592263e+000	 3.6575992874e-001
 4.5760868641e-001	 2.6101904701e+000	 3.9391612840e-001
 4.3304780006e-001	 2.6143774790e+000	 4.0909496868e-001
 4.0852270980e-001	 2.6183218281e+000	 4.1097948312e-001
 3.8403664592e-001	 2.6220251438e+000	 3.9966941440e-001
 3.5959278821e-001	 2.6254891024e+000	 3.7565233938e-001
 3.3519426525e-001	 2.6287154286e+000	 3.3977500616e-001
 3.1084415364e-001	 2.6317058939e+000	 2.9321495073e-001
 2.8654547739e-001	 2.6344623150e+000	 2.3745245724e-001
 2.6230120731e-001	 2.6369865522e+000	 1.7424292256e-001
 2.3811426044e-001	 2.6392805078e+000	 1.0558968227e-001
 4.8675116522e-001	 2.6303418605e+000	 3.0905440212e-001
 4.6192574949e-001	 2.6348149085e+000	 3.6609434129e-001
 4.3713315666e-001	 2.6390414175e+000	 4.0179047534e-001
 4.1237669763e-001	 2.6430229774e+000	 4.1661968594e-001
 3.8765963314e-001	 2.6467612300e+000	 4.1147886013e-001
 3.6298517301e-001	 2.6502578675e+000	 3.8765460259e-001
 3.3835647530e-001	 2.6535146308e+000	 3.4679319037e-001
 3.1377664565e-001	 2.6565333080e+000	 2.9087083970e-001
 2.8924873661e-001	 2.6593157331e+000	 2.2216435111e-001
 2.6477574700e-001	 2.6618637839e+000	 1.4322219512e-001
 2.4036062139e-001	 2.6641793805e+000	 5.6836097648e-002
 4.9130024153e-001	 2.6549244947e+000	 2.6955978188e-001
 4.6624281257e-001	 2.6594393469e+000	 3.5463635058e-001
 4.4121851326e-001	 2.6637053560e+000	 4.0966746400e-001
 4.1623068545e-001	 2.6677241268e+000	 4.3593678473e-001
 3.9128262037e-001	 2.6714973163e+000	 4.3515149878e-001
 3.6637755780e-001	 2.6750266326e+000	 4.0941058748e-001
 3.4151868535e-001	 2.6783138329e+000	 3.6117337269e-001
 3.1670913767e-001	 2.6813607221e+000	 2.9322840705e-001
 2.9195199583e-001	 2.6841691512e+000	 2.0866277765e-001
 2.6725028670e-001	 2.6867410155e+000	 1.1083188729e-001
 2.4260698234e-001	 2.6890782533e+000	 3.3297740216e-003
 4.9584931784e-001	 2.6795071290e+000	 2.5710740700e-001
 4.7055987565e-001	 2.6840637853e+000	 3.6863416926e-001
 4.4530386987e-001	 2.6883692945e+000	 4.4107475897e-001
 4.2008467328e-001	 2.6924252761e+000	 4.7653297956e-001
 3.9490560759e-001	 2.6962334026e+000	 4.7753989580e-001
 3.6976994260e-001	 2.6997953977e+000	 4.4702063731e-001
 3.4468089540e-001	 2.7031130351e+000	 3.8826150657e-001
 3.1964162968e-001	 2.7061881362e+000	 3.0487746563e-001
 2.9465525505e-001	 2.7090225692e+000	 2.0078007160e-001
 2.6972482639e-001	 2.7116182471e+000	 8.0145927389e-002
 2.4485334329e-001	 2.7139771260e+000	-5.2614289996e-002
 5.0039839415e-001	 2.7040897632e+000	 2.8146368557e-001
 4.7487693873e-001	 2.7086882237e+000	 4.1712816330e-001
 4.4938922647e-001	 2.7130332330e+000	 5.0432279199e-001
 4.2393866111e-001	 2.7171264254e+000	 5.4598529774e-001
 3.9852859482e-001	 2.7209694888e+000	 5.4548462397e-001
 3.7316232739e-001	 2.7245641628e+000	 5.0658623798e-001
 3.4784310545e-001	 2.7279122372e+000	 4.3341777394e-001
 3.2257412170e-001	 2.7310155503e+000	 3.3043508824e-001
 2.9735851428e-001	 2.7338759873e+000	 2.0238880004e-001
 2.7219936608e-001	 2.7364954787e+000	 5.4291384920e-002
 2.4709970424e-001	 2.7388759987e+000	-1.0861511391e-001
 2.2463609475e-001	 2.4898872715e+000	-1.5395070810e-001
 2.0187499956e-001	 2.4918359666e+000	-1.0196345677e-001
 1.7917333268e-001	 2.4935711173e+000	-4.2818430030e-002
 1.5653369117e-001	 2.4950946282e+000	 2.0861328300e-002
 1.3395861973e-001	 2.4964084378e+000	 8.6388675679e-002
 1.1145061038e-001	 2.4975145168e+000	 1.5102022894e-001
 8.9012102215e-002	 2.4984148666e+000	 2.1196410571e-001
 6.6645481200e-002	 2.4991115181e+000	 2.6638753522e-001
 4.4353079963e-002	 2.4996065299e+000	 3.1142432531e-001
 2.2137177686e-002	 2.4999019872e+000	 3.4418217342e-001
 0.0000000000e+000	 2.5000000000e+000	 3.6174981005e-001
 2.2688245570e-001	 2.5147861442e+000	 2.0207187056e-001
 2.0389374956e-001	 2.5167543263e+000	 2.1758627309e-001
 1.8096506601e-001	 2.5185068284e+000	 2.3540691430e-001
 1.5809902809e-001	 2.5200455744e+000	 2.5484650401e-001
 1.3529820593e-001	 2.5213725222e+000	 2.7539703179e-001
 1.1256511648e-001	 2.5224896619e+000	 2.9671039935e-001
 8.9902223242e-002	 2.5233990153e+000	 3.1857958156e-001
 6.7311936015e-002	 2.5241026333e+000	 3.4092034436e-001
 4.4796610765e-002	 2.5246025952e+000	 3.6375354545e-001
 2.2358549464e-002	 2.5249010070e+000	 3.8718804071e-001
 0.0000000000e+000	 2.5250000000e+000	 4.1140421642e-001
 2.2912881665e-001	 2.5396850170e+000	 2.0926715099e-001
 2.0591249956e-001	 2.5416726859e+000	 2.2808943043e-001
 1.8275679934e-001	 2.5434425396e+000	 2.4754682117e-001
 1.5966436500e-001	 2.5449965207e+000	 2.6772137630e-001
 1.3663779213e-001	 2.5463366065e+000	 2.8886570987e-001
 1.1367962259e-001	 2.5474648071e+000	 3.1138263192e-001
 9.0792344267e-002	 2.5483831639e+000	 3.3580535519e-001
 6.7978390830e-002	 2.5490937484e+000	 3.6277830259e-001
 4.5240141567e-002	 2.5495986605e+000	 3.9303854174e-001
 2.2579921242e-002	 2.5499000269e+000	 4.2739786999e-001
 0.0000000000e+000	 2.5500000000e+000	 4.6672557015e-001
 2.3137517760e-001	 2.5645838897e+000	 2.0124100728e-001
 2.0793124956e-001	 2.5665910456e+000	 2.2536068487e-001
 1.8454853267e-001	 2.5683782508e+000	 2.4827991017e-001
 1.6122970192e-001	 2.5699474670e+000	 2.7086102521e-001
 1.3797737833e-001	 2.5713006909e+000	 2.9412820915e-001
 1.1479412870e-001	 2.5724399523e+000	 3.1924609653e-001
 9.1682465292e-002	 2.5733673126e+000	 3.4749901089e-001
 6.8644845644e-002	 2.5740848636e+000	 3.8027084374e-001
 4.5683672368e-002	 2.5745947258e+000	 4.1902560549e-001
 2.2801293020e-002	 2.5748990468e+000	 4.6528867236e-001
 0.0000000000e+000	 2.5750000000e+000	 5.2062874977e-001
 2.3362153855e-001	 2.5894827624e+000	 1.7992758270e-001
 2.0994999955e-001	 2.5915094053e+000	 2.1045595343e-001
 1.8634026600e-001	 2.5933139620e+000	 2.3778351059e-001
 1.6279503883e-001	 2.5948984133e+000	 2.6356427365e-001
 1.3931696453e-001	 2.5962647753e+000	 2.8960536417e-001
 1.1590863480e-001	 2.5974150974e+000	 3.1784458757e-001
 9.2572586317e-002	 2.5983514613e+000	 3.5032867456e-001
 6.9311300459e-002	 2.5990759788e+000	 3.8919221315e-001
 4.6127203170e-002	 2.5995907911e+000	 4.3663729845e-001
 2.3022664798e-002	 2.5998980666e+000	 4.9491392439e-001
 0.0000000000e+000	 2.6000000000e+000	 5.6630113851e-001
 2.3586789950e-001	 2.6143816351e+000	 1.4734465316e-001
 2.1196874955e-001	 2.6164277650e+000	 1.8453270196e-001
 1.8813199933e-001	 2.6182496731e+000	 2.1635436053e-001
 1.6436037574e-001	 2.6198493596e+000	 2.4526715069e-001
 1.4065655073e-001	 2.6212288597e+000	 2.7387294418e-001
 1.1702314091e-001	 2.6223902426e+000	 3.0489448771e-001
 9.3462707341e-002	 2.6233356099e+000	 3.4115263300e-001
 6.9977755272e-002	 2.6240670940e+000	 3.8554430306e-001
 4.6570733970e-002	 2.6245868564e+000	 4.4102122283e-001
 2.3244036575e-002	 2.6248970865e+000	 5.1056943865e-001
 0.0000000000e+000	 2.6250000000e+000	 5.9718964787e-001
 2.3811426044e-001	 2.6392805078e+000	 1.0558968227e-001
 2.1398749955e-001	 2.6413461246e+000	 1.4884515515e-001
 1.8992373266e-001	 2.6431853843e+000	 1.8440297443e-001
 1.6592571266e-001	 2.6448003059e+000	 2.1553641962e-001
 1.4199613693e-001	 2.6461929440e+000	 2.4565434486e-001
 1.1813764702e-001	 2.6473653878e+000	 2.7827662696e-001
 9.4352828365e-002	 2.6483197586e+000	 3.1701036415e-001
 7.0644210086e-002	 2.6490582092e+000	 3.6552685792e-001
 4.7014264771e-002	 2.6495829217e+000	 4.2753940615e-001
 2.3465408353e-002	 2.6498961064e+000	 5.0678193279e-001
 0.0000000000e+000	 2.6500000000e+000	 6.0698847571e-001
 2.4036062139e-001	 2.6641793805e+000	 5.6836097648e-002
 2.1600624954e-001	 2.6662644843e+000	 1.0473977505e-001
 1.9171546598e-001	 2.6681210955e+000	 1.4244832641e-001
 1.6749104957e-001	 2.6697512521e+000	 1.7406346884e-001
 1.4333572313e-001	 2.6711570284e+000	 2.0381368998e-001
 1.1925215312e-001	 2.6723405329e+000	 2.3602859816e-001
 9.5242949388e-002	 2.6733039073e+000	 2.7511407016e-001
 7.1310664899e-002	 2.6740493244e+000	 3.2552822901e-001
 4.7457795571e-002	 2.6745789870e+000	 3.9175828137e-001
 2.3686780130e-002	 2.6748951263e+000	 4.7829823959e-001
 0.0000000000e+000	 2.6750000000e+000	 5.8962755083e-001
 2.4260698234e-001	 2.6890782533e+000	 3.3297740216e-003
 2.1802499954e-001	 2.6911828440e+000	 5.3650990838e-002
 1.9350719931e-001	 2.6930568066e+000	 9.1112828988e-002
 1.6905638648e-001	 2.6947021984e+000	 1.2065854221e-001
 1.4467530933e-001	 2.6961211128e+000	 1.4734931610e-001
 1.2036665923e-001	 2.6973156781e+000	 1.7633749953e-001
 9.6133070411e-002	 2.6982880559e+000	 2.1284068089e-001
 7.1977119711e-002	 2.6990404395e+000	 2.6211664260e-001
 4.7901326371e-002	 2.6995750523e+000	 3.2943922369e-001
 2.3908151907e-002	 2.6998941461e+000	 4.2007511644e-001
 0.0000000000e+000	 2.7000000000e+000	 5.3926161950e-001
 2.4485334329e-001	 2.7139771260e+000	-5.2614289996e-002
 2.2004374954e-001	 2.7161012036e+000	-2.9028363623e-003
 1.9529893264e-001	 2.7179925178e+000	 3.1117588211e-002
 1.7062172340e-001	 2.7196531447e+000	 5.5245286924e-002
 1.4601489552e-001	 2.7210851972e+000	 7.5387616103e-002
 1.2148116533e-001	 2.7222908233e+000	 9.7533076541e-002
 9.7023191433e-002	 2.7232722046e+000	 1.2772429766e-001
 7.2643574523e-002	 2.7240315547e+000	 1.7203194882e-001
 4.8344857171e-002	 2.7245711176e+000	 2.3652960821e-001
 2.4129523684e-002	 2.7248931660e+000	 3.2726961574e-001
 0.0000000000e+000	 2.7250000000e+000	 4.5025993272e-001
 2.4709970424e-001	 2.7388759987e+000	-1.0861511391e-001
 2.2206249953e-001	 2.7410195633e+000	-6.3323228586e-002
 1.9709066597e-001	 2.7429282290e+000	-3.6722082426e-002
 1.7218706031e-001	 2.7446040910e+000	-2.2144401155e-002
 1.4735448172e-001	 2.7460492816e+000	-1.2822781577e-002
 1.2259567143e-001	 2.7472659684e+000	-1.9187619999e-003
 9.7913312455e-002	 2.7482563533e+000	 1.7449048992e-002
 7.3310029335e-002	 2.7490226699e+000	 5.2177820556e-002
 4.8788387970e-002	 2.7495671829e+000	 1.0915435543e-001
 2.4350895461e-002	 2.7498921859e+000	 1.9522998062e-001
 0.0000000000e+000	 2.7500000000e+000	 3.1719649600e-001
 2.7500000000e+000	 0.0000000000e+000	 1.4145150486e+000
 2.7498921859e+000	 2.4350895461e-002	 1.4508537828e+000
 2.7495671829e+000	 4.8788387970e-002	 1.4740585295e+000
 2.7490226699e+000	 7.3310029335e-002	 1.4869529731e+000
 2.7482563533e+000	 9.7913312455e-002	 1.4923090169e+000
 2.7472659684e+000	 1.2259567143e-001	 1.4928388577e+000
 2.7460492816e+000	 1.4735448172e-001	 1.4911869216e+000
 2.7446040910e+000	 1.7218706031e-001	 1.4899216728e+000
 2.7429282290e+000	 1.9709066597e-001	 1.4915273094e+000
 2.7410195633e+000	 2.2206249953e-001	 1.4983953629e+000
 2.7388759987e+000	 2.4709970424e-001	 1.5128162163e+000
 2.7750000000e+000	 0.0000000000e+000	 1.4847782211e+000
 2.7748912057e+000	 2.4572267237e-002	 1.5251028864e+000
 2.7745632482e+000	 4.9231918770e-002	 1.5503386488e+000
 2.7740137851e+000	 7.3976484146e-002	 1.5634955887e+000
 2.7732405019e+000	 9.8803433477e-002	 1.5675343844e+000
 2.7722411136e+000	 1.2371017754e-001	 1.5653581584e+000
 2.7710133659e+000	 1.4869406792e-001	 1.5598041750e+000
 2.7695550373e+000	 1.7375239722e-001	 1.5536354031e+000
 2.7678639402e+000	 1.9888239929e-001	 1.5495319585e+000
 2.7659379230e+000	 2.2408124953e-001	 1.5500824414e+000
 2.7637748714e+000	 2.4934606519e-001	 1.5577751847e+000
 2.8000000000e+000	 0.0000000000e+000	 1.5392186119e+000
 2.7998902256e+000	 2.4793639014e-002	 1.5833326096e+000
 2.7995593135e+000	 4.9675449569e-002	 1.6105040990e+000
 2.7990049003e+000	 7.4642938958e-002	 1.6239323267e+000
 2.7982246506e+000	 9.9693554498e-002	 1.6267694602e+000
 2.7972162588e+000	 1.2482468364e-001	 1.6221121992e+000
 2.7959774503e+000	 1.5003365411e-001	 1.6129932301e+000
 2.7945059836e+000	 1.7531773413e-001	 1.6023725372e+000
 2.7927996513e+000	 2.0067413262e-001	 1.5931285851e+000
 2.7908562826e+000	 2.2609999953e-001	 1.5880493884e+000
 2.7886737441e+000	 2.5159242613e-001	 1.5898234854e+000
 2.8250000000e+000	 0.0000000000e+000	 1.5791024144e+000
 2.8248892455e+000	 2.5015010790e-002	 1.6266466439e+000
 2.8245553788e+000	 5.0118980368e-002	 1.6554953802e+000
 2.8239960154e+000	 7.5309393769e-002	 1.6690398758e+000
 2.8232087993e+000	 1.0058367552e-001	 1.6706265705e+000
 2.8221914039e+000	 1.2593918974e-001	 1.6635484637e+000
 2.8209415347e+000	 1.5137324031e-001	 1.6510363199e+000
 2.8194569298e+000	 1.7688307104e-001	 1.6362497215e+000
 2.8177353625e+000	 2.0246586595e-001	 1.6222679868e+000
 2.8157746423e+000	 2.2811874952e-001	 1.6120809654e+000
 2.8135726168e+000	 2.5383878708e-001	 1.6085797313e+000
 2.8500000000e+000	 0.0000000000e+000	 1.6056513942e+000
 2.8498882654e+000	 2.5236382567e-002	 1.6561077121e+000
 2.8495514441e+000	 5.0562511167e-002	 1.6862155347e+000
 2.8489871306e+000	 7.5975848581e-002	 1.6995610268e+000
 2.8481929479e+000	 1.0147379654e-001	 1.6996877536e+000
 2.8471665491e+000	 1.2705369585e-001	 1.6900878066e+000
 2.8459056191e+000	 1.5271282651e-001	 1.6741927545e+000
 2.8444078761e+000	 1.7844840795e-001	 1.6553644334e+000
 2.8426710737e+000	 2.0425759927e-001	 1.6368855919e+000
 2.8406930020e+000	 2.3013749952e-001	 1.6219504087e+000
 2.8384714896e+000	 2.5608514803e-001	 1.6136548973e+000
 2.8750000000e+000	 0.0000000000e+000	 1.6200448206e+000
 2.8748872852e+000	 2.5457754343e-002	 1.6727393498e+000
 2.8745475094e+000	 5.1006041966e-002	 1.7035317748e+000
 2.8739782458e+000	 7.6642303392e-002	 1.7162061468e+000
 2.8731770966e+000	 1.0236391756e-001	 1.7145060773e+000
 2.8721416943e+000	 1.2816820195e-001	 1.7021256115e+000
 2.8708697034e+000	 1.5405241270e-001	 1.6826999190e+000
 2.8693588224e+000	 1.8001374486e-001	 1.6597958147e+000
 2.8676067849e+000	 2.0604933260e-001	 1.6369021273e+000
 2.8656113616e+000	 2.3215624951e-001	 1.6174199299e+000
 2.8633703623e+000	 2.5833150898e-001	 1.6046526530e+000
 2.9000000000e+000	 0.0000000000e+000	 1.6234212986e+000
 2.8998863051e+000	 2.5679126120e-002	 1.6775275944e+000
 2.8995435747e+000	 5.1449572765e-002	 1.7082770275e+000
 2.8989693610e+000	 7.7308758203e-002	 1.7196545767e+000
 2.8981612453e+000	 1.0325403858e-001	 1.7156068876e+000
 2.8971168394e+000	 1.2928270805e-001	 1.7000328890e+000
 2.8958337878e+000	 1.5539199890e-001	 1.6767742174e+000
 2.8943097687e+000	 1.8157908178e-001	 1.6496054624e+000
 2.8925424960e+000	 2.0784106593e-001	 1.6222242519e+000
 2.8905297213e+000	 2.3417499951e-001	 1.5982411913e+000
 2.8882692350e+000	 2.6057786993e-001	 1.5811696773e+000
 2.9250000000e+000	 0.0000000000e+000	 1.6168805062e+000
 2.9248853250e+000	 2.5900497897e-002	 1.6714225874e+000
 2.9245396400e+000	 5.1893103565e-002	 1.7012514000e+000
 2.9239604762e+000	 7.7975213015e-002	 1.7105559569e+000
 2.9231453939e+000	 1.0414415961e-001	 1.7034889929e+000
 2.9220919846e+000	 1.3039721416e-001	 1.6841573181e+000
 2.9207978722e+000	 1.5673158510e-001	 1.6566119699e+000
 2.9192607150e+000	 1.8314441869e-001	 1.6248381778e+000
 2.9174782072e+000	 2.0963279925e-001	 1.5927451581e+000
 2.9154480810e+000	 2.3619374951e-001	 1.5641557568e+000
 2.9131681077e+000	 2.6282423087e-001	 1.5427959568e+000
 2.9500000000e+000	 0.0000000000e+000	 1.6014848446e+000
 2.9498843448e+000	 2.6121869673e-002	 1.6553400955e+000
 2.9495357053e+000	 5.2336634364e-002	 1.6832235697e+000
 2.9489515913e+000	 7.8641667826e-002	 1.6895314858e+000
 2.9481295426e+000	 1.0503428063e-001	 1.6786257889e+000
 2.9470671298e+000	 1.3151172026e-001	 1.6548242349e+000
 2.9457619566e+000	 1.5807117129e-001	 1.6223902640e+000
 2.9442116612e+000	 1.8470975560e-001	 1.5855226786e+000
 2.9424139184e+000	 2.1142453258e-001	 1.5483451427e+000
 2.9403664406e+000	 2.3821249950e-001	 1.5148955198e+000
 2.9380669804e+000	 2.6507059182e-001	 1.4891150699e+000
 2.9750000000e+000	 0.0000000000e+000	 1.5782610038e+000
 2.9748833647e+000	 2.6343241450e-002	 1.6301629552e+000
 2.9745317706e+000	 5.2780165163e-002	 1.6549321054e+000
 2.9739427065e+000	 7.9308122638e-002	 1.6571751151e+000
 2.9731136913e+000	 1.0592440165e-001	 1.6414663263e+000
 2.9720422749e+000	 1.3262622636e-001	 1.6123375713e+000
 2.9707260410e+000	 1.5941075749e-001	 1.5742677620e+000
 2.9691626075e+000	 1.8627509251e-001	 1.5316722748e+000
 2.9673496295e+000	 2.1321626591e-001	 1.4888921479e+000
 2.9652848003e+000	 2.4023124950e-001	 1.4501831094e+000
 2.9629658531e+000	 2.6731695277e-001	 1.4197044559e+000
 3.0000000000e+000	 0.0000000000e+000	 1.5482014508e+000
 2.9998823846e+000	 2.6564613226e-002	 1.5967424445e+000
 2.9995278359e+000	 5.3223695962e-002	 1.6170867214e+000
 2.9989338217e+000	 7.9974577449e-002	 1.6140546851e+000
 2.9980978399e+000	 1.0681452267e-001	 1.5924363252e+000
 2.9970174201e+000	 1.3374073246e-001	 1.5569807469e+000
 2.9956901253e+000	 1.6075034369e-001	 1.5123854692e+000
 2.9941135538e+000	 1.8784042942e-001	 1.4632855103e+000
 2.9922853407e+000	 2.1500799923e-001	 1.4142422770e+000
 2.9902031599e+000	 2.4224999949e-001	 1.3697322765e+000
 2.9878647258e+000	 2.6956331372e-001	 1.3341356706e+000
 2.7388759987e+000	 2.4709970424e-001	 1.5128162163e+000
 2.7364954787e+000	 2.7219936608e-001	 1.4867483847e+000
 2.7338759873e+000	 2.9735851428e-001	 1.4568670821e+000
 2.7310155503e+000	 3.2257412170e-001	 1.4247964387e+000
 2.7279122372e+000	 3.4784310545e-001	 1.3920322883e+000
 2.7245641628e+000	 3.7316232739e-001	 1.3599340002e+000
 2.7209694888e+000	 3.9852859482e-001	 1.3297163436e+000
 2.7171264254e+000	 4.2393866111e-001	 1.3024414063e+000
 2.7130332330e+000	 4.4938922647e-001	 1.2790105872e+000
 2.7086882237e+000	 4.7487693873e-001	 1.2601566863e+000
 2.7040897632e+000	 5.0039839415e-001	 1.2464361129e+000
 2.7637748714e+000	 2.4934606519e-001	 1.5577751847e+000
 2.7613727104e+000	 2.7467390578e-001	 1.5194547347e+000
 2.7587294054e+000	 3.0006177350e-001	 1.4791462223e+000
 2.7558429644e+000	 3.2550661372e-001	 1.4386949310e+000
 2.7527114394e+000	 3.5100531550e-001	 1.3998164711e+000
 2.7493329280e+000	 3.7655471219e-001	 1.3640882662e+000
 2.7457055751e+000	 4.0215158205e-001	 1.3329410702e+000
 2.7418275747e+000	 4.2779264894e-001	 1.3076505320e+000
 2.7376971715e+000	 4.5347458308e-001	 1.2893288329e+000
 2.7333126621e+000	 4.7919400181e-001	 1.2789164179e+000
 2.7286723974e+000	 5.0494747046e-001	 1.2771738435e+000
 2.7886737441e+000	 2.5159242613e-001	 1.5898234854e+000
 2.7862499420e+000	 2.7714844547e-001	 1.5403967339e+000
 2.7835828235e+000	 3.0276503272e-001	 1.4909006890e+000
 2.7806703785e+000	 3.2843910574e-001	 1.4434033439e+000
 2.7775106416e+000	 3.5416752555e-001	 1.3998415391e+000
 2.7741016931e+000	 3.7994709699e-001	 1.3620120999e+000
 2.7704416614e+000	 4.0577456927e-001	 1.3315629985e+000
 2.7665287241e+000	 4.3164663677e-001	 1.3099845617e+000
 2.7623611099e+000	 4.5755993968e-001	 1.2986007465e+000
 2.7579371005e+000	 4.8351106489e-001	 1.2985605079e+000
 2.7532550316e+000	 5.0949654677e-001	 1.3108292814e+000
 2.8135726168e+000	 2.5383878708e-001	 1.6085797313e+000
 2.8111271736e+000	 2.7962298516e-001	 1.5490211512e+000
 2.8084362415e+000	 3.0546829194e-001	 1.4914063074e+000
 2.8054977926e+000	 3.3137159775e-001	 1.4380275460e+000
 2.8023098437e+000	 3.5732973560e-001	 1.3910444792e+000
 2.7988704582e+000	 3.8333948178e-001	 1.3524747681e+000
 2.7951777476e+000	 4.0939755650e-001	 1.3241849250e+000
 2.7912298734e+000	 4.3550062460e-001	 1.3078811578e+000
 2.7870250484e+000	 4.6164529629e-001	 1.3051002796e+000
 2.7825615389e+000	 4.8782812797e-001	 1.3172007071e+000
 2.7778376658e+000	 5.1404562308e-001	 1.3453535722e+000
 2.8384714896e+000	 2.5608514803e-001	 1.6136548973e+000
 2.8360044052e+000	 2.8209752485e-001	 1.5447712467e+000
 2.8332896596e+000	 3.0817155116e-001	 1.4799395345e+000
 2.8303252067e+000	 3.3430408977e-001	 1.4216781882e+000
 2.8271090459e+000	 3.6049194565e-001	 1.3723712191e+000
 2.8236392233e+000	 3.8673186658e-001	 1.3342586440e+000
 2.8199138339e+000	 4.1302054373e-001	 1.3094269226e+000
 2.8159310227e+000	 4.3935461243e-001	 1.2997994329e+000
 2.8116889869e+000	 4.6573065289e-001	 1.3071270094e+000
 2.8071859773e+000	 4.9214519105e-001	 1.3329785669e+000
 2.8024203000e+000	 5.1859469938e-001	 1.3787318364e+000
 2.8633703623e+000	 2.5833150898e-001	 1.6046526530e+000
 2.8608816369e+000	 2.8457206455e-001	 1.5270869249e+000
 2.8581430777e+000	 3.1087481039e-001	 1.4557774315e+000
 2.8551526208e+000	 3.3723658179e-001	 1.3934704954e+000
 2.8519082480e+000	 3.6365415570e-001	 1.3427762384e+000
 2.8484079884e+000	 3.9012425137e-001	 1.3061586369e+000
 2.8446499202e+000	 4.1664353095e-001	 1.2859255893e+000
 2.8406321720e+000	 4.4320860026e-001	 1.2842190169e+000
 2.8363529254e+000	 4.6981600950e-001	 1.3030050243e+000
 2.8318104157e+000	 4.9646225412e-001	 1.3440641442e+000
 2.8270029342e+000	 5.2314377569e-001	 1.4089816917e+000
 2.8882692350e+000	 2.6057786993e-001	 1.5811696773e+000
 2.8857588685e+000	 2.8704660424e-001	 1.4954048784e+000
 2.8829964957e+000	 3.1357806961e-001	 1.4181976383e+000
 2.8799800349e+000	 3.4016907380e-001	 1.3525240701e+000
 2.8767074502e+000	 3.6681636576e-001	 1.3012222003e+000
 2.8731767535e+000	 3.9351663617e-001	 1.2669816521e+000
 2.8693860064e+000	 4.2026651818e-001	 1.2523333363e+000
 2.8653333213e+000	 4.4706258809e-001	 1.2596391727e+000
 2.8610168639e+000	 4.7390136610e-001	 1.2910818675e+000
 2.8564348541e+000	 5.0077931720e-001	 1.3486547723e+000
 2.8515855684e+000	 5.2769285200e-001	 1.4341518526e+000
 2.9131681077e+000	 2.6282423087e-001	 1.5427959568e+000
 2.9106361001e+000	 2.8952114393e-001	 1.4491587261e+000
 2.9078499138e+000	 3.1628132883e-001	 1.3664783483e+000
 2.9048074490e+000	 3.4310156582e-001	 1.2979627046e+000
 2.9015066523e+000	 3.6997857581e-001	 1.2466796018e+000
 2.8979455187e+000	 3.9690902097e-001	 1.2155460780e+000
 2.8941220927e+000	 4.2388950541e-001	 1.2073177117e+000
 2.8900344707e+000	 4.5091657592e-001	 1.2245779576e+000
 2.8856808023e+000	 4.7798672271e-001	 1.2697275347e+000
 2.8810592925e+000	 5.0509638028e-001	 1.3449738956e+000
 2.8761682026e+000	 5.3224192831e-001	 1.4523208013e+000
 2.9380669804e+000	 2.6507059182e-001	 1.4891150699e+000
 2.9355133317e+000	 2.9199568362e-001	 1.3877791428e+000
 2.9327033318e+000	 3.1898458805e-001	 1.2998982852e+000
 2.9296348631e+000	 3.4603405784e-001	 1.2289142038e+000
 2.9263058545e+000	 3.7314078586e-001	 1.1781264415e+000
 2.9227142838e+000	 4.0030140576e-001	 1.1506812997e+000
 2.9188581789e+000	 4.2751249264e-001	 1.1495607596e+000
 2.9147356200e+000	 4.5477056375e-001	 1.1775714263e+000
 2.9103447408e+000	 4.8207207931e-001	 1.2373335228e+000
 2.9056837309e+000	 5.0941344336e-001	 1.3312699625e+000
 2.9007508368e+000	 5.3679100462e-001	 1.4615955267e+000
 2.9629658531e+000	 2.6731695277e-001	 1.4197044559e+000
 2.9603905634e+000	 2.9447022332e-001	 1.3106939832e+000
 2.9575567499e+000	 3.2168784727e-001	 1.2177366805e+000
 2.9544622771e+000	 3.4896654985e-001	 1.1445102166e+000
 2.9511050566e+000	 3.7630299591e-001	 1.0945479048e+000
 2.9474830489e+000	 4.0369379056e-001	 1.0712272371e+000
 2.9435942652e+000	 4.3113547986e-001	 1.0777584106e+000
 2.9394367693e+000	 4.5862455157e-001	 1.1171728750e+000
 2.9350086793e+000	 4.8615743592e-001	 1.1923119261e+000
 2.9303081693e+000	 5.1373050644e-001	 1.3058153758e+000
 2.9253334710e+000	 5.4134008093e-001	 1.4601103261e+000
 2.9878647258e+000	 2.6956331372e-001	 1.3341356706e+000
 2.9852677950e+000	 2.9694476301e-001	 1.2173283992e+000
 2.9824101680e+000	 3.2439110650e-001	 1.1192732527e+000
 2.9792896912e+000	 3.5189904187e-001	 1.0438860755e+000
 2.9759042588e+000	 3.7946520596e-001	 9.9493606422e-001
 2.9722518140e+000	 4.0708617535e-001	 9.7603390549e-001
 2.9683303514e+000	 4.3475846709e-001	 9.9061990348e-001
 2.9641379186e+000	 4.6247853940e-001	 1.0419521232e+000
 2.9596726178e+000	 4.9024279252e-001	 1.1330945786e+000
 2.9549326076e+000	 5.1804756952e-001	 1.2669054937e+000
 2.9499161052e+000	 5.4588915724e-001	 1.4460256677e+000
 2.7040897632e+000	 5.0039839415e-001	 1.2464361129e+000
 2.6992362720e+000	 5.2595013834e-001	 1.2881377454e+000
 2.6941262274e+000	 5.5152866722e-001	 1.3065714989e+000
 2.6887581649e+000	 5.7713042797e-001	 1.3011605421e+000
 2.6831306796e+000	 6.0275182011e-001	 1.2711404569e+000
 2.6772424279e+000	 6.2838919664e-001	 1.2008788840e+000
 2.6710921293e+000	 6.5403886512e-001	 1.0380569687e+000
 2.6646785674e+000	 6.7969708895e-001	 9.0221758442e-001
 2.6580005917e+000	 7.0536008863e-001	 7.9357217203e-001
 2.6510571191e+000	 7.3102404304e-001	 7.1232243782e-001
 2.6438471350e+000	 7.5668509084e-001	 6.5866213470e-001
 2.7286723974e+000	 5.0494747046e-001	 1.2771738435e+000
 2.7237747836e+000	 5.3073150323e-001	 1.3171482865e+000
 2.7186182841e+000	 5.5654256419e-001	 1.3320601382e+000
 2.7132014209e+000	 5.8237706822e-001	 1.3212628323e+000
 2.7075227766e+000	 6.0823138211e-001	 1.2839181428e+000
 2.7015809954e+000	 6.3410182569e-001	 1.1885401222e+000
 2.6953747850e+000	 6.5998467298e-001	 1.0429750048e+000
 2.6889029180e+000	 6.8587615339e-001	 9.1977340036e-001
 2.6821642335e+000	 7.1177245307e-001	 8.1900192369e-001
 2.6751576384e+000	 7.3766971615e-001	 7.4072025122e-001
 2.6678821090e+000	 7.6356404620e-001	 6.8498315700e-001
 2.7532550316e+000	 5.0949654677e-001	 1.3108292814e+000
 2.7483132951e+000	 5.3551286813e-001	 1.3441717286e+000
 2.7431103407e+000	 5.6155646116e-001	 1.3508402422e+000
 2.7376446770e+000	 5.8762370847e-001	 1.3301224302e+000
 2.7319148737e+000	 6.1371094411e-001	 1.2811100141e+000
 2.7259195630e+000	 6.3981445475e-001	 1.1695935173e+000
 2.7196574407e+000	 6.6593048084e-001	 1.0403716317e+000
 2.7131272686e+000	 6.9205521784e-001	 9.2896498771e-001
 2.7063278752e+000	 7.1818481751e-001	 8.3529519272e-001
 2.6992581576e+000	 7.4431538927e-001	 7.5927968193e-001
 2.6919170830e+000	 7.7044300157e-001	 7.0083401054e-001
 2.7778376658e+000	 5.1404562308e-001	 1.3453535722e+000
 2.7728518067e+000	 5.4029423302e-001	 1.3671872339e+000
 2.7676023973e+000	 5.6657035814e-001	 1.3609186414e+000
 2.7620879330e+000	 5.9287034872e-001	 1.3257734739e+000
 2.7563069708e+000	 6.1919050611e-001	 1.2607771445e+000
 2.7502581305e+000	 6.4552708381e-001	 1.1443025716e+000
 2.7439400964e+000	 6.7187628870e-001	 1.0306036440e+000
 2.7373516192e+000	 6.9823428228e-001	 9.3023993818e-001
 2.7304915169e+000	 7.2459718195e-001	 8.4298780376e-001
 2.7233586769e+000	 7.5096106238e-001	 7.6862215525e-001
 2.7159520569e+000	 7.7732195694e-001	 7.0691902167e-001
 2.8024203000e+000	 5.1859469938e-001	 1.3787318364e+000
 2.7973903183e+000	 5.4507559791e-001	 1.3842055503e+000
 2.7920944539e+000	 5.7158425511e-001	 1.3603314312e+000
 2.7865311891e+000	 5.9811698897e-001	 1.3062771176e+000
 2.7806990679e+000	 6.2467006810e-001	 1.2210054461e+000
 2.7745966980e+000	 6.5123971286e-001	 1.1129535225e+000
 2.7682227522e+000	 6.7782209656e-001	 1.0140485426e+000
 2.7615759698e+000	 7.0441334672e-001	 9.2406459787e-001
 2.7546551587e+000	 7.3100954638e-001	 8.4263246190e-001
 2.7474591962e+000	 7.5760673550e-001	 7.6938418243e-001
 2.7399870309e+000	 7.8420091230e-001	 7.0395588920e-001
 2.8270029342e+000	 5.2314377569e-001	 1.4089816917e+000
 2.8219288298e+000	 5.4985696280e-001	 1.3932676379e+000
 2.8165865105e+000	 5.7659815208e-001	 1.3471427008e+000
 2.8109744451e+000	 6.0336362922e-001	 1.2697203567e+000
 2.8050911650e+000	 6.3014963010e-001	 1.1656915478e+000
 2.7989352655e+000	 6.5695234192e-001	 1.0758543536e+000
 2.7925054079e+000	 6.8376790442e-001	 9.9110363472e-001
 2.7858003204e+000	 7.1059241116e-001	 9.1092325181e-001
 2.7788188004e+000	 7.3742191082e-001	 8.3479801872e-001
 2.7715597154e+000	 7.6425240861e-001	 7.6221670486e-001
 2.7640220048e+000	 7.9107986767e-001	 6.9267510299e-001
 2.8515855684e+000	 5.2769285200e-001	 1.4341518526e+000
 2.8464673414e+000	 5.5463832770e-001	 1.3924433668e+000
 2.8410785671e+000	 5.8161204905e-001	 1.3194433253e+000
 2.8354177012e+000	 6.0861026947e-001	 1.2142149145e+000
 2.8294832621e+000	 6.3562919210e-001	 1.1054283288e+000
 2.8232738331e+000	 6.6266497097e-001	 1.0333338578e+000
 2.8167880636e+000	 6.8971371228e-001	 9.6218517962e-001
 2.8100246711e+000	 7.1677147560e-001	 8.9131735072e-001
 2.8029824422e+000	 7.4383427526e-001	 8.2006877633e-001
 2.7956602347e+000	 7.7089808172e-001	 7.4778447199e-001
 2.7880569788e+000	 7.9795882304e-001	 6.7381939259e-001
 2.8761682026e+000	 5.3224192831e-001	 1.4523208013e+000
 2.8710058529e+000	 5.5941969259e-001	 1.3798302819e+000
 2.8655706237e+000	 5.8662594603e-001	 1.2753498222e+000
 2.8598609572e+000	 6.1385690972e-001	 1.1378961849e+000
 2.8538753591e+000	 6.4110875410e-001	 1.0406185158e+000
 2.8476124006e+000	 6.6837760003e-001	 9.8574074781e-001
 2.8410707193e+000	 6.9565952014e-001	 9.2772757918e-001
 2.8342490217e+000	 7.2295054004e-001	 8.6576477750e-001
 2.8271460839e+000	 7.5024663970e-001	 7.9904382711e-001
 2.8197607539e+000	 7.7754375484e-001	 7.2676545132e-001
 2.8120919527e+000	 8.0483777841e-001	 6.4814320419e-001
 2.9007508368e+000	 5.3679100462e-001	 1.4615955267e+000
 2.8955443645e+000	 5.6420105748e-001	 1.3535524298e+000
 2.8900626803e+000	 5.9163984300e-001	 1.2130032638e+000
 2.8843042132e+000	 6.1910354998e-001	 1.0389222298e+000
 2.8782674562e+000	 6.4658831609e-001	 9.7154382940e-001
 2.8719509681e+000	 6.7409022909e-001	 9.3344281205e-001
 2.8653533750e+000	 7.0160532800e-001	 8.8818260888e-001
 2.8584733723e+000	 7.2912960448e-001	 8.3479915089e-001
 2.8513097256e+000	 7.5665900413e-001	 7.7233642696e-001
 2.8438612732e+000	 7.8418942795e-001	 6.9985026824e-001
 2.8361269267e+000	 8.1171673377e-001	 6.1641220418e-001
 2.9253334710e+000	 5.4134008093e-001	 1.4601103261e+000
 2.9200828761e+000	 5.6898242237e-001	 1.3117592455e+000
 2.9145547369e+000	 5.9665373997e-001	 1.1305682462e+000
 2.9087474693e+000	 6.2435019023e-001	 9.1547282654e-001
 2.9026595533e+000	 6.5206787809e-001	 8.9850595534e-001
 2.8962895356e+000	 6.7980285814e-001	 8.7682611330e-001
 2.8896360307e+000	 7.0755113586e-001	 8.4401868793e-001
 2.8826977229e+000	 7.3530866892e-001	 7.9896916432e-001
 2.8754733674e+000	 7.6307136857e-001	 7.4057340023e-001
 2.8679617925e+000	 7.9083510107e-001	 6.6774167425e-001
 2.8601619006e+000	 8.1859568914e-001	 5.7940280767e-001
 2.9499161052e+000	 5.4588915724e-001	 1.4460256677e+000
 2.9446213876e+000	 5.7376378727e-001	 1.2526244947e+000
 2.9390467935e+000	 6.0166763694e-001	 1.0262319088e+000
 2.9331907253e+000	 6.2959683048e-001	 8.1358870708e-001
 2.9270516504e+000	 6.5754744009e-001	 8.2182571280e-001
 2.9206281031e+000	 6.8551548720e-001	 8.1629422715e-001
 2.9139186865e+000	 7.1349694372e-001	 7.9572018572e-001
 2.9069220735e+000	 7.4148773336e-001	 7.5883795779e-001
 2.8996370091e+000	 7.6948373301e-001	 7.0439457437e-001
 2.8920623117e+000	 7.9748077418e-001	 6.3115404168e-001
 2.8841968746e+000	 8.2547464451e-001	 5.3790173064e-001
 2.6438471350e+000	 7.5668509084e-001	 6.5866213470e-001
 2.6363696952e+000	 7.8233933189e-001	 7.1159554051e-001
 2.6286239268e+000	 8.0798282872e-001	 7.4893948818e-001
 2.6206090298e+000	 8.3361160807e-001	 7.7055084262e-001
 2.6123242783e+000	 8.5922166244e-001	 7.7632249640e-001
 2.6037690218e+000	 8.8480895173e-001	 7.6618623924e-001
 2.5949426866e+000	 9.1036940492e-001	 7.4011561732e-001
 2.5858447765e+000	 9.3589892178e-001	 6.9812877376e-001
 2.5764748746e+000	 9.6139337463e-001	 6.4029126110e-001
 2.5668326437e+000	 9.8684861017e-001	 5.6671881685e-001
 2.5569178279e+000	 1.0122604513e+000	 4.7758009279e-001
 2.6678821090e+000	 7.6356404620e-001	 6.8498315700e-001
 2.6603366925e+000	 7.8945150763e-001	 7.3291199670e-001
 2.6525205080e+000	 8.1532812716e-001	 7.6635373961e-001
 2.6444327482e+000	 8.4118989541e-001	 7.8509252441e-001
 2.6360726808e+000	 8.6703276845e-001	 7.8894773661e-001
 2.6274396493e+000	 8.9285266947e-001	 7.7777700518e-001
 2.6185330746e+000	 9.1864549042e-001	 7.5147919171e-001
 2.6093524563e+000	 9.4440709380e-001	 7.0999736303e-001
 2.5998973734e+000	 9.7013331440e-001	 6.5332173819e-001
 2.5901674859e+000	 9.9581996117e-001	 5.8149260021e-001
 2.5801625355e+000	 1.0214628190e+000	 4.9460316315e-001
 2.6919170830e+000	 7.7044300157e-001	 7.0083401054e-001
 2.6843036897e+000	 7.9656368337e-001	 7.4360888622e-001
 2.6764170891e+000	 8.2267342560e-001	 7.7295521358e-001
 2.6682564667e+000	 8.4876818275e-001	 7.8858312018e-001
 2.6598210833e+000	 8.7484387447e-001	 7.9023723383e-001
 2.6511102768e+000	 9.0089638721e-001	 7.7769980922e-001
 2.6421234627e+000	 9.2692157592e-001	 7.5079384985e-001
 2.6328601361e+000	 9.5291526581e-001	 7.0938621584e-001
 2.6233198723e+000	 9.7887325417e-001	 6.5339070819e-001
 2.6135023281e+000	 1.0047913122e+000	 5.8277111967e-001
 2.6034072430e+000	 1.0306651868e+000	 4.9754424258e-001
 2.7159520569e+000	 7.7732195694e-001	 7.0691902167e-001
 2.7082706869e+000	 8.0367585911e-001	 7.4445971822e-001
 2.7003136703e+000	 8.3001872403e-001	 7.6958678068e-001
 2.6920801852e+000	 8.5634647009e-001	 7.8193500216e-001
 2.6835694859e+000	 8.8265498049e-001	 7.8117296328e-001
 2.6747809043e+000	 9.0894010495e-001	 7.6700629186e-001
 2.6657138508e+000	 9.3519766141e-001	 7.3918092054e-001
 2.6563678159e+000	 9.6142343782e-001	 6.9748633275e-001
 2.6467423712e+000	 9.8761319394e-001	 6.4175878719e-001
 2.6368371703e+000	 1.0137626632e+000	 5.7188451088e-001
 2.6266519505e+000	 1.0398675545e+000	 4.8780285040e-001
 2.7399870309e+000	 7.8420091230e-001	 7.0395588920e-001
 2.7322376842e+000	 8.1078803485e-001	 7.3625012732e-001
 2.7242102514e+000	 8.3736402247e-001	 7.5710216793e-001
 2.7159039036e+000	 8.6392475744e-001	 7.6607010829e-001
 2.7073178884e+000	 8.9046608651e-001	 7.6274515401e-001
 2.6984515317e+000	 9.1698382269e-001	 7.4675501475e-001
 2.6893042388e+000	 9.4347374691e-001	 7.1776730065e-001
 2.6798754957e+000	 9.6993160984e-001	 6.7549290940e-001
 2.6701648700e+000	 9.9635313370e-001	 6.1968939402e-001
 2.6601720126e+000	 1.0227340142e+000	 5.5016430090e-001
 2.6498966580e+000	 1.0490699223e+000	 4.6677846763e-001
 2.7640220048e+000	 7.9107986767e-001	 6.9267510299e-001
 2.7562046814e+000	 8.1790021059e-001	 7.1977734638e-001
 2.7481068326e+000	 8.4470932091e-001	 7.3636548674e-001
 2.7397276221e+000	 8.7150304478e-001	 7.4191952637e-001
 2.7310662909e+000	 8.9827719253e-001	 7.3595193001e-001
 2.7221221592e+000	 9.2502754043e-001	 7.1801115971e-001
 2.7128946269e+000	 9.5174983241e-001	 6.8768521299e-001
 2.7033831755e+000	 9.7843978185e-001	 6.4460515416e-001
 2.6935873689e+000	 1.0050930735e+000	 5.8844862837e-001
 2.6835068548e+000	 1.0317053652e+000	 5.1894334775e-001
 2.6731413656e+000	 1.0582722900e+000	 4.3587053876e-001
 2.7880569788e+000	 7.9795882304e-001	 6.7381939259e-001
 2.7801716786e+000	 8.2501238633e-001	 6.9584970659e-001
 2.7720034137e+000	 8.5205461935e-001	 7.0825078530e-001
 2.7635513405e+000	 8.7908133212e-001	 7.1042309960e-001
 2.7548146935e+000	 9.0608829855e-001	 7.0179896994e-001
 2.7457927867e+000	 9.3307125817e-001	 6.8184624342e-001
 2.7364850150e+000	 9.6002591790e-001	 6.5007197678e-001
 2.7268908553e+000	 9.8694795386e-001	 6.0602611512e-001
 2.7170098677e+000	 1.0138330132e+000	 5.4930515524e-001
 2.7068416970e+000	 1.0406767162e+000	 4.7955578301e-001
 2.6963860731e+000	 1.0674746577e+000	 3.9647847321e-001
 2.8120919527e+000	 8.0483777841e-001	 6.4814320419e-001
 2.8041386758e+000	 8.3212456207e-001	 6.6528616320e-001
 2.7958999949e+000	 8.5939991779e-001	 6.7364162394e-001
 2.7873750590e+000	 8.8665961946e-001	 6.7252905248e-001
 2.7785630960e+000	 9.1389940457e-001	 6.6129918429e-001
 2.7694634141e+000	 9.4111497591e-001	 6.3933784666e-001
 2.7600754030e+000	 9.6830200340e-001	 6.0606978984e-001
 2.7503985350e+000	 9.9545612588e-001	 5.6096251601e-001
 2.7404323666e+000	 1.0225729530e+000	 5.0353009533e-001
 2.7301765392e+000	 1.0496480672e+000	 4.3333695741e-001
 2.7196307806e+000	 1.0766770255e+000	 3.5000164690e-001
 2.8361269267e+000	 8.1171673377e-001	 6.1641220418e-001
 2.8281056731e+000	 8.3923673781e-001	 6.2891584531e-001
 2.8197965760e+000	 8.6674521623e-001	 6.3343067209e-001
 2.8111987774e+000	 8.9423790680e-001	 6.2919363565e-001
 2.8023114985e+000	 9.2171051058e-001	 6.1547240889e-001
 2.7931340416e+000	 9.4915869365e-001	 5.9156935742e-001
 2.7836657911e+000	 9.7657808889e-001	 5.5682552184e-001
 2.7739062148e+000	 1.0039642979e+000	 5.1062460047e-001
 2.7638548655e+000	 1.0313128928e+000	 4.5239692094e-001
 2.7535113814e+000	 1.0586194182e+000	 3.8162338916e-001
 2.7428754882e+000	 1.0858793932e+000	 2.9783940367e-001
 2.8601619006e+000	 8.1859568914e-001	 5.7940280767e-001
 2.8520726703e+000	 8.4634891355e-001	 5.8757762843e-001
 2.8436931572e+000	 8.7409051467e-001	 5.8851932550e-001
 2.8350224959e+000	 9.0181619415e-001	 5.8138078863e-001
 2.8260599011e+000	 9.2952161660e-001	 5.6534511401e-001
 2.8168046691e+000	 9.5720241139e-001	 5.3962972682e-001
 2.8072561791e+000	 9.8485417439e-001	 5.0349051808e-001
 2.7974138946e+000	 1.0124724699e+000	 4.5622598414e-001
 2.7872773643e+000	 1.0400528325e+000	 3.9718135721e-001
 2.7768462236e+000	 1.0675907692e+000	 3.2575271491e-001
 2.7661201957e+000	 1.0950817609e+000	 2.4139105657e-001
 2.8841968746e+000	 8.2547464451e-001	 5.3790173064e-001
 2.8760396675e+000	 8.5346108929e-001	 5.4211972836e-001
 2.8675897383e+000	 8.8143581311e-001	 5.3981734268e-001
 2.8588462143e+000	 9.0939448149e-001	 5.3006181951e-001
 2.8498083036e+000	 9.3733272262e-001	 5.1195012785e-001
 2.8404752965e+000	 9.6524612913e-001	 4.8461323737e-001
 2.8308465672e+000	 9.9313025989e-001	 4.4722041293e-001
 2.8209215744e+000	 1.0209806419e+000	 3.9898351418e-001
 2.8106998632e+000	 1.0487927723e+000	 3.3916128824e-001
 2.8001810658e+000	 1.0765621202e+000	 2.6706364314e-001
 2.7893649032e+000	 1.1042841287e+000	 1.8205588922e-001
 2.5569178279e+000	 1.0122604513e+000	 4.7758009279e-001
 2.5467302535e+000	 1.0376246991e+000	 3.3111351763e-001
 2.5362698295e+000	 1.0629371346e+000	 2.0494550953e-001
 2.5255365491e+000	 1.0881935211e+000	 9.9767329187e-002
 2.5145304902e+000	 1.1133896056e+000	 1.6304466859e-002
 2.5032518163e+000	 1.1385211215e+000	-4.4681710701e-002
 2.4917007772e+000	 1.1635837903e+000	-6.7588481814e-002
 2.4798777095e+000	 1.1885733238e+000	-6.0425015535e-002
 2.4677830375e+000	 1.2134854263e+000	-2.8998672306e-002
 2.4554172736e+000	 1.2383157968e+000	 2.6623877225e-002
 2.4427810188e+000	 1.2630601309e+000	 5.5785174907e-002
 2.5801625355e+000	 1.0214628190e+000	 4.9460316315e-001
 2.5698823467e+000	 1.0470576509e+000	 3.5549681730e-001
 2.5593268279e+000	 1.0726001995e+000	 2.3538042796e-001
 2.5484959723e+000	 1.0980861894e+000	 1.3489223833e-001
 2.5373898583e+000	 1.1235113293e+000	 5.4706918081e-002
 2.5260086510e+000	 1.1488713135e+000	-4.4626531174e-003
 2.5143526024e+000	 1.1741618247e+000	-4.1863680011e-002
 2.5024220523e+000	 1.1993785358e+000	-5.6701832163e-002
 2.4902174287e+000	 1.2245171120e+000	-3.0330182808e-002
 2.4777392488e+000	 1.2495732131e+000	 2.4075707104e-002
 2.4649881190e+000	 1.2745424957e+000	 2.1280963752e-002
 2.6034072430e+000	 1.0306651868e+000	 4.9754424258e-001
 2.5930344399e+000	 1.0564906027e+000	 3.6604012904e-001
 2.5823838264e+000	 1.0822632644e+000	 2.5219444748e-001
 2.5714553954e+000	 1.1079788578e+000	 1.5659138680e-001
 2.5602492264e+000	 1.1336330529e+000	 7.9853800414e-002
 2.5487654857e+000	 1.1592215055e+000	 2.2645128817e-002
 2.5370044277e+000	 1.1847398592e+000	-1.4328758310e-002
 2.5249663951e+000	 1.2101837479e+000	-3.0317809059e-002
 2.5126518200e+000	 1.2355487977e+000	-2.4526133927e-002
 2.5000612240e+000	 1.2608306294e+000	-2.5536347889e-002
 2.4871952191e+000	 1.2860248606e+000	-1.8376784414e-002
 2.6266519505e+000	 1.0398675545e+000	 4.8780285040e-001
 2.6161865331e+000	 1.0659235545e+000	 3.6418874741e-001
 2.6054408248e+000	 1.0919263292e+000	 2.5687757652e-001
 2.5944148186e+000	 1.1178715262e+000	 1.6639840167e-001
 2.5831085945e+000	 1.1437547766e+000	 9.3321231157e-002
 2.5715223204e+000	 1.1695716975e+000	 3.8259081847e-002
 2.5596562529e+000	 1.1953178937e+000	 1.8699603549e-003
 2.5475107379e+000	 1.2209889599e+000	-1.5141247934e-002
 2.5350862112e+000	 1.2465804834e+000	-1.2020990940e-002
 2.5223831993e+000	 1.2720880458e+000	-3.5729847880e-002
 2.5094023193e+000	 1.2975072254e+000	-4.4286771445e-002
 2.6498966580e+000	 1.0490699223e+000	 4.6677846763e-001
 2.6393386263e+000	 1.0753565063e+000	 3.5138730337e-001
 2.6284978233e+000	 1.1015893941e+000	 2.5091854686e-001
 2.6173742418e+000	 1.1277641945e+000	 1.6584503302e-001
 2.6059679626e+000	 1.1538765003e+000	 9.6682863349e-002
 2.5942791551e+000	 1.1799218895e+000	 4.3993614563e-002
 2.5823080782e+000	 1.2058959281e+000	 8.3864614323e-003
 2.5700550807e+000	 1.2317941719e+000	-9.4797956345e-003
 2.5575206025e+000	 1.2576121691e+000	-2.1797587807e-002
 2.5447051745e+000	 1.2833454621e+000	-4.4220011083e-002
 2.5316094195e+000	 1.3089895902e+000	-4.4987038330e-002
 2.6731413656e+000	 1.0582722900e+000	 4.3587053876e-001
 2.6624907195e+000	 1.0847894581e+000	 3.2907979309e-001
 2.6515548217e+000	 1.1112524589e+000	 2.3580486915e-001
 2.6403336650e+000	 1.1376568629e+000	 1.5646123556e-001
 2.6288273307e+000	 1.1639982240e+000	 9.1509992910e-002
 2.6170359898e+000	 1.1902720815e+000	 4.1460229497e-002
 2.6049599034e+000	 1.2164739626e+000	 6.8712884970e-003
 2.5925994236e+000	 1.2425993840e+000	-1.1645063255e-002
 2.5799549938e+000	 1.2686438548e+000	-3.6714360448e-002
 2.5670271497e+000	 1.2946028784e+000	-5.0771298403e-002
 2.5538165197e+000	 1.3204719550e+000	-4.4133310966e-002
 2.6963860731e+000	 1.0674746577e+000	 3.9647847321e-001
 2.6856428127e+000	 1.0942224100e+000	 2.9870960533e-001
 2.6746118202e+000	 1.1209155238e+000	 2.1302288551e-001
 2.6632930881e+000	 1.1475495313e+000	 1.3977524602e-001
 2.6516866988e+000	 1.1741199477e+000	 7.9371660246e-002
 2.6397928245e+000	 1.2006222736e+000	 3.2267648378e-002
 2.6276117287e+000	 1.2270519970e+000	-1.0283083957e-003
 2.6151437664e+000	 1.2534045960e+000	-2.3146109563e-002
 2.6023893850e+000	 1.2796755405e+000	-4.9079479149e-002
 2.5893491249e+000	 1.3058602948e+000	-5.5152924046e-002
 2.5760236198e+000	 1.3319543199e+000	-4.1480518502e-002
 2.7196307806e+000	 1.0766770255e+000	 3.5000164690e-001
 2.7087949060e+000	 1.1036553618e+000	 2.6171954739e-001
 2.6976688186e+000	 1.1305785886e+000	 1.8405781951e-001
 2.6862525113e+000	 1.1574421997e+000	 1.1731365655e-001
 2.6745460669e+000	 1.1842416714e+000	 6.1834746629e-002
 2.6625496592e+000	 1.2109724656e+000	 1.8021930978e-002
 2.6502635539e+000	 1.2376300315e+000	-1.3668231960e-002
 2.6376881092e+000	 1.2642098080e+000	-4.1273616960e-002
 2.6248237763e+000	 1.2907072262e+000	-5.8680972935e-002
 2.6116711001e+000	 1.3171177111e+000	-5.7138652392e-002
 2.5982307200e+000	 1.3434366847e+000	-3.6788580121e-002
 2.7428754882e+000	 1.0858793932e+000	 2.9783940367e-001
 2.7319469992e+000	 1.1130883136e+000	 2.1955186977e-001
 2.7207258171e+000	 1.1402416535e+000	 1.5039382353e-001
 2.7092119345e+000	 1.1673348680e+000	 9.0601484452e-002
 2.6974054350e+000	 1.1943633951e+000	 4.0464065695e-002
 2.6853064939e+000	 1.2213226576e+000	 3.2658789958e-004
 2.6729153792e+000	 1.2482080659e+000	-2.9407404088e-002
 2.6602324520e+000	 1.2750150201e+000	-5.6065149388e-002
 2.6472581675e+000	 1.3017389119e+000	-6.5310794381e-002
 2.6339930753e+000	 1.3283751274e+000	-5.6506605185e-002
 2.6204378202e+000	 1.3549190495e+000	-2.9822193592e-002
 2.7661201957e+000	 1.0950817609e+000	 2.4139105657e-001
 2.7550990924e+000	 1.1225212654e+000	 1.7364828953e-001
 2.7437828155e+000	 1.1499047184e+000	 1.1351402377e-001
 2.7321713577e+000	 1.1772275364e+000	 6.1162238285e-002
 2.7202648031e+000	 1.2044851188e+000	 1.6822450315e-002
 2.7080633286e+000	 1.2316728496e+000	-1.9217312313e-002
 2.6955672044e+000	 1.2587861004e+000	-4.8545416961e-002
 2.6827767948e+000	 1.2858202321e+000	-6.7330219579e-002
 2.6696925588e+000	 1.3127705976e+000	-6.8764654755e-002
 2.6563150506e+000	 1.3396325438e+000	-5.3039078455e-002
 2.6426449203e+000	 1.3664014143e+000	-2.0350634497e-002
 2.7893649032e+000	 1.1042841287e+000	 1.8205588922e-001
 2.7782511856e+000	 1.1319542172e+000	 1.2545001255e-001
 2.7668398140e+000	 1.1595677832e+000	 7.4900563053e-002
 2.7551307808e+000	 1.1871202048e+000	 3.0517980778e-002
 2.7431241712e+000	 1.2146068424e+000	-7.5291648733e-003
 2.7308201633e+000	 1.2420230416e+000	-3.9011041422e-002
 2.7182190297e+000	 1.2693641349e+000	-6.4422983733e-002
 2.7053211376e+000	 1.2966254442e+000	-7.4881532745e-002
 2.6921269500e+000	 1.3238022833e+000	-6.8841867406e-002
 2.6786370258e+000	 1.3508899601e+000	-4.6522368587e-002
 2.6648520205e+000	 1.3778837792e+000	-8.1475654813e-003
 2.4427810188e+000	 1.2630601309e+000	 5.5785174907e-002
 2.4298749630e+000	 1.2877141236e+000	-3.0161684648e-002
 2.4166998856e+000	 1.3122734711e+000	-1.1179966069e-001
 2.4032566556e+000	 1.3367338731e+000	-1.8904508232e-001
 2.3895462317e+000	 1.3610910354e+000	-2.6180628462e-001
 2.3755696628e+000	 1.3853406719e+000	-3.2998418144e-001
 2.3613280878e+000	 1.4094785070e+000	-3.9347286453e-001
 2.3468227357e+000	 1.4335002780e+000	-4.5216022730e-001
 2.3320549255e+000	 1.4574017375e+000	-5.0592861173e-001
 2.3170260660e+000	 1.4811786555e+000	-5.5465547644e-001
 2.3017376559e+000	 1.5048268218e+000	-5.9821408423e-001
 2.4649881190e+000	 1.2745424957e+000	 2.1280963752e-002
 2.4519647354e+000	 1.2994206156e+000	-5.8694904384e-002
 2.4386698846e+000	 1.3242032299e+000	-1.3487318712e-001
 2.4251044434e+000	 1.3488859992e+000	-2.0713222852e-001
 2.4112693793e+000	 1.3734645903e+000	-2.7534145662e-001
 2.3971657507e+000	 1.3979346780e+000	-3.3936200510e-001
 2.3827947068e+000	 1.4222919480e+000	-3.9904736312e-001
 2.3681574879e+000	 1.4465320987e+000	-4.5424405170e-001
 2.3532554248e+000	 1.4706508442e+000	-5.0479232492e-001
 2.3380899394e+000	 1.4946439160e+000	-5.5052689401e-001
 2.3226625436e+000	 1.5185070657e+000	-5.9127767237e-001
 2.4871952191e+000	 1.2860248606e+000	-1.8376784414e-002
 2.4740545078e+000	 1.3111271077e+000	-9.1692299650e-002
 2.4606398835e+000	 1.3361329887e+000	-1.6171420221e-001
 2.4469522311e+000	 1.3610381253e+000	-2.2828273778e-001
 2.4329925268e+000	 1.3858381451e+000	-2.9122831543e-001
 2.4187618385e+000	 1.4105286841e+000	-3.5037217847e-001
 2.4042613258e+000	 1.4351053889e+000	-4.0552710561e-001
 2.3894922400e+000	 1.4595639195e+000	-4.5649814039e-001
 2.3744559242e+000	 1.4838999509e+000	-5.0308334717e-001
 2.3591538127e+000	 1.5081091765e+000	-5.4507459176e-001
 2.3435874314e+000	 1.5321873095e+000	-5.8225834440e-001
 2.5094023193e+000	 1.2975072254e+000	-4.4286771445e-002
 2.4961442802e+000	 1.3228335997e+000	-1.2917175630e-001
 2.4826098825e+000	 1.3480627476e+000	-1.9236703984e-001
 2.4688000189e+000	 1.3731902515e+000	-2.5256763175e-001
 2.4547156744e+000	 1.3982117000e+000	-3.0956479499e-001
 2.4403579264e+000	 1.4231226902e+000	-3.6313975699e-001
 2.4257279448e+000	 1.4479188299e+000	-4.1306446251e-001
 2.4108269922e+000	 1.4725957402e+000	-4.5910235661e-001
 2.3956564235e+000	 1.4971490576e+000	-5.0100919608e-001
 2.3802176860e+000	 1.5215744370e+000	-5.3853388695e-001
 2.3645123192e+000	 1.5458675533e+000	-5.7141934610e-001
 2.5316094195e+000	 1.3089895902e+000	-4.4987038330e-002
 2.5182340526e+000	 1.3345400917e+000	-1.3203520827e-001
 2.5045798815e+000	 1.3599925064e+000	-2.1705468863e-001
 2.4906478067e+000	 1.3853423776e+000	-2.8006141166e-001
 2.4764388219e+000	 1.4105852549e+000	-3.3045155429e-001
 2.4619540142e+000	 1.4357166963e+000	-3.7779175911e-001
 2.4471945638e+000	 1.4607322709e+000	-4.2181299808e-001
 2.4321617443e+000	 1.4856275609e+000	-4.6223698135e-001
 2.4168569228e+000	 1.5103981643e+000	-4.9877702446e-001
 2.4012815594e+000	 1.5350396975e+000	-5.3113894343e-001
 2.3854372070e+000	 1.5595477972e+000	-5.5902197540e-001
 2.5538165197e+000	 1.3204719550e+000	-4.4133310966e-002
 2.5403238250e+000	 1.3462465838e+000	-1.2482931232e-001
 2.5265498804e+000	 1.3719222652e+000	-2.0399137166e-001
 2.5124955945e+000	 1.3974945037e+000	-2.8177221810e-001
 2.4981619695e+000	 1.4229588097e+000	-3.5399185887e-001
 2.4835501020e+000	 1.4483107024e+000	-3.9445708087e-001
 2.4686611827e+000	 1.4735457119e+000	-4.3192741846e-001
 2.4534964965e+000	 1.4986593816e+000	-4.6608269516e-001
 2.4380574221e+000	 1.5236472710e+000	-4.9659363622e-001
 2.4223454327e+000	 1.5485049580e+000	-5.2312282175e-001
 2.4063620948e+000	 1.5732280410e+000	-5.4532566708e-001
 2.5760236198e+000	 1.3319543199e+000	-4.1480518502e-002
 2.5624135974e+000	 1.3579530758e+000	-1.1500864088e-001
 2.5485198794e+000	 1.3838520240e+000	-1.8749275993e-001
 2.5343433823e+000	 1.4096466298e+000	-2.5906787993e-001
 2.5198851171e+000	 1.4353323646e+000	-3.2986064252e-001
 2.5051461899e+000	 1.4609047085e+000	-3.9998895442e-001
 2.4901278017e+000	 1.4863591528e+000	-4.4356352246e-001
 2.4748312486e+000	 1.5116912023e+000	-4.7082056097e-001
 2.4592579215e+000	 1.5368963777e+000	-4.9466550138e-001
 2.4434093060e+000	 1.5619702185e+000	-5.1471752677e-001
 2.4272869826e+000	 1.5869082848e+000	-5.3058807306e-001
 2.5982307200e+000	 1.3434366847e+000	-3.6788580121e-002
 2.5845033698e+000	 1.3696595678e+000	-1.0234981762e-001
 2.5704898784e+000	 1.3957817829e+000	-1.6735244059e-001
 2.5561911700e+000	 1.4217987559e+000	-2.3191412726e-001
 2.5416082646e+000	 1.4477059195e+000	-2.9614342476e-001
 2.5267422777e+000	 1.4734987146e+000	-3.6013938570e-001
 2.5115944207e+000	 1.4991725938e+000	-4.2399122041e-001
 2.4961660007e+000	 1.5247230230e+000	-4.7663200769e-001
 2.4804584208e+000	 1.5501454844e+000	-4.9319877036e-001
 2.4644731793e+000	 1.5754354790e+000	-5.0615405273e-001
 2.4482118703e+000	 1.6005885287e+000	-5.1506513859e-001
 2.6204378202e+000	 1.3549190495e+000	-2.9822193592e-002
 2.6065931422e+000	 1.3813660599e+000	-8.6633632088e-002
 2.5924598773e+000	 1.4077115417e+000	-1.4336754696e-001
 2.5780389578e+000	 1.4339508820e+000	-2.0012468297e-001
 2.5633314122e+000	 1.4600794743e+000	-2.5699588789e-001
 2.5483383656e+000	 1.4860927207e+000	-3.1406175746e-001
 2.5330610397e+000	 1.5119860348e+000	-3.7139229724e-001
 2.5175007529e+000	 1.5377548437e+000	-4.2904660248e-001
 2.5016589201e+000	 1.5633945911e+000	-4.8707255713e-001
 2.4855370527e+000	 1.5889007395e+000	-4.9766242611e-001
 2.4691367581e+000	 1.6142687725e+000	-4.9901117460e-001
 2.6426449203e+000	 1.3664014143e+000	-2.0350634497e-002
 2.6286829145e+000	 1.3930725519e+000	-6.7644864715e-002
 2.6144298763e+000	 1.4196413005e+000	-1.1533860947e-001
 2.5998867456e+000	 1.4461030082e+000	-1.6351606682e-001
 2.5850545598e+000	 1.4724530292e+000	-2.1225077425e-001
 2.5699344534e+000	 1.4986867268e+000	-2.6160526154e-001
 2.5545276587e+000	 1.5247994757e+000	-3.1163072195e-001
 2.5388355050e+000	 1.5507866644e+000	-3.6236670252e-001
 2.5228594194e+000	 1.5766436978e+000	-4.1384081490e-001
 2.5066009260e+000	 1.6023660000e+000	-4.6606846732e-001
 2.4900616459e+000	 1.6279490163e+000	-4.8267892633e-001
 2.6648520205e+000	 1.3778837792e+000	-8.1475654813e-003
 2.6507726869e+000	 1.4047790439e+000	-4.5172120497e-002
 2.6363998752e+000	 1.4315710593e+000	-8.3069414148e-002
 2.6217345334e+000	 1.4582551343e+000	-1.2190747895e-001
 2.6067777073e+000	 1.4848265841e+000	-1.6174292527e-001
 2.5915305413e+000	 1.5112807329e+000	-2.0262060188e-001
 2.5759942776e+000	 1.5376129167e+000	-2.4457327590e-001
 2.5601702572e+000	 1.5638184851e+000	-2.8762133331e-001
 2.5440599187e+000	 1.5898928045e+000	-3.3177250104e-001
 2.5276647993e+000	 1.6158312605e+000	-3.7702159162e-001
 2.5109865337e+000	 1.6416292602e+000	-4.2335027147e-001
 2.3017376559e+000	 1.5048268218e+000	-5.9821408423e-001
 2.2861912829e+000	 1.5283420488e+000	-6.7581966282e-001
 2.2703886241e+000	 1.5517201731e+000	-7.4538511247e-001
 2.2543314449e+000	 1.5749570586e+000	-8.0659155666e-001
 2.2380215991e+000	 1.5980485981e+000	-8.5912156865e-001
 2.2214610278e+000	 1.6209907162e+000	-9.0266013621e-001
 2.2046517589e+000	 1.6437793714e+000	-9.3689563033e-001
 2.1875959066e+000	 1.6664105584e+000	-9.6152077514e-001
 2.1702956705e+000	 1.6888803104e+000	-9.7623361638e-001
 2.1527533344e+000	 1.7111847011e+000	-9.8073848572e-001
 2.1349712658e+000	 1.7333198476e+000	-9.7474695820e-001
 2.3226625436e+000	 1.5185070657e+000	-5.9127767237e-001
 2.3069748400e+000	 1.5422360674e+000	-6.6252966645e-001
 2.2910285207e+000	 1.5658267202e+000	-7.2784682004e-001
 2.2748253672e+000	 1.5892748500e+000	-7.8689089432e-001
 2.2583672500e+000	 1.6125763126e+000	-8.3932296326e-001
 2.2416561281e+000	 1.6357269954e+000	-8.8480440565e-001
 2.2246940476e+000	 1.6587228203e+000	-9.2299790401e-001
 2.2074831422e+000	 1.6815597453e+000	-9.5356844775e-001
 2.1900256311e+000	 1.7042337677e+000	-9.7618433770e-001
 2.1723238192e+000	 1.7267409257e+000	-9.9051818931e-001
 2.1543800955e+000	 1.7490773008e+000	-9.9624793160e-001
 2.3435874314e+000	 1.5321873095e+000	-5.8225834440e-001
 2.3277583971e+000	 1.5561300860e+000	-6.4700849081e-001
 2.3116684172e+000	 1.5799332672e+000	-7.0788553720e-001
 2.2953192894e+000	 1.6035926415e+000	-7.6453142267e-001
 2.2787129009e+000	 1.6271040271e+000	-8.1658528941e-001
 2.2618512283e+000	 1.6504632747e+000	-8.6368450293e-001
 2.2447363364e+000	 1.6736662691e+000	-9.0546568217e-001
 2.2273703777e+000	 1.6967089322e+000	-9.4156573670e-001
 2.2097555918e+000	 1.7195872251e+000	-9.7162290818e-001
 2.1918943041e+000	 1.7422971502e+000	-9.9527781318e-001
 2.1737889252e+000	 1.7648347539e+000	-1.0121744845e+000
 2.3645123192e+000	 1.5458675533e+000	-5.7141934610e-001
 2.3485419542e+000	 1.5700241047e+000	-6.2953098377e-001
 2.3323083138e+000	 1.5940398142e+000	-6.8578874408e-001
 2.3158132116e+000	 1.6179104329e+000	-7.3981427748e-001
 2.2990585519e+000	 1.6416317417e+000	-7.9122435442e-001
 2.2820463286e+000	 1.6651995539e+000	-8.3963191478e-001
 2.2647786251e+000	 1.6886097179e+000	-8.8464713001e-001
 2.2472576132e+000	 1.7118581191e+000	-9.2587847529e-001
 2.2294855524e+000	 1.7349406825e+000	-9.6293380875e-001
 2.2114647889e+000	 1.7578533748e+000	-9.9542145479e-001
 2.1931977549e+000	 1.7805922071e+000	-1.0229512885e+000
 2.3854372070e+000	 1.5595477972e+000	-5.5902197540e-001
 2.3693255114e+000	 1.5839181233e+000	-6.1036982230e-001
 2.3529482104e+000	 1.6081463613e+000	-6.6184148899e-001
 2.3363071339e+000	 1.6322282244e+000	-7.1303786392e-001
 2.3194042028e+000	 1.6561594562e+000	-7.6355289849e-001
 2.3022414288e+000	 1.6799358332e+000	-8.1297468648e-001
 2.2848209138e+000	 1.7035531668e+000	-8.6088655927e-001
 2.2671448487e+000	 1.7270073060e+000	-9.0686819380e-001
 2.2492155131e+000	 1.7502941398e+000	-9.5049673041e-001
 2.2310352738e+000	 1.7734095994e+000	-9.9134789746e-001
 2.2126065846e+000	 1.7963496603e+000	-1.0289971397e+000
 2.4063620948e+000	 1.5732280410e+000	-5.4532566708e-001
 2.3901090685e+000	 1.5978121419e+000	-5.8979560684e-001
 2.3735881070e+000	 1.6222529083e+000	-6.3632649413e-001
 2.3568010561e+000	 1.6465460158e+000	-6.8449797532e-001
 2.3397498537e+000	 1.6706871707e+000	-7.3388072799e-001
 2.3224365291e+000	 1.6946721124e+000	-7.8403757145e-001
 2.3048632025e+000	 1.7184966156e+000	-8.3452459577e-001
 2.2870320842e+000	 1.7421564929e+000	-8.8489230661e-001
 2.2689454737e+000	 1.7656475972e+000	-9.3468678245e-001
 2.2506057587e+000	 1.7889658239e+000	-9.8345084134e-001
 2.2320154143e+000	 1.8121071134e+000	-1.0307252140e+000
 2.4272869826e+000	 1.5869082848e+000	-5.3058807306e-001
 2.4108926256e+000	 1.6117061606e+000	-5.6807695082e-001
 2.3942280036e+000	 1.6363594553e+000	-6.0952425588e-001
 2.3772949783e+000	 1.6608638072e+000	-6.5448790569e-001
 2.3600955046e+000	 1.6852148853e+000	-7.0251484197e-001
 2.3426316293e+000	 1.7094083916e+000	-7.5314217314e-001
 2.3249054912e+000	 1.7334400644e+000	-8.0589833830e-001
 2.3069193198e+000	 1.7573056798e+000	-8.6030428961e-001
 2.2886754343e+000	 1.7810010546e+000	-9.1587468994e-001
 2.2701762435e+000	 1.8045220485e+000	-9.7211912260e-001
 2.2514242440e+000	 1.8278645666e+000	-1.0285433100e+000
 2.4482118703e+000	 1.6005885287e+000	-5.1506513859e-001
 2.4316761827e+000	 1.6256001792e+000	-5.4548056558e-001
 2.4148679002e+000	 1.6504660024e+000	-5.8171313990e-001
 2.3977889005e+000	 1.6751815987e+000	-6.2329855659e-001
 2.3804411555e+000	 1.6997425998e+000	-6.6975955208e-001
 2.3628267296e+000	 1.7241446709e+000	-7.2060707967e-001
 2.3449477800e+000	 1.7483835133e+000	-7.7534150930e-001
 2.3268065553e+000	 1.7724548667e+000	-8.3345384846e-001
 2.3084053950e+000	 1.7963545119e+000	-8.9442698112e-001
 2.2897467284e+000	 1.8200782730e+000	-9.5773692124e-001
 2.2708330737e+000	 1.8436220197e+000	-1.0228540778e+000
 2.4691367581e+000	 1.6142687725e+000	-4.9901117460e-001
 2.4524597398e+000	 1.6394941978e+000	-5.2227134093e-001
 2.4355077967e+000	 1.6645725494e+000	-5.5316947145e-001
 2.4182828228e+000	 1.6894993901e+000	-5.9121853847e-001
 2.4007868064e+000	 1.7142703143e+000	-6.3591659648e-001
 2.3830218298e+000	 1.7388809501e+000	-6.8674799159e-001
 2.3649900687e+000	 1.7633269621e+000	-7.4318459799e-001
 2.3466937908e+000	 1.7876040536e+000	-8.0468707844e-001
 2.3281353556e+000	 1.8117079693e+000	-8.7070616520e-001
 2.3093172132e+000	 1.8356344976e+000	-9.4068395839e-001
 2.2902419033e+000	 1.8593794729e+000	-1.0140552380e+000
 2.4900616459e+000	 1.6279490163e+000	-4.8267892633e-001
 2.4732432969e+000	 1.6533882164e+000	-4.9871242173e-001
 2.4561476933e+000	 1.6786790964e+000	-5.2416762108e-001
 2.4387767450e+000	 1.7038171816e+000	-5.5853426694e-001
 2.4211324573e+000	 1.7287980288e+000	-6.0128524796e-001
 2.4032169301e+000	 1.7536172294e+000	-6.5187784317e-001
 2.3850323574e+000	 1.7782704109e+000	-7.0975499619e-001
 2.3665810263e+000	 1.8027532405e+000	-7.7434661604e-001
 2.3478653163e+000	 1.8270614267e+000	-8.4507090126e-001
 2.3288876981e+000	 1.8511907221e+000	-9.2133568367e-001
 2.3096507330e+000	 1.8751369261e+000	-1.0022246866e+000
 2.5109865337e+000	 1.6416292602e+000	-4.2335027147e-001
 2.4940268541e+000	 1.6672822350e+000	-4.7506528059e-001
 2.4767875899e+000	 1.6927856434e+000	-4.9498008608e-001
 2.4592706672e+000	 1.7181349730e+000	-5.2553005422e-001
 2.4414781082e+000	 1.7433257434e+000	-5.6616241665e-001
 2.4234120303e+000	 1.7683535086e+000	-6.1630691772e-001
 2.4050746461e+000	 1.7932138597e+000	-6.7537712734e-001
 2.3864682618e+000	 1.8179024274e+000	-7.4277178317e-001
 2.3675952769e+000	 1.8424148840e+000	-8.1787615862e-001
 2.3484581830e+000	 1.8667469467e+000	-9.0006345318e-001
 2.3290595627e+000	 1.8908943792e+000	-9.5435998318e-001
 2.1349712658e+000	 1.7333198476e+000	-9.7474695820e-001
 2.1169519149e+000	 1.7552819119e+000	-9.4497519717e-001
 2.0986978130e+000	 1.7770671034e+000	-9.2976691193e-001
 2.0802115719e+000	 1.7986716810e+000	-9.2869209776e-001
 2.0614958826e+000	 1.8200919554e+000	-9.4130713821e-001
 2.0425535136e+000	 1.8413242908e+000	-9.6715582620e-001
 2.0233873101e+000	 1.8623651074e+000	-1.0057703951e+000
 2.0040001923e+000	 1.8832108829e+000	-1.0315886882e+000
 1.9843951538e+000	 1.9038581548e+000	-1.0385204752e+000
 1.9645752604e+000	 1.9243035224e+000	-1.0681088783e+000
 1.9445436483e+000	 1.9445436482e+000	-1.1201583288e+000
 2.1543800955e+000	 1.7490773008e+000	-9.9624793160e-001
 2.1361969323e+000	 1.7712390202e+000	-9.7328837114e-001
 2.1177768840e+000	 1.7932222588e+000	-9.6298364362e-001
 2.0991225862e+000	 1.8150232417e+000	-9.6487286711e-001
 2.0802367542e+000	 1.8366382459e+000	-9.7848328431e-001
 2.0611221819e+000	 1.8580636026e+000	-1.0033313352e+000
 2.0417817402e+000	 1.8792956993e+000	-1.0263929483e+000
 2.0222183758e+000	 1.9003309818e+000	-1.0172782951e+000
 2.0024351097e+000	 1.9211659562e+000	-1.0294197729e+000
 1.9824350355e+000	 1.9417971908e+000	-1.0626647125e+000
 1.9622213178e+000	 1.9622213178e+000	-1.1168185046e+000
 2.1737889252e+000	 1.7648347539e+000	-1.0121744845e+000
 2.1554419497e+000	 1.7871961285e+000	-9.9573427729e-001
 2.1368559550e+000	 1.8093774143e+000	-9.9006016116e-001
 2.1180336005e+000	 1.8313748025e+000	-9.9466013895e-001
 2.0989776259e+000	 1.8531845364e+000	-1.0090320666e+000
 2.0796908502e+000	 1.8748029143e+000	-1.0326647777e+000
 2.0601761703e+000	 1.8962262912e+000	-1.0107804729e+000
 2.0404365594e+000	 1.9174510807e+000	-1.0082032879e+000
 2.0204750656e+000	 1.9384737576e+000	-1.0253763736e+000
 2.0002948105e+000	 1.9592908592e+000	-1.0621480746e+000
 1.9798989873e+000	 1.9798989873e+000	-1.1183250640e+000
 2.1931977549e+000	 1.7805922071e+000	-1.0229512885e+000
 2.1746869671e+000	 1.8031532367e+000	-1.0127509266e+000
 2.1559350260e+000	 1.8255325698e+000	-1.0114469770e+000
 2.1369446148e+000	 1.8477263632e+000	-1.0185160784e+000
 2.1177184976e+000	 1.8697308269e+000	-1.0334264438e+000
 2.0982595185e+000	 1.8915422260e+000	-1.0146599632e+000
 2.0785706004e+000	 1.9131568830e+000	-9.9999390135e-001
 2.0586547430e+000	 1.9345711797e+000	-1.0037290209e+000
 2.0385150216e+000	 1.9557815590e+000	-1.0257561812e+000
 2.0181545856e+000	 1.9767845275e+000	-1.0659251189e+000
 1.9975766568e+000	 1.9975766568e+000	-1.1240441152e+000
 2.2126065846e+000	 1.7963496603e+000	-1.0289971397e+000
 2.1939319845e+000	 1.8191103450e+000	-1.0247701436e+000
 2.1750140971e+000	 1.8416877253e+000	-1.0275881314e+000
 2.1558556291e+000	 1.8640779239e+000	-1.0368961185e+000
 2.1364593692e+000	 1.8862771174e+000	-1.0247776530e+000
 2.1168281868e+000	 1.9082815378e+000	-1.0005561359e+000
 2.0969650305e+000	 1.9300874749e+000	-9.9339038105e-001
 2.0768729265e+000	 1.9516912786e+000	-1.0032133363e+000
 2.0565549775e+000	 1.9730893604e+000	-1.0299174577e+000
 2.0360143607e+000	 1.9942781959e+000	-1.0733542550e+000
 2.0152543264e+000	 2.0152543264e+000	-1.1333339445e+000
 2.2320154143e+000	 1.8121071134e+000	-1.0307252140e+000
 2.2131770019e+000	 1.8350674533e+000	-1.0322178350e+000
 2.1940931681e+000	 1.8578428808e+000	-1.0389214738e+000
 2.1747666434e+000	 1.8804294847e+000	-1.0372177369e+000
 2.1552002409e+000	 1.9028234079e+000	-1.0058801739e+000
 2.1353968551e+000	 1.9250208495e+000	-9.9025606393e-001
 2.1153594606e+000	 1.9470180668e+000	-9.9032002278e-001
 2.0950911101e+000	 1.9688113775e+000	-1.0060068905e+000
 2.0745949335e+000	 1.9903971619e+000	-1.0372111555e+000
 2.0538741358e+000	 2.0117718643e+000	-1.0837864840e+000
 2.0329319959e+000	 2.0329319959e+000	-1.1455453566e+000
 2.2514242440e+000	 1.8278645666e+000	-1.0285433100e+000
 2.2324220193e+000	 1.8510245616e+000	-1.0355142451e+000
 2.2131722391e+000	 1.8739980363e+000	-1.0458789296e+000
 2.1936776577e+000	 1.8967810454e+000	-1.0121771649e+000
 2.1739411125e+000	 1.9193696984e+000	-9.9044511153e-001
 2.1539655234e+000	 1.9417601612e+000	-9.8310249410e-001
 2.1337538907e+000	 1.9639486587e+000	-9.9012620396e-001
 2.1133092937e+000	 1.9859314765e+000	-1.0114534637e+000
 2.0926348894e+000	 2.0077049633e+000	-1.0469812325e+000
 2.0717339109e+000	 2.0292655327e+000	-1.0965657179e+000
 2.0506096654e+000	 2.0506096654e+000	-1.1600219969e+000
 2.2708330737e+000	 1.8436220197e+000	-1.0228540778e+000
 2.2516670367e+000	 1.8669816699e+000	-1.0350741975e+000
 2.2322513102e+000	 1.8901531918e+000	-1.0158742240e+000
 2.2125886720e+000	 1.9131326061e+000	-9.9029522846e-001
 2.1926819842e+000	 1.9359159889e+000	-9.7780824803e-001
 2.1725341917e+000	 1.9584994730e+000	-9.7843188696e-001
 2.1521483208e+000	 1.9808792506e+000	-9.9214585641e-001
 2.1315274772e+000	 2.0030515754e+000	-1.0188902543e+000
 2.1106748454e+000	 2.0250127647e+000	-1.0585649509e+000
 2.0895936860e+000	 2.0467592011e+000	-1.1110290829e+000
 2.0682873350e+000	 2.0682873350e+000	-1.1761006575e+000
 2.2902419033e+000	 1.8593794729e+000	-1.0140552380e+000
 2.2709120541e+000	 1.8829387782e+000	-1.0136091241e+000
 2.2513303812e+000	 1.9063083472e+000	-9.8635769575e-001
 2.2314996862e+000	 1.9294841669e+000	-9.7090117268e-001
 2.2114228559e+000	 1.9524622794e+000	-9.6729952030e-001
 2.1911028601e+000	 1.9752387847e+000	-9.7557468336e-001
 2.1705427509e+000	 1.9978098425e+000	-9.9570973948e-001
 2.1497456608e+000	 2.0201716744e+000	-1.0276481571e+000
 2.1287148013e+000	 2.0423205661e+000	-1.0712931609e+000
 2.1074534611e+000	 2.0642528695e+000	-1.1265072065e+000
 2.0859650045e+000	 2.0859650045e+000	-1.1931115675e+000
 2.3096507330e+000	 1.8751369261e+000	-1.0022246866e+000
 2.2901570715e+000	 1.8988958865e+000	-9.7539197133e-001
 2.2704094522e+000	 1.9224635027e+000	-9.5905636843e-001
 2.2504107005e+000	 1.9458357276e+000	-9.5331883124e-001
 2.2301637275e+000	 1.9690085699e+000	-9.5824326580e-001
 2.2096715284e+000	 1.9919780964e+000	-9.7385555733e-001
 2.1889371809e+000	 2.0147404344e+000	-1.0001426994e+000
 2.1679638444e+000	 2.0372917733e+000	-1.0370520289e+000
 2.1467547572e+000	 2.0596283675e+000	-1.0844905703e+000
 2.1253132362e+000	 2.0817465379e+000	-1.1423244907e+000
 2.1036426740e+000	 2.1036426740e+000	-1.2103786689e+000
 2.3290595627e+000	 1.8908943792e+000	-9.5435998318e-001
 2.3094020889e+000	 1.9148529948e+000	-9.3915464996e-001
 2.2894885232e+000	 1.9386186582e+000	-9.3328841644e-001
 2.2693217148e+000	 1.9621872884e+000	-9.3686685198e-001
 2.2489045992e+000	 1.9855548604e+000	-9.4995845578e-001
 2.2282401967e+000	 2.0087174082e+000	-9.7259365639e-001
 2.2073316110e+000	 2.0316710262e+000	-1.0047639155e+000
 2.1861820279e+000	 2.0544118722e+000	-1.0464209394e+000
 2.1647947132e+000	 2.0769361689e+000	-1.0974760002e+000
 2.1431730113e+000	 2.0992402062e+000	-1.1577993717e+000
 2.1213203436e+000	 2.1213203435e+000	-1.2272198787e+000
 1.9445436483e+000	 1.9445436482e+000	-1.1201583288e+000
 1.9243035224e+000	 1.9645752604e+000	-1.1134096037e+000
 1.9038581548e+000	 1.9843951538e+000	-1.1129136974e+000
 1.8832108829e+000	 2.0040001923e+000	-1.1182405514e+000
 1.8623651074e+000	 2.0233873101e+000	-1.1048405929e+000
 1.8413242908e+000	 2.0425535136e+000	-1.1045683485e+000
 1.8200919554e+000	 2.0614958826e+000	-1.1367492123e+000
 1.7986716810e+000	 2.0802115719e+000	-1.1988160009e+000
 1.7770671034e+000	 2.0986978130e+000	-1.2882210546e+000
 1.7552819119e+000	 2.1169519149e+000	-1.4024404628e+000
 1.7333198476e+000	 2.1349712658e+000	-1.5389781714e+000
 1.9622213178e+000	 1.9622213178e+000	-1.1168185046e+000
 1.9417971908e+000	 1.9824350355e+000	-1.1073830138e+000
 1.9211659562e+000	 2.0024351097e+000	-1.1022755996e+000
 1.9003309818e+000	 2.0222183758e+000	-1.1011345361e+000
 1.8792956993e+000	 2.0417817402e+000	-1.1035709041e+000
 1.8580636026e+000	 2.0611221819e+000	-1.1005002346e+000
 1.8366382459e+000	 2.0802367542e+000	-1.1228944186e+000
 1.8150232417e+000	 2.0991225862e+000	-1.1733628136e+000
 1.7932222588e+000	 2.1177768840e+000	-1.2493647052e+000
 1.7712390202e+000	 2.1361969323e+000	-1.3483863832e+000
 1.7490773008e+000	 2.1543800955e+000	-1.4679452691e+000
 1.9798989873e+000	 1.9798989873e+000	-1.1183250640e+000
 1.9592908592e+000	 2.0002948105e+000	-1.1080139373e+000
 1.9384737576e+000	 2.0204750656e+000	-1.1001622528e+000
 1.9174510807e+000	 2.0404365594e+000	-1.0944758830e+000
 1.8962262912e+000	 2.0601761703e+000	-1.0906341003e+000
 1.8748029143e+000	 2.0796908502e+000	-1.0883141926e+000
 1.8531845364e+000	 2.0989776259e+000	-1.1033771191e+000
 1.8313748025e+000	 2.1180336005e+000	-1.1447047298e+000
 1.8093774143e+000	 2.1368559550e+000	-1.2097608923e+000
 1.7871961285e+000	 2.1554419497e+000	-1.2960397705e+000
 1.7648347539e+000	 2.1737889252e+000	-1.4010699777e+000
 1.9975766568e+000	 1.9975766568e+000	-1.1240441152e+000
 1.9767845275e+000	 2.0181545856e+000	-1.1146192021e+000
 1.9557815590e+000	 2.0385150216e+000	-1.1058407263e+000
 1.9345711797e+000	 2.0586547430e+000	-1.0974814498e+000
 1.9131568830e+000	 2.0785706004e+000	-1.0892880699e+000
 1.8915422260e+000	 2.0982595185e+000	-1.0809813086e+000
 1.8697308269e+000	 2.1177184976e+000	-1.0791865081e+000
 1.8477263632e+000	 2.1369446148e+000	-1.1137872012e+000
 1.8255325698e+000	 2.1559350260e+000	-1.1703098841e+000
 1.8031532367e+000	 2.1746869671e+000	-1.2462542825e+000
 1.7805922071e+000	 2.1931977549e+000	-1.3391579316e+000
 2.0152543264e+000	 2.0152543264e+000	-1.1333339445e+000
 1.9942781959e+000	 2.0360143607e+000	-1.1265094814e+000
 1.9730893604e+000	 2.0565549775e+000	-1.1185736341e+000
 1.9516912786e+000	 2.0768729265e+000	-1.1093653711e+000
 1.9300874749e+000	 2.0969650305e+000	-1.0986980724e+000
 1.9082815378e+000	 2.1168281868e+000	-1.0863595420e+000
 1.8862771174e+000	 2.1364593692e+000	-1.0721121109e+000
 1.8640779239e+000	 2.1558556291e+000	-1.0815601892e+000
 1.8416877253e+000	 2.1750140971e+000	-1.1319183383e+000
 1.8191103450e+000	 2.1939319845e+000	-1.1998918728e+000
 1.7963496603e+000	 2.2126065846e+000	-1.2830249934e+000
 2.0329319959e+000	 2.0329319959e+000	-1.1455453566e+000
 2.0117718643e+000	 2.0538741358e+000	-1.1429895606e+000
 1.9903971619e+000	 2.0745949335e+000	-1.1376193290e+000
 1.9688113775e+000	 2.0950911101e+000	-1.1293391771e+000
 1.9470180668e+000	 2.1153594606e+000	-1.1180284495e+000
 1.9250208495e+000	 2.1353968551e+000	-1.1035412570e+000
 1.9028234079e+000	 2.1552002409e+000	-1.0857065032e+000
 1.8804294847e+000	 2.1747666434e+000	-1.0643280015e+000
 1.8578428808e+000	 2.1940931681e+000	-1.0954990242e+000
 1.8350674533e+000	 2.2131770019e+000	-1.1578224305e+000
 1.8121071134e+000	 2.2320154143e+000	-1.2334968096e+000
 2.0506096654e+000	 2.0506096654e+000	-1.1600219969e+000
 2.0292655327e+000	 2.0717339109e+000	-1.1633585918e+000
 2.0077049633e+000	 2.0926348894e+000	-1.1622320860e+000
 1.9859314765e+000	 2.1133092937e+000	-1.1566119052e+000
 1.9639486587e+000	 2.1337538907e+000	-1.1464426645e+000
 1.9417601612e+000	 2.1539655234e+000	-1.1316440290e+000
 1.9193696984e+000	 2.1739411125e+000	-1.1121106652e+000
 1.8967810454e+000	 2.1936776577e+000	-1.0877122859e+000
 1.8739980363e+000	 2.2131722391e+000	-1.0619705592e+000
 1.8510245616e+000	 2.2324220193e+000	-1.1209234377e+000
 1.8278645666e+000	 2.2514242440e+000	-1.1914083885e+000
 2.0682873350e+000	 2.0682873350e+000	-1.1761006575e+000
 2.0467592011e+000	 2.0895936860e+000	-1.1869103343e+000
 2.0250127647e+000	 2.1106748454e+000	-1.1916622766e+000
 2.0030515754e+000	 2.1315274772e+000	-1.1903902072e+000
 1.9808792506e+000	 2.1521483208e+000	-1.1831033399e+000
 1.9584994730e+000	 2.1725341917e+000	-1.1697861640e+000
 1.9359159889e+000	 2.1926819842e+000	-1.1503983225e+000
 1.9131326061e+000	 2.2125886720e+000	-1.1248745839e+000
 1.8901531918e+000	 2.2322513102e+000	-1.0931249067e+000
 1.8669816699e+000	 2.2516670367e+000	-1.0900796455e+000
 1.8436220197e+000	 2.2708330737e+000	-1.1576037005e+000
 2.0859650045e+000	 2.0859650045e+000	-1.1931115675e+000
 2.0642528695e+000	 2.1074534611e+000	-1.2129333830e+000
 2.0423205661e+000	 2.1287148013e+000	-1.2251565344e+000
 2.0201716744e+000	 2.1497456608e+000	-1.2298784502e+000
 1.9978098425e+000	 2.1705427509e+000	-1.2271722928e+000
 1.9752387847e+000	 2.1911028601e+000	-1.2170866681e+000
 1.9524622794e+000	 2.2114228559e+000	-1.1996454305e+000
 1.9294841669e+000	 2.2314996862e+000	-1.1748475824e+000
 1.9063083472e+000	 2.2513303812e+000	-1.1426672689e+000
 1.8829387782e+000	 2.2709120541e+000	-1.1030538679e+000
 1.8593794729e+000	 2.2902419033e+000	-1.1329352981e+000
 2.1036426740e+000	 2.1036426740e+000	-1.2103786689e+000
 2.0817465379e+000	 2.1253132362e+000	-1.2407113854e+000
 2.0596283675e+000	 2.1467547572e+000	-1.2619579119e+000
 2.0372917733e+000	 2.1679638444e+000	-1.2742788124e+000
 2.0147404344e+000	 2.1889371809e+000	-1.2778105690e+000
 1.9919780964e+000	 2.2096715284e+000	-1.2726652179e+000
 1.9690085699e+000	 2.2301637275e+000	-1.2589300806e+000
 1.9458357276e+000	 2.2504107005e+000	-1.2366675928e+000
 1.9224635027e+000	 2.2704094522e+000	-1.2059152299e+000
 1.8988958865e+000	 2.2901570715e+000	-1.1666855293e+000
 1.8751369261e+000	 2.3096507330e+000	-1.1189662092e+000
 2.1213203436e+000	 2.1213203435e+000	-1.2272198787e+000
 2.0992402062e+000	 2.1431730113e+000	-1.2695232479e+000
 2.0769361689e+000	 2.1647947132e+000	-1.3013060300e+000
 2.0544118722e+000	 2.1861820279e+000	-1.3227913744e+000
 2.0316710262e+000	 2.2073316110e+000	-1.3341784752e+000
 2.0087174082e+000	 2.2282401967e+000	-1.3356421325e+000
 1.9855548604e+000	 2.2489045992e+000	-1.3273324114e+000
 1.9621872884e+000	 2.2693217148e+000	-1.3093744006e+000
 1.9386186582e+000	 2.2894885232e+000	-1.2818680693e+000
 1.9148529948e+000	 2.3094020889e+000	-1.2448882229e+000
 1.8908943792e+000	 2.3290595627e+000	-1.1984845576e+000
 1.7333198476e+000	 2.1349712658e+000	-1.5389781714e+000
 1.7111847011e+000	 2.1527533344e+000	-1.4680347000e+000
 1.6888803104e+000	 2.1702956705e+000	-1.4037075871e+000
 1.6664105584e+000	 2.1875959066e+000	-1.3445484013e+000
 1.6437793714e+000	 2.2046517589e+000	-1.2891567156e+000
 1.6209907162e+000	 2.2214610278e+000	-1.2361824835e+000
 1.5980485981e+000	 2.2380215991e+000	-1.1843282507e+000
 1.5749570586e+000	 2.2543314449e+000	-1.1323511970e+000
 1.5517201731e+000	 2.2703886241e+000	-1.0790650066e+000
 1.5283420488e+000	 2.2861912829e+000	-1.0233415634e+000
 1.5048268218e+000	 2.3017376559e+000	-9.6411246945e-001
 1.7490773008e+000	 2.1543800955e+000	-1.4679452691e+000
 1.7267409257e+000	 2.1723238192e+000	-1.4027254025e+000
 1.7042337677e+000	 2.1900256311e+000	-1.3452654275e+000
 1.6815597453e+000	 2.2074831422e+000	-1.2939991616e+000
 1.6587228203e+000	 2.2246940476e+000	-1.2474096002e+000
 1.6357269954e+000	 2.2416561281e+000	-1.2040314402e+000
 1.6125763126e+000	 2.2583672500e+000	-1.1624534338e+000
 1.5892748500e+000	 2.2748253672e+000	-1.1213205682e+000
 1.5658267202e+000	 2.2910285207e+000	-1.0793360675e+000
 1.5422360674e+000	 2.3069748400e+000	-1.0352632142e+000
 1.5185070657e+000	 2.3226625436e+000	-9.8792698826e-001
 1.7648347539e+000	 2.1737889252e+000	-1.4010699777e+000
 1.7422971502e+000	 2.1918943041e+000	-1.3401830564e+000
 1.7195872251e+000	 2.2097555918e+000	-1.2881400360e+000
 1.6967089322e+000	 2.2273703777e+000	-1.2432567936e+000
 1.6736662691e+000	 2.2447363364e+000	-1.2038996344e+000
 1.6504632747e+000	 2.2618512283e+000	-1.1684879636e+000
 1.6271040271e+000	 2.2787129009e+000	-1.1354967829e+000
 1.6035926415e+000	 2.2953192894e+000	-1.1034590075e+000
 1.5799332672e+000	 2.3116684172e+000	-1.0709676001e+000
 1.5561300860e+000	 2.3277583971e+000	-1.0366775188e+000
 1.5321873095e+000	 2.3435874314e+000	-9.9930747512e-001
 1.7805922071e+000	 2.1931977549e+000	-1.3391579316e+000
 1.7578533748e+000	 2.2114647889e+000	-1.2812656569e+000
 1.7349406825e+000	 2.2294855524e+000	-1.2332417238e+000
 1.7118581191e+000	 2.2472576132e+000	-1.1932838454e+000
 1.6886097179e+000	 2.2647786251e+000	-1.1596414908e+000
 1.6651995539e+000	 2.2820463286e+000	-1.1306187056e+000
 1.6416317417e+000	 2.2990585519e+000	-1.1045767513e+000
 1.6179104329e+000	 2.3158132116e+000	-1.0799365602e+000
 1.5940398142e+000	 2.3323083138e+000	-1.0551810014e+000
 1.5700241047e+000	 2.3485419542e+000	-1.0288569541e+000
 1.5458675533e+000	 2.3645123192e+000	-9.9957718670e-001
 1.7963496603e+000	 2.2126065846e+000	-1.2830249934e+000
 1.7734095994e+000	 2.2310352738e+000	-1.2268398138e+000
 1.7502941398e+000	 2.2492155131e+000	-1.1814877797e+000
 1.7270073060e+000	 2.2671448487e+000	-1.1450481837e+000
 1.7035531668e+000	 2.2848209138e+000	-1.1156534803e+000
 1.6799358332e+000	 2.3022414288e+000	-1.0914922554e+000
 1.6561594562e+000	 2.3194042028e+000	-1.0708120093e+000
 1.6322282244e+000	 2.3363071339e+000	-1.0519217497e+000
 1.6081463613e+000	 2.3529482104e+000	-1.0331943890e+000
 1.5839181233e+000	 2.3693255114e+000	-1.0130689447e+000
 1.5595477972e+000	 2.3854372070e+000	-9.9005253702e-001
 1.8121071134e+000	 2.2320154143e+000	-1.2334968096e+000
 1.7889658239e+000	 2.2506057587e+000	-1.1777803767e+000
 1.7656475972e+000	 2.2689454737e+000	-1.1338021666e+000
 1.7421564929e+000	 2.2870320842e+000	-1.0995227624e+000
 1.7184966156e+000	 2.3048632025e+000	-1.0729573937e+000
 1.6946721124e+000	 2.3224365291e+000	-1.0521790554e+000
 1.6706871707e+000	 2.3397498537e+000	-1.0353214351e+000
 1.6465460158e+000	 2.3568010561e+000	-1.0205816435e+000
 1.6222529083e+000	 2.3735881070e+000	-1.0062227448e+000
 1.5978121419e+000	 2.3901090685e+000	-9.9057608209e-001
 1.5732280410e+000	 2.4063620948e+000	-9.7204339498e-001
 1.8278645666e+000	 2.2514242440e+000	-1.1914083885e+000
 1.8045220485e+000	 2.2701762435e+000	-1.1349700800e+000
 1.7810010546e+000	 2.2886754343e+000	-1.0911152339e+000
 1.7573056798e+000	 2.3069193198e+000	-1.0576854034e+000
 1.7334400644e+000	 2.3249054912e+000	-1.0325783518e+000
 1.7094083916e+000	 2.3426316293e+000	-1.0137513215e+000
 1.6852148853e+000	 2.3600955046e+000	-9.9922410529e-001
 1.6608638072e+000	 2.3772949783e+000	-9.8708191613e-001
 1.6363594553e+000	 2.3942280036e+000	-9.7547804912e-001
 1.6117061606e+000	 2.4108926256e+000	-9.6263633282e-001
 1.5869082848e+000	 2.4272869826e+000	-9.4685336649e-001
 1.8436220197e+000	 2.2708330737e+000	-1.1576037005e+000
 1.8200782730e+000	 2.2897467284e+000	-1.0992992059e+000
 1.7963545119e+000	 2.3084053950e+000	-1.0543634446e+000
 1.7724548667e+000	 2.3268065553e+000	-1.0205185887e+000
 1.7483835133e+000	 2.3449477800e+000	-9.9554466340e-001
 1.7241446709e+000	 2.3628267296e+000	-9.7728296691e-001
 1.6997425998e+000	 2.3804411555e+000	-9.6363928693e-001
 1.6751815987e+000	 2.3977889005e+000	-9.5258690868e-001
 1.6504660024e+000	 2.4148679002e+000	-9.4216940961e-001
 1.6256001792e+000	 2.4316761827e+000	-9.3050323657e-001
 1.6005885287e+000	 2.4482118703e+000	-9.1578006210e-001
 1.8593794729e+000	 2.2902419033e+000	-1.1329352981e+000
 1.8356344976e+000	 2.3093172132e+000	-1.0716652647e+000
 1.8117079693e+000	 2.3281353556e+000	-1.0244891164e+000
 1.7876040536e+000	 2.3466937908e+000	-9.8900926272e-001
 1.7633269621e+000	 2.3649900687e+000	-9.6288768960e-001
 1.7388809501e+000	 2.3830218298e+000	-9.4384953064e-001
 1.7142703143e+000	 2.4007868064e+000	-9.2968642911e-001
 1.6894993901e+000	 2.4182828228e+000	-9.1825968510e-001
 1.6645725494e+000	 2.4355077967e+000	-9.0750318278e-001
 1.6394941978e+000	 2.4524597398e+000	-8.9542609348e-001
 1.6142687725e+000	 2.4691367581e+000	-8.8011535105e-001
 1.8751369261e+000	 2.3096507330e+000	-1.1189662092e+000
 1.8511907221e+000	 2.3288876981e+000	-1.0529726907e+000
 1.8270614267e+000	 2.3478653163e+000	-1.0024401753e+000
 1.8027532405e+000	 2.3665810263e+000	-9.6414864492e-001
 1.7782704109e+000	 2.3850323574e+000	-9.3564171606e-001
 1.7536172294e+000	 2.4032169301e+000	-9.1452810892e-001
 1.7287980288e+000	 2.4211324573e+000	-8.9848515546e-001
 1.7038171816e+000	 2.4387767450e+000	-8.8526208605e-001
 1.6786790964e+000	 2.4561476933e+000	-8.7268308954e-001
 1.6533882164e+000	 2.4732432969e+000	-8.5865014231e-001
 1.6279490163e+000	 2.4900616459e+000	-8.4114560250e-001
 1.8908943792e+000	 2.3290595627e+000	-1.1984845576e+000
 1.8667469467e+000	 2.3484581830e+000	-1.0441325543e+000
 1.8424148840e+000	 2.3675952769e+000	-9.8916992222e-001
 1.8179024274e+000	 2.3864682618e+000	-9.4693205166e-001
 1.7932138597e+000	 2.4050746461e+000	-9.1484383095e-001
 1.7683535086e+000	 2.4234120303e+000	-8.9039729042e-001
 1.7433257434e+000	 2.4414781082e+000	-8.7115525681e-001
 1.7181349730e+000	 2.4592706672e+000	-8.5475477980e-001
 1.6927856434e+000	 2.4767875899e+000	-8.3891032513e-001
 1.6672822350e+000	 2.4940268541e+000	-8.2141672971e-001
 1.6416292602e+000	 2.5109865337e+000	-7.7147237825e-001
 1.5048268218e+000	 2.3017376559e+000	-9.6411246945e-001
 1.4811786555e+000	 2.3170260660e+000	-1.0515361663e+000
 1.4574017375e+000	 2.3320549255e+000	-1.1161433326e+000
 1.4335002780e+000	 2.3468227357e+000	-1.1570487293e+000
 1.4094785070e+000	 2.3613280878e+000	-1.1734480857e+000
 1.3853406719e+000	 2.3755696628e+000	-1.1646185611e+000
 1.3610910354e+000	 2.3895462317e+000	-1.1299190082e+000
 1.3367338731e+000	 2.4032566556e+000	-1.0687900400e+000
 1.3122734711e+000	 2.4166998856e+000	-9.8075390389e-001
 1.2877141236e+000	 2.4298749630e+000	-8.6541416616e-001
 1.2630601309e+000	 2.4427810188e+000	-7.2245520971e-001
 1.5185070657e+000	 2.3226625436e+000	-9.8792698826e-001
 1.4946439160e+000	 2.3380899394e+000	-1.0867371913e+000
 1.4706508442e+000	 2.3532554248e+000	-1.1675000830e+000
 1.4465320987e+000	 2.3681574879e+000	-1.2291152548e+000
 1.4222919480e+000	 2.3827947068e+000	-1.2705621248e+000
 1.3979346780e+000	 2.3971657507e+000	-1.2909006406e+000
 1.3734645903e+000	 2.4112693793e+000	-1.2892717810e+000
 1.3488859992e+000	 2.4251044434e+000	-1.2648978570e+000
 1.3242032299e+000	 2.4386698846e+000	-1.2170826162e+000
 1.2994206156e+000	 2.4519647354e+000	-1.1452111522e+000
 1.2745424957e+000	 2.4649881190e+000	-1.0487496241e+000
 1.5321873095e+000	 2.3435874314e+000	-9.9930747512e-001
 1.5081091765e+000	 2.3591538127e+000	-1.1048214708e+000
 1.4838999509e+000	 2.3744559242e+000	-1.1969173454e+000
 1.4595639195e+000	 2.3894922400e+000	-1.2742816964e+000
 1.4351053889e+000	 2.4042613258e+000	-1.3356799233e+000
 1.4105286841e+000	 2.4187618385e+000	-1.3799571698e+000
 1.3858381451e+000	 2.4329925268e+000	-1.4060390602e+000
 1.3610381253e+000	 2.4469522311e+000	-1.4129322313e+000
 1.3361329887e+000	 2.4606398835e+000	-1.3997246643e+000
 1.3111271077e+000	 2.4740545078e+000	-1.3655858161e+000
 1.2860248606e+000	 2.4871952191e+000	-1.3097665566e+000
 1.5458675533e+000	 2.3645123192e+000	-9.9957718670e-001
 1.5215744370e+000	 2.3802176860e+000	-1.1072343285e+000
 1.4971490576e+000	 2.3956564235e+000	-1.2059643318e+000
 1.4725957402e+000	 2.4108269922e+000	-1.2942429056e+000
 1.4479188299e+000	 2.4257279448e+000	-1.3706236538e+000
 1.4231226902e+000	 2.4403579264e+000	-1.4337392531e+000
 1.3982117000e+000	 2.4547156744e+000	-1.4823024216e+000
 1.3731902515e+000	 2.4688000189e+000	-1.5151066794e+000
 1.3480627476e+000	 2.4826098825e+000	-1.5310269037e+000
 1.3228335997e+000	 2.4961442802e+000	-1.5290196794e+000
 1.2975072254e+000	 2.5094023193e+000	-1.4868747008e+000
 1.5595477972e+000	 2.3854372070e+000	-9.9005253702e-001
 1.5350396975e+000	 2.4012815594e+000	-1.0954099275e+000
 1.5103981643e+000	 2.4168569228e+000	-1.1961946849e+000
 1.4856275609e+000	 2.4321617443e+000	-1.2906736679e+000
 1.4607322709e+000	 2.4471945638e+000	-1.3771908398e+000
 1.4357166963e+000	 2.4619540142e+000	-1.4541686791e+000
 1.4105852549e+000	 2.4764388219e+000	-1.5201093782e+000
 1.3853423776e+000	 2.4906478067e+000	-1.5735958292e+000
 1.3599925064e+000	 2.5045798815e+000	-1.6026538462e+000
 1.3345400917e+000	 2.5182340526e+000	-1.6008826007e+000
 1.3089895902e+000	 2.5316094195e+000	-1.5915801465e+000
 1.5732280410e+000	 2.4063620948e+000	-9.7204339498e-001
 1.5485049580e+000	 2.4223454327e+000	-1.0707717556e+000
 1.5236472710e+000	 2.4380574221e+000	-1.1691471549e+000
 1.4986593816e+000	 2.4534964965e+000	-1.2652295748e+000
 1.4735457119e+000	 2.4686611827e+000	-1.3571554269e+000
 1.4483107024e+000	 2.4835501020e+000	-1.4431391952e+000
 1.4229588097e+000	 2.4981619695e+000	-1.5214748608e+000
 1.3974945037e+000	 2.5124955945e+000	-1.5636090196e+000
 1.3719222652e+000	 2.5265498804e+000	-1.5995373821e+000
 1.3462465838e+000	 2.5403238250e+000	-1.6324513763e+000
 1.3204719550e+000	 2.5538165197e+000	-1.6610755177e+000
 1.5869082848e+000	 2.4272869826e+000	-9.4685336649e-001
 1.5619702185e+000	 2.4434093060e+000	-1.0347330851e+000
 1.5368963777e+000	 2.4592579215e+000	-1.1263462417e+000
 1.5116912023e+000	 2.4748312486e+000	-1.2195478511e+000
 1.4863591528e+000	 2.4901278017e+000	-1.3122687996e+000
 1.4609047085e+000	 2.5051461899e+000	-1.3905180141e+000
 1.4353323646e+000	 2.5198851171e+000	-1.4479290188e+000
 1.4096466298e+000	 2.5343433823e+000	-1.5087732732e+000
 1.3838520240e+000	 2.5485198794e+000	-1.5715076301e+000
 1.3579530758e+000	 2.5624135974e+000	-1.6346120793e+000
 1.3319543199e+000	 2.5760236198e+000	-1.6965918195e+000
 1.6005885287e+000	 2.4482118703e+000	-9.1578006210e-001
 1.5754354790e+000	 2.4644731793e+000	-9.8869740991e-001
 1.5501454844e+000	 2.4804584208e+000	-1.0693028037e+000
 1.5247230230e+000	 2.4961660007e+000	-1.1552481399e+000
 1.4991725938e+000	 2.5115944207e+000	-1.2180176439e+000
 1.4734987146e+000	 2.5267422777e+000	-1.2817359491e+000
 1.4477059195e+000	 2.5416082646e+000	-1.3544015398e+000
 1.4217987559e+000	 2.5561911700e+000	-1.4342383179e+000
 1.3957817829e+000	 2.5704898784e+000	-1.5194891032e+000
 1.3696595678e+000	 2.5845033698e+000	-1.6084180358e+000
 1.3434366847e+000	 2.5982307200e+000	-1.6993129095e+000
 1.6142687725e+000	 2.4691367581e+000	-8.8011535105e-001
 1.5889007395e+000	 2.4855370527e+000	-9.3405885965e-001
 1.5633945911e+000	 2.5016589201e+000	-9.9531338346e-001
 1.5377548437e+000	 2.5175007529e+000	-1.0347572262e+000
 1.5119860348e+000	 2.5330610397e+000	-1.0910305924e+000
 1.4860927207e+000	 2.5483383656e+000	-1.1621216387e+000
 1.4600794743e+000	 2.5633314122e+000	-1.2460298881e+000
 1.4339508820e+000	 2.5780389578e+000	-1.3407690151e+000
 1.4077115417e+000	 2.5924598773e+000	-1.4443695726e+000
 1.3813660599e+000	 2.6065931422e+000	-1.5548816553e+000
 1.3549190495e+000	 2.6204378202e+000	-1.6703774958e+000
 1.6279490163e+000	 2.4900616459e+000	-8.4114560250e-001
 1.6023660000e+000	 2.5066009260e+000	-8.5535754292e-001
 1.5766436978e+000	 2.5228594194e+000	-8.6690288887e-001
 1.5507866644e+000	 2.5388355050e+000	-9.0170104508e-001
 1.5247994757e+000	 2.5545276587e+000	-9.5753063393e-001
 1.4986867268e+000	 2.5699344534e+000	-1.0321760253e+000
 1.4724530292e+000	 2.5850545598e+000	-1.1234304346e+000
 1.4461030082e+000	 2.5998867456e+000	-1.2290989679e+000
 1.4196413005e+000	 2.6144298763e+000	-1.3470016105e+000
 1.3930725519e+000	 2.6286829145e+000	-1.4749761503e+000
 1.3664014143e+000	 2.6426449203e+000	-1.6108810340e+000
 1.6416292602e+000	 2.5109865337e+000	-7.7147237825e-001
 1.6158312605e+000	 2.5276647993e+000	-7.4050332275e-001
 1.5898928045e+000	 2.5440599187e+000	-7.3952968195e-001
 1.5638184851e+000	 2.5601702572e+000	-7.6613093377e-001
 1.5376129167e+000	 2.5759942776e+000	-8.1788616426e-001
 1.5112807329e+000	 2.5915305413e+000	-8.9237746926e-001
 1.4848265841e+000	 2.6067777073e+000	-9.8719331096e-001
 1.4582551343e+000	 2.6217345334e+000	-1.0999318229e+000
 1.4315710593e+000	 2.6363998752e+000	-1.2282040574e+000
 1.4047790439e+000	 2.6507726869e+000	-1.3696371691e+000
 1.3778837792e+000	 2.6648520205e+000	-1.5218775290e+000
 1.2630601309e+000	 2.4427810188e+000	-7.2245520971e-001
 1.2383157968e+000	 2.4554172736e+000	-2.3427324315e-001
 1.2134854263e+000	 2.4677830375e+000	-2.7677837980e-001
 1.1885733238e+000	 2.4798777095e+000	-3.1643956534e-001
 1.1635837903e+000	 2.4917007772e+000	-3.5448288930e-001
 1.1385211215e+000	 2.5032518163e+000	-3.8353971576e-001
 1.1133896056e+000	 2.5145304902e+000	-3.9020212622e-001
 1.0881935211e+000	 2.5255365491e+000	-3.9239789918e-001
 1.0629371346e+000	 2.5362698295e+000	-3.8672219345e-001
 1.0376246991e+000	 2.5467302535e+000	-3.7010862658e-001
 1.0122604513e+000	 2.5569178279e+000	-3.3982058380e-001
 1.2745424957e+000	 2.4649881190e+000	-1.0487496241e+000
 1.2495732131e+000	 2.4777392488e+000	-1.3113342958e-001
 1.2245171120e+000	 2.4902174287e+000	-2.2457670805e-001
 1.1993785358e+000	 2.5024220523e+000	-3.0464337577e-001
 1.1741618247e+000	 2.5143526024e+000	-3.5477147859e-001
 1.1488713135e+000	 2.5260086510e+000	-3.9789002007e-001
 1.1235113293e+000	 2.5373898583e+000	-4.3017998286e-001
 1.0980861894e+000	 2.5484959723e+000	-4.4819225204e-001
 1.0726001995e+000	 2.5593268279e+000	-4.4883959400e-001
 1.0470576509e+000	 2.5698823467e+000	-4.2938790525e-001
 1.0214628190e+000	 2.5801625355e+000	-3.8744677551e-001
 1.2860248606e+000	 2.4871952191e+000	-1.3097665566e+000
 1.2608306294e+000	 2.5000612240e+000	-4.1519189590e-001
 1.2355487977e+000	 2.5126518200e+000	-7.4879459242e-002
 1.2101837479e+000	 2.5249663951e+000	-1.8806295007e-001
 1.1847398592e+000	 2.5370044277e+000	-2.8759928199e-001
 1.1592215055e+000	 2.5487654857e+000	-3.6956213502e-001
 1.1336330529e+000	 2.5602492264e+000	-4.3041946137e-001
 1.1079788578e+000	 2.5714553954e+000	-4.6702554366e-001
 1.0822632644e+000	 2.5823838264e+000	-4.7661225743e-001
 1.0564906027e+000	 2.5930344399e+000	-4.5677958311e-001
 1.0306651868e+000	 2.6034072430e+000	-4.0548541330e-001
 1.2975072254e+000	 2.5094023193e+000	-1.4868747008e+000
 1.2720880458e+000	 2.5223831993e+000	-6.1621922571e-001
 1.2465804834e+000	 2.5350862112e+000	 1.4573753193e-001
 1.2209889599e+000	 2.5475107379e+000	-3.0862682855e-002
 1.1953178937e+000	 2.5596562529e+000	-1.8280997143e-001
 1.1695716975e+000	 2.5715223204e+000	-3.0644856722e-001
 1.1437547766e+000	 2.5831085945e+000	-3.9853443227e-001
 1.1178715262e+000	 2.5944148186e+000	-4.5622661325e-001
 1.0919263292e+000	 2.6054408248e+000	-4.7707777869e-001
 1.0659235545e+000	 2.6161865331e+000	-4.5902398410e-001
 1.0398675545e+000	 2.6266519505e+000	-4.0037371360e-001
 1.3089895902e+000	 2.5316094195e+000	-1.5915801465e+000
 1.2833454621e+000	 2.5447051745e+000	-7.8694142903e-001
 1.2576121691e+000	 2.5575206025e+000	 6.5562107341e-002
 1.2317941719e+000	 2.5700550807e+000	 1.5856367087e-001
 1.2058959281e+000	 2.5823080782e+000	-4.8538047973e-002
 1.1799218895e+000	 2.5942791551e+000	-2.1641789794e-001
 1.1538765003e+000	 2.6059679626e+000	-3.4212106093e-001
 1.1277641945e+000	 2.6173742418e+000	-4.2311288879e-001
 1.1015893941e+000	 2.6284978233e+000	-4.5726870555e-001
 1.0753565063e+000	 2.6393386263e+000	-4.4286281612e-001
 1.0490699223e+000	 2.6498966580e+000	-3.7855677154e-001
 1.3204719550e+000	 2.5538165197e+000	-1.6610755177e+000
 1.2946028784e+000	 2.5670271497e+000	-9.2849031757e-001
 1.2686438548e+000	 2.5799549938e+000	-1.4126080325e-001
 1.2425993840e+000	 2.5925994236e+000	 3.7185691738e-001
 1.2164739626e+000	 2.6049599034e+000	 1.0711074879e-001
 1.1902720815e+000	 2.6170359898e+000	-1.0731582331e-001
 1.1639982240e+000	 2.6288273307e+000	-2.6875857749e-001
 1.1376568629e+000	 2.6403336650e+000	-3.7499088311e-001
 1.1112524589e+000	 2.6515548217e+000	-4.2421275810e-001
 1.0847894581e+000	 2.6624907195e+000	-4.1503911078e-001
 1.0582722900e+000	 2.6731413656e+000	-3.4648721837e-001
 1.3319543199e+000	 2.5760236198e+000	-1.6965918195e+000
 1.3058602948e+000	 2.5893491249e+000	-1.0419537633e+000
 1.2796755405e+000	 2.6023893850e+000	-3.2596919636e-001
 1.2534045960e+000	 2.6151437664e+000	 4.5050103568e-001
 1.2270519970e+000	 2.6276117287e+000	 2.7605820103e-001
 1.2006222736e+000	 2.6397928245e+000	 1.3033859215e-002
 1.1741199477e+000	 2.6516866988e+000	-1.8601000670e-001
 1.1475495313e+000	 2.6632930881e+000	-3.1915666441e-001
 1.1209155238e+000	 2.6746118202e+000	-3.8493303675e-001
 1.0942224100e+000	 2.6856428127e+000	-3.8229716639e-001
 1.0674746577e+000	 2.6963860731e+000	-3.1062489667e-001
 1.3434366847e+000	 2.5982307200e+000	-1.6993129095e+000
 1.3171177111e+000	 2.6116711001e+000	-1.1283775764e+000
 1.2907072262e+000	 2.6248237763e+000	-4.8946857670e-001
 1.2642098080e+000	 2.6376881092e+000	 2.1635244572e-001
 1.2376300315e+000	 2.6502635539e+000	 4.5025243659e-001
 1.2109724656e+000	 2.6625496592e+000	 1.3682831507e-001
 1.1842416714e+000	 2.6745460669e+000	-1.0142286057e-001
 1.1574421997e+000	 2.6862525113e+000	-2.6289630261e-001
 1.1305785886e+000	 2.6976688186e+000	-3.4644821972e-001
 1.1036553618e+000	 2.7087949060e+000	-3.5138249383e-001
 1.0766770255e+000	 2.7196307806e+000	-2.7743655216e-001
 1.3549190495e+000	 2.6204378202e+000	-1.6703774958e+000
 1.3283751274e+000	 2.6339930753e+000	-1.1887672871e+000
 1.3017389119e+000	 2.6472581675e+000	-6.3262911450e-001
 1.2750150201e+000	 2.6602324520e+000	-3.2219927083e-003
 1.2482080659e+000	 2.6729153792e+000	 6.2166681254e-001
 1.2213226576e+000	 2.6853064939e+000	 2.5628478426e-001
 1.1943633951e+000	 2.6974054350e+000	-2.2529795592e-002
 1.1673348680e+000	 2.7092119345e+000	-2.1348629298e-001
 1.1402416535e+000	 2.7207258171e+000	-3.1577275040e-001
 1.1130883136e+000	 2.7319469992e+000	-3.2904176514e-001
 1.0858793932e+000	 2.7428754882e+000	-2.5339554117e-001
 1.3664014143e+000	 2.6426449203e+000	-1.6108810340e+000
 1.3396325438e+000	 2.6563150506e+000	-1.2240898387e+000
 1.3127705976e+000	 2.6696925588e+000	-7.5628713011e-001
 1.2858202321e+000	 2.6827767948e+000	-2.0892593340e-001
 1.2587861004e+000	 2.6955672044e+000	 4.1647066369e-001
 1.2316728496e+000	 2.7080633286e+000	 3.6363973793e-001
 1.2044851188e+000	 2.7202648031e+000	 4.3150763000e-002
 1.1772275364e+000	 2.7321713577e+000	-1.7819395845e-001
 1.1499047184e+000	 2.7437828155e+000	-2.9991701528e-001
 1.1225212654e+000	 2.7550990924e+000	-3.2202276477e-001
 1.0950817609e+000	 2.7661201957e+000	-2.4498155292e-001
 1.3778837792e+000	 2.6648520205e+000	-1.5218775290e+000
 1.3508899601e+000	 2.6786370258e+000	-1.2352751949e+000
 1.3238022833e+000	 2.6921269500e+000	-8.6124650445e-001
 1.2966254442e+000	 2.7053211376e+000	-4.0143519730e-001
 1.2693641349e+000	 2.7182190297e+000	 1.4244101372e-001
 1.2420230416e+000	 2.7308201633e+000	 4.5114807708e-001
 1.2146068424e+000	 2.7431241712e+000	 8.8114028309e-002
 1.1871202048e+000	 2.7551307808e+000	-1.6427783182e-001
 1.1595677832e+000	 2.7668398140e+000	-3.0588751299e-001
 1.1319542172e+000	 2.7782511856e+000	-3.3707434320e-001
 1.1042841287e+000	 2.7893649032e+000	-2.5868034561e-001
 1.0122604513e+000	 2.5569178279e+000	-3.3982058380e-001
 9.8684861017e-001	 2.5668326437e+000	-4.2631368043e-001
 9.6139337463e-001	 2.5764748746e+000	-4.8643156907e-001
 9.3589892178e-001	 2.5858447765e+000	-5.1984553051e-001
 9.1036940492e-001	 2.5949426866e+000	-5.2650438050e-001
 8.8480895173e-001	 2.6037690218e+000	-5.0662176312e-001
 8.5922166244e-001	 2.6123242783e+000	-4.6066308204e-001
 8.3361160807e-001	 2.6206090298e+000	-3.8933211632e-001
 8.0798282872e-001	 2.6286239268e+000	-2.9355736732e-001
 7.8233933189e-001	 2.6363696952e+000	-1.7447818258e-001
 7.5668509084e-001	 2.6438471350e+000	-3.3430702052e-002
 1.0214628190e+000	 2.5801625355e+000	-3.8744677551e-001
 9.9581996117e-001	 2.5901674859e+000	-4.9887722751e-001
 9.7013331440e-001	 2.5998973734e+000	-5.7809330922e-001
 9.4440709380e-001	 2.6093524563e+000	-6.2508965083e-001
 9.1864549042e-001	 2.6185330746e+000	-6.4014792372e-001
 8.9285266947e-001	 2.6274396493e+000	-6.2382340407e-001
 8.6703276845e-001	 2.6360726808e+000	-5.7693116838e-001
 8.4118989541e-001	 2.6444327482e+000	-5.0053196937e-001
 8.1532812716e-001	 2.6525205080e+000	-3.9591784070e-001
 7.8945150763e-001	 2.6603366925e+000	-2.6459747797e-001
 7.6356404620e-001	 2.6678821090e+000	-1.0828144335e-001
 1.0306651868e+000	 2.6034072430e+000	-4.0548541330e-001
 1.0047913122e+000	 2.6135023281e+000	-5.4247158667e-001
 9.7887325417e-001	 2.6233198723e+000	-6.4121346006e-001
 9.5291526581e-001	 2.6328601361e+000	-7.0203287357e-001
 9.2692157592e-001	 2.6421234627e+000	-7.2554847856e-001
 9.0089638721e-001	 2.6511102768e+000	-7.1266155892e-001
 8.7484387447e-001	 2.6598210833e+000	-6.6454147811e-001
 8.4876818275e-001	 2.6682564667e+000	-5.8261080228e-001
 8.2267342560e-001	 2.6764170891e+000	-4.6853014953e-001
 7.9656368337e-001	 2.6843036897e+000	-3.2418281499e-001
 7.7044300157e-001	 2.6919170830e+000	-1.5165922031e-001
 1.0398675545e+000	 2.6266519505e+000	-4.0037371360e-001
 1.0137626632e+000	 2.6368371703e+000	-5.6326576325e-001
 9.8761319394e-001	 2.6467423712e+000	-6.8168839819e-001
 9.6142343782e-001	 2.6563678159e+000	-7.5629470431e-001
 9.3519766141e-001	 2.6657138508e+000	-7.8804461509e-001
 9.0894010495e-001	 2.6747809043e+000	-7.7818997790e-001
 8.8265498049e-001	 2.6835694859e+000	-7.2825923951e-001
 8.5634647009e-001	 2.6920801852e+000	-6.4004180323e-001
 8.3001872403e-001	 2.7003136703e+000	-5.1557210948e-001
 8.0367585911e-001	 2.7082706869e+000	-3.5711349125e-001
 7.7732195694e-001	 2.7159520569e+000	-1.6714185512e-001
 1.0490699223e+000	 2.6498966580e+000	-3.7855677154e-001
 1.0227340142e+000	 2.6601720126e+000	-5.6744177401e-001
 9.9635313370e-001	 2.6701648700e+000	-7.0543266541e-001
 9.6993160984e-001	 2.6798754957e+000	-7.9351798612e-001
 9.4347374691e-001	 2.6893042388e+000	-8.3300342937e-001
 9.1698382269e-001	 2.6984515317e+000	-8.2549613947e-001
 8.9046608651e-001	 2.7073178884e+000	-7.7288862268e-001
 8.6392475744e-001	 2.7159039036e+000	-6.7734232488e-001
 8.3736402247e-001	 2.7242102514e+000	-5.4127092986e-001
 8.1078803485e-001	 2.7322376842e+000	-3.6732343161e-001
 7.8420091230e-001	 2.7399870309e+000	-1.5836703279e-001
 1.0582722900e+000	 2.6731413656e+000	-3.4648721837e-001
 1.0317053652e+000	 2.6835068548e+000	-5.6119408142e-001
 1.0050930735e+000	 2.6935873689e+000	-7.1837817888e-001
 9.7843978185e-001	 2.7033831755e+000	-8.1936788491e-001
 9.5174983241e-001	 2.7128946269e+000	-8.6581930318e-001
 9.2502754043e-001	 2.7221221592e+000	-8.5969978388e-001
 8.9827719253e-001	 2.7310662909e+000	-8.0327104643e-001
 8.7150304478e-001	 2.7397276221e+000	-6.9907196407e-001
 8.4470932091e-001	 2.7481068326e+000	-5.4990106612e-001
 8.1790021059e-001	 2.7562046814e+000	-3.5879881300e-001
 7.9107986767e-001	 2.7640220048e+000	-1.2902969835e-001
 1.0674746577e+000	 2.6963860731e+000	-3.1062489667e-001
 1.0406767162e+000	 2.7068416970e+000	-5.5072905723e-001
 1.0138330132e+000	 2.7170098677e+000	-7.2647348223e-001
 9.8694795386e-001	 2.7268908553e+000	-8.3953092724e-001
 9.6002591790e-001	 2.7364850150e+000	-8.9191272795e-001
 9.3307125817e-001	 2.7457927867e+000	-8.8595152257e-001
 9.0608829855e-001	 2.7548146935e+000	-8.2428357272e-001
 8.7908133212e-001	 2.7635513405e+000	-7.0983074103e-001
 8.5205461935e-001	 2.7720034137e+000	-5.4578218334e-001
 8.2501238633e-001	 2.7801716786e+000	-3.3557581228e-001
 7.9795882304e-001	 2.7880569788e+000	-8.2879588758e-002
 1.0766770255e+000	 2.7196307806e+000	-2.7743655216e-001
 1.0496480672e+000	 2.7301765392e+000	-5.4226447351e-001
 1.0225729530e+000	 2.7404323666e+000	-7.3568303502e-001
 9.9545612588e-001	 2.7503985350e+000	-8.5971408745e-001
 9.6830200340e-001	 2.7600754030e+000	-9.1672918891e-001
 9.4111497591e-001	 2.7694634141e+000	-9.0943151889e-001
 9.1389940457e-001	 2.7785630960e+000	-8.4083738347e-001
 8.8665961946e-001	 2.7873750590e+000	-7.1425737186e-001
 8.5939991779e-001	 2.7958999949e+000	-5.3327722419e-001
 8.3212456207e-001	 2.8041386758e+000	-3.0173846938e-001
 8.0483777841e-001	 2.8120919527e+000	-2.3718891395e-002
 1.0858793932e+000	 2.7428754882e+000	-2.5339554117e-001
 1.0586194182e+000	 2.7535113814e+000	-5.4202901959e-001
 1.0313128928e+000	 2.7638548655e+000	-7.5198653832e-001
 1.0039642979e+000	 2.7739062148e+000	-8.8564392126e-001
 9.7657808889e-001	 2.7836657911e+000	-9.4573810607e-001
 9.4915869365e-001	 2.7931340416e+000	-9.3534823590e-001
 9.2171051058e-001	 2.8023114985e+000	-8.5787633480e-001
 8.9423790680e-001	 2.8111987774e+000	-7.1702762887e-001
 8.6674521623e-001	 2.8197965760e+000	-5.1679057518e-001
 8.3923673781e-001	 2.8281056731e+000	-2.6141665928e-001
 8.1171673377e-001	 2.8361269267e+000	 4.4599978436e-002
 1.0950817609e+000	 2.7661201957e+000	-2.4498155292e-001
 1.0675907692e+000	 2.7768462236e+000	-5.5626184334e-001
 1.0400528325e+000	 2.7872773643e+000	-7.8137829430e-001
 1.0124724699e+000	 2.7974138946e+000	-9.2306574301e-001
 9.8485417439e-001	 2.8072561791e+000	-9.8443182855e-001
 9.5720241139e-001	 2.8168046691e+000	-9.6893724731e-001
 9.2952161660e-001	 2.8260599011e+000	-8.8037558412e-001
 9.0181619415e-001	 2.8350224959e+000	-7.2285278357e-001
 8.7409051467e-001	 2.8436931572e+000	-5.0076632526e-001
 8.4634891355e-001	 2.8520726703e+000	-2.1878416615e-001
 8.1859568914e-001	 2.8601619006e+000	 1.1817648792e-001
 1.1042841287e+000	 2.7893649032e+000	-2.5868034561e-001
 1.0765621202e+000	 2.8001810658e+000	-5.9121211541e-001
 1.0487927723e+000	 2.8106998632e+000	-8.2986659788e-001
 1.0209806419e+000	 2.8209215744e+000	-9.7774284403e-001
 9.9313025989e-001	 2.8308465672e+000	-1.0383246792e+000
 9.6524612913e-001	 2.8404752965e+000	-1.0154601079e+000
 9.3733272262e-001	 2.8498083036e+000	-9.1334028598e-001
 9.0939448149e-001	 2.8588462143e+000	-7.3647812760e-001
 8.8143581311e-001	 2.8675897383e+000	-4.8968661159e-001
 8.5346108929e-001	 2.8760396675e+000	-1.7805685377e-001
 8.2547464451e-001	 2.8841968746e+000	 1.9306399163e-001
 7.5668509084e-001	 2.6438471350e+000	-3.3430702052e-002
 7.3102404304e-001	 2.6510571191e+000	-1.0633462514e-001
 7.0536008863e-001	 2.6580005917e+000	-1.6330518828e-001
 6.7969708895e-001	 2.6646785674e+000	-2.0544880531e-001
 6.5403886512e-001	 2.6710921293e+000	-2.3401855743e-001
 6.2838919664e-001	 2.6772424279e+000	-2.5040050539e-001
 6.0275182011e-001	 2.6831306796e+000	-1.6517620718e-001
 5.7713042797e-001	 2.6887581649e+000	-5.8159525486e-002
 5.5152866722e-001	 2.6941262274e+000	 5.3593896904e-002
 5.2595013834e-001	 2.6992362720e+000	 1.6747729298e-001
 5.0039839415e-001	 2.7040897632e+000	 2.8146368557e-001
 7.6356404620e-001	 2.6678821090e+000	-1.0828144335e-001
 7.3766971615e-001	 2.6751576384e+000	-1.4276792320e-001
 7.1177245307e-001	 2.6821642335e+000	-1.5312347015e-001
 6.8587615339e-001	 2.6889029180e+000	-1.4116622294e-001
 6.5998467298e-001	 2.6953747850e+000	-1.0886323942e-001
 6.3410182569e-001	 2.7015809954e+000	-5.8315772754e-002
 6.0823138211e-001	 2.7075227766e+000	 8.3927179506e-003
 5.8237706822e-001	 2.7132014209e+000	 7.8098191314e-002
 5.5654256419e-001	 2.7186182841e+000	 1.4528406782e-001
 5.3073150323e-001	 2.7237747836e+000	 2.0727921051e-001
 5.0494747046e-001	 2.7286723974e+000	 2.6201283651e-001
 7.7044300157e-001	 2.6919170830e+000	-1.5165922031e-001
 7.4431538927e-001	 2.6992581576e+000	-1.5556217911e-001
 7.1818481751e-001	 2.7063278752e+000	-1.2708049370e-001
 6.9205521784e-001	 2.7131272686e+000	-6.8745419299e-002
 6.6593048084e-001	 2.7196574407e+000	 1.6760479413e-002
 6.3981445475e-001	 2.7259195630e+000	 1.2661909770e-001
 6.1371094411e-001	 2.7319148737e+000	 2.0246026428e-001
 5.8762370847e-001	 2.7376446770e+000	 2.0578908839e-001
 5.6155646116e-001	 2.7431103407e+000	 1.9890039118e-001
 5.3551286813e-001	 2.7483132951e+000	 1.7908365034e-001
 5.0949654677e-001	 2.7532550316e+000	 1.4424945881e-001
 7.7732195694e-001	 2.7159520569e+000	-1.6714185512e-001
 7.5096106238e-001	 2.7233586769e+000	-1.4775414305e-001
 7.2459718195e-001	 2.7304915169e+000	-8.7667083350e-002
 6.9823428228e-001	 2.7373516192e+000	 9.8732505230e-003
 6.7187628870e-001	 2.7439400964e+000	 1.4146694653e-001
 6.4552708381e-001	 2.7502581305e+000	 3.0357707923e-001
 6.1919050611e-001	 2.7563069708e+000	 4.3056753581e-001
 5.9287034872e-001	 2.7620879330e+000	 3.3849829506e-001
 5.6657035814e-001	 2.7676023973e+000	 2.2806734107e-001
 5.4029423302e-001	 2.7728518067e+000	 9.6549854400e-002
 5.1404562308e-001	 2.7778376658e+000	-5.8136907149e-002
 7.8420091230e-001	 2.7399870309e+000	-1.5836703279e-001
 7.5760673550e-001	 2.7474591962e+000	-1.2245397306e-001
 7.3100954638e-001	 2.7546551587e+000	-3.7461093701e-002
 7.0441334672e-001	 2.7615759698e+000	 9.2648708006e-002
 6.7782209656e-001	 2.7682227522e+000	 2.6375602830e-001
 6.5123971286e-001	 2.7745966980e+000	 4.7160284823e-001
 6.2467006810e-001	 2.7806990679e+000	 7.0611347204e-001
 5.9811698897e-001	 2.7865311891e+000	 4.8965486306e-001
 5.7158425511e-001	 2.7920944539e+000	 2.4623936159e-001
 5.4507559791e-001	 2.7973903183e+000	-2.6846950902e-002
 5.1859469938e-001	 2.8024203000e+000	-3.3165474912e-001
 7.9107986767e-001	 2.7640220048e+000	-1.2902969835e-001
 7.6425240861e-001	 2.7715597154e+000	-8.2842043327e-002
 7.3742191082e-001	 2.7788188004e+000	 2.0876374376e-002
 7.1059241116e-001	 2.7858003204e+000	 1.7744353050e-001
 6.8376790442e-001	 2.7925054079e+000	 3.8201808741e-001
 6.5695234192e-001	 2.7989352655e+000	 6.2961836229e-001
 6.3014963010e-001	 2.8050911650e+000	 9.1514115598e-001
 6.0336362922e-001	 2.8109744451e+000	 6.7253855253e-001
 5.7659815208e-001	 2.8165865105e+000	 2.6670825944e-001
 5.4985696280e-001	 2.8219288298e+000	-1.7780755404e-001
 5.2314377569e-001	 2.8270029342e+000	-6.6300197310e-001
 7.9795882304e-001	 2.7880569788e+000	-8.2879588758e-002
 7.7089808172e-001	 2.7956602347e+000	-3.2165917693e-002
 7.4383427526e-001	 2.8029824422e+000	 8.4604561943e-002
 7.1677147560e-001	 2.8100246711e+000	 2.6202810397e-001
 6.8971371228e-001	 2.8167880636e+000	 4.9453870289e-001
 6.6266497097e-001	 2.8232738331e+000	 7.7642814983e-001
 6.3562919210e-001	 2.8294832621e+000	 1.1018659321e+000
 6.0861026947e-001	 2.8354177012e+000	 9.0028626697e-001
 5.8161204905e-001	 2.8410785671e+000	 3.0261021420e-001
 5.5463832770e-001	 2.8464673414e+000	-3.4320117150e-001
 5.2769285200e-001	 2.8515855684e+000	-1.0390577387e+000
 8.0483777841e-001	 2.8120919527e+000	-2.3718891395e-002
 7.7754375484e-001	 2.8197607539e+000	 2.6262521742e-002
 7.5024663970e-001	 2.8271460839e+000	 1.5090645619e-001
 7.2295054004e-001	 2.8342490217e+000	 3.4408456283e-001
 6.9565952014e-001	 2.8410707193e+000	 5.9950314799e-001
 6.6837760003e-001	 2.8476124006e+000	 9.1072432844e-001
 6.4110875410e-001	 2.8538753591e+000	 1.2711870129e+000
 6.1385690972e-001	 2.8598609572e+000	 1.1858981583e+000
 5.8662594603e-001	 2.8655706237e+000	 3.6693242901e-001
 5.5941969259e-001	 2.8710058529e+000	-5.1005825001e-001
 5.3224192831e-001	 2.8761682026e+000	-1.4468747134e+000
 8.1171673377e-001	 2.8361269267e+000	 4.4599978436e-002
 7.8418942795e-001	 2.8438612732e+000	 8.9069799953e-002
 7.5665900413e-001	 2.8513097256e+000	 2.1689202152e-001
 7.2912960448e-001	 2.8584733723e+000	 4.2121052939e-001
 7.0160532800e-001	 2.8653533750e+000	 6.9500064048e-001
 6.7409022909e-001	 2.8719509681e+000	 1.0310913680e+000
 6.4658831609e-001	 2.8782674562e+000	 1.4221874966e+000
 6.1910354998e-001	 2.8843042132e+000	 1.5422434212e+000
 5.9163984300e-001	 2.8900626803e+000	 4.7251944314e-001
 5.6420105748e-001	 2.8955443645e+000	-6.6556363477e-001
 5.3679100462e-001	 2.9007508368e+000	-1.8736717204e+000
 8.1859568914e-001	 2.8601619006e+000	 1.1817648792e-001
 7.9083510107e-001	 2.8679617925e+000	 1.5282343693e-001
 7.6307136857e-001	 2.8754733674e+000	 2.7960126775e-001
 7.3530866892e-001	 2.8826977229e+000	 4.9092266479e-001
 7.0755113586e-001	 2.8896360307e+000	 7.7902837855e-001
 6.7980285814e-001	 2.8962895356e+000	 1.1360106139e+000
 6.5206787809e-001	 2.9026595533e+000	 1.5538362102e+000
 6.2435019023e-001	 2.9087474693e+000	 1.9820657958e+000
 5.9665373997e-001	 2.9145547369e+000	 6.3207912630e-001
 5.6898242237e-001	 2.9200828761e+000	-7.9705008208e-001
 5.4134008093e-001	 2.9253334710e+000	-2.3068267572e+000
 8.2547464451e-001	 2.8841968746e+000	 1.9306399163e-001
 7.9748077418e-001	 2.8920623117e+000	 2.1403440622e-001
 7.6948373301e-001	 2.8996370091e+000	 3.3600716488e-001
 7.4148773336e-001	 2.9069220735e+000	 5.5066004238e-001
 7.1349694372e-001	 2.9139186865e+000	 8.4949537501e-001
 6.8551548720e-001	 2.9206281031e+000	 1.2238645835e+000
 6.5754744009e-001	 2.9270516504e+000	 1.6649924706e+000
 6.2959683048e-001	 2.9331907253e+000	 2.1640012380e+000
 6.0166763694e-001	 2.9390467935e+000	 8.5818837319e-001
 5.7376378727e-001	 2.9446213876e+000	-8.9199209640e-001
 5.4588915724e-001	 2.9499161052e+000	-2.7338703635e+000
 5.0039839415e-001	 2.7040897632e+000	 2.8146368557e-001
 4.7487693873e-001	 2.7086882237e+000	 4.1712816330e-001
 4.4938922647e-001	 2.7130332330e+000	 5.0432279199e-001
 4.2393866111e-001	 2.7171264254e+000	 5.4598529774e-001
 3.9852859482e-001	 2.7209694888e+000	 5.4548462397e-001
 3.7316232739e-001	 2.7245641628e+000	 5.0658623798e-001
 3.4784310545e-001	 2.7279122372e+000	 4.3341777394e-001
 3.2257412170e-001	 2.7310155503e+000	 3.3043508824e-001
 2.9735851428e-001	 2.7338759873e+000	 2.0238880004e-001
 2.7219936608e-001	 2.7364954787e+000	 5.4291384920e-002
 2.4709970424e-001	 2.7388759987e+000	-1.0861511391e-001
 5.0494747046e-001	 2.7286723974e+000	 2.6201283651e-001
 4.7919400181e-001	 2.7333126621e+000	 4.5071378295e-001
 4.5347458308e-001	 2.7376971715e+000	 5.7414497947e-001
 4.2779264894e-001	 2.7418275747e+000	 6.3666385801e-001
 4.0215158205e-001	 2.7457055751e+000	 6.4305796355e-001
 3.7655471219e-001	 2.7493329280e+000	 5.9850830157e-001
 3.5100531550e-001	 2.7527114394e+000	 5.0855307045e-001
 3.2550661372e-001	 2.7558429644e+000	 3.7905185790e-001
 3.0006177350e-001	 2.7587294054e+000	 2.1615037607e-001
 2.7467390578e-001	 2.7613727104e+000	 2.6245805785e-002
 2.4934606519e-001	 2.7637748714e+000	-1.8404718395e-001
 5.0949654677e-001	 2.7532550316e+000	 1.4424945881e-001
 4.8351106489e-001	 2.7579371005e+000	 3.9944935095e-001
 4.5755993968e-001	 2.7623611099e+000	 5.7227772034e-001
 4.3164663677e-001	 2.7665287241e+000	 6.6851882137e-001
 4.0577456927e-001	 2.7704416614e+000	 6.9438621241e-001
 3.7994709699e-001	 2.7741016931e+000	 6.5648411915e-001
 3.5416752555e-001	 2.7775106416e+000	 5.6176923212e-001
 3.2843910574e-001	 2.7806703785e+000	 4.1751301978e-001
 3.0276503272e-001	 2.7835828235e+000	 2.3126463447e-001
 2.7714844547e-001	 2.7862499420e+000	 1.0814483694e-002
 2.5159242613e-001	 2.7886737441e+000	-2.3584146500e-001
 5.1404562308e-001	 2.7778376658e+000	-5.8136907149e-002
 4.8782812797e-001	 2.7825615389e+000	 2.7587839363e-001
 4.6164529629e-001	 2.7870250484e+000	 5.1011325426e-001
 4.3550062460e-001	 2.7912298734e+000	 6.5178647503e-001
 4.0939755650e-001	 2.7951777476e+000	 7.0854564251e-001
 3.8333948178e-001	 2.7988704582e+000	 6.8842648347e-001
 3.5732973560e-001	 2.8023098437e+000	 5.9981270239e-001
 3.3137159775e-001	 2.8054977926e+000	 4.5139638660e-001
 3.0546829194e-001	 2.8084362415e+000	 2.5213905868e-001
 2.7962298516e-001	 2.8111271736e+000	 1.1233450892e-002
 2.5383878708e-001	 2.8135726168e+000	-2.6193392811e-001
 5.1859469938e-001	 2.8024203000e+000	-3.3165474912e-001
 4.9214519105e-001	 2.8071859773e+000	 9.2373496720e-002
 4.6573065289e-001	 2.8116889869e+000	 3.9889998891e-001
 4.3935461243e-001	 2.8159310227e+000	 5.9658639256e-001
 4.1302054373e-001	 2.8199138339e+000	 6.9452292913e-001
 3.8673186658e-001	 2.8236392233e+000	 7.0218569511e-001
 3.6049194565e-001	 2.8271090459e+000	 6.2939451391e-001
 3.3430408977e-001	 2.8303252067e+000	 4.8627140786e-001
 3.0817155116e-001	 2.8332896596e+000	 2.8319977221e-001
 2.8209752485e-001	 2.8360044052e+000	 3.0784328332e-002
 2.5608514803e-001	 2.8384714896e+000	-2.6018807162e-001
 5.2314377569e-001	 2.8270029342e+000	-6.6300197310e-001
 4.9646225412e-001	 2.8318104157e+000	-1.3885626244e-001
 4.6981600950e-001	 2.8363529254e+000	 2.4974875352e-001
 4.4320860026e-001	 2.8406321720e+000	 5.1292650834e-001
 4.1664353095e-001	 2.8446499202e+000	 6.6121904630e-001
 3.9012425137e-001	 2.8484079884e+000	 7.0555227952e-001
 3.6365415570e-001	 2.8519082480e+000	 6.5719182815e-001
 3.3723658179e-001	 2.8551526208e+000	 5.2769953344e-001
 3.1087481039e-001	 2.8581430777e+000	 3.2889072814e-001
 2.8457206455e-001	 2.8608816369e+000	 7.2792343550e-002
 2.5833150898e-001	 2.8633703623e+000	-2.2839807219e-001
 5.2769285200e-001	 2.8515855684e+000	-1.0390577387e+000
 5.0077931720e-001	 2.8564348541e+000	-4.0575826710e-001
 4.7390136610e-001	 2.8610168639e+000	 7.3638729036e-002
 4.4706258809e-001	 2.8653333213e+000	 4.1070792964e-001
 4.2026651818e-001	 2.8693860064e+000	 6.1745296087e-001
 3.9351663617e-001	 2.8731767535e+000	 7.0625956359e-001
 3.6681636576e-001	 2.8767074502e+000	 6.8984939537e-001
 3.4016907380e-001	 2.8799800349e+000	 5.8123455844e-001
 3.1357806961e-001	 2.8829964957e+000	 3.9367294064e-001
 2.8704660424e-001	 2.8857588685e+000	 1.4062445108e-001
 2.6057786993e-001	 2.8882692350e+000	-1.6429177280e-001
 5.3224192831e-001	 2.8761682026e+000	-1.4468747134e+000
 5.0509638028e-001	 2.8810592925e+000	-6.9642967480e-001
 4.7798672271e-001	 2.8856808023e+000	-1.1857692596e-001
 4.5091657592e-001	 2.8900344707e+000	 2.9972950188e-001
 4.2388950541e-001	 2.8941220927e+000	 5.7196513707e-001
 3.9690902097e-001	 2.8979455187e+000	 7.1198611998e-001
 3.6997857581e-001	 2.9015066523e+000	 7.3398093972e-001
 3.4310156582e-001	 2.9048074490e+000	 6.5242295030e-001
 3.1628132883e-001	 2.9078499138e+000	 4.8202375586e-001
 2.8952114393e-001	 2.9106361001e+000	 2.3768754923e-001
 2.6282423087e-001	 2.9131681077e+000	-6.5533517494e-002
 5.3679100462e-001	 2.9007508368e+000	-1.8736717204e+000
 5.0941344336e-001	 2.9056837309e+000	-9.9911107094e-001
 4.8207207931e-001	 2.9103447408e+000	-3.1616573527e-001
 4.5477056375e-001	 2.9147356200e+000	 1.8969214174e-001
 4.2751249264e-001	 2.9188581789e+000	 5.3342086289e-001
 4.0030140576e-001	 2.9227142838e+000	 7.3035808723e-001
 3.7314078586e-001	 2.9263058545e+000	 7.9617047390e-001
 3.4603405784e-001	 2.9296348631e+000	 7.4680415928e-001
 3.1898458805e-001	 2.9327033318e+000	 5.9843615989e-001
 2.9199568362e-001	 2.9355133317e+000	 3.6742678758e-001
 2.6507059182e-001	 2.9380669804e+000	 7.0273157950e-002
 5.4134008093e-001	 2.9253334710e+000	-2.3068267572e+000
 5.1373050644e-001	 2.9303081693e+000	-1.3021804425e+000
 4.8615743592e-001	 2.9350086793e+000	-5.0851083440e-001
 4.5862455157e-001	 2.9394367693e+000	 9.0202951819e-002
 4.3113547986e-001	 2.9435942652e+000	 5.1041340876e-001
 4.0369379056e-001	 2.9474830489e+000	 7.6895137290e-001
 3.7630299591e-001	 2.9511050566e+000	 8.8297354751e-001
 3.4896654985e-001	 2.9544622771e+000	 8.6991091329e-001
 3.2168784727e-001	 2.9575567499e+000	 7.4741812162e-001
 2.9447022332e-001	 2.9603905634e+000	 5.3332395975e-001
 2.6731695277e-001	 2.9629658531e+000	 2.4558297108e-001
 5.4588915724e-001	 2.9499161052e+000	-2.7338703635e+000
 5.1804756952e-001	 2.9549326076e+000	-1.5941474527e+000
 4.9024279252e-001	 2.9596726178e+000	-6.8510615342e-001
 4.6247853940e-001	 2.9641379186e+000	 1.0779129572e-002
 4.3475846709e-001	 2.9683303514e+000	 5.1146702828e-001
 4.0708617535e-001	 2.9722518140e+000	 8.3529374647e-001
 3.7946520596e-001	 2.9759042588e+000	 1.0009184331e+000
 3.5189904187e-001	 2.9792896912e+000	 1.0272694980e+000
 3.2439110650e-001	 2.9824101680e+000	 9.3349196846e-001
 2.9694476301e-001	 2.9852677950e+000	 7.3889597660e-001
 2.6956331372e-001	 2.9878647258e+000	 4.6290646553e-001
 2.4709970424e-001	 2.7388759987e+000	-1.0861511391e-001
 2.2206249953e-001	 2.7410195633e+000	-6.3323228586e-002
 1.9709066597e-001	 2.7429282290e+000	-3.6722082426e-002
 1.7218706031e-001	 2.7446040910e+000	-2.2144401155e-002
 1.4735448172e-001	 2.7460492816e+000	-1.2822781577e-002
 1.2259567143e-001	 2.7472659684e+000	-1.9187619999e-003
 9.7913312455e-002	 2.7482563533e+000	 1.7449048992e-002
 7.3310029335e-002	 2.7490226699e+000	 5.2177820556e-002
 4.8788387970e-002	 2.7495671829e+000	 1.0915435543e-001
 2.4350895461e-002	 2.7498921859e+000	 1.9522998062e-001
 0.0000000000e+000	 2.7500000000e+000	 3.1719649600e-001
 2.4934606519e-001	 2.7637748714e+000	-1.8404718395e-001
 2.2408124953e-001	 2.7659379230e+000	-1.6093417105e-001
 1.9888239929e-001	 2.7678639402e+000	-1.5759346341e-001
 1.7375239722e-001	 2.7695550373e+000	-1.6608554555e-001
 1.4869406792e-001	 2.7710133659e+000	-1.7838940863e-001
 1.2371017754e-001	 2.7722411136e+000	-1.8643294259e-001
 9.8803433477e-002	 2.7732405019e+000	-1.8212232226e-001
 7.3976484146e-002	 2.7740137851e+000	-1.5737035165e-001
 4.9231918770e-002	 2.7745632482e+000	-1.0412373500e-001
 2.4572267237e-002	 2.7748912057e+000	-1.4389247338e-002
 0.0000000000e+000	 2.7750000000e+000	 1.1974121858e-001
 2.5159242613e-001	 2.7886737441e+000	-2.3584146500e-001
 2.2609999953e-001	 2.7908562826e+000	-2.2549933496e-001
 2.0067413262e-001	 2.7927996513e+000	-2.3626073235e-001
 1.7531773413e-001	 2.7945059836e+000	-2.5890406240e-001
 1.5003365411e-001	 2.7959774503e+000	-2.8414480581e-001
 1.2482468364e-001	 2.7972162588e+000	-3.0266725361e-001
 9.9693554498e-002	 2.7982246506e+000	-3.0515517100e-001
 7.4642938958e-002	 2.7990049003e+000	-2.8232135366e-001
 4.9675449569e-002	 2.7995593135e+000	-2.2493604476e-001
 2.4793639014e-002	 2.7998902256e+000	-1.2385418513e-001
 0.0000000000e+000	 2.8000000000e+000	 2.9958526675e-002
 2.5383878708e-001	 2.8135726168e+000	-2.6193392811e-001
 2.2811874952e-001	 2.8157746423e+000	-2.5608987950e-001
 2.0246586595e-001	 2.8177353625e+000	-2.7292889228e-001
 1.7688307104e-001	 2.8194569298e+000	-3.0193692954e-001
 1.5137324031e-001	 2.8209415347e+000	-3.3255554028e-001
 1.2593918974e-001	 2.8221914039e+000	-3.5421495850e-001
 1.0058367552e-001	 2.8232087993e+000	-3.5636606533e-001
 7.5309393769e-002	 2.8239960154e+000	-3.2851117747e-001
 5.0118980368e-002	 2.8245553788e+000	-2.6023362947e-001
 2.5015010790e-002	 2.8248892455e+000	-1.4122612211e-001
 0.0000000000e+000	 2.8250000000e+000	 3.8682186500e-002
 2.5608514803e-001	 2.8384714896e+000	-2.6018807162e-001
 2.3013749952e-001	 2.8406930020e+000	-2.5167897322e-001
 2.0425759927e-001	 2.8426710737e+000	-2.6767954930e-001
 1.7844840795e-001	 2.8444078761e+000	-2.9637244188e-001
 1.5271282651e-001	 2.8459056191e+000	-3.2591433930e-001
 1.2705369585e-001	 2.8471665491e+000	-3.4447046105e-001
 1.0147379654e-001	 2.8481929479e+000	-3.4024783938e-001
 7.5975848581e-002	 2.8489871306e+000	-3.0152736008e-001
 5.0562511167e-002	 2.8495514441e+000	-2.1669452972e-001
 2.5236382567e-002	 2.8498882654e+000	-7.4268941083e-002
 0.0000000000e+000	 2.8500000000e+000	 1.3706758651e-001
 2.5833150898e-001	 2.8633703623e+000	-2.2839807219e-001
 2.3215624951e-001	 2.8656113616e+000	-2.1114605446e-001
 2.0604933260e-001	 2.8676067849e+000	-2.2047627756e-001
 1.8001374486e-001	 2.8693588224e+000	-2.4325667589e-001
 1.5405241270e-001	 2.8708697034e+000	-2.6634764845e-001
 1.2816820195e-001	 2.8721416943e+000	-2.7663795147e-001
 1.0236391756e-001	 2.8731770966e+000	-2.6107932082e-001
 7.6642303392e-002	 2.8739782458e+000	-2.0671978583e-001
 5.1006041966e-002	 2.8745475094e+000	-1.0073564126e-001
 2.5457754343e-002	 2.8748872852e+000	 6.9537950943e-002
 0.0000000000e+000	 2.8750000000e+000	 3.1657775381e-001
 2.6057786993e-001	 2.8882692350e+000	-1.6429177280e-001
 2.3417499951e-001	 2.8905297213e+000	-1.3328087148e-001
 2.0784106593e-001	 2.8925424960e+000	-1.3116970693e-001
 1.8157908178e-001	 2.8943097687e+000	-1.4349961971e-001
 1.5539199890e-001	 2.8958337878e+000	-1.5582279895e-001
 1.2928270805e-001	 2.8971168394e+000	-1.5373960522e-001
 1.0325403858e-001	 2.8981612453e+000	-1.2293455533e-001
 7.7308758203e-002	 2.8989693610e+000	-4.9210930086e-002
 5.1449572765e-002	 2.8995435747e+000	 8.1476028715e-002
 2.5679126120e-002	 2.8998863051e+000	 2.8298736090e-001
 0.0000000000e+000	 2.9000000000e+000	 5.6897009389e-001
 2.6282423087e-001	 2.9131681077e+000	-6.5533517494e-002
 2.3619374951e-001	 2.9154480810e+000	-1.6787315315e-002
 2.0963279925e-001	 2.9174782072e+000	 4.9765038947e-004
 1.8314441869e-001	 2.9192607150e+000	 2.1190111436e-003
 1.5673158510e-001	 2.9207978722e+000	 3.8451925510e-003
 1.3039721416e-001	 2.9220919846e+000	 2.1376638522e-002
 1.0414415961e-001	 2.9231453939e+000	 7.0308442088e-002
 7.7975213015e-002	 2.9239604762e+000	 1.6609442245e-001
 5.1893103565e-002	 2.9245396400e+000	 3.2401268260e-001
 2.5900497897e-002	 2.9248853250e+000	 5.5913267657e-001
 0.0000000000e+000	 2.9250000000e+000	 8.8628381035e-001
 2.6507059182e-001	 2.9380669804e+000	 7.0273157950e-002
 2.3821249950e-001	 2.9403664406e+000	 1.3971294214e-001
 2.1142453258e-001	 2.9424139184e+000	 1.7488681855e-001
 1.8470975560e-001	 2.9442116612e+000	 1.9294425371e-001
 1.5807117129e-001	 2.9457619566e+000	 2.1098717001e-001
 1.3151172026e-001	 2.9470671298e+000	 2.4602969404e-001
 1.0503428063e-001	 2.9481295426e+000	 3.1495938069e-001
 7.8641667826e-002	 2.9489515913e+000	 4.3449995355e-001
 5.2336634364e-002	 2.9495357053e+000	 6.2117559637e-001
 2.6121869673e-002	 2.9498843448e+000	 8.9127682502e-001
 0.0000000000e+000	 2.9500000000e+000	 1.2608279643e+000
 2.6731695277e-001	 2.9629658531e+000	 2.4558297108e-001
 2.4023124950e-001	 2.9652848003e+000	 3.3767699360e-001
 2.1321626591e-001	 2.9673496295e+000	 3.9245800785e-001
 1.8627509251e-001	 2.9691626075e+000	 4.2844065591e-001
 1.5941075749e-001	 2.9707260410e+000	 4.6407370937e-001
 1.3262622636e-001	 2.9720422749e+000	 5.1769831836e-001
 1.0592440165e-001	 2.9731136913e+000	 6.0750780641e-001
 7.9308122638e-002	 2.9739427065e+000	 7.5150905237e-001
 5.2780165163e-002	 2.9745317706e+000	 9.6748549464e-001
 2.6343241450e-002	 2.9748833647e+000	 1.2729617878e+000
 0.0000000000e+000	 2.9750000000e+000	 1.6851701357e+000
 2.6956331372e-001	 2.9878647258e+000	 4.6290646553e-001
 2.4224999949e-001	 2.9902031599e+000	 5.7863741449e-001
 2.1500799923e-001	 2.9922853407e+000	 6.5376648191e-001
 1.8784042942e-001	 2.9941135538e+000	 7.0818729691e-001
 1.6075034369e-001	 2.9956901253e+000	 7.6170929639e-001
 1.3374073246e-001	 2.9970174201e+000	 8.3401445119e-001
 1.0681452267e-001	 2.9980978399e+000	 9.4461560872e-001
 7.9974577449e-002	 2.9989338217e+000	 1.1128164943e+000
 5.3223695962e-002	 2.9995278359e+000	 1.3576734070e+000
 2.6564613226e-002	 2.9998823846e+000	 1.6979586402e+000
 0.0000000000e+000	 3.0000000000e+000	 2.1521256521e+000
 3.0000000000e+000	 0.0000000000e+000	 1.5482014508e+000
 2.9998823846e+000	 2.6564613226e-002	 1.5967424445e+000
 2.9995278359e+000	 5.3223695962e-002	 1.6170867214e+000
 2.9989338217e+000	 7.9974577449e-002	 1.6140546851e+000
 2.9980978399e+000	 1.0681452267e-001	 1.5924363252e+000
 2.9970174201e+000	 1.3374073246e-001	 1.5569807469e+000
 2.9956901253e+000	 1.6075034369e-001	 1.5123854692e+000
 2.9941135538e+000	 1.8784042942e-001	 1.4632855103e+000
 2.9922853407e+000	 2.1500799923e-001	 1.4142422770e+000
 2.9902031599e+000	 2.4224999949e-001	 1.3697322765e+000
 2.9878647258e+000	 2.6956331372e-001	 1.3341356706e+000
 3.0250000000e+000	 0.0000000000e+000	 1.3165180769e+000
 3.0248814045e+000	 2.6785985003e-002	 1.3891811465e+000
 3.0245239012e+000	 5.3667226761e-002	 1.4327327176e+000
 3.0239249369e+000	 8.0641032261e-002	 1.4520563391e+000
 3.0230819886e+000	 1.0770464369e-001	 1.4520040638e+000
 3.0219925653e+000	 1.3485523857e-001	 1.4373857681e+000
 3.0206542097e+000	 1.6208992988e-001	 1.4129582367e+000
 3.0190645001e+000	 1.8940576633e-001	 1.3834140311e+000
 3.0172210519e+000	 2.1679973256e-001	 1.3533701582e+000
 3.0151215196e+000	 2.4426874949e-001	 1.3273565593e+000
 3.0127635985e+000	 2.7180967467e-001	 1.3098044380e+000
 3.0500000000e+000	 0.0000000000e+000	 1.1424837202e+000
 3.0498804243e+000	 2.7007356780e-002	 1.2324380135e+000
 3.0495199665e+000	 5.4110757560e-002	 1.2924540405e+000
 3.0489160521e+000	 8.1307487072e-002	 1.3274837742e+000
 3.0480661373e+000	 1.0859476471e-001	 1.3424465965e+000
 3.0469677104e+000	 1.3596974467e-001	 1.3422184009e+000
 3.0456182941e+000	 1.6342951608e-001	 1.3316204579e+000
 3.0440154464e+000	 1.9097110324e-001	 1.3154080580e+000
 3.0421567631e+000	 2.1859146589e-001	 1.2982589537e+000
 3.0400398793e+000	 2.4628749948e-001	 1.2847616168e+000
 3.0376624713e+000	 2.7405603562e-001	 1.2794033342e+000
 3.0750000000e+000	 0.0000000000e+000	 1.0254696365e+000
 3.0748794442e+000	 2.7228728556e-002	 1.1258760370e+000
 3.0745160318e+000	 5.4554288360e-002	 1.1956053577e+000
 3.0739071672e+000	 8.1973941883e-002	 1.2396832914e+000
 3.0730502859e+000	 1.0948488573e-001	 1.2631018321e+000
 3.0719428556e+000	 1.3708425077e-001	 1.2708081538e+000
 3.0705823785e+000	 1.6476910228e-001	 1.2676932487e+000
 3.0689663926e+000	 1.9253644015e-001	 1.2585803393e+000
 3.0670924742e+000	 2.2038319921e-001	 1.2482130849e+000
 3.0649582389e+000	 2.4830624948e-001	 1.2412436007e+000
 3.0625613440e+000	 2.7630239656e-001	 1.2422203134e+000
 3.1000000000e+000	 0.0000000000e+000	 9.6486736352e-001
 3.0998784641e+000	 2.7450100333e-002	 1.0688766955e+000
 3.0995120971e+000	 5.4997819159e-002	 1.1415580551e+000
 3.0988982824e+000	 8.2640396694e-002	 1.1880161695e+000
 3.0980344346e+000	 1.1037500676e-001	 1.2133209450e+000
 3.0969180008e+000	 1.3819875688e-001	 1.2224961174e+000
 3.0955464628e+000	 1.6610868847e-001	 1.2205076551e+000
 3.0939173389e+000	 1.9410177707e-001	 1.2122519325e+000
 3.0920281854e+000	 2.2217493254e-001	 1.2025436939e+000
 3.0898765986e+000	 2.5032499947e-001	 1.1961038282e+000
 3.0874602167e+000	 2.7854875751e-001	 1.1975469747e+000
 3.1250000000e+000	 0.0000000000e+000	 9.6008790992e-001
 3.1248774839e+000	 2.7671472109e-002	 1.0608392148e+000
 3.1245081624e+000	 5.5441349958e-002	 1.1296995687e+000
 3.1238893976e+000	 8.3306851506e-002	 1.1718580653e+000
 3.1230185833e+000	 1.1126512778e-001	 1.1924678439e+000
 3.1218931460e+000	 1.3931326298e-001	 1.1966345019e+000
 3.1205105472e+000	 1.6744827467e-001	 1.1894042562e+000
 3.1188682852e+000	 1.9566711398e-001	 1.1757518717e+000
 3.1169638966e+000	 2.2396666586e-001	 1.1605683748e+000
 3.1147949583e+000	 2.5234374947e-001	 1.1486485753e+000
 3.1123590894e+000	 2.8079511845e-001	 1.1446784161e+000
 3.1500000000e+000	 0.0000000000e+000	 1.0985121140e+000
 3.1498765038e+000	 2.7892843886e-002	 1.1859277555e+000
 3.1495042277e+000	 5.5884880757e-002	 1.2420410694e+000
 3.1488805128e+000	 8.3973306317e-002	 1.2719648585e+000
 3.1480027319e+000	 1.1215524880e-001	 1.2806722574e+000
 3.1468682911e+000	 1.4042776908e-001	 1.2729942994e+000
 3.1454746316e+000	 1.6878786087e-001	 1.2536179668e+000
 3.1438192315e+000	 1.9723245089e-001	 1.2270847406e+000
 3.1418996077e+000	 2.2575839919e-001	 1.1977896703e+000
 3.1397133179e+000	 2.5436249946e-001	 1.1699809785e+000
 3.1372579621e+000	 2.8304147940e-001	 1.1477602173e+000
 3.1750000000e+000	 0.0000000000e+000	 1.1825573607e+000
 3.1748755237e+000	 2.8114215663e-002	 1.2586673966e+000
 3.1745002930e+000	 5.6328411556e-002	 1.3054787428e+000
 3.1738716280e+000	 8.4639761128e-002	 1.3279684525e+000
 3.1729868806e+000	 1.1304536982e-001	 1.3309646505e+000
 3.1718434363e+000	 1.4154227518e-001	 1.3191441689e+000
 3.1704387160e+000	 1.7012744706e-001	 1.2970306864e+000
 3.1687701778e+000	 1.9879778780e-001	 1.2689933908e+000
 3.1668353189e+000	 2.2755013251e-001	 1.2392461835e+000
 3.1646316776e+000	 2.5638124945e-001	 1.2118474425e+000
 3.1621568348e+000	 2.8528784035e-001	 1.1907003605e+000
 3.2000000000e+000	 0.0000000000e+000	 1.2116885790e+000
 3.1998745436e+000	 2.8335587439e-002	 1.2780376933e+000
 3.1994963583e+000	 5.6771942355e-002	 1.3172670113e+000
 3.1988627432e+000	 8.5306215939e-002	 1.3342149773e+000
 3.1979710292e+000	 1.1393549084e-001	 1.3335615985e+000
 3.1968185815e+000	 1.4265678129e-001	 1.3198261486e+000
 3.1954028003e+000	 1.7146703326e-001	 1.2973653969e+000
 3.1937211241e+000	 2.0036312471e-001	 1.2703723843e+000
 3.1917710301e+000	 2.2934186584e-001	 1.2428757625e+000
 3.1895500373e+000	 2.5839999945e-001	 1.2187397176e+000
 3.1870557075e+000	 2.8753420129e-001	 1.2016644913e+000
 3.2250000000e+000	 0.0000000000e+000	 1.1853872895e+000
 3.2248735634e+000	 2.8556959216e-002	 1.2436980856e+000
 3.2244924236e+000	 5.7215473154e-002	 1.2772444846e+000
 3.2238538583e+000	 8.5972670750e-002	 1.2907233760e+000
 3.2229551779e+000	 1.1482561186e-001	 1.2886634522e+000
 3.2217937266e+000	 1.4377128739e-001	 1.2754229792e+000
 3.2203668847e+000	 1.7280661945e-001	 1.2551881164e+000
 3.2186720703e+000	 2.0192846161e-001	 1.2319718054e+000
 3.2167067413e+000	 2.3113359916e-001	 1.2096132465e+000
 3.2144683969e+000	 2.6041874944e-001	 1.1917779830e+000
 3.2119545803e+000	 2.8978056223e-001	 1.1819586084e+000
 3.2500000000e+000	 0.0000000000e+000	 1.1031509657e+000
 3.2498725833e+000	 2.8778330992e-002	 1.1553225546e+000
 3.2494884889e+000	 5.7659003953e-002	 1.1852629224e+000
 3.2488449735e+000	 8.6639125561e-002	 1.1975243725e+000
 3.2479393266e+000	 1.1571573288e-001	 1.1964809963e+000
 3.2467688718e+000	 1.4488579349e-001	 1.1863265118e+000
 3.2453309691e+000	 1.7414620565e-001	 1.1710726734e+000
 3.2436230166e+000	 2.0349379852e-001	 1.1545482741e+000
 3.2416424524e+000	 2.3292533249e-001	 1.1403987611e+000
 3.2393867566e+000	 2.6243749943e-001	 1.1320864812e+000
 3.2368534530e+000	 2.9202692318e-001	 1.1328915771e+000
 2.9878647258e+000	 2.6956331372e-001	 1.3341356706e+000
 2.9852677950e+000	 2.9694476301e-001	 1.2173283992e+000
 2.9824101680e+000	 3.2439110650e-001	 1.1192732527e+000
 2.9792896912e+000	 3.5189904187e-001	 1.0438860755e+000
 2.9759042588e+000	 3.7946520596e-001	 9.9493606422e-001
 2.9722518140e+000	 4.0708617535e-001	 9.7603390549e-001
 2.9683303514e+000	 4.3475846709e-001	 9.9061990348e-001
 2.9641379186e+000	 4.6247853940e-001	 1.0419521232e+000
 2.9596726178e+000	 4.9024279252e-001	 1.1330945786e+000
 2.9549326076e+000	 5.1804756952e-001	 1.2669054937e+000
 2.9499161052e+000	 5.4588915724e-001	 1.4460256677e+000
 3.0127635985e+000	 2.7180967467e-001	 1.3098044380e+000
 3.0101450266e+000	 2.9941930270e-001	 1.2071076597e+000
 3.0072635860e+000	 3.2709436572e-001	 1.1227157895e+000
 3.0041171053e+000	 3.5483153389e-001	 1.0606353220e+000
 3.0007034609e+000	 3.8262741601e-001	 1.0247237773e+000
 2.9970205791e+000	 4.1047856015e-001	 1.0186775831e+000
 2.9930664377e+000	 4.3838145432e-001	 1.0460199448e+000
 2.9888390679e+000	 4.6633252723e-001	 1.1100887316e+000
 2.9843365562e+000	 4.9432814913e-001	 1.2140244074e+000
 2.9795570460e+000	 5.2236463260e-001	 1.3607580353e+000
 2.9744987394e+000	 5.5043823355e-001	 1.5529993879e+000
 3.0376624713e+000	 2.7405603562e-001	 1.2794033342e+000
 3.0350222582e+000	 3.0189384239e-001	 1.1866821579e+000
 3.0321170041e+000	 3.2979762494e-001	 1.1119647787e+000
 3.0289445194e+000	 3.5776402590e-001	 1.0593526021e+000
 3.0255026631e+000	 3.8578962606e-001	 1.0327956338e+000
 3.0217893442e+000	 4.1387094494e-001	 1.0360800985e+000
 3.0178025240e+000	 4.4200444154e-001	 1.0728160446e+000
 3.0135402172e+000	 4.7018651506e-001	 1.1464249657e+000
 3.0090004947e+000	 4.9841350573e-001	 1.2601274659e+000
 3.0041814844e+000	 5.2668169568e-001	 1.4169310015e+000
 2.9990813737e+000	 5.5498730986e-001	 1.6196177273e+000
 3.0625613440e+000	 2.7630239656e-001	 1.2422203134e+000
 3.0598994898e+000	 3.0436838209e-001	 1.1552931712e+000
 3.0569704222e+000	 3.3250088416e-001	 1.0862147589e+000
 3.0537719335e+000	 3.6069651792e-001	 1.0391856825e+000
 3.0503018652e+000	 3.8895183611e-001	 1.0182526237e+000
 3.0465581093e+000	 4.1726332974e-001	 1.0272956874e+000
 3.0425386102e+000	 4.4562742877e-001	 1.0700157345e+000
 3.0382413666e+000	 4.7404050289e-001	 1.1499217299e+000
 3.0336644332e+000	 5.0249886233e-001	 1.2703181360e+000
 3.0288059228e+000	 5.3099875876e-001	 1.4342923816e+000
 3.0236640079e+000	 5.5953638617e-001	 1.6447024391e+000
 3.0874602167e+000	 2.7854875751e-001	 1.1975469747e+000
 3.0847767215e+000	 3.0684292178e-001	 1.1121853797e+000
 3.0818238402e+000	 3.3520414338e-001	 1.0446634718e+000
 3.0785993476e+000	 3.6362900993e-001	 9.9928537502e-001
 3.0751010674e+000	 3.9211404616e-001	 9.8019866598e-001
 3.0713268744e+000	 4.2065571453e-001	 9.9138144175e-001
 3.0672746965e+000	 4.4925041599e-001	 1.0366293728e+000
 3.0629425159e+000	 4.7789449072e-001	 1.1195427703e+000
 3.0583283717e+000	 5.0658421894e-001	 1.2435136992e+000
 3.0534303612e+000	 5.3531582184e-001	 1.4117131678e+000
 3.0482466421e+000	 5.6408546248e-001	 1.6270784267e+000
 3.1123590894e+000	 2.8079511845e-001	 1.1446784161e+000
 3.1096539531e+000	 3.0931746147e-001	 1.0566067307e+000
 3.1066772583e+000	 3.3790740260e-001	 9.8651173381e-001
 3.1034267617e+000	 3.6656150195e-001	 9.3880541459e-001
 3.0999002695e+000	 3.9527625621e-001	 9.1774049207e-001
 3.0960956396e+000	 4.2404809933e-001	 9.2739719610e-001
 3.0920107827e+000	 4.5287340322e-001	 9.7167003222e-001
 3.0876436652e+000	 4.8174847854e-001	 1.0542545607e+000
 3.0829923102e+000	 5.1066957554e-001	 1.1786342210e+000
 3.0780547996e+000	 5.3963288491e-001	 1.3480672348e+000
 3.0728292763e+000	 5.6863453879e-001	 1.5655736186e+000
 3.1372579621e+000	 2.8304147940e-001	 1.1477602173e+000
 3.1345311847e+000	 3.1179200116e-001	 1.0424699840e+000
 3.1315306764e+000	 3.4061066182e-001	 9.5151006881e-001
 3.1282541758e+000	 3.6949399396e-001	 8.7872402036e-001
 3.1246994717e+000	 3.9843846626e-001	 8.2998753393e-001
 3.1208644047e+000	 4.2744048412e-001	 8.3440541843e-001
 3.1167468690e+000	 4.5649639044e-001	 8.7415339176e-001
 3.1123448145e+000	 4.8560246637e-001	 9.5302619428e-001
 3.1076562486e+000	 5.1475493214e-001	 1.0746024403e+000
 3.1026792380e+000	 5.4394994799e-001	 1.2422312256e+000
 3.0974119105e+000	 5.7318361510e-001	 1.4590188474e+000
 3.1621568348e+000	 2.8528784035e-001	 1.1907003605e+000
 3.1594084163e+000	 3.1426654084e-001	 1.0923437054e+000
 3.1563840944e+000	 3.4331392104e-001	 1.0085083934e+000
 3.1530815899e+000	 3.7242648597e-001	 9.4286035441e-001
 3.1494986739e+000	 4.0160067630e-001	 8.9892096572e-001
 3.1456331698e+000	 4.3083286891e-001	 8.8007031669e-001
 3.1414829553e+000	 4.6011937766e-001	 8.8955110751e-001
 3.1370459638e+000	 4.8945645420e-001	 9.3047318578e-001
 3.1323201871e+000	 5.1884028875e-001	 1.0058187241e+000
 3.1273036764e+000	 5.4826701107e-001	 1.1184480392e+000
 3.1219945447e+000	 5.7773269141e-001	 1.3062477363e+000
 3.1870557075e+000	 2.8753420129e-001	 1.2016644913e+000
 3.1842856480e+000	 3.1674108053e-001	 1.1147477676e+000
 3.1812375125e+000	 3.4601718025e-001	 1.0426847570e+000
 3.1779090040e+000	 3.7535897799e-001	 9.8895797368e-001
 3.1742978760e+000	 4.0476288635e-001	 9.5689850621e-001
 3.1704019349e+000	 4.3422525370e-001	 9.4968956776e-001
 3.1662190415e+000	 4.6374236489e-001	 9.7037070278e-001
 3.1617471132e+000	 4.9331044202e-001	 1.0218426560e+000
 3.1569841256e+000	 5.2292564535e-001	 1.1068729060e+000
 3.1519281148e+000	 5.5258407415e-001	 1.2281018643e+000
 3.1465771789e+000	 5.8228176772e-001	 1.3880497383e+000
 3.2119545803e+000	 2.8978056223e-001	 1.1819586084e+000
 3.2091628796e+000	 3.1921562022e-001	 1.1111425545e+000
 3.2060909306e+000	 3.4872043947e-001	 1.0556540530e+000
 3.2027364181e+000	 3.7829147000e-001	 1.0187863019e+000
 3.1990970782e+000	 4.0792509639e-001	 1.0036739573e+000
 3.1951707000e+000	 4.3761763849e-001	 1.0132969726e+000
 3.1909551278e+000	 4.6736535211e-001	 1.0504851186e+000
 3.1864482625e+000	 4.9716442985e-001	 1.1179231905e+000
 3.1816480641e+000	 5.2701100195e-001	 1.2181569040e+000
 3.1765525532e+000	 5.5690113723e-001	 1.3535994810e+000
 3.1711598131e+000	 5.8683084403e-001	 1.5265389229e+000
 3.2368534530e+000	 2.9202692318e-001	 1.1328915771e+000
 3.2340401112e+000	 3.2169015991e-001	 1.0829911271e+000
 3.2309443486e+000	 3.5142369869e-001	 1.0490336940e+000
 3.2275638322e+000	 3.8122396201e-001	 1.0341171579e+000
 3.2238962803e+000	 4.1108730644e-001	 1.0411734943e+000
 3.2199394651e+000	 4.4101002328e-001	 1.0729729068e+000
 3.2156912140e+000	 4.7098833933e-001	 1.1321286663e+000
 3.2111494118e+000	 5.0101841767e-001	 1.2211026617e+000
 3.2063120026e+000	 5.3109635855e-001	 1.3422116648e+000
 3.2011769916e+000	 5.6121820030e-001	 1.4976343097e+000
 3.1957424473e+000	 5.9137992034e-001	 1.6894187835e+000
 2.9499161052e+000	 5.4588915724e-001	 1.4460256677e+000
 2.9446213876e+000	 5.7376378727e-001	 1.2526244947e+000
 2.9390467935e+000	 6.0166763694e-001	 1.0262319088e+000
 2.9331907253e+000	 6.2959683048e-001	 8.1358870708e-001
 2.9270516504e+000	 6.5754744009e-001	 8.2182571280e-001
 2.9206281031e+000	 6.8551548720e-001	 8.1629422715e-001
 2.9139186865e+000	 7.1349694372e-001	 7.9572018572e-001
 2.9069220735e+000	 7.4148773336e-001	 7.5883795779e-001
 2.8996370091e+000	 7.6948373301e-001	 7.0439457437e-001
 2.8920623117e+000	 7.9748077418e-001	 6.3115404168e-001
 2.8841968746e+000	 8.2547464451e-001	 5.3790173064e-001
 2.9744987394e+000	 5.5043823355e-001	 1.5529993879e+000
 2.9691598992e+000	 5.7854515216e-001	 1.2984991248e+000
 2.9635388501e+000	 6.0668153392e-001	 1.0128354017e+000
 2.9576339813e+000	 6.3484347073e-001	 8.2091810767e-001
 2.9514437475e+000	 6.6302700209e-001	 8.4310722349e-001
 2.9449666706e+000	 6.9122811626e-001	 8.4982721833e-001
 2.9382013422e+000	 7.1944275158e-001	 8.3971944347e-001
 2.9311464241e+000	 7.4766679780e-001	 8.1143483802e-001
 2.9238006509e+000	 7.7589609745e-001	 7.6363833639e-001
 2.9161628310e+000	 8.0412644730e-001	 6.9501336341e-001
 2.9082318485e+000	 8.3235359987e-001	 6.0426640748e-001
 2.9990813737e+000	 5.5498730986e-001	 1.6196177273e+000
 2.9936984107e+000	 5.8332651705e-001	 1.3009633660e+000
 2.9880309068e+000	 6.1169543089e-001	 9.5312671350e-001
 2.9820772374e+000	 6.4009011098e-001	 8.0622019165e-001
 2.9758358445e+000	 6.6850656409e-001	 8.4377366916e-001
 2.9693052382e+000	 6.9694074532e-001	 8.6417557311e-001
 2.9624839979e+000	 7.2538855945e-001	 8.6598098698e-001
 2.9553707747e+000	 7.5384586224e-001	 8.4775571763e-001
 2.9479642926e+000	 7.8230846189e-001	 8.0808088478e-001
 2.9402633502e+000	 8.1077212041e-001	 7.4555760047e-001
 2.9322668225e+000	 8.3923255524e-001	 6.5881172856e-001
 3.0236640079e+000	 5.5953638617e-001	 1.6447024391e+000
 3.0182369223e+000	 5.8810788194e-001	 1.2588065619e+000
 3.0125229634e+000	 6.1670932786e-001	 8.4586371951e-001
 3.0065204934e+000	 6.4533675123e-001	 7.7025790521e-001
 3.0002279416e+000	 6.7398612608e-001	 8.2462962033e-001
 2.9936438057e+000	 7.0265337437e-001	 8.6018452783e-001
 2.9867666536e+000	 7.3133436731e-001	 8.7538972455e-001
 2.9795951253e+000	 7.6002492669e-001	 8.6872414792e-001
 2.9721279343e+000	 7.8872082633e-001	 8.3868335007e-001
 2.9643638695e+000	 8.1741779353e-001	 7.8378436435e-001
 2.9563017964e+000	 8.4611151061e-001	 7.0257065397e-001
 3.0482466421e+000	 5.6408546248e-001	 1.6270784267e+000
 3.0427754338e+000	 5.9288924684e-001	 1.1708209597e+000
 3.0370150200e+000	 6.2172322484e-001	 6.8980697334e-001
 3.0309637495e+000	 6.5058339149e-001	 7.1379666945e-001
 3.0246200387e+000	 6.7946568808e-001	 7.8648194159e-001
 3.0179823732e+000	 7.0836600343e-001	 8.3870145469e-001
 3.0110493093e+000	 7.3728017517e-001	 8.6883256503e-001
 3.0038194759e+000	 7.6620399113e-001	 8.7526556857e-001
 2.9962915761e+000	 7.9513319077e-001	 8.5640866236e-001
 2.9884643887e+000	 8.2406346665e-001	 8.1069300091e-001
 2.9803367704e+000	 8.5299046598e-001	 7.3657783674e-001
 3.0728292763e+000	 5.6863453879e-001	 1.5655736186e+000
 3.0673139454e+000	 5.9767061173e-001	 1.0358015936e+000
 3.0615070766e+000	 6.2673712181e-001	 5.2469267144e-001
 3.0554070055e+000	 6.5583003174e-001	 6.3760428140e-001
 3.0490121358e+000	 6.8494525008e-001	 7.3013969984e-001
 3.0423209407e+000	 7.1407863249e-001	 8.0057577631e-001
 3.0353319650e+000	 7.4322598304e-001	 8.4719833779e-001
 3.0280438265e+000	 7.7238305558e-001	 8.6830723209e-001
 3.0204552178e+000	 8.0154555521e-001	 8.6222147934e-001
 3.0125649080e+000	 8.3070913976e-001	 8.2728452097e-001
 3.0043717443e+000	 8.5986942135e-001	 7.6186955513e-001
 3.0974119105e+000	 5.7318361510e-001	 1.4590188474e+000
 3.0918524570e+000	 6.0245197662e-001	 8.5254617488e-001
 3.0859991332e+000	 6.3175101878e-001	 4.0658648980e-001
 3.0798502615e+000	 6.6107667200e-001	 5.4245081976e-001
 3.0734042329e+000	 6.9042481209e-001	 6.5641407689e-001
 3.0666595083e+000	 7.1979126155e-001	 7.4665888441e-001
 3.0596146208e+000	 7.4917179090e-001	 8.1137771654e-001
 3.0522681771e+000	 7.7856212002e-001	 8.4877813191e-001
 3.0446188595e+000	 8.0795791965e-001	 8.5708811772e-001
 3.0366654273e+000	 8.3735481288e-001	 8.3456153427e-001
 3.0284067183e+000	 8.6674837673e-001	 7.7948364813e-001
 3.1219945447e+000	 5.7773269141e-001	 1.3062477363e+000
 3.1163909685e+000	 6.0723334152e-001	 6.1985498597e-001
 3.1104911898e+000	 6.3676491576e-001	 2.6868830925e-001
 3.1042935176e+000	 6.6632331225e-001	 4.2910855502e-001
 3.0977963300e+000	 6.9590437409e-001	 5.6611828625e-001
 3.0909980758e+000	 7.2550389062e-001	 6.7780406221e-001
 3.0838972765e+000	 7.5511759877e-001	 7.6226314668e-001
 3.0764925277e+000	 7.8474118447e-001	 8.1760893379e-001
 3.0687825013e+000	 8.1437028410e-001	 8.4197648791e-001
 3.0607659465e+000	 8.4400048600e-001	 8.3352818651e-001
 3.0524416922e+000	 8.7362733210e-001	 7.9045945402e-001
 3.1465771789e+000	 5.8228176772e-001	 1.3880497383e+000
 3.1409294801e+000	 6.1201470641e-001	 5.5808228639e-001
 3.1349832464e+000	 6.4177881273e-001	 2.5794740208e-001
 3.1287367736e+000	 6.7156995251e-001	 3.5554331921e-001
 3.1221884270e+000	 7.0138393609e-001	 4.6006749367e-001
 3.1153366433e+000	 7.3121651968e-001	 5.9486641061e-001
 3.1081799322e+000	 7.6106340663e-001	 7.0074877609e-001
 3.1007168783e+000	 7.9092024892e-001	 7.7573191053e-001
 3.0929461430e+000	 8.2078264854e-001	 8.1785603180e-001
 3.0848664658e+000	 8.5064615913e-001	 8.2519009933e-001
 3.0764766662e+000	 8.8050628747e-001	 7.9583775181e-001
 3.1711598131e+000	 5.8683084403e-001	 1.5265389229e+000
 3.1654679917e+000	 6.1679607131e-001	 6.2950354286e-001
 3.1594753030e+000	 6.4679270971e-001	 4.9617594857e-001
 3.1531800297e+000	 6.7681659276e-001	 6.2501102442e-001
 3.1465805241e+000	 7.0686349809e-001	 7.1440076635e-001
 3.1396752108e+000	 7.3692914874e-001	 7.6206680733e-001
 3.1324625879e+000	 7.6700921450e-001	 7.6570106580e-001
 3.1249412290e+000	 7.9709931337e-001	 7.2408087969e-001
 3.1171097848e+000	 8.2719501299e-001	 7.8569766334e-001
 3.1089669851e+000	 8.5729183225e-001	 8.1055431313e-001
 3.1005116401e+000	 8.8738524285e-001	 7.9666070537e-001
 3.1957424473e+000	 5.9137992034e-001	 1.6894187835e+000
 3.1900065032e+000	 6.2157743620e-001	 7.3078645238e-001
 3.1839673596e+000	 6.5180660668e-001	 7.9315512793e-001
 3.1776232857e+000	 6.8206323302e-001	 9.5137729995e-001
 3.1709726212e+000	 7.1234306010e-001	 1.0686572637e+000
 3.1640137784e+000	 7.4264177780e-001	 1.1427424009e+000
 3.1567452436e+000	 7.7295502237e-001	 1.1713508341e+000
 3.1491655796e+000	 8.0327837781e-001	 1.1521685667e+000
 3.1412734265e+000	 8.3360737744e-001	 1.0828465906e+000
 3.1330675043e+000	 8.6393750537e-001	 9.6099797578e-001
 3.1245466141e+000	 8.9426419823e-001	 7.9397181020e-001
 2.8841968746e+000	 8.2547464451e-001	 5.3790173064e-001
 2.8760396675e+000	 8.5346108929e-001	 5.4211972836e-001
 2.8675897383e+000	 8.8143581311e-001	 5.3981734268e-001
 2.8588462143e+000	 9.0939448149e-001	 5.3006181951e-001
 2.8498083036e+000	 9.3733272262e-001	 5.1195012785e-001
 2.8404752965e+000	 9.6524612913e-001	 4.8461323737e-001
 2.8308465672e+000	 9.9313025989e-001	 4.4722041293e-001
 2.8209215744e+000	 1.0209806419e+000	 3.9898351418e-001
 2.8106998632e+000	 1.0487927723e+000	 3.3916128824e-001
 2.8001810658e+000	 1.0765621202e+000	 2.6706364314e-001
 2.7893649032e+000	 1.1042841287e+000	 1.8205588922e-001
 2.9082318485e+000	 8.3235359987e-001	 6.0426640748e-001
 2.9000066647e+000	 8.6057326503e-001	 6.1215215153e-001
 2.8914863195e+000	 8.8878111155e-001	 6.1259305079e-001
 2.8826699328e+000	 9.1697276883e-001	 6.0456597988e-001
 2.8735567061e+000	 9.4514382864e-001	 5.8707845198e-001
 2.8641459240e+000	 9.7328984687e-001	 5.5917307794e-001
 2.8544369552e+000	 1.0014063454e+000	 5.1993204347e-001
 2.8444292542e+000	 1.0294888139e+000	 4.6848159256e-001
 2.8341223620e+000	 1.0575327121e+000	 4.0399650452e-001
 2.8235159081e+000	 1.0855334712e+000	 3.2570455178e-001
 2.8126096107e+000	 1.1134864964e+000	 2.3289092560e-001
 2.9322668225e+000	 8.3923255524e-001	 6.5881172856e-001
 2.9239736620e+000	 8.6768544077e-001	 6.7110322023e-001
 2.9153829006e+000	 8.9612640999e-001	 6.7500767683e-001
 2.9064936512e+000	 9.2455105618e-001	 6.6941001488e-001
 2.8973051086e+000	 9.5295493466e-001	 6.5322672220e-001
 2.8878165515e+000	 9.8133356461e-001	 6.2541050143e-001
 2.8780273433e+000	 1.0096824309e+000	 5.8495493323e-001
 2.8679369340e+000	 1.0379969859e+000	 5.3089914648e-001
 2.8575448609e+000	 1.0662726518e+000	 4.6233248279e-001
 2.8468507503e+000	 1.0945048222e+000	 3.7839914200e-001
 2.8358543183e+000	 1.1226888642e+000	 2.7830279505e-001
 2.9563017964e+000	 8.4611151061e-001	 7.0257065397e-001
 2.9479406592e+000	 8.7479761651e-001	 7.2005874971e-001
 2.9392794818e+000	 9.0347170843e-001	 7.2819927300e-001
 2.9303173697e+000	 9.3212934352e-001	 7.2578355866e-001
 2.9210535112e+000	 9.6076604068e-001	 7.1163546287e-001
 2.9114871789e+000	 9.8937728235e-001	 6.8461619433e-001
 2.9016177314e+000	 1.0179585164e+000	 6.4362916645e-001
 2.8914446137e+000	 1.0465051580e+000	 5.8762485768e-001
 2.8809673597e+000	 1.0750125916e+000	 5.1560566665e-001
 2.8701855925e+000	 1.1034761732e+000	 4.2663074837e-001
 2.8590990258e+000	 1.1318912319e+000	 3.1982081767e-001
 2.9803367704e+000	 8.5299046598e-001	 7.3657783674e-001
 2.9719076564e+000	 8.8190979226e-001	 7.6010562842e-001
 2.9631760629e+000	 9.1081700687e-001	 7.7330635042e-001
 2.9541410881e+000	 9.3970763087e-001	 7.7487609574e-001
 2.9448019137e+000	 9.6857714670e-001	 7.6354444628e-001
 2.9351578064e+000	 9.9742100009e-001	 7.3807949489e-001
 2.9252081194e+000	 1.0262346019e+000	 6.9729288973e-001
 2.9149522935e+000	 1.0550133300e+000	 6.4004488793e-001
 2.9043898586e+000	 1.0837525314e+000	 5.6524940455e-001
 2.8935204347e+000	 1.1124475242e+000	 4.7187904281e-001
 2.8823437333e+000	 1.1410935996e+000	 3.5897009124e-001
 3.0043717443e+000	 8.5986942135e-001	 7.6186955513e-001
 2.9958746536e+000	 8.8902196800e-001	 7.9233177507e-001
 2.9870726441e+000	 9.1816230531e-001	 8.1146786075e-001
 2.9779648066e+000	 9.4728591821e-001	 8.1787696696e-001
 2.9685503162e+000	 9.7638825273e-001	 8.1019272268e-001
 2.9588284339e+000	 1.0054647178e+000	 7.8708844711e-001
 2.9487985075e+000	 1.0345106874e+000	 7.4728238958e-001
 2.9384599733e+000	 1.0635215020e+000	 6.8954297972e-001
 2.9278123575e+000	 1.0924924711e+000	 6.1269407356e-001
 2.9168552769e+000	 1.1214188752e+000	 5.1562018104e-001
 2.9055884408e+000	 1.1502959674e+000	 3.9727166016e-001
 3.0284067183e+000	 8.6674837673e-001	 7.7948364813e-001
 3.0198416509e+000	 8.9613414375e-001	 8.1782609777e-001
 3.0109692252e+000	 9.2550760376e-001	 8.4382317872e-001
 3.0017885250e+000	 9.5486420556e-001	 8.5597537525e-001
 2.9922987187e+000	 9.8419935875e-001	 8.5281864896e-001
 2.9824990614e+000	 1.0135084356e+000	 8.3292985208e-001
 2.9723888955e+000	 1.0427867729e+000	 7.9493216621e-001
 2.9619676531e+000	 1.0720296740e+000	 7.3750055233e-001
 2.9512348563e+000	 1.1012324109e+000	 6.5936719734e-001
 2.9401901191e+000	 1.1303902262e+000	 5.5932694219e-001
 2.9288331484e+000	 1.1594983351e+000	 4.3624267625e-001
 3.0524416922e+000	 8.7362733210e-001	 7.9045945402e-001
 3.0438086481e+000	 9.0324631949e-001	 8.3767845506e-001
 3.0348658064e+000	 9.3285290220e-001	 8.7151208547e-001
 3.0256122435e+000	 9.6244249291e-001	 8.9036039102e-001
 3.0160471213e+000	 9.9201046477e-001	 8.9265991594e-001
 3.0061696888e+000	 1.0215521533e+000	 8.7688931691e-001
 2.9959792836e+000	 1.0510628584e+000	 8.4157500387e-001
 2.9854753329e+000	 1.0805378460e+000	 7.8529679329e-001
 2.9746573552e+000	 1.1099723507e+000	 7.0669355845e-001
 2.9635249613e+000	 1.1393615772e+000	 6.0446886162e-001
 2.9520778559e+000	 1.1687007029e+000	 4.7739655205e-001
 3.0764766662e+000	 8.8050628747e-001	 7.9583775181e-001
 3.0677756453e+000	 9.1035849524e-001	 8.5297961879e-001
 3.0587623875e+000	 9.4019820065e-001	 8.9567475268e-001
 3.0494359619e+000	 9.7002078026e-001	 9.2222095731e-001
 3.0397955238e+000	 9.9982157080e-001	 9.3095357438e-001
 3.0298403163e+000	 1.0295958711e+000	 9.2025130136e-001
 3.0195696717e+000	 1.0593389439e+000	 8.8854203787e-001
 3.0089830127e+000	 1.0890460181e+000	 8.3430874550e-001
 2.9980798540e+000	 1.1187122905e+000	 7.5609530540e-001
 2.9868598036e+000	 1.1483329282e+000	 6.5251235777e-001
 2.9753225634e+000	 1.1779030706e+000	 5.2224310686e-001
 3.1005116401e+000	 8.8738524285e-001	 7.9666070537e-001
 3.0917426426e+000	 9.1747067099e-001	 8.6482123873e-001
 3.0826589687e+000	 9.4754349910e-001	 9.1745172742e-001
 3.0732596804e+000	 9.7759906761e-001	 9.5274589479e-001
 3.0635439263e+000	 1.0076326768e+000	 9.6893605981e-001
 3.0535109438e+000	 1.0376395888e+000	 9.6429916235e-001
 3.0431600597e+000	 1.0676150294e+000	 9.3716281850e-001
 3.0324906925e+000	 1.0975541901e+000	 8.8591139046e-001
 3.0215023529e+000	 1.1274522302e+000	 8.0899205481e-001
 3.0101946458e+000	 1.1573042792e+000	 7.0492085283e-001
 2.9985672709e+000	 1.1871054383e+000	 5.7228870603e-001
 3.1245466141e+000	 8.9426419823e-001	 7.9397181020e-001
 3.1157096398e+000	 9.2458284674e-001	 8.7429580878e-001
 3.1065555498e+000	 9.5488879754e-001	 9.3798391772e-001
 3.0970833988e+000	 9.8517735496e-001	 9.8312390642e-001
 3.0872923289e+000	 1.0154437829e+000	 1.0078432162e+000
 3.0771815712e+000	 1.0456833066e+000	 1.0103151963e+000
 3.0667504478e+000	 1.0758911149e+000	 9.8876537197e-001
 3.0559983723e+000	 1.1060623621e+000	 9.4147772744e-001
 3.0449248518e+000	 1.1361921700e+000	 8.6680098871e-001
 3.0335294880e+000	 1.1662756302e+000	 7.6315488811e-001
 3.0218119785e+000	 1.1963078061e+000	 6.2903639375e-001
 2.7893649032e+000	 1.1042841287e+000	 1.8205588922e-001
 2.7782511856e+000	 1.1319542172e+000	 1.2545001255e-001
 2.7668398140e+000	 1.1595677832e+000	 7.4900563053e-002
 2.7551307808e+000	 1.1871202048e+000	 3.0517980778e-002
 2.7431241712e+000	 1.2146068424e+000	-7.5291648733e-003
 2.7308201633e+000	 1.2420230416e+000	-3.9011041422e-002
 2.7182190297e+000	 1.2693641349e+000	-6.4422983733e-002
 2.7053211376e+000	 1.2966254442e+000	-7.4881532745e-002
 2.6921269500e+000	 1.3238022833e+000	-6.8841867406e-002
 2.6786370258e+000	 1.3508899601e+000	-4.6522368587e-002
 2.6648520205e+000	 1.3778837792e+000	-8.1475654813e-003
 2.8126096107e+000	 1.1134864964e+000	 2.3289092560e-001
 2.8014032788e+000	 1.1413871690e+000	 1.7940472275e-001
 2.7898968124e+000	 1.1692308481e+000	 1.2884546475e-001
 2.7780902040e+000	 1.1970128732e+000	 8.1274902326e-002
 2.7659835393e+000	 1.2247285661e+000	 3.6817122921e-002
 2.7535769980e+000	 1.2523732336e+000	-4.5882361594e-003
 2.7408708549e+000	 1.2799421693e+000	-3.9149368283e-002
 2.7278654804e+000	 1.3074306562e+000	-5.9263678690e-002
 2.7145613413e+000	 1.3348339690e+000	-6.5147497268e-002
 2.7009590010e+000	 1.3621473764e+000	-5.7021496460e-002
 2.6870591207e+000	 1.3893661440e+000	-3.5110305752e-002
 2.8358543183e+000	 1.1226888642e+000	 2.7830279505e-001
 2.8245553720e+000	 1.1508201208e+000	 2.2923739013e-001
 2.8129538109e+000	 1.1788939129e+000	 1.7996161318e-001
 2.8010496272e+000	 1.2069055415e+000	 1.3048701953e-001
 2.7888429074e+000	 1.2348502898e+000	 8.0891739514e-002
 2.7763338327e+000	 1.2627234256e+000	 3.0854598695e-002
 2.7635226802e+000	 1.2905202038e+000	-1.0677077012e-002
 2.7504098233e+000	 1.3182358682e+000	-3.9992240313e-002
 2.7369957325e+000	 1.3458656546e+000	-5.7311766875e-002
 2.7232809762e+000	 1.3734047928e+000	-6.2858734311e-002
 2.7092662209e+000	 1.4008485088e+000	-5.6858004953e-002
 2.8590990258e+000	 1.1318912319e+000	 3.1982081767e-001
 2.8477074652e+000	 1.1602530726e+000	 2.7650264641e-001
 2.8360108093e+000	 1.1885569778e+000	 2.2982737804e-001
 2.8240090504e+000	 1.2167982099e+000	 1.7975483901e-001
 2.8117022754e+000	 1.2449720135e+000	 1.2631570115e-001
 2.7990906674e+000	 1.2730736177e+000	 6.9274728568e-002
 2.7861745054e+000	 1.3010982382e+000	 2.1189066353e-002
 2.7729541661e+000	 1.3290410803e+000	-1.6878351261e-002
 2.7594301238e+000	 1.3568973403e+000	-4.5153042764e-002
 2.7456029514e+000	 1.3846622091e+000	-6.3860606354e-002
 2.7314733210e+000	 1.4123308736e+000	-7.3226271005e-002
 2.8823437333e+000	 1.1410935996e+000	 3.5897009124e-001
 2.8708595585e+000	 1.1696860244e+000	 3.2275098617e-001
 2.8590678078e+000	 1.1982200427e+000	 2.8001710496e-001
 2.8469684735e+000	 1.2266908783e+000	 2.3067498441e-001
 2.8345616435e+000	 1.2550937372e+000	 1.7318038622e-001
 2.8218475021e+000	 1.2834238097e+000	 1.1086920251e-001
 2.8088263307e+000	 1.3116762727e+000	 5.6640947049e-002
 2.7954985089e+000	 1.3398462923e+000	 1.0263817605e-002
 2.7818645150e+000	 1.3679290260e+000	-2.8492446539e-002
 2.7679249266e+000	 1.3959196254e+000	-5.9856081397e-002
 2.7536804212e+000	 1.4238132385e+000	-8.4052817625e-002
 2.9055884408e+000	 1.1502959674e+000	 3.9727166016e-001
 2.8940116517e+000	 1.1791189762e+000	 3.6952893239e-001
 2.8821248062e+000	 1.2078831075e+000	 3.3210127645e-001
 2.8699278967e+000	 1.2365835466e+000	 2.8484035166e-001
 2.8574210116e+000	 1.2652154609e+000	 2.2174908716e-001
 2.8446043368e+000	 1.2937740017e+000	 1.5583169367e-001
 2.8314781559e+000	 1.3222543071e+000	 9.5867290915e-002
 2.8180428517e+000	 1.3506515043e+000	 4.1617179700e-002
 2.8042989063e+000	 1.3789607117e+000	-7.1537446726e-003
 2.7902469018e+000	 1.4071770418e+000	-5.0676475063e-002
 2.7758875214e+000	 1.4352956033e+000	-8.9177380092e-002
 2.9288331484e+000	 1.1594983351e+000	 4.3624267625e-001
 2.9171637449e+000	 1.1885519280e+000	 4.1837919401e-001
 2.9051818047e+000	 1.2175461724e+000	 3.8764666527e-001
 2.8928873199e+000	 1.2464762150e+000	 3.4384025690e-001
 2.8802803797e+000	 1.2753371846e+000	 2.7350406228e-001
 2.8673611715e+000	 1.3041241937e+000	 2.0435263323e-001
 2.8541299812e+000	 1.3328323416e+000	 1.3905378977e-001
 2.8405871945e+000	 1.3614567164e+000	 7.7361848421e-002
 2.8267332975e+000	 1.3899923974e+000	 1.9036756451e-002
 2.8125688771e+000	 1.4184344581e+000	-3.6155356657e-002
 2.7980946215e+000	 1.4467779681e+000	-8.8441635031e-002
 2.9520778559e+000	 1.1687007029e+000	 4.7739655205e-001
 2.9403158381e+000	 1.1979848799e+000	 4.7084081611e-001
 2.9282388031e+000	 1.2272092372e+000	 4.4821648040e-001
 2.9158467430e+000	 1.2563688834e+000	 4.0269409195e-001
 2.9031397478e+000	 1.2854589082e+000	 3.2863635686e-001
 2.8901180061e+000	 1.3144743857e+000	 2.5661933806e-001
 2.8767818064e+000	 1.3434103761e+000	 1.8638322085e-001
 2.8631315373e+000	 1.3722619284e+000	 1.1767524738e-001
 2.8491676888e+000	 1.4010240831e+000	 5.0250310531e-002
 2.8348908523e+000	 1.4296918744e+000	-1.6128460444e-002
 2.8203017217e+000	 1.4582603330e+000	-8.1689123976e-002
 2.9753225634e+000	 1.1779030706e+000	 5.2224310686e-001
 2.9634679313e+000	 1.2074178317e+000	 5.2844932302e-001
 2.9512958016e+000	 1.2368723021e+000	 5.1537050629e-001
 2.9388061662e+000	 1.2662615518e+000	 4.6185768009e-001
 2.9259991159e+000	 1.2955806319e+000	 3.8733385563e-001
 2.9128748408e+000	 1.3248245777e+000	 3.1281613239e-001
 2.8994336316e+000	 1.3539884105e+000	 2.3803556068e-001
 2.8856758801e+000	 1.3830671404e+000	 1.6273221547e-001
 2.8716020800e+000	 1.4120557688e+000	 8.6655826662e-002
 2.8572128275e+000	 1.4409492908e+000	 9.5663989218e-003
 2.8425088219e+000	 1.4697426978e+000	-6.8765180528e-002
 2.9985672709e+000	 1.1871054383e+000	 5.7228870603e-001
 2.9866200245e+000	 1.2168507835e+000	 5.9273685478e-001
 2.9743528000e+000	 1.2465353670e+000	 5.9066523559e-001
 2.9617655894e+000	 1.2761542201e+000	 5.2443708300e-001
 2.9488584840e+000	 1.3057023556e+000	 4.4978140525e-001
 2.9356316755e+000	 1.3351747697e+000	 3.7312446374e-001
 2.9220854569e+000	 1.3645664450e+000	 2.9418809360e-001
 2.9082202229e+000	 1.3938723525e+000	 2.1270510706e-001
 2.8940364712e+000	 1.4230874545e+000	 1.2841996021e-001
 2.8795348027e+000	 1.4522067071e+000	 4.1089407035e-002
 2.8647159220e+000	 1.4812250626e+000	-4.9516860892e-002
 3.0218119785e+000	 1.1963078061e+000	 6.2903639375e-001
 3.0097721177e+000	 1.2262837353e+000	 6.6523229734e-001
 2.9974097985e+000	 1.2561984318e+000	 6.6139007593e-001
 2.9847250126e+000	 1.2860468885e+000	 5.9061673127e-001
 2.9717178521e+000	 1.3158240793e+000	 5.1616093115e-001
 2.9583885102e+000	 1.3455249618e+000	 4.3772301365e-001
 2.9447372821e+000	 1.3751444794e+000	 3.5501551535e-001
 2.9307645658e+000	 1.4046775645e+000	 2.6776388754e-001
 2.9164708625e+000	 1.4341191402e+000	 1.7570719948e-001
 2.9018567779e+000	 1.4634641235e+000	 7.8598826650e-002
 2.8869230222e+000	 1.4927074274e+000	-2.3792877620e-002
 2.6648520205e+000	 1.3778837792e+000	-8.1475654813e-003
 2.6507726869e+000	 1.4047790439e+000	-4.5172120497e-002
 2.6363998752e+000	 1.4315710593e+000	-8.3069414148e-002
 2.6217345334e+000	 1.4582551343e+000	-1.2190747895e-001
 2.6067777073e+000	 1.4848265841e+000	-1.6174292527e-001
 2.5915305413e+000	 1.5112807329e+000	-2.0262060188e-001
 2.5759942776e+000	 1.5376129167e+000	-2.4457327590e-001
 2.5601702572e+000	 1.5638184851e+000	-2.8762133331e-001
 2.5440599187e+000	 1.5898928045e+000	-3.3177250104e-001
 2.5276647993e+000	 1.6158312605e+000	-3.7702159162e-001
 2.5109865337e+000	 1.6416292602e+000	-4.2335027147e-001
 2.6870591207e+000	 1.3893661440e+000	-3.5110305752e-002
 2.6728624593e+000	 1.4164855360e+000	-8.2916685191e-002
 2.6583698742e+000	 1.4435008182e+000	-1.2943079110e-001
 2.6435823211e+000	 1.4704072604e+000	-1.7470352365e-001
 2.6285008549e+000	 1.4972001389e+000	-2.1877610690e-001
 2.6131266291e+000	 1.5238747391e+000	-2.6167977821e-001
 2.5974608966e+000	 1.5504263577e+000	-3.0343549534e-001
 2.5815050093e+000	 1.5768503058e+000	-3.4405366200e-001
 2.5652604181e+000	 1.6031419112e+000	-3.8353387315e-001
 2.5487286726e+000	 1.6292965210e+000	-4.2186468074e-001
 2.5319114214e+000	 1.6553095040e+000	-4.5902338097e-001
 2.7092662209e+000	 1.4008485088e+000	-5.6858004953e-002
 2.6949522317e+000	 1.4281920280e+000	-1.1503579431e-001
 2.6803398731e+000	 1.4554305770e+000	-1.6979668912e-001
 2.6654301089e+000	 1.4825593865e+000	-2.2117485767e-001
 2.6502240024e+000	 1.5095736938e+000	-2.6919651241e-001
 2.6347227169e+000	 1.5364687452e+000	-3.1387962776e-001
 2.6189275156e+000	 1.5632397986e+000	-3.5523367361e-001
 2.6028397614e+000	 1.5898821265e+000	-3.9325936549e-001
 2.5864609174e+000	 1.6163910179e+000	-4.2794843244e-001
 2.5697925460e+000	 1.6427617815e+000	-4.5928340339e-001
 2.5528363092e+000	 1.6689897478e+000	-4.8723741296e-001
 2.7314733210e+000	 1.4123308736e+000	-7.3226271005e-002
 2.7170420041e+000	 1.4398985200e+000	-1.4137079283e-001
 2.7023098721e+000	 1.4673603358e+000	-2.0401334405e-001
 2.6872778967e+000	 1.4947115126e+000	-2.6117175577e-001
 2.6719471500e+000	 1.5219472487e+000	-3.1285759837e-001
 2.6563188048e+000	 1.5490627513e+000	-3.5907592700e-001
 2.6403941346e+000	 1.5760532396e+000	-3.9982504095e-001
 2.6241745136e+000	 1.6029139472e+000	-4.3509625784e-001
 2.6076614167e+000	 1.6296401246e+000	-4.6487370364e-001
 2.5908564193e+000	 1.6562270420e+000	-4.8913411909e-001
 2.5737611970e+000	 1.6826699917e+000	-5.0784668358e-001
 2.7536804212e+000	 1.4238132385e+000	-8.4052817625e-002
 2.7391317765e+000	 1.4516050121e+000	-1.6176490227e-001
 2.7242798711e+000	 1.4792900947e+000	-2.3192866792e-001
 2.7091256845e+000	 1.5068636388e+000	-2.9454599775e-001
 2.6936702975e+000	 1.5343208035e+000	-3.4961418455e-001
 2.6779148926e+000	 1.5616567574e+000	-3.9712570332e-001
 2.6618607536e+000	 1.5888666806e+000	-4.3706799591e-001
 2.6455092657e+000	 1.6159457679e+000	-4.6942326879e-001
 2.6288619160e+000	 1.6428892313e+000	-4.9416830448e-001
 2.6119202926e+000	 1.6696923025e+000	-5.1127428775e-001
 2.5946860848e+000	 1.6963502355e+000	-5.2070664706e-001
 2.7758875214e+000	 1.4352956033e+000	-8.9177380092e-002
 2.7612215489e+000	 1.4633115041e+000	-1.7606314564e-001
 2.7462498700e+000	 1.4912198535e+000	-2.5339218194e-001
 2.7309734722e+000	 1.5190157649e+000	-3.2115080823e-001
 2.7153934451e+000	 1.5466943584e+000	-3.7932239937e-001
 2.6995109805e+000	 1.5742507635e+000	-4.2788718495e-001
 2.6833273725e+000	 1.6016801216e+000	-4.6682205868e-001
 2.6668440179e+000	 1.6289775887e+000	-4.9610039905e-001
 2.6500624153e+000	 1.6561383380e+000	-5.1569190190e-001
 2.6329841659e+000	 1.6831575630e+000	-5.2556242568e-001
 2.6156109726e+000	 1.7100304793e+000	-5.2567385013e-001
 2.7980946215e+000	 1.4467779681e+000	-8.8441635031e-002
 2.7833113213e+000	 1.4750179961e+000	-1.8411227593e-001
 2.7682198690e+000	 1.5031496123e+000	-2.6825495261e-001
 2.7528212600e+000	 1.5311678910e+000	-3.4084079931e-001
 2.7371165927e+000	 1.5590679133e+000	-4.0183962800e-001
 2.7211070683e+000	 1.5868447696e+000	-4.5121975338e-001
 2.7047939915e+000	 1.6144935625e+000	-4.8894782652e-001
 2.6881787700e+000	 1.6420094094e+000	-5.1498867789e-001
 2.6712629147e+000	 1.6693874448e+000	-5.2930517045e-001
 2.6540480393e+000	 1.6966228235e+000	-5.3185806363e-001
 2.6365358603e+000	 1.7237107232e+000	-5.2260588874e-001
 2.8203017217e+000	 1.4582603330e+000	-8.1689123976e-002
 2.8054010937e+000	 1.4867244882e+000	-1.8576070799e-001
 2.7901898679e+000	 1.5150793711e+000	-2.7636953090e-001
 2.7746690478e+000	 1.5433200171e+000	-3.5347191596e-001
 2.7588397402e+000	 1.5714414681e+000	-4.1702446284e-001
 2.7427031562e+000	 1.5994387757e+000	-4.6698389789e-001
 2.7262606105e+000	 1.6273070035e+000	-5.0330693142e-001
 2.7095135222e+000	 1.6550412301e+000	-5.2595012260e-001
 2.6924634140e+000	 1.6826365515e+000	-5.3486975262e-001
 2.6751119126e+000	 1.7100880840e+000	-5.3002170688e-001
 2.6574607481e+000	 1.7373909670e+000	-5.1136136669e-001
 2.8425088219e+000	 1.4697426978e+000	-6.8765180528e-002
 2.8274908661e+000	 1.4984309802e+000	-1.8085845367e-001
 2.8121598669e+000	 1.5270091300e+000	-2.7758989424e-001
 2.7965168356e+000	 1.5554721432e+000	-3.5890138395e-001
 2.7805628878e+000	 1.5838150230e+000	-4.2473665643e-001
 2.7642992440e+000	 1.6120327818e+000	-4.7504117232e-001
 2.7477272295e+000	 1.6401204445e+000	-5.0976199962e-001
 2.7308482743e+000	 1.6680730508e+000	-5.2884769988e-001
 2.7136639133e+000	 1.6958856582e+000	-5.3224822102e-001
 2.6961757859e+000	 1.7235533445e+000	-5.1991479717e-001
 2.6783856359e+000	 1.7510712108e+000	-4.9179985628e-001
 2.8647159220e+000	 1.4812250626e+000	-4.9516860892e-002
 2.8495806385e+000	 1.5101374722e+000	-1.6925705986e-001
 2.8341298659e+000	 1.5389388888e+000	-2.7177139127e-001
 2.8183646234e+000	 1.5676242694e+000	-3.5698766018e-001
 2.8022860354e+000	 1.5961885779e+000	-4.2483707641e-001
 2.7858953319e+000	 1.6246267879e+000	-4.7525415379e-001
 2.7691938485e+000	 1.6529338855e+000	-5.0817661310e-001
 2.7521830265e+000	 1.6811048715e+000	-5.2354528909e-001
 2.7348644126e+000	 1.7091347649e+000	-5.2130404234e-001
 2.7172396593e+000	 1.7370186050e+000	-5.0139967638e-001
 2.6993105237e+000	 1.7647514547e+000	-4.6378186081e-001
 2.8869230222e+000	 1.4927074274e+000	-2.3792877620e-002
 2.8716704108e+000	 1.5218439643e+000	-1.5080954947e-001
 2.8560998648e+000	 1.5508686476e+000	-2.5877068906e-001
 2.8402124111e+000	 1.5797763955e+000	-3.4759038538e-001
 2.8240091829e+000	 1.6085621327e+000	-4.1718766267e-001
 2.8074914197e+000	 1.6372207940e+000	-4.6748640332e-001
 2.7906604674e+000	 1.6657473264e+000	-4.9841527283e-001
 2.7735177786e+000	 1.6941366922e+000	-5.0990764711e-001
 2.7560649120e+000	 1.7223838716e+000	-5.0190154294e-001
 2.7383035326e+000	 1.7504838655e+000	-4.7433955195e-001
 2.7202354115e+000	 1.7784316985e+000	-4.2716877870e-001
 2.5109865337e+000	 1.6416292602e+000	-4.2335027147e-001
 2.4940268541e+000	 1.6672822350e+000	-4.7506528059e-001
 2.4767875899e+000	 1.6927856434e+000	-4.9498008608e-001
 2.4592706672e+000	 1.7181349730e+000	-5.2553005422e-001
 2.4414781082e+000	 1.7433257434e+000	-5.6616241665e-001
 2.4234120303e+000	 1.7683535086e+000	-6.1630691772e-001
 2.4050746461e+000	 1.7932138597e+000	-6.7537712734e-001
 2.3864682618e+000	 1.8179024274e+000	-7.4277178317e-001
 2.3675952769e+000	 1.8424148840e+000	-8.1787615862e-001
 2.3484581830e+000	 1.8667469467e+000	-9.0006345318e-001
 2.3290595627e+000	 1.8908943792e+000	-9.5435998318e-001
 2.5319114214e+000	 1.6553095040e+000	-4.5902338097e-001
 2.5148104112e+000	 1.6811762537e+000	-5.2545076242e-001
 2.4974274865e+000	 1.7068921905e+000	-5.9821061574e-001
 2.4797645894e+000	 1.7324527644e+000	-6.1829109459e-001
 2.4618237591e+000	 1.7578534579e+000	-6.4890877837e-001
 2.4436071306e+000	 1.7830897878e+000	-6.8945368245e-001
 2.4251169348e+000	 1.8081573086e+000	-7.3929894799e-001
 2.4063554973e+000	 1.8330516143e+000	-7.9780224475e-001
 2.3873252375e+000	 1.8577683414e+000	-8.6430720077e-001
 2.3680286678e+000	 1.8823031712e+000	-9.2149590068e-001
 2.3484683924e+000	 1.9066518324e+000	-9.5400325832e-001
 2.5528363092e+000	 1.6689897478e+000	-4.8723741296e-001
 2.5355939683e+000	 1.6950702723e+000	-5.4365472127e-001
 2.5180673831e+000	 1.7209987375e+000	-6.1865893042e-001
 2.5002585117e+000	 1.7467705559e+000	-7.1221632048e-001
 2.4821694100e+000	 1.7723811724e+000	-7.3368886090e-001
 2.4638022308e+000	 1.7978260671e+000	-7.6421936203e-001
 2.4451592235e+000	 1.8231007574e+000	-8.0440815646e-001
 2.4262427328e+000	 1.8482008012e+000	-8.5357155876e-001
 2.4070551982e+000	 1.8731217988e+000	-9.1101127733e-001
 2.3875991527e+000	 1.8978593958e+000	-9.2596926153e-001
 2.3678772221e+000	 1.9224092855e+000	-9.5558881028e-001
 2.5737611970e+000	 1.6826699917e+000	-5.0784668358e-001
 2.5563775254e+000	 1.7089642909e+000	-5.5369242305e-001
 2.5387072796e+000	 1.7351052845e+000	-6.1890453533e-001
 2.5207524339e+000	 1.7610883473e+000	-7.0343506823e-001
 2.5025150609e+000	 1.7869088869e+000	-8.0720465493e-001
 2.4839973311e+000	 1.8125623463e+000	-8.4086529732e-001
 2.4652015122e+000	 1.8380442062e+000	-8.7098451437e-001
 2.4461299684e+000	 1.8633499881e+000	-9.1037809402e-001
 2.4267851588e+000	 1.8884752561e+000	-9.2658775231e-001
 2.4071696375e+000	 1.9134156203e+000	-9.3250678183e-001
 2.3872860518e+000	 1.9381667387e+000	-9.5840011841e-001
 2.5946860848e+000	 1.6963502355e+000	-5.2070664706e-001
 2.5771610825e+000	 1.7228583095e+000	-5.5543018164e-001
 2.5593471762e+000	 1.7492118315e+000	-6.1029277253e-001
 2.5412463561e+000	 1.7754061388e+000	-6.8523249714e-001
 2.5228607118e+000	 1.8014366015e+000	-7.8015487737e-001
 2.5041924313e+000	 1.8272986255e+000	-8.9493267612e-001
 2.4852438010e+000	 1.8529876551e+000	-9.3930644720e-001
 2.4660172039e+000	 1.8784991749e+000	-9.5965276101e-001
 2.4465151195e+000	 1.9038287135e+000	-9.3980442243e-001
 2.4267401224e+000	 1.9289718449e+000	-9.4038130772e-001
 2.4066948815e+000	 1.9539241918e+000	-9.6171750187e-001
 2.6156109726e+000	 1.7100304793e+000	-5.2567385013e-001
 2.5979446396e+000	 1.7367523282e+000	-5.4873502985e-001
 2.5799870728e+000	 1.7633183786e+000	-5.9270149682e-001
 2.5617402783e+000	 1.7897239302e+000	-6.5749761593e-001
 2.5432063627e+000	 1.8159643160e+000	-7.4301405733e-001
 2.5243875316e+000	 1.8420349048e+000	-8.4910760018e-001
 2.5052860897e+000	 1.8679311039e+000	-9.7560099148e-001
 2.4859044394e+000	 1.8936483618e+000	-9.8128234564e-001
 2.4662450801e+000	 1.9191821709e+000	-9.5446411228e-001
 2.4463106072e+000	 1.9445280695e+000	-9.4886310107e-001
 2.4261037112e+000	 1.9696816450e+000	-9.6481824608e-001
 2.6365358603e+000	 1.7237107232e+000	-5.2260588874e-001
 2.6187281968e+000	 1.7506463468e+000	-5.3347469085e-001
 2.6006269694e+000	 1.7774249256e+000	-5.6600888584e-001
 2.5822342006e+000	 1.8040417216e+000	-6.2011938004e-001
 2.5635520136e+000	 1.8304920305e+000	-6.9568224725e-001
 2.5445826318e+000	 1.8567711840e+000	-7.9253853942e-001
 2.5253283784e+000	 1.8828745527e+000	-8.8900915817e-001
 2.5057916749e+000	 1.9087975487e+000	-9.6385571557e-001
 2.4859750407e+000	 1.9345356282e+000	-9.6982863411e-001
 2.4658810921e+000	 1.9600842940e+000	-9.5721994209e-001
 2.4455125409e+000	 1.9854390982e+000	-9.6697672307e-001
 2.6574607481e+000	 1.7373909670e+000	-5.1136136669e-001
 2.6395117539e+000	 1.7645403654e+000	-5.0951755100e-001
 2.6212668660e+000	 1.7915314726e+000	-5.3009342733e-001
 2.6027281228e+000	 1.8183595131e+000	-5.7298669367e-001
 2.5838976645e+000	 1.8450197450e+000	-6.3805907888e-001
 2.5647777321e+000	 1.8715074632e+000	-7.2513616003e-001
 2.5453706671e+000	 1.8978180015e+000	-7.7159179874e-001
 2.5256789104e+000	 1.9239467356e+000	-8.3988096917e-001
 2.5057050014e+000	 1.9498890856e+000	-9.4183264129e-001
 2.4854515770e+000	 1.9756405186e+000	-9.6471722693e-001
 2.4649213705e+000	 2.0011965513e+000	-9.6746450617e-001
 2.6783856359e+000	 1.7510712108e+000	-4.9179985628e-001
 2.6602953110e+000	 1.7784343840e+000	-4.7673263397e-001
 2.6419067626e+000	 1.8056380196e+000	-4.8483390705e-001
 2.6232220450e+000	 1.8326773045e+000	-5.1598841180e-001
 2.6042433154e+000	 1.8595474596e+000	-5.7004377973e-001
 2.5849728324e+000	 1.8862437425e+000	-6.1416825311e-001
 2.5654129558e+000	 1.9127614504e+000	-6.4230017469e-001
 2.5455661459e+000	 1.9390959225e+000	-7.0306643402e-001
 2.5254349620e+000	 1.9652425429e+000	-7.9821430155e-001
 2.5050220618e+000	 1.9911967431e+000	-9.2946533117e-001
 2.4843302002e+000	 2.0169540045e+000	-9.6555047940e-001
 2.6993105237e+000	 1.7647514547e+000	-4.6378186081e-001
 2.6810788681e+000	 1.7923284027e+000	-4.3498957603e-001
 2.6625466591e+000	 1.8197445667e+000	-4.3010939719e-001
 2.6437159673e+000	 1.8469950960e+000	-4.4901334210e-001
 2.6245889663e+000	 1.8740751741e+000	-4.9153518874e-001
 2.6051679326e+000	 1.9009800217e+000	-4.8183135558e-001
 2.5854552446e+000	 1.9277048992e+000	-5.0080794874e-001
 2.5654533815e+000	 1.9542451094e+000	-5.5308582468e-001
 2.5451649227e+000	 1.9805960003e+000	-6.4046114506e-001
 2.5245925467e+000	 2.0067529677e+000	-7.6470363383e-001
 2.5037390299e+000	 2.0327114576e+000	-9.2755208192e-001
 2.7202354115e+000	 1.7784316985e+000	-4.2716877870e-001
 2.7018624252e+000	 1.8062224213e+000	-3.8415860246e-001
 2.6831865557e+000	 1.8338511137e+000	-3.6579924543e-001
 2.6642098895e+000	 1.8613128874e+000	-3.7195024675e-001
 2.6449346172e+000	 1.8886028886e+000	-3.6116178467e-001
 2.6253630329e+000	 1.9157163009e+000	-3.3792759394e-001
 2.6054975333e+000	 1.9426483480e+000	-3.4678773266e-001
 2.5853406170e+000	 1.9693942963e+000	-3.8961145585e-001
 2.5648948833e+000	 1.9959494577e+000	-4.6824548409e-001
 2.5441630315e+000	 2.0223091922e+000	-5.8450938465e-001
 2.5231478596e+000	 2.0484689108e+000	-7.4019096187e-001
 2.3290595627e+000	 1.8908943792e+000	-9.5435998318e-001
 2.3094020889e+000	 1.9148529948e+000	-9.3915464996e-001
 2.2894885232e+000	 1.9386186582e+000	-9.3328841644e-001
 2.2693217148e+000	 1.9621872884e+000	-9.3686685198e-001
 2.2489045992e+000	 1.9855548604e+000	-9.4995845578e-001
 2.2282401967e+000	 2.0087174082e+000	-9.7259365639e-001
 2.2073316110e+000	 2.0316710262e+000	-1.0047639155e+000
 2.1861820279e+000	 2.0544118722e+000	-1.0464209394e+000
 2.1647947132e+000	 2.0769361689e+000	-1.0974760002e+000
 2.1431730113e+000	 2.0992402062e+000	-1.1577993717e+000
 2.1213203436e+000	 2.1213203435e+000	-1.2272198787e+000
 2.3484683924e+000	 1.9066518324e+000	-9.5400325832e-001
 2.3286471064e+000	 1.9308101031e+000	-9.3479049960e-001
 2.3085675943e+000	 1.9547738137e+000	-9.2384043473e-001
 2.2882327291e+000	 1.9785388491e+000	-9.2131321993e-001
 2.2676454708e+000	 2.0021011509e+000	-9.2733193135e-001
 2.2468088650e+000	 2.0254567199e+000	-9.4198148526e-001
 2.2257260411e+000	 2.0486016181e+000	-9.6530766376e-001
 2.2044002115e+000	 2.0715319712e+000	-9.9731624967e-001
 2.1828346691e+000	 2.0942439703e+000	-1.0379722737e+000
 2.1610327864e+000	 2.1167338746e+000	-1.0871993766e+000
 2.1389980131e+000	 2.1389980131e+000	-1.1448792890e+000
 2.3678772221e+000	 1.9224092855e+000	-9.5558881028e-001
 2.3478921238e+000	 1.9467672113e+000	-9.3307117936e-001
 2.3276466653e+000	 1.9709289692e+000	-9.1778252488e-001
 2.3071437434e+000	 1.9948904098e+000	-9.0993772443e-001
 2.2863863425e+000	 2.0186474414e+000	-9.0971451608e-001
 2.2653775333e+000	 2.0421960316e+000	-9.1725233855e-001
 2.2441204712e+000	 2.0655322100e+000	-9.3265127834e-001
 2.2226183951e+000	 2.0886520701e+000	-9.5597112777e-001
 2.2008746251e+000	 2.1115517717e+000	-9.8723055713e-001
 2.1788925615e+000	 2.1342275430e+000	-1.0264064038e+000
 2.1566756826e+000	 2.1566756826e+000	-1.0734330814e+000
 2.3872860518e+000	 1.9381667387e+000	-9.5840011841e-001
 2.3671371412e+000	 1.9627243196e+000	-9.3325124421e-001
 2.3467257363e+000	 1.9870841247e+000	-9.1434021063e-001
 2.3260547577e+000	 2.0112419706e+000	-9.0193676854e-001
 2.3051272142e+000	 2.0351937319e+000	-8.9627342026e-001
 2.2839462016e+000	 2.0589353434e+000	-8.9754417890e-001
 2.2625149013e+000	 2.0824628019e+000	-9.0590343645e-001
 2.2408365786e+000	 2.1057721690e+000	-9.2146494450e-001
 2.2189145810e+000	 2.1288595731e+000	-9.4430091089e-001
 2.1967523366e+000	 2.1517212114e+000	-9.7444121573e-001
 2.1743533521e+000	 2.1743533521e+000	-1.0118727491e+000
 2.4066948815e+000	 1.9539241918e+000	-9.6171750187e-001
 2.3863821586e+000	 1.9786814279e+000	-9.3458282303e-001
 2.3658048074e+000	 2.0032392801e+000	-9.1273734049e-001
 2.3449657720e+000	 2.0275935313e+000	-8.9650584746e-001
 2.3238680858e+000	 2.0517400224e+000	-8.8617572972e-001
 2.3025148699e+000	 2.0756746551e+000	-8.8199564363e-001
 2.2809093314e+000	 2.0993933938e+000	-8.8417430450e-001
 2.2590547622e+000	 2.1228922680e+000	-8.9287938943e-001
 2.2369545370e+000	 2.1461673745e+000	-9.0823655828e-001
 2.2146121117e+000	 2.1692148798e+000	-9.3032859592e-001
 2.1920310217e+000	 2.1920310217e+000	-9.5919467890e-001
 2.4261037112e+000	 1.9696816450e+000	-9.6481824608e-001
 2.4056271760e+000	 1.9946385362e+000	-9.3631571565e-001
 2.3848838784e+000	 2.0193944356e+000	-9.1219615478e-001
 2.3638767863e+000	 2.0439450920e+000	-8.9283958478e-001
 2.3426089575e+000	 2.0682863129e+000	-8.7858841081e-001
 2.3210835382e+000	 2.0924139668e+000	-8.6974601780e-001
 2.2993037615e+000	 2.1163239857e+000	-8.6657547855e-001
 2.2772729458e+000	 2.1400123669e+000	-8.6929837819e-001
 2.2549944929e+000	 2.1634751759e+000	-8.7809375893e-001
 2.2324718868e+000	 2.1867085482e+000	-8.9309718844e-001
 2.2097086912e+000	 2.2097086912e+000	-9.1439995496e-001
 2.4455125409e+000	 1.9854390982e+000	-9.6697672307e-001
 2.4248721934e+000	 2.0105956445e+000	-9.3769748528e-001
 2.4039629494e+000	 2.0355495911e+000	-9.1193734943e-001
 2.3827878006e+000	 2.0602966528e+000	-8.9013176712e-001
 2.3613498291e+000	 2.0848326034e+000	-8.7267831513e-001
 2.3396522065e+000	 2.1091532786e+000	-8.5993520847e-001
 2.3176981916e+000	 2.1332545775e+000	-8.5221992762e-001
 2.2954911293e+000	 2.1571324658e+000	-8.4980796407e-001
 2.2730344489e+000	 2.1807829773e+000	-8.5293168841e-001
 2.2503316619e+000	 2.2042022166e+000	-8.6177934448e-001
 2.2273863607e+000	 2.2273863607e+000	-8.7649417275e-001
 2.4649213705e+000	 2.0011965513e+000	-9.6746450617e-001
 2.4441172108e+000	 2.0265527528e+000	-9.3797354657e-001
 2.4230420204e+000	 2.0517047466e+000	-9.1118013676e-001
 2.4016988149e+000	 2.0766482135e+000	-8.8757537705e-001
 2.3800907008e+000	 2.1013788939e+000	-8.6761218404e-001
 2.3582208748e+000	 2.1258925903e+000	-8.5170372023e-001
 2.3360926217e+000	 2.1501851694e+000	-8.4022193961e-001
 2.3137093129e+000	 2.1742525648e+000	-8.3349625387e-001
 2.2910744048e+000	 2.1980907787e+000	-8.3181232333e-001
 2.2681914370e+000	 2.2216958849e+000	-8.3541097645e-001
 2.2450640303e+000	 2.2450640303e+000	-8.4448726127e-001
 2.4843302002e+000	 2.0169540045e+000	-9.6555047940e-001
 2.4633622282e+000	 2.0425098611e+000	-9.3638724952e-001
 2.4421210915e+000	 2.0678599021e+000	-9.0914230349e-001
 2.4206098292e+000	 2.0929997742e+000	-8.8436262452e-001
 2.3988315725e+000	 2.1179251844e+000	-8.6255665301e-001
 2.3767895431e+000	 2.1426319020e+000	-8.4419263183e-001
 2.3544870518e+000	 2.1671157613e+000	-8.2969706979e-001
 2.3319274965e+000	 2.1913726637e+000	-8.1945332773e-001
 2.3091143607e+000	 2.2153985802e+000	-8.1380033200e-001
 2.2860512121e+000	 2.2391895533e+000	-8.1303141888e-001
 2.2627416998e+000	 2.2627416998e+000	-8.1739331380e-001
 2.5037390299e+000	 2.0327114576e+000	-9.2755208192e-001
 2.4826072456e+000	 2.0584669694e+000	-9.3217995952e-001
 2.4612001625e+000	 2.0840150576e+000	-9.0504026593e-001
 2.4395208435e+000	 2.1093513350e+000	-8.7968497680e-001
 2.4175724441e+000	 2.1344714749e+000	-8.5667825566e-001
 2.3953582114e+000	 2.1593712138e+000	-8.3654357399e-001
 2.3728814819e+000	 2.1840463532e+000	-8.1976209166e-001
 2.3501456800e+000	 2.2084927626e+000	-8.0677116260e-001
 2.3271543167e+000	 2.2327063816e+000	-7.9796297007e-001
 2.3039109872e+000	 2.2566832217e+000	-7.9368329577e-001
 2.2804193693e+000	 2.2804193693e+000	-7.9423042652e-001
 2.5231478596e+000	 2.0484689108e+000	-7.4019096187e-001
 2.5018522630e+000	 2.0744240777e+000	-9.0708956672e-001
 2.4802792335e+000	 2.1001702130e+000	-8.9808912274e-001
 2.4584318577e+000	 2.1257028957e+000	-8.7273318701e-001
 2.4363133158e+000	 2.1510177654e+000	-8.4914342773e-001
 2.4139268797e+000	 2.1761105255e+000	-8.2789870808e-001
 2.3912759120e+000	 2.2009769451e+000	-8.0953495014e-001
 2.3683638636e+000	 2.2256128616e+000	-7.9454355930e-001
 2.3451942726e+000	 2.2500141830e+000	-7.8336998100e-001
 2.3217707623e+000	 2.2741768901e+000	-7.7641239409e-001
 2.2980970388e+000	 2.2980970388e+000	-7.7402054453e-001
 2.1213203436e+000	 2.1213203435e+000	-1.2272198787e+000
 2.0992402062e+000	 2.1431730113e+000	-1.2695232479e+000
 2.0769361689e+000	 2.1647947132e+000	-1.3013060300e+000
 2.0544118722e+000	 2.1861820279e+000	-1.3227913744e+000
 2.0316710262e+000	 2.2073316110e+000	-1.3341784752e+000
 2.0087174082e+000	 2.2282401967e+000	-1.3356421325e+000
 1.9855548604e+000	 2.2489045992e+000	-1.3273324114e+000
 1.9621872884e+000	 2.2693217148e+000	-1.3093744006e+000
 1.9386186582e+000	 2.2894885232e+000	-1.2818680693e+000
 1.9148529948e+000	 2.3094020889e+000	-1.2448882229e+000
 1.8908943792e+000	 2.3290595627e+000	-1.1984845576e+000
 2.1389980131e+000	 2.1389980131e+000	-1.1448792890e+000
 2.1167338746e+000	 2.1610327864e+000	-1.1878051765e+000
 2.0942439703e+000	 2.1828346691e+000	-1.2229501997e+000
 2.0715319712e+000	 2.2044002115e+000	-1.2504810873e+000
 2.0486016181e+000	 2.2257260411e+000	-1.2705369512e+000
 2.0254567199e+000	 2.2468088650e+000	-1.2832289087e+000
 2.0021011509e+000	 2.2676454708e+000	-1.2886398100e+000
 1.9785388491e+000	 2.2882327291e+000	-1.2868240695e+000
 1.9547738137e+000	 2.3085675943e+000	-1.2778076035e+000
 1.9308101031e+000	 2.3286471064e+000	-1.2615878720e+000
 1.9066518324e+000	 2.3484683924e+000	-1.2381340249e+000
 2.1566756826e+000	 2.1566756826e+000	-1.0734330814e+000
 2.1342275430e+000	 2.1788925615e+000	-1.1154146165e+000
 2.1115517717e+000	 2.2008746251e+000	-1.1523425787e+000
 2.0886520701e+000	 2.2226183951e+000	-1.1843282369e+000
 2.0655322100e+000	 2.2441204712e+000	-1.2114515631e+000
 2.0421960316e+000	 2.2653775333e+000	-1.2337609156e+000
 2.0186474414e+000	 2.2863863425e+000	-1.2512728319e+000
 1.9948904098e+000	 2.3071437434e+000	-1.2639719344e+000
 1.9709289692e+000	 2.3276466653e+000	-1.2718109461e+000
 1.9467672113e+000	 2.3478921238e+000	-1.2747108186e+000
 1.9224092855e+000	 2.3678772221e+000	-1.2725609696e+000
 2.1743533521e+000	 2.1743533521e+000	-1.0118727491e+000
 2.1517212114e+000	 2.1967523366e+000	-1.0513796008e+000
 2.1288595731e+000	 2.2189145810e+000	-1.0885491217e+000
 2.1057721690e+000	 2.2408365786e+000	-1.1234380648e+000
 2.0824628019e+000	 2.2625149013e+000	-1.1560681872e+000
 2.0589353434e+000	 2.2839462016e+000	-1.1864259918e+000
 2.0351937319e+000	 2.3051272142e+000	-1.2144625865e+000
 2.0112419706e+000	 2.3260547577e+000	-1.2400936618e+000
 1.9870841247e+000	 2.3467257363e+000	-1.2631995853e+000
 1.9627243196e+000	 2.3671371412e+000	-1.2836256140e+000
 1.9381667387e+000	 2.3872860518e+000	-1.3011822228e+000
 2.1920310217e+000	 2.1920310217e+000	-9.5919467890e-001
 2.1692148798e+000	 2.2146121117e+000	-9.9473181956e-001
 2.1461673745e+000	 2.2369545370e+000	-1.0306381749e+000
 2.1228922680e+000	 2.2590547622e+000	-1.0669169099e+000
 2.0993933938e+000	 2.2809093314e+000	-1.1035324736e+000
 2.0756746551e+000	 2.3025148699e+000	-1.1404103991e+000
 2.0517400224e+000	 2.3238680858e+000	-1.1774372280e+000
 2.0275935313e+000	 2.3449657720e+000	-1.2144605588e+000
 2.0032392801e+000	 2.3658048074e+000	-1.2512892195e+000
 1.9786814279e+000	 2.3863821586e+000	-1.2876935643e+000
 1.9539241918e+000	 2.4066948815e+000	-1.3234058916e+000
 2.2097086912e+000	 2.2097086912e+000	-9.1439995496e-001
 2.1867085482e+000	 2.2324718868e+000	-9.4450647405e-001
 2.1634751759e+000	 2.2549944929e+000	-9.7768038086e-001
 2.1400123669e+000	 2.2772729458e+000	-1.0138721642e+000
 2.1163239857e+000	 2.2993037615e+000	-1.0529898554e+000
 2.0924139668e+000	 2.3210835382e+000	-1.0948988856e+000
 2.0682863129e+000	 2.3426089575e+000	-1.1394220740e+000
 2.0439450920e+000	 2.3638767863e+000	-1.1863397473e+000
 2.0193944356e+000	 2.3848838784e+000	-1.2353899895e+000
 1.9946385362e+000	 2.4056271760e+000	-1.2862690212e+000
 1.9696816450e+000	 2.4261037112e+000	-1.3386317080e+000
 2.2273863607e+000	 2.2273863607e+000	-8.7649417275e-001
 2.2042022166e+000	 2.2503316619e+000	-8.9974213730e-001
 2.1807829773e+000	 2.2730344489e+000	-9.2874858698e-001
 2.1571324658e+000	 2.2954911293e+000	-9.6341223115e-001
 2.1332545775e+000	 2.3176981916e+000	-1.0035855574e+000
 2.1091532786e+000	 2.3396522065e+000	-1.0490747451e+000
 2.0848326034e+000	 2.3613498291e+000	-1.0996397176e+000
 2.0602966528e+000	 2.3827878006e+000	-1.1549943305e+000
 2.0355495911e+000	 2.4039629494e+000	-1.2148066984e+000
 2.0105956445e+000	 2.4248721934e+000	-1.2786996571e+000
 1.9854390982e+000	 2.4455125409e+000	-1.3462513608e+000
 2.2450640303e+000	 2.2450640303e+000	-8.4448726127e-001
 2.2216958849e+000	 2.2681914370e+000	-8.5948062136e-001
 2.1980907787e+000	 2.2910744048e+000	-8.8291775888e-001
 2.1742525648e+000	 2.3137093129e+000	-9.1464648572e-001
 2.1501851694e+000	 2.3360926217e+000	-9.5446460400e-001
 2.1258925903e+000	 2.3582208748e+000	-1.0021198754e+000
 2.1013788939e+000	 2.3800907008e+000	-1.0573101352e+000
 2.0766482135e+000	 2.4016988149e+000	-1.1196835504e+000
 2.0517047466e+000	 2.4230420204e+000	-1.1888390218e+000
 2.0265527528e+000	 2.4441172108e+000	-1.2643267284e+000
 2.0011965513e+000	 2.4649213705e+000	-1.3456488128e+000
 2.2627416998e+000	 2.2627416998e+000	-8.1739331380e-001
 2.2391895533e+000	 2.2860512121e+000	-8.2276685076e-001
 2.2153985802e+000	 2.3091143607e+000	-8.3926489758e-001
 2.1913726637e+000	 2.3319274965e+000	-8.6668523653e-001
 2.1671157613e+000	 2.3544870518e+000	-9.0477182747e-001
 2.1426319020e+000	 2.3767895431e+000	-9.5321483186e-001
 2.1179251844e+000	 2.3988315725e+000	-1.0116507884e+000
 2.0929997742e+000	 2.4206098292e+000	-1.0796629396e+000
 2.0678599021e+000	 2.4421210915e+000	-1.1567817087e+000
 2.0425098611e+000	 2.4633622282e+000	-1.2424853262e+000
 2.0169540045e+000	 2.4843302002e+000	-1.3362006024e+000
 2.2804193693e+000	 2.2804193693e+000	-7.9423042652e-001
 2.2566832217e+000	 2.3039109872e+000	-7.8864874190e-001
 2.2327063816e+000	 2.3271543167e+000	-7.9686896065e-001
 2.2084927626e+000	 2.3501456800e+000	-8.1863968964e-001
 2.1840463532e+000	 2.3728814819e+000	-8.5365187499e-001
 2.1593712138e+000	 2.3953582114e+000	-9.0153887998e-001
 2.1344714749e+000	 2.4175724441e+000	-9.6187672141e-001
 2.1093513350e+000	 2.4395208435e+000	-1.0341844640e+000
 2.0840150576e+000	 2.4612001625e+000	-1.1179247718e+000
 2.0584669694e+000	 2.4826072456e+000	-1.2125046151e+000
 2.0327114576e+000	 2.5037390299e+000	-1.3008892959e+000
 2.2980970388e+000	 2.2980970388e+000	-7.7402054453e-001
 2.2741768901e+000	 2.3217707623e+000	-7.5617708796e-001
 2.2500141830e+000	 2.3451942726e+000	-7.5481078694e-001
 2.2256128616e+000	 2.3683638636e+000	-7.6962191403e-001
 2.2009769451e+000	 2.3912759120e+000	-8.0024921599e-001
 2.1761105255e+000	 2.4139268797e+000	-8.4627004486e-001
 2.1510177654e+000	 2.4363133158e+000	-9.0720065430e-001
 2.1257028957e+000	 2.4584318577e+000	-9.8249666099e-001
 2.1001702130e+000	 2.4802792335e+000	-1.0715536698e+000
 2.0744240777e+000	 2.5018522630e+000	-1.1654278343e+000
 2.0484689108e+000	 2.5231478596e+000	-1.1869112900e+000
 1.8908943792e+000	 2.3290595627e+000	-1.1984845576e+000
 1.8667469467e+000	 2.3484581830e+000	-1.0441325543e+000
 1.8424148840e+000	 2.3675952769e+000	-9.8916992222e-001
 1.8179024274e+000	 2.3864682618e+000	-9.4693205166e-001
 1.7932138597e+000	 2.4050746461e+000	-9.1484383095e-001
 1.7683535086e+000	 2.4234120303e+000	-8.9039729042e-001
 1.7433257434e+000	 2.4414781082e+000	-8.7115525681e-001
 1.7181349730e+000	 2.4592706672e+000	-8.5475477980e-001
 1.6927856434e+000	 2.4767875899e+000	-8.3891032513e-001
 1.6672822350e+000	 2.4940268541e+000	-8.2141672971e-001
 1.6416292602e+000	 2.5109865337e+000	-7.7147237825e-001
 1.9066518324e+000	 2.3484683924e+000	-1.2381340249e+000
 1.8823031712e+000	 2.3680286678e+000	-1.0541703673e+000
 1.8577683414e+000	 2.3873252375e+000	-9.7526431420e-001
 1.8330516143e+000	 2.4063554973e+000	-9.4926065877e-001
 1.8081573086e+000	 2.4251169348e+000	-9.3294544526e-001
 1.7830897878e+000	 2.4436071306e+000	-9.2371012036e-001
 1.7578534579e+000	 2.4618237591e+000	-9.1901967537e-001
 1.7324527644e+000	 2.4797645894e+000	-9.1641619127e-001
 1.7068921905e+000	 2.4974274865e+000	-9.1352214313e-001
 1.6811762537e+000	 2.5148104112e+000	-8.6795994885e-001
 1.6553095040e+000	 2.5319114214e+000	-8.2085636394e-001
 1.9224092855e+000	 2.3678772221e+000	-1.2725609696e+000
 1.8978593958e+000	 2.3875991527e+000	-1.1034830780e+000
 1.8731217988e+000	 2.4070551982e+000	-9.5337861712e-001
 1.8482008012e+000	 2.4262427328e+000	-9.4300961500e-001
 1.8231007574e+000	 2.4451592235e+000	-9.4181408036e-001
 1.7978260671e+000	 2.4638022308e+000	-9.4708230764e-001
 1.7723811724e+000	 2.4821694100e+000	-9.5618096378e-001
 1.7467705559e+000	 2.5002585117e+000	-9.6575225634e-001
 1.7209987375e+000	 2.5180673831e+000	-9.2445925205e-001
 1.6950702723e+000	 2.5355939683e+000	-8.9077678318e-001
 1.6689897478e+000	 2.5528363092e+000	-8.6318532248e-001
 1.9381667387e+000	 2.3872860518e+000	-1.3011822228e+000
 1.9134156203e+000	 2.4071696375e+000	-1.1463752290e+000
 1.8884752561e+000	 2.4267851588e+000	-1.0008016395e+000
 1.8633499881e+000	 2.4461299684e+000	-9.2963007935e-001
 1.8380442062e+000	 2.4652015122e+000	-9.4292780824e-001
 1.8125623463e+000	 2.4839973311e+000	-9.6201833225e-001
 1.7869088869e+000	 2.5025150609e+000	-9.7593842442e-001
 1.7610883473e+000	 2.5207524339e+000	-9.4438685990e-001
 1.7351052845e+000	 2.5387072796e+000	-9.2207317172e-001
 1.7089642909e+000	 2.5563775254e+000	-9.0739414611e-001
 1.6826699917e+000	 2.5737611970e+000	-8.9875430347e-001
 1.9539241918e+000	 2.4066948815e+000	-1.3234058916e+000
 1.9289718449e+000	 2.4267401224e+000	-1.1822790418e+000
 1.9038287135e+000	 2.4465151195e+000	-1.0513089665e+000
 1.8784991749e+000	 2.4660172039e+000	-9.2988954076e-001
 1.8529876551e+000	 2.4852438010e+000	-9.3775309737e-001
 1.8272986255e+000	 2.5041924313e+000	-9.5548785151e-001
 1.8014366015e+000	 2.5228607118e+000	-9.3129219568e-001
 1.7754061388e+000	 2.5412463561e+000	-9.1811163915e-001
 1.7492118315e+000	 2.5593471762e+000	-9.1426150587e-001
 1.7228583095e+000	 2.5771610825e+000	-9.1806225925e-001
 1.6963502355e+000	 2.5946860848e+000	-9.2784222580e-001
 1.9696816450e+000	 2.4261037112e+000	-1.3386317080e+000
 1.9445280695e+000	 2.4463106072e+000	-1.2106176831e+000
 1.9191821709e+000	 2.4662450801e+000	-1.0937005820e+000
 1.8936483618e+000	 2.4859044394e+000	-9.8722638947e-001
 1.8679311039e+000	 2.5052860897e+000	-9.0827187072e-001
 1.8420349048e+000	 2.5243875316e+000	-8.8886425634e-001
 1.8159643160e+000	 2.5432063627e+000	-8.8239708562e-001
 1.7897239302e+000	 2.5617402783e+000	-8.8710675282e-001
 1.7633183786e+000	 2.5799870728e+000	-9.0123196468e-001
 1.7367523282e+000	 2.5979446396e+000	-9.2301659700e-001
 1.7100304793e+000	 2.6156109726e+000	-9.5071252276e-001
 1.9854390982e+000	 2.4455125409e+000	-1.3462513608e+000
 1.9600842940e+000	 2.4658810921e+000	-1.2308056241e+000
 1.9345356282e+000	 2.4859750407e+000	-1.1274144325e+000
 1.9087975487e+000	 2.5057916749e+000	-1.0127446595e+000
 1.8828745527e+000	 2.5253283784e+000	-8.6065174904e-001
 1.8567711840e+000	 2.5445826318e+000	-8.1857979510e-001
 1.8304920305e+000	 2.5635520136e+000	-8.2939386635e-001
 1.8040417216e+000	 2.5822342006e+000	-8.5153960061e-001
 1.7774249256e+000	 2.6006269694e+000	-8.8317880049e-001
 1.7506463468e+000	 2.6187281968e+000	-9.2247847171e-001
 1.7237107232e+000	 2.6365358603e+000	-9.6761375662e-001
 2.0011965513e+000	 2.4649213705e+000	-1.3456488128e+000
 1.9756405186e+000	 2.4854515770e+000	-1.2422489831e+000
 1.9498890856e+000	 2.5057050014e+000	-1.1284907278e+000
 1.9239467356e+000	 2.5256789104e+000	-9.7347146589e-001
 1.8978180015e+000	 2.5453706671e+000	-8.3996045626e-001
 1.8715074632e+000	 2.5647777321e+000	-7.4473792441e-001
 1.8450197450e+000	 2.5838976645e+000	-7.7241171930e-001
 1.8183595131e+000	 2.6027281228e+000	-8.1156532555e-001
 1.7915314726e+000	 2.6212668660e+000	-8.6028333754e-001
 1.7645403654e+000	 2.6395117539e+000	-9.1665559132e-001
 1.7373909670e+000	 2.6574607481e+000	-9.7878020408e-001
 2.0169540045e+000	 2.4843302002e+000	-1.3362006024e+000
 1.9911967431e+000	 2.5050220618e+000	-1.2229590224e+000
 1.9652425429e+000	 2.5254349620e+000	-1.0622831793e+000
 1.9390959225e+000	 2.5455661459e+000	-9.2379336310e-001
 1.9127614504e+000	 2.5654129558e+000	-8.0821103922e-001
 1.8862437425e+000	 2.5849728324e+000	-7.1616194280e-001
 1.8595474596e+000	 2.6042433154e+000	-7.1156868793e-001
 1.8326773045e+000	 2.6232220450e+000	-7.6732729272e-001
 1.8056380196e+000	 2.6419067626e+000	-8.3271447704e-001
 1.7784343840e+000	 2.6602953110e+000	-9.0574259070e-001
 1.7510712108e+000	 2.6783856359e+000	-9.8443241431e-001
 2.0327114576e+000	 2.5037390299e+000	-1.3008892959e+000
 2.0067529677e+000	 2.5245925467e+000	-1.1318345875e+000
 1.9805960003e+000	 2.5451649227e+000	-9.8558207520e-001
 1.9542451094e+000	 2.5654533815e+000	-8.6295022574e-001
 1.9277048992e+000	 2.5854552446e+000	-7.6465982903e-001
 1.9009800217e+000	 2.6051679326e+000	-6.9133245039e-001
 1.8740751741e+000	 2.6245889663e+000	-6.4697210946e-001
 1.8469950960e+000	 2.6437159673e+000	-7.1895754581e-001
 1.8197445667e+000	 2.6625466591e+000	-8.0062917866e-001
 1.7923284027e+000	 2.6810788681e+000	-8.8992153840e-001
 1.7647514547e+000	 2.6993105237e+000	-9.8477774099e-001
 2.0484689108e+000	 2.5231478596e+000	-1.1869112900e+000
 2.0223091922e+000	 2.5441630315e+000	-1.0301238001e+000
 1.9959494577e+000	 2.5648948833e+000	-8.9760369407e-001
 1.9693942963e+000	 2.5853406170e+000	-7.9017337686e-001
 1.9426483480e+000	 2.6054975333e+000	-7.0855402982e-001
 1.9157163009e+000	 2.6253630329e+000	-6.5336404889e-001
 1.8886028886e+000	 2.6449346172e+000	-6.2511775421e-001
 1.8613128874e+000	 2.6642098895e+000	-6.6657724254e-001
 1.8338511137e+000	 2.6831865557e+000	-7.6417291982e-001
 1.8062224213e+000	 2.7018624252e+000	-8.6936241999e-001
 1.7784316985e+000	 2.7202354115e+000	-9.8001084989e-001
 1.6416292602e+000	 2.5109865337e+000	-7.7147237825e-001
 1.6158312605e+000	 2.5276647993e+000	-7.4050332275e-001
 1.5898928045e+000	 2.5440599187e+000	-7.3952968195e-001
 1.5638184851e+000	 2.5601702572e+000	-7.6613093377e-001
 1.5376129167e+000	 2.5759942776e+000	-8.1788616426e-001
 1.5112807329e+000	 2.5915305413e+000	-8.9237746926e-001
 1.4848265841e+000	 2.6067777073e+000	-9.8719331096e-001
 1.4582551343e+000	 2.6217345334e+000	-1.0999318229e+000
 1.4315710593e+000	 2.6363998752e+000	-1.2282040574e+000
 1.4047790439e+000	 2.6507726869e+000	-1.3696371691e+000
 1.3778837792e+000	 2.6648520205e+000	-1.5218775290e+000
 1.6553095040e+000	 2.5319114214e+000	-8.2085636394e-001
 1.6292965210e+000	 2.5487286726e+000	-7.8417616332e-001
 1.6031419112e+000	 2.5652604181e+000	-7.7452915586e-001
 1.5768503058e+000	 2.5815050093e+000	-7.8953358925e-001
 1.5504263577e+000	 2.5974608966e+000	-8.2680951367e-001
 1.5238747391e+000	 2.6131266291e+000	-8.8398214738e-001
 1.4972001389e+000	 2.6285008549e+000	-9.5868519465e-001
 1.4704072604e+000	 2.6435823211e+000	-1.0485641095e+000
 1.4435008182e+000	 2.6583698742e+000	-1.1512792992e+000
 1.4164855360e+000	 2.6728624593e+000	-1.2645092616e+000
 1.3893661440e+000	 2.6870591207e+000	-1.3859536508e+000
 1.6689897478e+000	 2.5528363092e+000	-8.6318532248e-001
 1.6427617815e+000	 2.5697925460e+000	-8.2295533219e-001
 1.6163910179e+000	 2.5864609174e+000	-8.0683079385e-001
 1.5898821265e+000	 2.6028397614e+000	-8.1246706943e-001
 1.5632397986e+000	 2.6189275156e+000	-8.3752350706e-001
 1.5364687452e+000	 2.6347227169e+000	-8.7966677258e-001
 1.5095736938e+000	 2.6502240024e+000	-9.3657413078e-001
 1.4825593865e+000	 2.6654301089e+000	-1.0059366698e+000
 1.4554305770e+000	 2.6803398731e+000	-1.0854624628e+000
 1.4281920280e+000	 2.6949522317e+000	-1.1728796610e+000
 1.4008485088e+000	 2.7092662209e+000	-1.2659395123e+000
 1.6826699917e+000	 2.5737611970e+000	-8.9875430347e-001
 1.6562270420e+000	 2.5908564193e+000	-8.5709821281e-001
 1.6296401246e+000	 2.6076614167e+000	-8.3665342174e-001
 1.6029139472e+000	 2.6241745136e+000	-8.3511076818e-001
 1.5760532396e+000	 2.6403941346e+000	-8.5016724959e-001
 1.5490627513e+000	 2.6563188048e+000	-8.7952932256e-001
 1.5219472487e+000	 2.6719471500e+000	-9.2091614927e-001
 1.4947115126e+000	 2.6872778967e+000	-9.7206278457e-001
 1.4673603358e+000	 2.7023098721e+000	-1.0307232977e+000
 1.4398985200e+000	 2.7170420041e+000	-1.0946738228e+000
 1.4123308736e+000	 2.7314733210e+000	-1.1617155328e+000
 1.6963502355e+000	 2.5946860848e+000	-9.2784222580e-001
 1.6696923025e+000	 2.6119202926e+000	-8.8684745538e-001
 1.6428892313e+000	 2.6288619160e+000	-8.6420255931e-001
 1.6159457679e+000	 2.6455092657e+000	-8.5763222932e-001
 1.5888666806e+000	 2.6618607536e+000	-8.6486948041e-001
 1.5616567574e+000	 2.6779148926e+000	-8.8365892027e-001
 1.5343208035e+000	 2.6936702975e+000	-9.1175996300e-001
 1.5068636388e+000	 2.7091256845e+000	-9.4694998078e-001
 1.4792900947e+000	 2.7242798711e+000	-9.8702738751e-001
 1.4516050121e+000	 2.7391317765e+000	-1.0298146488e+000
 1.4238132385e+000	 2.7536804212e+000	-1.0731612129e+000
 1.7100304793e+000	 2.6156109726e+000	-9.5071252276e-001
 1.6831575630e+000	 2.6329841659e+000	-9.1243156623e-001
 1.6561383380e+000	 2.6500624153e+000	-8.8967095249e-001
 1.6289775887e+000	 2.6668440179e+000	-8.8018762061e-001
 1.6016801216e+000	 2.6833273725e+000	-8.8174898727e-001
 1.5742507635e+000	 2.6995109805e+000	-8.9213618810e-001
 1.5466943584e+000	 2.7153934451e+000	-9.0914726051e-001
 1.5190157649e+000	 2.7309734722e+000	-9.3060026184e-001
 1.4912198535e+000	 2.7462498700e+000	-9.5433631694e-001
 1.4633115041e+000	 2.7612215489e+000	-9.7822258945e-001
 1.4352956033e+000	 2.7758875214e+000	-1.0001551714e+000
 1.7237107232e+000	 2.6365358603e+000	-9.6761375662e-001
 1.6966228235e+000	 2.6540480393e+000	-9.3406546903e-001
 1.6693874448e+000	 2.6712629147e+000	-9.1323908029e-001
 1.6420094094e+000	 2.6881787700e+000	-9.0292218514e-001
 1.6144935625e+000	 2.7047939915e+000	-9.0091500143e-001
 1.5868447696e+000	 2.7211070683e+000	-9.0503358523e-001
 1.5590679133e+000	 2.7371165927e+000	-9.1311298472e-001
 1.5311678910e+000	 2.7528212600e+000	-9.2301032679e-001
 1.5031496123e+000	 2.7682198690e+000	-9.3260783035e-001
 1.4750179961e+000	 2.7833113213e+000	-9.3981574082e-001
 1.4467779681e+000	 2.7980946215e+000	-9.4257518038e-001
 1.7373909670e+000	 2.6574607481e+000	-9.7878020408e-001
 1.7100880840e+000	 2.6751119126e+000	-9.5195103961e-001
 1.6826365515e+000	 2.6924634140e+000	-9.3507563776e-001
 1.6550412301e+000	 2.7095135222e+000	-9.2597067150e-001
 1.6273070035e+000	 2.7262606105e+000	-9.2246757390e-001
 1.5994387757e+000	 2.7427031562e+000	-9.2241572894e-001
 1.5714414681e+000	 2.7588397402e+000	-9.2368559849e-001
 1.5433200171e+000	 2.7746690478e+000	-9.2417177910e-001
 1.5150793711e+000	 2.7901898679e+000	-9.2179598299e-001
 1.4867244882e+000	 2.8054010937e+000	-9.1450993757e-001
 1.4582603330e+000	 2.8203017217e+000	-9.0029819819e-001
 1.7510712108e+000	 2.6783856359e+000	-9.8443241431e-001
 1.7235533445e+000	 2.6961757859e+000	-9.6627761556e-001
 1.6958856582e+000	 2.7136639133e+000	-9.5533799628e-001
 1.6680730508e+000	 2.7308482743e+000	-9.4945774369e-001
 1.6401204445e+000	 2.7477272295e+000	-9.4649793402e-001
 1.6120327818e+000	 2.7642992440e+000	-9.4433970105e-001
 1.5838150230e+000	 2.7805628878e+000	-9.4088733782e-001
 1.5554721432e+000	 2.7965168356e+000	-9.3407132575e-001
 1.5270091300e+000	 2.8121598669e+000	-9.2185128504e-001
 1.4984309802e+000	 2.8274908661e+000	-9.0221884112e-001
 1.4697426978e+000	 2.8425088219e+000	-8.7320040162e-001
 1.7647514547e+000	 2.6993105237e+000	-9.8477774099e-001
 1.7370186050e+000	 2.7172396593e+000	-9.7722248226e-001
 1.7091347649e+000	 2.7348644126e+000	-9.7417264247e-001
 1.6811048715e+000	 2.7521830265e+000	-9.7349837197e-001
 1.6529338855e+000	 2.7691938485e+000	-9.7308883144e-001
 1.6246267879e+000	 2.7858953319e+000	-9.7085533987e-001
 1.5961885779e+000	 2.8022860354e+000	-9.6473445311e-001
 1.5676242694e+000	 2.8183646234e+000	-9.5269096699e-001
 1.5389388888e+000	 2.8341298659e+000	-9.3272083911e-001
 1.5101374722e+000	 2.8495806385e+000	-9.0285402395e-001
 1.4812250626e+000	 2.8647159220e+000	-8.6115721597e-001
 1.7784316985e+000	 2.7202354115e+000	-9.8001084989e-001
 1.7504838655e+000	 2.7383035326e+000	-9.8495133644e-001
 1.7223838716e+000	 2.7560649120e+000	-9.9171559682e-001
 1.6941366922e+000	 2.7735177786e+000	-9.9819820575e-001
 1.6657473264e+000	 2.7906604674e+000	-1.0023148622e+000
 1.6372207940e+000	 2.8074914197e+000	-1.0020055189e+000
 1.6085621327e+000	 2.8240091829e+000	-9.9523743944e-001
 1.5797763955e+000	 2.8402124111e+000	-9.8000817739e-001
 1.5508686476e+000	 2.8560998648e+000	-9.5434847122e-001
 1.5218439643e+000	 2.8716704108e+000	-9.1632504994e-001
 1.4927074274e+000	 2.8869230222e+000	-8.6404334407e-001
 1.3778837792e+000	 2.6648520205e+000	-1.5218775290e+000
 1.3508899601e+000	 2.6786370258e+000	-1.2352751949e+000
 1.3238022833e+000	 2.6921269500e+000	-8.6124650445e-001
 1.2966254442e+000	 2.7053211376e+000	-4.0143519730e-001
 1.2693641349e+000	 2.7182190297e+000	 1.4244101372e-001
 1.2420230416e+000	 2.7308201633e+000	 4.5114807708e-001
 1.2146068424e+000	 2.7431241712e+000	 8.8114028309e-002
 1.1871202048e+000	 2.7551307808e+000	-1.6427783182e-001
 1.1595677832e+000	 2.7668398140e+000	-3.0588751299e-001
 1.1319542172e+000	 2.7782511856e+000	-3.3707434320e-001
 1.1042841287e+000	 2.7893649032e+000	-2.5868034561e-001
 1.3893661440e+000	 2.6870591207e+000	-1.3859536508e+000
 1.3621473764e+000	 2.7009590010e+000	-1.1561768025e+000
 1.3348339690e+000	 2.7145613413e+000	-8.4363857376e-001
 1.3074306562e+000	 2.7278654804e+000	-4.4972576811e-001
 1.2799421693e+000	 2.7408708549e+000	 2.4102182303e-002
 1.2523732336e+000	 2.7535769980e+000	 5.7631476637e-001
 1.2247285661e+000	 2.7659835393e+000	 2.5874424055e-001
 1.1970128732e+000	 2.7780902040e+000	-3.5813845807e-002
 1.1692308481e+000	 2.7898968124e+000	-2.1649303007e-001
 1.1413871690e+000	 2.8014032788e+000	-2.8354296175e-001
 1.1134864964e+000	 2.8126096107e+000	-2.3771090581e-001
 1.4008485088e+000	 2.7092662209e+000	-1.2659395123e+000
 1.3734047928e+000	 2.7232809762e+000	-1.0876589671e+000
 1.3458656546e+000	 2.7369957325e+000	-8.3119143087e-001
 1.3182358682e+000	 2.7504098233e+000	-4.9766925460e-001
 1.2905202038e+000	 2.7635226802e+000	-8.8296113929e-002
 1.2627234256e+000	 2.7763338327e+000	 3.9565424639e-001
 1.2348502898e+000	 2.7888429074e+000	 4.1525892702e-001
 1.2069055415e+000	 2.8010496272e+000	 8.9664752060e-002
 1.1788939129e+000	 2.8129538109e+000	-1.1861267115e-001
 1.1508201208e+000	 2.8245553720e+000	-2.0972272092e-001
 1.1226888642e+000	 2.8358543183e+000	-1.8432766047e-001
 1.4123308736e+000	 2.7314733210e+000	-1.1617155328e+000
 1.3846622091e+000	 2.7456029514e+000	-1.0297456173e+000
 1.3568973403e+000	 2.7594301238e+000	-8.2407445320e-001
 1.3290410803e+000	 2.7729541661e+000	-5.4558234198e-001
 1.3010982382e+000	 2.7861745054e+000	-1.9521964613e-001
 1.2730736177e+000	 2.7990906674e+000	 2.2599417451e-001
 1.2449720135e+000	 2.8117022754e+000	 5.4966478138e-001
 1.2167982099e+000	 2.8240090504e+000	 2.0412166735e-001
 1.1885569778e+000	 2.8360108093e+000	-2.0323035223e-002
 1.1602530726e+000	 2.8477074652e+000	-1.2372785658e-001
 1.1318912319e+000	 2.8590990258e+000	-1.0667983383e-001
 1.4238132385e+000	 2.7536804212e+000	-1.0731612129e+000
 1.3959196254e+000	 2.7679249266e+000	-9.8245531508e-001
 1.3679290260e+000	 2.7818645150e+000	-8.2244713947e-001
 1.3398462923e+000	 2.7954985089e+000	-5.9376726328e-001
 1.3116762727e+000	 2.8088263307e+000	-2.9711510075e-001
 1.2834238097e+000	 2.8218475021e+000	 6.6741770586e-002
 1.2550937372e+000	 2.8345616435e+000	 4.9696838507e-001
 1.2266908783e+000	 2.8469684735e+000	 2.9955391777e-001
 1.1982200427e+000	 2.8590678078e+000	 7.0337435105e-002
 1.1696860244e+000	 2.8708595585e+000	-3.3629557171e-002
 1.1410935996e+000	 2.8823437333e+000	-1.2868667443e-002
 1.4352956033e+000	 2.7758875214e+000	-1.0001551714e+000
 1.4071770418e+000	 2.7902469018e+000	-9.4580147027e-001
 1.3789607117e+000	 2.8042989063e+000	-8.2645950480e-001
 1.3506515043e+000	 2.8180428517e+000	-6.4251237745e-001
 1.3222543071e+000	 2.8314781559e+000	-3.9441084296e-001
 1.2937740017e+000	 2.8446043368e+000	-8.2672922690e-002
 1.2652154609e+000	 2.8574210116e+000	 2.9211658558e-001
 1.2365835466e+000	 2.8699278967e+000	 3.6799050068e-001
 1.2078831075e+000	 2.8821248062e+000	 1.4536692738e-001
 1.1791189762e+000	 2.8940116517e+000	 5.2542314406e-002
 1.1502959674e+000	 2.9055884408e+000	 8.9050660615e-002
 1.4467779681e+000	 2.7980946215e+000	-9.4257518038e-001
 1.4184344581e+000	 2.8125688771e+000	-9.1979254513e-001
 1.3899923974e+000	 2.8267332975e+000	-8.3625245709e-001
 1.3614567164e+000	 2.8405871945e+000	-6.9209271987e-001
 1.3328323416e+000	 2.8541299812e+000	-4.8751764362e-001
 1.3041241937e+000	 2.8673611715e+000	-2.2279794541e-001
 1.2753371846e+000	 2.8802803797e+000	 1.0172945800e-001
 1.2464762150e+000	 2.8928873199e+000	 4.0149112406e-001
 1.2175461724e+000	 2.9051818047e+000	 1.9679880570e-001
 1.1885519280e+000	 2.9171637449e+000	 1.2679758087e-001
 1.1594983351e+000	 2.9288331484e+000	 1.9106720776e-001
 1.4582603330e+000	 2.8203017217e+000	-9.0029819819e-001
 1.4296918744e+000	 2.8348908523e+000	-9.0443224911e-001
 1.4010240831e+000	 2.8491676888e+000	-8.5195815554e-001
 1.3722619284e+000	 2.8631315373e+000	-7.4277052696e-001
 1.3434103761e+000	 2.8767818064e+000	-5.7682937205e-001
 1.3144743857e+000	 2.8901180061e+000	-3.5416028334e-001
 1.2854589082e+000	 2.9031397478e+000	-7.4854511134e-002
 1.2563688834e+000	 2.9158467430e+000	 2.6093107275e-001
 1.2272092372e+000	 2.9282388031e+000	 2.1670022583e-001
 1.1979848799e+000	 2.9403158381e+000	 1.8118418814e-001
 1.1687007029e+000	 2.9520778559e+000	 2.8521252539e-001
 1.4697426978e+000	 2.8425088219e+000	-8.7320040162e-001
 1.4409492908e+000	 2.8572128275e+000	-8.9971972448e-001
 1.4120557688e+000	 2.8716020800e+000	-8.7370035242e-001
 1.3830671404e+000	 2.8856758801e+000	-7.9479573610e-001
 1.3539884105e+000	 2.8994336316e+000	-6.6272365618e-001
 1.3248245777e+000	 2.9128748408e+000	-4.7726669038e-001
 1.2955806319e+000	 2.9259991159e+000	-2.3827256677e-001
 1.2662615518e+000	 2.9388061662e+000	 5.4345596678e-002
 1.2368723021e+000	 2.9512958016e+000	 1.9717081520e-001
 1.2074178317e+000	 2.9634679313e+000	 2.0778671614e-001
 1.1779030706e+000	 2.9753225634e+000	 3.6355899892e-001
 1.4812250626e+000	 2.8647159220e+000	-8.6115721597e-001
 1.4522067071e+000	 2.8795348027e+000	-9.0564972339e-001
 1.4230874545e+000	 2.8940364712e+000	-9.0159471889e-001
 1.3938723525e+000	 2.9082202229e+000	-8.4840646234e-001
 1.3645664450e+000	 2.9220854569e+000	-7.4556251209e-001
 1.3351747697e+000	 2.9356316755e+000	-5.9260447273e-001
 1.3057023556e+000	 2.9488584840e+000	-3.8913862600e-001
 1.2761542201e+000	 2.9617655894e+000	-1.3483644444e-001
 1.2465353670e+000	 2.9743528000e+000	 1.3034141433e-001
 1.2168507835e+000	 2.9866200245e+000	 1.9872495889e-001
 1.1871054383e+000	 2.9985672709e+000	 4.1821826511e-001
 1.4927074274e+000	 2.8869230222e+000	-8.6404334407e-001
 1.4634641235e+000	 2.9018567779e+000	-9.2221277670e-001
 1.4341191402e+000	 2.9164708625e+000	-9.3574915584e-001
 1.4046775645e+000	 2.9307645658e+000	-9.0382945314e-001
 1.3751444794e+000	 2.9447372821e+000	-8.2569294448e-001
 1.3455249618e+000	 2.9583885102e+000	-7.0064223686e-001
 1.3158240793e+000	 2.9717178521e+000	-5.2804417528e-001
 1.2860468885e+000	 2.9847250126e+000	-3.0733062867e-001
 1.2561984318e+000	 2.9974097985e+000	-3.7999154533e-002
 1.2262837353e+000	 3.0097721177e+000	 1.4615257013e-001
 1.1963078061e+000	 3.0218119785e+000	 4.4133970237e-001
 1.1042841287e+000	 2.7893649032e+000	-2.5868034561e-001
 1.0765621202e+000	 2.8001810658e+000	-5.9121211541e-001
 1.0487927723e+000	 2.8106998632e+000	-8.2986659788e-001
 1.0209806419e+000	 2.8209215744e+000	-9.7774284403e-001
 9.9313025989e-001	 2.8308465672e+000	-1.0383246792e+000
 9.6524612913e-001	 2.8404752965e+000	-1.0154601079e+000
 9.3733272262e-001	 2.8498083036e+000	-9.1334028598e-001
 9.0939448149e-001	 2.8588462143e+000	-7.3647812760e-001
 8.8143581311e-001	 2.8675897383e+000	-4.8968661159e-001
 8.5346108929e-001	 2.8760396675e+000	-1.7805685377e-001
 8.2547464451e-001	 2.8841968746e+000	 1.9306399163e-001
 1.1134864964e+000	 2.8126096107e+000	-2.3771090581e-001
 1.0855334712e+000	 2.8235159081e+000	-6.3268719035e-001
 1.0575327121e+000	 2.8341223620e+000	-9.2231726891e-001
 1.0294888139e+000	 2.8444292542e+000	-1.1101601945e+000
 1.0014063454e+000	 2.8544369552e+000	-1.2001735268e+000
 9.7328984687e-001	 2.8641459240e+000	-1.1966917581e+000
 9.4514382864e-001	 2.8735567061e+000	-1.1044042989e+000
 9.1697276883e-001	 2.8826699328e+000	-9.2833309135e-001
 8.8878111155e-001	 2.8914863195e+000	-6.7380992057e-001
 8.6057326503e-001	 2.9000066647e+000	-3.4645348907e-001
 8.3235359987e-001	 2.9082318485e+000	 4.7853677478e-002
 1.1226888642e+000	 2.8358543183e+000	-1.8432766047e-001
 1.0945048222e+000	 2.8468507503e+000	-6.4191470834e-001
 1.0662726518e+000	 2.8575448609e+000	-9.8249162968e-001
 1.0379969859e+000	 2.8679369340e+000	-1.2100818263e+000
 1.0096824309e+000	 2.8780273433e+000	-1.3291212172e+000
 9.8133356461e-001	 2.8878165515e+000	-1.3444356722e+000
 9.5295493466e-001	 2.8973051086e+000	-1.2612179966e+000
 9.2455105618e-001	 2.9064936512e+000	-1.0850045379e+000
 8.9612640999e-001	 2.9153829006e+000	-8.2165148657e-001
 8.6768544077e-001	 2.9239736620e+000	-4.7731093941e-001
 8.3923255524e-001	 2.9322668225e+000	-5.8406794334e-002
 1.1318912319e+000	 2.8590990258e+000	-1.0667983383e-001
 1.1034761732e+000	 2.8701855925e+000	-6.2676886417e-001
 1.0750125916e+000	 2.8809673597e+000	-1.0179836484e+000
 1.0465051580e+000	 2.8914446137e+000	-1.2848164677e+000
 1.0179585164e+000	 2.9016177314e+000	-1.4321864119e+000
 9.8937728235e-001	 2.9114871789e+000	-1.4654158073e+000
 9.6076604068e-001	 2.9210535112e+000	-1.3902061860e+000
 9.3212934352e-001	 2.9303173697e+000	-1.2126138715e+000
 9.0347170843e-001	 2.9392794818e+000	-9.3902525518e-001
 8.7479761651e-001	 2.9479406592e+000	-5.7613183273e-001
 8.4611151061e-001	 2.9563017964e+000	-1.3090507417e-001
 1.1410935996e+000	 2.8823437333e+000	-1.2868667443e-002
 1.1124475242e+000	 2.8935204347e+000	-5.9508080864e-001
 1.0837525314e+000	 2.9043898586e+000	-1.0363492327e+000
 1.0550133300e+000	 2.9149522935e+000	-1.3416398113e+000
 1.0262346019e+000	 2.9252081194e+000	-1.5163598014e+000
 9.9742100009e-001	 2.9351578064e+000	-1.5663332510e+000
 9.6857714670e-001	 2.9448019137e+000	-1.4977759402e+000
 9.3970763087e-001	 2.9541410881e+000	-1.3172699311e+000
 9.1081700687e-001	 2.9631760629e+000	-1.0317378039e+000
 8.8190979226e-001	 2.9719076564e+000	-6.4841665330e-001
 8.5299046598e-001	 2.9803367704e+000	-1.7483191757e-001
 1.1502959674e+000	 2.9055884408e+000	 8.9050660615e-002
 1.1214188752e+000	 2.9168552769e+000	-5.5464037033e-001
 1.0924924711e+000	 2.9278123575e+000	-1.0451077515e+000
 1.0635215020e+000	 2.9384599733e+000	-1.3877958358e+000
 1.0345106874e+000	 2.9487985075e+000	-1.5886052241e+000
 1.0054647178e+000	 2.9588284339e+000	-1.6538671364e+000
 9.7638825273e-001	 2.9685503162e+000	-1.5903173087e+000
 9.4728591821e-001	 2.9779648066e+000	-1.4050694926e+000
 9.1816230531e-001	 2.9870726441e+000	-1.1055886369e+000
 8.8902196800e-001	 2.9958746536e+000	-6.9966382743e-001
 8.5986942135e-001	 3.0043717443e+000	-1.9538106109e-001
 1.1594983351e+000	 2.9288331484e+000	 1.9106720776e-001
 1.1303902262e+000	 2.9401901191e+000	-5.1319769538e-001
 1.1012324109e+000	 2.9512348563e+000	-1.0517434856e+000
 1.0720296740e+000	 2.9619676531e+000	-1.4304980639e+000
 1.0427867729e+000	 2.9723888955e+000	-1.6558607316e+000
 1.0135084356e+000	 2.9824990614e+000	-1.7346755129e+000
 9.8419935875e-001	 2.9922987187e+000	-1.6742039920e+000
 9.5486420556e-001	 3.0017885250e+000	-1.4820977478e+000
 9.2550760376e-001	 3.0109692252e+000	-1.1663704656e+000
 8.9613414375e-001	 3.0198416509e+000	-7.3536980515e-001
 8.6674837673e-001	 3.0284067183e+000	-1.9774910395e-001
 1.1687007029e+000	 2.9520778559e+000	 2.8521252539e-001
 1.1393615772e+000	 2.9635249613e+000	-4.7846480975e-001
 1.1099723507e+000	 2.9746573552e+000	-1.0637070089e+000
 1.0805378460e+000	 2.9854753329e+000	-1.4769307618e+000
 1.0510628584e+000	 2.9959792836e+000	-1.7250396045e+000
 1.0215521533e+000	 3.0061696888e+000	-1.8153961768e+000
 9.9201046477e-001	 3.0160471213e+000	-1.7557939860e+000
 9.6244249291e-001	 3.0256122435e+000	-1.5544287605e+000
 9.3285290220e-001	 3.0348658064e+000	-1.2198694763e+000
 9.0324631949e-001	 3.0438086481e+000	-7.6102913801e-001
 8.7362733210e-001	 3.0524416922e+000	-1.8713539537e-001
 1.1779030706e+000	 2.9753225634e+000	 3.6355899892e-001
 1.1483329282e+000	 2.9868598036e+000	-4.5811710833e-001
 1.1187122905e+000	 2.9980798540e+000	-1.0884165046e+000
 1.0890460181e+000	 3.0089830127e+000	-1.5342500819e+000
 1.0593389439e+000	 3.0195696717e+000	-1.8030313194e+000
 1.0295958711e+000	 3.0298403163e+000	-1.9026474621e+000
 9.9982157080e-001	 3.0397955238e+000	-1.8414301951e+000
 9.7002078026e-001	 3.0494359619e+000	-1.6281259010e+000
 9.4019820065e-001	 3.0587623875e+000	-1.2718655849e+000
 9.1035849524e-001	 3.0677756453e+000	-7.8213455322e-001
 8.8050628747e-001	 3.0764766662e+000	-1.6874192714e-001
 1.1871054383e+000	 2.9985672709e+000	 4.1821826511e-001
 1.1573042792e+000	 3.0101946458e+000	-4.5979477473e-001
 1.1274522302e+000	 3.0215023529e+000	-1.1332590215e+000
 1.0975541901e+000	 3.0324906925e+000	-1.6095851525e+000
 1.0676150294e+000	 3.0431600597e+000	-1.8967024719e+000
 1.0376395888e+000	 3.0535109438e+000	-2.0030289949e+000
 1.0076326768e+000	 3.0635439263e+000	-1.9374410173e+000
 9.7759906761e-001	 3.0732596804e+000	-1.7092422605e+000
 9.4754349910e-001	 3.0826589687e+000	-1.3281326799e+000
 9.1747067099e-001	 3.0917426426e+000	-8.0417702441e-001
 8.8738524285e-001	 3.1005116401e+000	-1.4777323120e-001
 1.1963078061e+000	 3.0218119785e+000	 4.4133970237e-001
 1.1662756302e+000	 3.0335294880e+000	-4.9110413556e-001
 1.1361921700e+000	 3.0449248518e+000	-1.2055916709e+000
 1.1060623621e+000	 3.0559983723e+000	-1.7100391171e+000
 1.0758911149e+000	 3.0667504478e+000	-2.0128976563e+000
 1.0456833066e+000	 3.0771815712e+000	-2.1231224128e+000
 1.0154437829e+000	 3.0872923289e+000	-2.0501409019e+000
 9.8517735496e-001	 3.0970833988e+000	-1.8038210468e+000
 9.5488879754e-001	 3.1065555498e+000	-1.3944388545e+000
 9.2458284674e-001	 3.1157096398e+000	-8.3264583903e-001
 8.9426419823e-001	 3.1245466141e+000	-1.2943628191e-001
 8.2547464451e-001	 2.8841968746e+000	 1.9306399163e-001
 7.9748077418e-001	 2.8920623117e+000	 2.1403440622e-001
 7.6948373301e-001	 2.8996370091e+000	 3.3600716488e-001
 7.4148773336e-001	 2.9069220735e+000	 5.5066004238e-001
 7.1349694372e-001	 2.9139186865e+000	 8.4949537501e-001
 6.8551548720e-001	 2.9206281031e+000	 1.2238645835e+000
 6.5754744009e-001	 2.9270516504e+000	 1.6649924706e+000
 6.2959683048e-001	 2.9331907253e+000	 2.1640012380e+000
 6.0166763694e-001	 2.9390467935e+000	 8.5818837319e-001
 5.7376378727e-001	 2.9446213876e+000	-8.9199209640e-001
 5.4588915724e-001	 2.9499161052e+000	-2.7338703635e+000
 8.3235359987e-001	 2.9082318485e+000	 4.7853677478e-002
 8.0412644730e-001	 2.9161628310e+000	 4.3645137542e-002
 7.7589609745e-001	 2.9238006509e+000	 1.4647387928e-001
 7.4766679780e-001	 2.9311464241e+000	 3.4766911800e-001
 7.1944275158e-001	 2.9382013422e+000	 6.3837769178e-001
 6.9122811626e-001	 2.9449666706e+000	 1.0095894020e+000
 6.6302700209e-001	 2.9514437475e+000	 1.4521621219e+000
 6.3484347073e-001	 2.9576339813e+000	 1.9568466168e+000
 6.0668153392e-001	 2.9635388501e+000	 8.2057186327e-001
 5.7854515216e-001	 2.9691598992e+000	-1.3015715412e+000
 5.5043823355e-001	 2.9744987394e+000	-3.5268167411e+000
 8.3923255524e-001	 2.9322668225e+000	-5.8406794334e-002
 8.1077212041e-001	 2.9402633502e+000	-8.0095779749e-002
 7.8230846189e-001	 2.9479642926e+000	 1.1421245282e-002
 7.5384586224e-001	 2.9553707747e+000	 2.0711586503e-001
 7.2538855945e-001	 2.9624839979e+000	 4.9777024904e-001
 6.9694074532e-001	 2.9693052382e+000	 8.7400332631e-001
 6.6850656409e-001	 2.9758358445e+000	 1.3262967210e+000
 6.4009011098e-001	 2.9820772374e+000	 1.8450203908e+000
 6.1169543089e-001	 2.9880309068e+000	 1.0059169137e+000
 5.8332651705e-001	 2.9936984107e+000	-1.5075364405e+000
 5.5498730986e-001	 2.9990813737e+000	-4.1359379077e+000
 8.4611151061e-001	 2.9563017964e+000	-1.3090507417e-001
 8.1741779353e-001	 2.9643638695e+000	-1.6220733452e-001
 7.8872082633e-001	 2.9721279343e+000	-7.3997637341e-002
 7.6002492669e-001	 2.9795951253e+000	 1.2432876010e-001
 7.3133436731e-001	 2.9867666536e+000	 4.2318004828e-001
 7.0265337437e-001	 2.9936438057e+000	 8.1279488942e-001
 6.7398612608e-001	 3.0002279416e+000	 1.2832691962e+000
 6.4533675123e-001	 3.0065204934e+000	 1.8245826044e+000
 6.1670932786e-001	 3.0125229634e+000	 1.4232284361e+000
 5.8810788194e-001	 3.0182369223e+000	-1.5012262230e+000
 5.5953638617e-001	 3.0236640079e+000	-4.5529222015e+000
 8.5299046598e-001	 2.9803367704e+000	-1.7483191757e-001
 8.2406346665e-001	 2.9884643887e+000	-2.0771206029e-001
 7.9513319077e-001	 2.9962915761e+000	-1.1463367800e-001
 7.6620399113e-001	 3.0038194759e+000	 9.4631781515e-002
 7.3728017517e-001	 3.0110493093e+000	 4.1010907922e-001
 7.0836600343e-001	 3.0179823732e+000	 8.2164707507e-001
 6.7946568808e-001	 3.0246200387e+000	 1.3189463659e+000
 6.5058339149e-001	 3.0309637495e+000	 1.8915866087e+000
 6.2172322484e-001	 3.0370150200e+000	 2.0815040425e+000
 5.9288924684e-001	 3.0427754338e+000	-1.2739882460e+000
 5.6408546248e-001	 3.0482466421e+000	-4.7694665393e+000
 8.5986942135e-001	 3.0043717443e+000	-1.9538106109e-001
 8.3070913976e-001	 3.0125649080e+000	-2.2163589348e-001
 8.0154555521e-001	 3.0204552178e+000	-1.1534163492e-001
 7.7238305558e-001	 3.0280438265e+000	 1.1334458914e-001
 7.4322598304e-001	 3.0353319650e+000	 4.5405452024e-001
 7.1407863249e-001	 3.0423209407e+000	 8.9623753992e-001
 6.8494525008e-001	 3.0490121358e+000	 1.4291891833e+000
 6.5583003174e-001	 3.0554070055e+000	 2.0420793289e+000
 6.2673712181e-001	 3.0615070766e+000	 2.7239800035e+000
 5.9767061173e-001	 3.0673139454e+000	-8.1717747744e-001
 5.6863453879e-001	 3.0728292763e+000	-4.7772760725e+000
 8.6674837673e-001	 3.0284067183e+000	-1.9774910395e-001
 8.3735481288e-001	 3.0366654273e+000	-2.0900803831e-001
 8.0795791965e-001	 3.0446188595e+000	-8.0979962408e-002
 7.7856212002e-001	 3.0522681771e+000	 1.7578269578e-001
 7.4917179090e-001	 3.0596146208e+000	 5.5050892931e-001
 7.1979126155e-001	 3.0666595083e+000	 1.0322388249e+000
 6.9042481209e-001	 3.0734042329e+000	 1.6098529688e+000
 6.6107667200e-001	 3.0798502615e+000	 2.2721015194e+000
 6.3175101878e-001	 3.0859991332e+000	 3.0076328844e+000
 6.0245197662e-001	 3.0918524570e+000	-1.2215619445e-001
 5.7318361510e-001	 3.0974119105e+000	-4.5680638610e+000
 8.7362733210e-001	 3.0524416922e+000	-1.8713539537e-001
 8.4400048600e-001	 3.0607659465e+000	-1.7486083824e-001
 8.1437028410e-001	 3.0687825013e+000	-1.6410665346e-002
 7.8474118447e-001	 3.0764925277e+000	 2.7725763045e-001
 7.5511759877e-001	 3.0838972765e+000	 6.9496042594e-001
 7.2550389062e-001	 3.0909980758e+000	 1.2253185567e+000
 6.9590437409e-001	 3.0977963300e+000	 1.8567876320e+000
 6.6632331225e-001	 3.1042935176e+000	 2.5776880070e+000
 6.3676491576e-001	 3.1104911898e+000	 3.3762343480e+000
 6.0723334152e-001	 3.1163909685e+000	 8.1970630471e-001
 5.7773269141e-001	 3.1219945447e+000	-4.1335505616e+000
 8.8050628747e-001	 3.0764766662e+000	-1.6874192714e-001
 8.5064615913e-001	 3.0848664658e+000	-1.2422965324e-001
 8.2078264854e-001	 3.0929461430e+000	 7.3500839512e-002
 7.9092024892e-001	 3.1007168783e+000	 4.1307709399e-001
 7.6106340663e-001	 3.1081799322e+000	 8.8289286449e-001
 7.3121651968e-001	 3.1153366433e+000	 1.4711396396e+000
 7.0138393609e-001	 3.1221884270e+000	 2.1658378830e+000
 6.7156995251e-001	 3.1287367736e+000	 2.9200838763e+000
 6.4177881273e-001	 3.1349832464e+000	 3.7155655427e+000
 6.1201470641e-001	 3.1409294801e+000	 1.8184961020e+000
 5.8228176772e-001	 3.1465771789e+000	-3.7447884868e+000
 8.8738524285e-001	 3.1005116401e+000	-1.4777323120e-001
 8.5729183225e-001	 3.1089669851e+000	-6.2152742963e-002
 8.2719501299e-001	 3.1171097848e+000	 1.8388585578e-001
 7.9709931337e-001	 3.1249412290e+000	 5.7854510745e-001
 7.6700921450e-001	 3.1324625879e+000	 1.0292348921e+000
 7.3692914874e-001	 3.1396752108e+000	 1.5785831695e+000
 7.0686349809e-001	 3.1465805241e+000	 2.2142006322e+000
 6.7681659276e-001	 3.1531800297e+000	 2.9236632185e+000
 6.4679270971e-001	 3.1594753030e+000	 3.6950152724e+000
 6.1679607131e-001	 3.1654679917e+000	 2.6413508441e+000
 5.8683084403e-001	 3.1711598131e+000	-3.4871306678e+000
 8.9426419823e-001	 3.1245466141e+000	-1.2943628191e-001
 8.6393750537e-001	 3.1330675043e+000	-7.8910991984e-002
 8.3360737744e-001	 3.1412734265e+000	 1.0614082745e-001
 8.0327837781e-001	 3.1491655796e+000	 4.1540538173e-001
 7.7295502237e-001	 3.1567452436e+000	 8.3516340049e-001
 7.4264177780e-001	 3.1640137784e+000	 1.3522490448e+000
 7.1234306010e-001	 3.1709726212e+000	 1.9540245102e+000
 6.8206323302e-001	 3.1776232857e+000	 2.6283543683e+000
 6.5180660668e-001	 3.1839673596e+000	 3.3635797404e+000
 6.2157743620e-001	 3.1900065032e+000	 3.3121323133e+000
 5.9137992034e-001	 3.1957424473e+000	-3.3572199456e+000
 5.4588915724e-001	 2.9499161052e+000	-2.7338703635e+000
 5.1804756952e-001	 2.9549326076e+000	-1.5941474527e+000
 4.9024279252e-001	 2.9596726178e+000	-6.8510615342e-001
 4.6247853940e-001	 2.9641379186e+000	 1.0779129572e-002
 4.3475846709e-001	 2.9683303514e+000	 5.1146702828e-001
 4.0708617535e-001	 2.9722518140e+000	 8.3529374647e-001
 3.7946520596e-001	 2.9759042588e+000	 1.0009184331e+000
 3.5189904187e-001	 2.9792896912e+000	 1.0272694980e+000
 3.2439110650e-001	 2.9824101680e+000	 9.3349196846e-001
 2.9694476301e-001	 2.9852677950e+000	 7.3889597660e-001
 2.6956331372e-001	 2.9878647258e+000	 4.6290646553e-001
 5.5043823355e-001	 2.9744987394e+000	-3.5268167411e+000
 5.2236463260e-001	 2.9795570460e+000	-2.2799613609e+000
 4.9432814913e-001	 2.9843365562e+000	-1.2732443459e+000
 4.6633252723e-001	 2.9888390679e+000	-4.8844808635e-001
 4.3838145432e-001	 2.9930664377e+000	 9.3086726085e-002
 4.1047856015e-001	 2.9970205791e+000	 4.9040404393e-001
 3.8262741601e-001	 3.0007034609e+000	 7.2287627644e-001
 3.5483153389e-001	 3.0041171053e+000	 8.1014907583e-001
 3.2709436572e-001	 3.0072635860e+000	 7.7208719759e-001
 2.9941930270e-001	 3.0101450266e+000	 6.2872152880e-001
 2.7180967467e-001	 3.0127635985e+000	 4.0019737232e-001
 5.5498730986e-001	 2.9990813737e+000	-4.1359379077e+000
 5.2668169568e-001	 3.0041814844e+000	-2.8014508335e+000
 4.9841350573e-001	 3.0090004947e+000	-1.7169936828e+000
 4.7018651506e-001	 3.0135402172e+000	-8.6363409418e-001
 4.4200444154e-001	 3.0178025240e+000	-2.2198918102e-001
 4.1387094494e-001	 3.0217893442e+000	 2.2771578925e-001
 3.8578962606e-001	 3.0255026631e+000	 5.0558961113e-001
 3.5776402590e-001	 3.0289445194e+000	 6.3201836300e-001
 3.2979762494e-001	 3.0321170041e+000	 6.2760973763e-001
 3.0189384239e-001	 3.0350222582e+000	 5.1313857766e-001
 2.7405603562e-001	 3.0376624713e+000	 3.0949370610e-001
 5.5953638617e-001	 3.0236640079e+000	-4.5529222015e+000
 5.3099875876e-001	 3.0288059228e+000	-3.1506747014e+000
 5.0249886233e-001	 3.0336644332e+000	-2.0087866087e+000
 4.7404050289e-001	 3.0382413666e+000	-1.1075878049e+000
 4.4562742877e-001	 3.0425386102e+000	-4.2694865329e-001
 4.1726332974e-001	 3.0465581093e+000	 5.3659658396e-002
 3.8895183611e-001	 3.0503018652e+000	 3.5510570281e-001
 3.6069651792e-001	 3.0537719335e+000	 4.9853943529e-001
 3.3250088416e-001	 3.0569704222e+000	 5.0533496026e-001
 3.0436838209e-001	 3.0598994898e+000	 3.9703454052e-001
 2.7630239656e-001	 3.0625613440e+000	 1.9529394140e-001
 5.6408546248e-001	 3.0482466421e+000	-4.7694665393e+000
 5.3531582184e-001	 3.0534303612e+000	-3.3197004873e+000
 5.0658421894e-001	 3.0583283717e+000	-2.1410644243e+000
 4.7789449072e-001	 3.0629425159e+000	-1.2131271984e+000
 4.4925041599e-001	 3.0672746965e+000	-5.1498898241e-001
 4.2065571453e-001	 3.0713268744e+000	-2.5343314924e-002
 3.9211404616e-001	 3.0751010674e+000	 2.7746181621e-001
 3.6362900993e-001	 3.0785993476e+000	 4.1536396149e-001
 3.3520414338e-001	 3.0818238402e+000	 4.1052737758e-001
 3.0684292178e-001	 3.0847767215e+000	 2.8528547642e-001
 2.7854875751e-001	 3.0874602167e+000	 6.2084650345e-002
 5.6863453879e-001	 3.0728292763e+000	-4.7772760725e+000
 5.3963288491e-001	 3.0780547996e+000	-3.3006040581e+000
 5.1066957554e-001	 3.0829923102e+000	-2.1062769314e+000
 4.8174847854e-001	 3.0876436652e+000	-1.1730789610e+000
 4.5287340322e-001	 3.0920107827e+000	-4.7931641824e-001
 4.2404809933e-001	 3.0960956396e+000	-2.8813535567e-003
 3.9527625621e-001	 3.0999002695e+000	 2.7868561512e-001
 3.6656150195e-001	 3.1034267617e+000	 3.8813361977e-001
 3.3790740260e-001	 3.1066772583e+000	 3.4844107647e-001
 3.0931746147e-001	 3.1096539531e+000	 1.8275654043e-001
 2.8079511845e-001	 3.1123590894e+000	-8.5659021212e-002
 5.7318361510e-001	 3.0974119105e+000	-4.5680638610e+000
 5.4394994799e-001	 3.1026792380e+000	-3.0854692941e+000
 5.1475493214e-001	 3.1076562486e+000	-1.8968820962e+000
 4.8560246637e-001	 3.1123448145e+000	-9.8027813992e-001
 4.5649639044e-001	 3.1167468690e+000	-3.1314581333e-001
 4.2744048412e-001	 3.1208644047e+000	 1.2744843041e-001
 3.9843846626e-001	 3.1246994717e+000	 3.6479554343e-001
 3.6949399396e-001	 3.1282541758e+000	 4.1038999212e-001
 3.4061066182e-001	 3.1315306764e+000	 3.0492383018e-001
 3.1179200116e-001	 3.1345311847e+000	 7.5341921003e-002
 2.8304147940e-001	 3.1372579621e+000	-2.5336638146e-001
 5.7773269141e-001	 3.1219945447e+000	-4.1335505616e+000
 5.4826701107e-001	 3.1273036764e+000	-2.6823833454e+000
 5.1884028875e-001	 3.1323201871e+000	-1.5593314905e+000
 4.8945645420e-001	 3.1370459638e+000	-7.1613178121e-001
 4.6011937766e-001	 3.1414829553e+000	-1.2363374630e-001
 4.3083286891e-001	 3.1456331698e+000	 2.4635113116e-001
 4.0160067630e-001	 3.1494986739e+000	 4.2110464604e-001
 3.7242648597e-001	 3.1530815899e+000	 4.2705626758e-001
 3.4331392104e-001	 3.1563840944e+000	 2.8983656285e-001
 3.1426654084e-001	 3.1594084163e+000	 3.4329519675e-002
 2.8528784035e-001	 3.1621568348e+000	-3.1527634930e-001
 5.8228176772e-001	 3.1465771789e+000	-3.7447884868e+000
 5.5258407415e-001	 3.1519281148e+000	-2.3825578313e+000
 5.2292564535e-001	 3.1569841256e+000	-1.3186740447e+000
 4.9331044202e-001	 3.1617471132e+000	-5.2376136066e-001
 4.6374236489e-001	 3.1662190415e+000	 3.0524486902e-002
 4.3422525370e-001	 3.1704019349e+000	 3.7155476502e-001
 4.0476288635e-001	 3.1742978760e+000	 5.2578549447e-001
 3.7535897799e-001	 3.1779090040e+000	 5.1881430355e-001
 3.4601718025e-001	 3.1812375125e+000	 3.7543624198e-001
 3.1674108053e-001	 3.1842856480e+000	 1.1969842380e-001
 2.8753420129e-001	 3.1870557075e+000	-2.2504662235e-001
 5.8683084403e-001	 3.1711598131e+000	-3.4871306678e+000
 5.5690113723e-001	 3.1765525532e+000	-2.1711229291e+000
 5.2701100195e-001	 3.1816480641e+000	-1.1414286389e+000
 4.9716442985e-001	 3.1864482625e+000	-3.6950189421e-001
 4.6736535211e-001	 3.1909551278e+000	 1.7215815232e-001
 4.3761763849e-001	 3.1951707000e+000	 5.1006843015e-001
 4.0792509639e-001	 3.1990970782e+000	 6.6982227917e-001
 3.7829147000e-001	 3.2027364181e+000	 6.7614881457e-001
 3.4872043947e-001	 3.2060909306e+000	 5.5297118313e-001
 3.1921562022e-001	 3.2091628796e+000	 3.2346357623e-001
 2.8978056223e-001	 3.2119545803e+000	 1.0106874542e-002
 5.9137992034e-001	 3.1957424473e+000	-3.3572199456e+000
 5.6121820030e-001	 3.2011769916e+000	-2.0620890044e+000
 5.3109635855e-001	 3.2063120026e+000	-1.0408715382e+000
 5.0101841767e-001	 3.2111494118e+000	-2.6588933653e-001
 4.7098833933e-001	 3.2156912140e+000	 2.8947727090e-001
 4.4101002328e-001	 3.2199394651e+000	 6.5085324555e-001
 4.1108730644e-001	 3.2238962803e+000	 8.4293180025e-001
 3.8122396201e-001	 3.2275638322e+000	 8.8953632939e-001
 3.5142369869e-001	 3.2309443486e+000	 8.1368116005e-001
 3.2169015991e-001	 3.2340401112e+000	 6.3763098577e-001
 2.9202692318e-001	 3.2368534530e+000	 3.8295885445e-001
 2.6956331372e-001	 2.9878647258e+000	 4.6290646553e-001
 2.4224999949e-001	 2.9902031599e+000	 5.7863741449e-001
 2.1500799923e-001	 2.9922853407e+000	 6.5376648191e-001
 1.8784042942e-001	 2.9941135538e+000	 7.0818729691e-001
 1.6075034369e-001	 2.9956901253e+000	 7.6170929639e-001
 1.3374073246e-001	 2.9970174201e+000	 8.3401445119e-001
 1.0681452267e-001	 2.9980978399e+000	 9.4461560872e-001
 7.9974577449e-002	 2.9989338217e+000	 1.1128164943e+000
 5.3223695962e-002	 2.9995278359e+000	 1.3576734070e+000
 2.6564613226e-002	 2.9998823846e+000	 1.6979586402e+000
 0.0000000000e+000	 3.0000000000e+000	 2.1521256521e+000
 2.7180967467e-001	 3.0127635985e+000	 4.0019737232e-001
 2.4426874949e-001	 3.0151215196e+000	 5.7258346397e-001
 2.1679973256e-001	 3.0172210519e+000	 7.0173713184e-001
 1.8940576633e-001	 3.0190645001e+000	 8.0799934374e-001
 1.6208992988e-001	 3.0206542097e+000	 9.1162686434e-001
 1.3485523857e-001	 3.0219925653e+000	 1.0327478922e+000
 1.0770464369e-001	 3.0230819886e+000	 1.1913193520e+000
 8.0641032261e-002	 3.0239249369e+000	 1.4070858843e+000
 5.3667226761e-002	 3.0245239012e+000	 1.6995405709e+000
 2.6785985003e-002	 3.0248814045e+000	 2.0878874258e+000
 0.0000000000e+000	 3.0250000000e+000	 2.5910056779e+000
 2.7405603562e-001	 3.0376624713e+000	 3.0949370610e-001
 2.4628749948e-001	 3.0400398793e+000	 5.0681320076e-001
 2.1859146589e-001	 3.0421567631e+000	 6.5809816869e-001
 1.9097110324e-001	 3.0440154464e+000	 7.8416288904e-001
 1.6342951608e-001	 3.0456182941e+000	 9.0573719833e-001
 1.3596974467e-001	 3.0469677104e+000	 1.0434210101e+000
 1.0859476471e-001	 3.0480661373e+000	 1.2176405289e+000
 8.1307487072e-002	 3.0489160521e+000	 1.4486062031e+000
 5.4110757560e-002	 3.0495199665e+000	 1.7562724538e+000
 2.7007356780e-002	 3.0498804243e+000	 2.1602992132e+000
 0.0000000000e+000	 3.0500000000e+000	 2.6800152966e+000
 2.7630239656e-001	 3.0625613440e+000	 1.9529394140e-001
 2.4830624948e-001	 3.0649582389e+000	 3.8565270831e-001
 2.2038319921e-001	 3.0670924742e+000	 5.2700201744e-001
 1.9253644015e-001	 3.0689663926e+000	 6.4065561009e-001
 1.6476910228e-001	 3.0705823785e+000	 7.4784231563e-001
 1.3708425077e-001	 3.0719428556e+000	 8.6965942494e-001
 1.0948488573e-001	 3.0730502859e+000	 1.0270277988e+000
 8.1973941883e-002	 3.0739071672e+000	 1.2406487569e+000
 5.4554288360e-002	 3.0745160318e+000	 1.5309627860e+000
 2.7228728556e-002	 3.0748794442e+000	 1.9181101005e+000
 0.0000000000e+000	 3.0750000000e+000	 2.4218930819e+000
 2.7854875751e-001	 3.0874602167e+000	 6.2084650345e-002
 2.5032499947e-001	 3.0898765986e+000	 2.1340856978e-001
 2.2217493254e-001	 3.0920281854e+000	 3.1257398646e-001
 1.9410177707e-001	 3.0939173389e+000	 3.8142043607e-001
 1.6610868847e-001	 3.0955464628e+000	 4.4170184172e-001
 1.3819875688e-001	 3.0969180008e+000	 5.1503871230e-001
 1.1037500676e-001	 3.0980344346e+000	 6.2287211757e-001
 8.2640396694e-002	 3.0988982824e+000	 7.8641948667e-001
 5.4997819159e-002	 3.0995120971e+000	 1.0266322701e+000
 2.7450100333e-002	 3.0998784641e+000	 1.3641554985e+000
 0.0000000000e+000	 3.1000000000e+000	 1.8192892663e+000
 2.8079511845e-001	 3.1123590894e+000	-8.5659021212e-002
 2.5234374947e-001	 3.1147949583e+000	-5.6313519595e-003
 2.2396666586e-001	 3.1169638966e+000	 1.8913352212e-002
 1.9566711398e-001	 3.1188682852e+000	 1.0366937930e-002
 1.6744827467e-001	 3.1205105472e+000	-8.9652941074e-003
 1.3931326298e-001	 3.1218931460e+000	-1.6913595094e-002
 1.1126512778e-001	 3.1230185833e+000	 8.5090457081e-003
 8.3306851506e-002	 3.1238893976e+000	 8.9061582320e-002
 5.5441349958e-002	 3.1245081624e+000	 2.4623150197e-001
 2.7671472109e-002	 3.1248774839e+000	 5.0119335816e-001
 0.0000000000e+000	 3.1250000000e+000	 8.7476927496e-001
 2.8304147940e-001	 3.1372579621e+000	-2.5336638146e-001
 2.5436249946e-001	 3.1397133179e+000	-2.5920519782e-001
 2.2575839919e-001	 3.1418996077e+000	-3.1562244688e-001
 1.9723245089e-001	 3.1438192315e+000	-4.0056064227e-001
 1.6878786087e-001	 3.1454746316e+000	-4.9245470548e-001
 1.4042776908e-001	 3.1468682911e+000	-5.7018966730e-001
 1.1215524880e-001	 3.1480027319e+000	-6.1306005742e-001
 8.3973306317e-002	 3.1488805128e+000	-6.0073103526e-001
 5.5884880757e-002	 3.1495042277e+000	-5.1320130679e-001
 2.7892843886e-002	 3.1498765038e+000	-3.3076786422e-001
 0.0000000000e+000	 3.1500000000e+000	-3.3992577381e-002
 2.8528784035e-001	 3.1621568348e+000	-3.1527634930e-001
 2.5638124945e-001	 3.1646316776e+000	-3.7587506407e-001
 2.2755013251e-001	 3.1668353189e+000	-4.8373172055e-001
 1.9879778780e-001	 3.1687701778e+000	-6.1782181634e-001
 1.7012744706e-001	 3.1704387160e+000	-7.5759946141e-001
 1.4154227518e-001	 3.1718434363e+000	-8.8295316956e-001
 1.1304536982e-001	 3.1729868806e+000	-9.7416343176e-001
 8.4639761128e-002	 3.1738716280e+000	-1.0118621254e+000
 5.6328411556e-002	 3.1745002930e+000	-9.7699380508e-001
 2.8114215663e-002	 3.1748755237e+000	-8.5077891206e-001
 0.0000000000e+000	 3.1750000000e+000	-6.1467893165e-001
 2.8753420129e-001	 3.1870557075e+000	-2.2504662235e-001
 2.5839999945e-001	 3.1895500373e+000	-3.2232207728e-001
 2.2934186584e-001	 3.1917710301e+000	-4.6351170669e-001
 2.0036312471e-001	 3.1937211241e+000	-6.2865503257e-001
 1.7146703326e-001	 3.1954028003e+000	-7.9825590192e-001
 1.4265678129e-001	 3.1968185815e+000	-9.5323633118e-001
 1.1393549084e-001	 3.1979710292e+000	-1.0748922283e+000
 8.5306215939e-002	 3.1988627432e+000	-1.1448510472e+000
 5.6771942355e-002	 3.1994963583e+000	-1.1450314220e+000
 2.8335587439e-002	 3.1998745436e+000	-1.0576048163e+000
 0.0000000000e+000	 3.2000000000e+000	-8.6495922008e-001
 2.8978056223e-001	 3.2119545803e+000	 1.0106874542e-002
 2.6041874944e-001	 3.2144683969e+000	-1.0481186507e-001
 2.3113359916e-001	 3.2167067413e+000	-2.6027691118e-001
 2.0192846161e-001	 3.2186720703e+000	-4.3742341547e-001
 1.7280661945e-001	 3.2203668847e+000	-6.1783606661e-001
 1.4377128739e-001	 3.2217937266e+000	-7.8350095027e-001
 1.1482561186e-001	 3.2229551779e+000	-9.1675938448e-001
 8.5972670750e-002	 3.2238538583e+000	-1.0002637862e+000
 5.7215473154e-002	 3.2244924236e+000	-1.0169356164e+000
 2.8556959216e-002	 3.2248735634e+000	-9.4992544148e-001
 0.0000000000e+000	 3.2250000000e+000	-7.8257514058e-001
 2.9202692318e-001	 3.2368534530e+000	 3.8295885445e-001
 2.6243749943e-001	 3.2393867566e+000	 2.7037460665e-001
 2.3292533249e-001	 3.2416424524e+000	 1.2063683105e-001
 2.0349379852e-001	 3.2436230166e+000	-4.8517421317e-002
 1.7414620565e-001	 3.2453309691e+000	-2.1978533910e-001
 1.4488579349e-001	 3.2467688718e+000	-3.7624818845e-001
 1.1571573288e-001	 3.2479393266e+000	-5.0132322570e-001
 8.6639125561e-002	 3.2488449735e+000	-5.7871774212e-001
 5.7659003953e-002	 3.2494884889e+000	-5.9238528847e-001
 2.8778330992e-002	 3.2498725833e+000	-5.2648411798e-001
 0.0000000000e+000	 3.2500000000e+000	-3.6533787729e-001
 3.2500000000e+000	 0.0000000000e+000	 1.1031509657e+000
 3.2498725833e+000	 2.8778330992e-002	 1.1553225546e+000
 3.2494884889e+000	 5.7659003953e-002	 1.1852629224e+000
 3.2488449735e+000	 8.6639125561e-002	 1.1975243725e+000
 3.2479393266e+000	 1.1571573288e-001	 1.1964809963e+000
 3.2467688718e+000	 1.4488579349e-001	 1.1863265118e+000
 3.2453309691e+000	 1.7414620565e-001	 1.1710726734e+000
 3.2436230166e+000	 2.0349379852e-001	 1.1545482741e+000
 3.2416424524e+000	 2.3292533249e-001	 1.1403987611e+000
 3.2393867566e+000	 2.6243749943e-001	 1.1320864812e+000
 3.2368534530e+000	 2.9202692318e-001	 1.1328915771e+000
 3.2750000000e+000	 0.0000000000e+000	 1.0526835717e+000
 3.2748716032e+000	 2.8999702769e-002	 1.1070008866e+000
 3.2744845542e+000	 5.8102534752e-002	 1.1408087830e+000
 3.2738360887e+000	 8.7305580372e-002	 1.1583304069e+000
 3.2729234752e+000	 1.1660585390e-001	 1.1635977794e+000
 3.2717440170e+000	 1.4600029959e-001	 1.1604498137e+000
 3.2702950535e+000	 1.7548579184e-001	 1.1525309337e+000
 3.2685739629e+000	 2.0505913543e-001	 1.1432903144e+000
 3.2665781636e+000	 2.3471706581e-001	 1.1359817658e+000
 3.2643051163e+000	 2.6445624942e-001	 1.1336642788e+000
 3.2617523257e+000	 2.9427328412e-001	 1.1392032524e+000
 3.3000000000e+000	 0.0000000000e+000	 1.0191042547e+000
 3.2998706230e+000	 2.9221074545e-002	 1.0724251288e+000
 3.2994806195e+000	 5.8546065551e-002	 1.1071453150e+000
 3.2988272039e+000	 8.7972035183e-002	 1.1271577024e+000
 3.2979076239e+000	 1.1749597492e-001	 1.1361509124e+000
 3.2967191621e+000	 1.4711480569e-001	 1.1376074936e+000
 3.2952591379e+000	 1.7682537804e-001	 1.1348027476e+000
 3.2935249092e+000	 2.0662447234e-001	 1.1308042070e+000
 3.2915138748e+000	 2.3650879913e-001	 1.1284717886e+000
 3.2892234759e+000	 2.6647499942e-001	 1.1304586393e+000
 3.2866511984e+000	 2.9651964507e-001	 1.1392126952e+000
 3.3250000000e+000	 0.0000000000e+000	 1.0002905321e+000
 3.3248696429e+000	 2.9442446322e-002	 1.0497669689e+000
 3.3244766848e+000	 5.8989596350e-002	 1.0827395580e+000
 3.3238183191e+000	 8.8638489994e-002	 1.1027697009e+000
 3.3228917726e+000	 1.1838609594e-001	 1.1132011559e+000
 3.3216943073e+000	 1.4822931180e-001	 1.1171584086e+000
 3.3202232222e+000	 1.7816496423e-001	 1.1175457048e+000
 3.3184758555e+000	 2.0818980925e-001	 1.1170467660e+000
 3.3164495860e+000	 2.3830053246e-001	 1.1181252106e+000
 3.3141418356e+000	 2.6849374941e-001	 1.1230257019e+000
 3.3115500711e+000	 2.9876600601e-001	 1.1337758390e+000
 3.3500000000e+000	 0.0000000000e+000	 9.9418327891e-001
 3.3498686628e+000	 2.9663818098e-002	 1.0372566124e+000
 3.3494727501e+000	 5.9433127149e-002	 1.0661122516e+000
 3.3488094342e+000	 8.9304944806e-002	 1.0839787514e+000
 3.3478759212e+000	 1.1927621697e-001	 1.0938534106e+000
 3.3466694525e+000	 1.4934381790e-001	 1.0985008178e+000
 3.3451873066e+000	 1.7950455043e-001	 1.1004520901e+000
 3.3434268017e+000	 2.0975514616e-001	 1.1020048256e+000
 3.3413852971e+000	 2.4009226578e-001	 1.1052237940e+000
 3.3390601953e+000	 2.7051249940e-001	 1.1119423848e+000
 3.3364489438e+000	 3.0101236695e-001	 1.1237648335e+000
 3.3750000000e+000	 0.0000000000e+000	 9.9878438147e-001
 3.3748676827e+000	 2.9885189875e-002	 1.0331806151e+000
 3.3744688154e+000	 5.9876657948e-002	 1.0558358465e+000
 3.3738005494e+000	 8.9971399617e-002	 1.0696442981e+000
 3.3728600699e+000	 1.2016633799e-001	 1.0772550824e+000
 3.3716445976e+000	 1.5045832400e-001	 1.0810709231e+000
 3.3701513910e+000	 1.8084413662e-001	 1.0832475979e+000
 3.3683777480e+000	 2.1132048307e-001	 1.0856941289e+000
 3.3663210083e+000	 2.4188399911e-001	 1.0900737416e+000
 3.3639785549e+000	 2.7253124940e-001	 1.0978056152e+000
 3.3613478166e+000	 3.0325872790e-001	 1.1100674436e+000
 3.4000000000e+000	 0.0000000000e+000	 1.0121544940e+000
 3.3998667025e+000	 3.0106561652e-002	 1.0358798113e+000
 3.3994648807e+000	 6.0320188747e-002	 1.0505326036e+000
 3.3987916646e+000	 9.0637854428e-002	 1.0586711494e+000
 3.3978442186e+000	 1.2105645901e-001	 1.0625945201e+000
 3.3966197428e+000	 1.5157283010e-001	 1.0643414740e+000
 3.3951154754e+000	 1.8218372282e-001	 1.0656901041e+000
 3.3933286943e+000	 2.1288581998e-001	 1.0681582644e+000
 3.3912567195e+000	 2.4367573243e-001	 1.0730047987e+000
 3.3888969146e+000	 2.7454999939e-001	 1.0812315937e+000
 3.3862466893e+000	 3.0550508885e-001	 1.0935864755e+000
 3.4250000000e+000	 0.0000000000e+000	 1.0324108942e+000
 3.4248657224e+000	 3.0327933428e-002	 1.0437473331e+000
 3.4244609460e+000	 6.0763719546e-002	 1.0488727756e+000
 3.4237827798e+000	 9.1304309239e-002	 1.0500078219e+000
 3.4228283672e+000	 1.2194658003e-001	 1.0490995205e+000
 3.4215948880e+000	 1.5268733621e-001	 1.0478204342e+000
 3.4200795598e+000	 1.8352330902e-001	 1.0475684915e+000
 3.4182796406e+000	 2.1445115689e-001	 1.0494676499e+000
 3.4161924307e+000	 2.4546746576e-001	 1.0543693939e+000
 3.4138152743e+000	 2.7656874939e-001	 1.0628550914e+000
 3.4111455620e+000	 3.0775144979e-001	 1.0752392277e+000
 3.4500000000e+000	 0.0000000000e+000	 1.0577254310e+000
 3.4498647423e+000	 3.0549305205e-002	 1.0552267154e+000
 3.4494570113e+000	 6.1207250346e-002	 1.0495728686e+000
 3.4487738950e+000	 9.1970764051e-002	 1.0426449571e+000
 3.4478125159e+000	 1.2283670105e-001	 1.0360358998e+000
 3.4465700331e+000	 1.5380184231e-001	 1.0310497053e+000
 3.4450436441e+000	 1.8486289521e-001	 1.0287015266e+000
 3.4432305869e+000	 2.1601649380e-001	 1.0297185608e+000
 3.4411281418e+000	 2.4725919909e-001	 1.0345418169e+000
 3.4387336339e+000	 2.7858749938e-001	 1.0433287763e+000
 3.4360444347e+000	 3.0999781074e-001	 1.0559569659e+000
 3.4750000000e+000	 0.0000000000e+000	 1.0863225624e+000
 3.4748637621e+000	 3.0770676981e-002	 1.0688100829e+000
 3.4744530766e+000	 6.1650781145e-002	 1.0513939781e+000
 3.4737650101e+000	 9.2637218862e-002	 1.0356138058e+000
 3.4727966646e+000	 1.2372682207e-001	 1.0227061255e+000
 3.4715451783e+000	 1.5491634841e-001	 1.0136039062e+000
 3.4700077285e+000	 1.8620248141e-001	 1.0089367844e+000
 3.4681815332e+000	 2.1758183071e-001	 1.0090321995e+000
 3.4660638530e+000	 2.4905093241e-001	 1.0139174323e+000
 3.4636519936e+000	 2.8060624938e-001	 1.0233225703e+000
 3.4609433074e+000	 3.1224417169e-001	 1.0366844209e+000
 3.5000000000e+000	 0.0000000000e+000	 1.1164774761e+000
 3.4998627820e+000	 3.0992048758e-002	 1.0830364146e+000
 3.4994491419e+000	 6.2094311944e-002	 1.0531401968e+000
 3.4987561253e+000	 9.3303673673e-002	 1.0279847782e+000
 3.4977808132e+000	 1.2461694309e-001	 1.0084480076e+000
 3.4965203235e+000	 1.5603085452e-001	 9.9508920468e-001
 3.4949718129e+000	 1.8754206761e-001	 9.8814961960e-001
 3.4931324794e+000	 2.1914716763e-001	 9.8755380538e-001
 3.4909995642e+000	 2.5084266574e-001	 9.9291192698e-001
 3.4885703533e+000	 2.8262499937e-001	 1.0035230323e+000
 3.4858421801e+000	 3.1449053264e-001	 1.0183793070e+000
 3.2368534530e+000	 2.9202692318e-001	 1.1328915771e+000
 3.2340401112e+000	 3.2169015991e-001	 1.0829911271e+000
 3.2309443486e+000	 3.5142369869e-001	 1.0490336940e+000
 3.2275638322e+000	 3.8122396201e-001	 1.0341171579e+000
 3.2238962803e+000	 4.1108730644e-001	 1.0411734943e+000
 3.2199394651e+000	 4.4101002328e-001	 1.0729729068e+000
 3.2156912140e+000	 4.7098833933e-001	 1.1321286663e+000
 3.2111494118e+000	 5.0101841767e-001	 1.2211026617e+000
 3.2063120026e+000	 5.3109635855e-001	 1.3422116648e+000
 3.2011769916e+000	 5.6121820030e-001	 1.4976343097e+000
 3.1957424473e+000	 5.9137992034e-001	 1.6894187835e+000
 3.2617523257e+000	 2.9427328412e-001	 1.1392032524e+000
 3.2589173428e+000	 3.2416469960e-001	 1.1012142114e+000
 3.2557977667e+000	 3.5412695790e-001	 1.0756504549e+000
 3.2523912463e+000	 3.8415645402e-001	 1.0651161636e+000
 3.2486954825e+000	 4.1424951648e-001	 1.0720402034e+000
 3.2447082303e+000	 4.4440240807e-001	 1.0986808018e+000
 3.2404273003e+000	 4.7461132655e-001	 1.1471309664e+000
 3.2358505611e+000	 5.0487240550e-001	 1.2193246463e+000
 3.2309759410e+000	 5.3518171515e-001	 1.3170436418e+000
 3.2258014300e+000	 5.6553526338e-001	 1.4419252599e+000
 3.2203250815e+000	 5.9592899665e-001	 1.5954707158e+000
 3.2866511984e+000	 2.9651964507e-001	 1.1392126952e+000
 3.2837945745e+000	 3.2663923928e-001	 1.1107345379e+000
 3.2806511848e+000	 3.5683021712e-001	 1.0913474352e+000
 3.2772186604e+000	 3.8708894603e-001	 1.0831590544e+000
 3.2734946847e+000	 4.1741172653e-001	 1.0880921120e+000
 3.2694769954e+000	 4.4779479286e-001	 1.1078895987e+000
 3.2651633866e+000	 4.7823431377e-001	 1.1441207782e+000
 3.2605517105e+000	 5.0872639332e-001	 1.1981879643e+000
 3.2556398795e+000	 5.3926707176e-001	 1.2713340785e+000
 3.2504258684e+000	 5.6985232646e-001	 1.3646509876e+000
 3.2449077157e+000	 6.0047807296e-001	 1.4790886194e+000
 3.3115500711e+000	 2.9876600601e-001	 1.1337758390e+000
 3.3086718061e+000	 3.2911377897e-001	 1.1127314065e+000
 3.3055046028e+000	 3.5953347634e-001	 1.0976266131e+000
 3.3020460744e+000	 3.9002143804e-001	 1.0900696205e+000
 3.2982938868e+000	 4.2057393658e-001	 1.0914737766e+000
 3.2942457605e+000	 4.5118717765e-001	 1.1030633909e+000
 3.2898994728e+000	 4.8185730100e-001	 1.1258803176e+000
 3.2852528598e+000	 5.1258038115e-001	 1.1607913516e+000
 3.2803038180e+000	 5.4335242836e-001	 1.2084964387e+000
 3.2750503068e+000	 5.7416938954e-001	 1.2695376997e+000
 3.2694903500e+000	 6.0502714927e-001	 1.3443092655e+000
 3.3364489438e+000	 3.0101236695e-001	 1.1237648335e+000
 3.3335490377e+000	 3.3158831866e-001	 1.1083951049e+000
 3.3303580209e+000	 3.6223673555e-001	 1.0959957816e+000
 3.3268734885e+000	 3.9295393006e-001	 1.0876723528e+000
 3.3230930890e+000	 4.2373614662e-001	 1.0843254011e+000
 3.3190145256e+000	 4.5457956245e-001	 1.0866569301e+000
 3.3146355591e+000	 4.8548028822e-001	 1.0951775360e+000
 3.3099540091e+000	 5.1643436897e-001	 1.1102144260e+000
 3.3049677565e+000	 5.4743778496e-001	 1.1319202858e+000
 3.2996747452e+000	 5.7848645261e-001	 1.1602829946e+000
 3.2940729842e+000	 6.0957622558e-001	 1.1951361851e+000
 3.3613478166e+000	 3.0325872790e-001	 1.1100674436e+000
 3.3584262693e+000	 3.3406285835e-001	 1.0989265011e+000
 3.3552114390e+000	 3.6493999477e-001	 1.0879683329e+000
 3.3517009026e+000	 3.9588642207e-001	 1.0777924171e+000
 3.3478922911e+000	 4.2689835667e-001	 1.0687829984e+000
 3.3437832907e+000	 4.5797194724e-001	 1.0611159725e+000
 3.3393716454e+000	 4.8910327544e-001	 1.0547666488e+000
 3.3346551584e+000	 5.2028835680e-001	 1.0495183953e+000
 3.3296316950e+000	 5.5152314156e-001	 1.0449721678e+000
 3.3242991836e+000	 5.8280351569e-001	 1.0405569216e+000
 3.3186556184e+000	 6.1412530188e-001	 1.0355409012e+000
 3.3862466893e+000	 3.0550508885e-001	 1.0935864755e+000
 3.3833035010e+000	 3.3653739804e-001	 1.0855366547e+000
 3.3800648570e+000	 3.6764325399e-001	 1.0750630532e+000
 3.3765283167e+000	 3.9881891408e-001	 1.0622556291e+000
 3.3726914933e+000	 4.3006056672e-001	 1.0469785445e+000
 3.3685520559e+000	 4.6136433203e-001	 1.0288776097e+000
 3.3641077316e+000	 4.9272626267e-001	 1.0073886404e+000
 3.3593563078e+000	 5.2414234463e-001	 9.8174673373e-001
 3.3542956335e+000	 5.5560849817e-001	 9.5099646368e-001
 3.3489236220e+000	 5.8712057877e-001	 9.1400299394e-001
 3.3432382526e+000	 6.1867437819e-001	 8.6946410447e-001
 3.4111455620e+000	 3.0775144979e-001	 1.0752392277e+000
 3.4081807326e+000	 3.3901193773e-001	 1.0694464449e+000
 3.4049182751e+000	 3.7034651321e-001	 1.0588039253e+000
 3.4013557308e+000	 4.0175140610e-001	 1.0428884307e+000
 3.3974906954e+000	 4.3322277677e-001	 1.0210401257e+000
 3.3933208210e+000	 4.6475671683e-001	 9.9237058447e-001
 3.3888438179e+000	 4.9634924989e-001	 9.5577174686e-001
 3.3840574571e+000	 5.2799633246e-001	 9.0992582950e-001
 3.3789595719e+000	 5.5969385477e-001	 8.5331619208e-001
 3.3735480604e+000	 5.9143764185e-001	 7.8423915729e-001
 3.3678208868e+000	 6.2322345450e-001	 7.0081677921e-001
 3.4360444347e+000	 3.0999781074e-001	 1.0559569659e+000
 3.4330579642e+000	 3.4148647742e-001	 1.0518862145e+000
 3.4297716932e+000	 3.7304977243e-001	 1.0407199406e+000
 3.4261831449e+000	 4.0468389811e-001	 1.0215178675e+000
 3.4222898976e+000	 4.3638498682e-001	 9.9309207966e-001
 3.4180895861e+000	 4.6814910162e-001	 9.5401559370e-001
 3.4135799042e+000	 4.9997223712e-001	 9.0263191816e-001
 3.4087586064e+000	 5.3185032028e-001	 8.3706560374e-001
 3.4036235104e+000	 5.6377921137e-001	 7.5523378567e-001
 3.3981724988e+000	 5.9575470493e-001	 6.5485871587e-001
 3.3924035210e+000	 6.2777253081e-001	 6.7746960024e-001
 3.4609433074e+000	 3.1224417169e-001	 1.0366844209e+000
 3.4579351959e+000	 3.4396101711e-001	 1.0340954301e+000
 3.4546251112e+000	 3.7575303165e-001	 1.0223449185e+000
 3.4510105590e+000	 4.0761639013e-001	 9.9997156697e-001
 3.4470890998e+000	 4.3954719687e-001	 9.6525513012e-001
 3.4428583512e+000	 4.7154148642e-001	 9.1622557755e-001
 3.4383159904e+000	 5.0359522435e-001	 8.5067325982e-001
 3.4334597557e+000	 5.3570430811e-001	 7.6616010287e-001
 3.4282874489e+000	 5.6786456798e-001	 6.6003183142e-001
 3.4227969372e+000	 6.0007176801e-001	 5.2943121902e-001
 3.4169861552e+000	 6.3232160712e-001	 7.5351909620e-001
 3.4858421801e+000	 3.1449053264e-001	 1.0183793070e+000
 3.4828124275e+000	 3.4643555681e-001	 1.0173223553e+000
 3.4794785293e+000	 3.7845629087e-001	 1.0052173347e+000
 3.4758379731e+000	 4.1054888215e-001	 9.8007771748e-001
 3.4718883019e+000	 4.4270940692e-001	 9.3964651603e-001
 3.4676271163e+000	 4.7493387121e-001	 8.8140599655e-001
 3.4630520767e+000	 5.0721821157e-001	 8.0258845607e-001
 3.4581609051e+000	 5.3955829594e-001	 7.0018806551e-001
 3.4529513874e+000	 5.7194992458e-001	 5.7097377942e-001
 3.4474213756e+000	 6.0438883109e-001	 4.1150330953e-001
 3.4415687894e+000	 6.3687068343e-001	 8.3760345740e-001
 3.1957424473e+000	 5.9137992034e-001	 1.6894187835e+000
 3.1900065032e+000	 6.2157743620e-001	 7.3078645238e-001
 3.1839673596e+000	 6.5180660668e-001	 7.9315512793e-001
 3.1776232857e+000	 6.8206323302e-001	 9.5137729995e-001
 3.1709726212e+000	 7.1234306010e-001	 1.0686572637e+000
 3.1640137784e+000	 7.4264177780e-001	 1.1427424009e+000
 3.1567452436e+000	 7.7295502237e-001	 1.1713508341e+000
 3.1491655796e+000	 8.0327837781e-001	 1.1521685667e+000
 3.1412734265e+000	 8.3360737744e-001	 1.0828465906e+000
 3.1330675043e+000	 8.6393750537e-001	 9.6099797578e-001
 3.1245466141e+000	 8.9426419823e-001	 7.9397181020e-001
 3.2203250815e+000	 5.9592899665e-001	 1.5954707158e+000
 3.2145450148e+000	 6.2635880109e-001	 5.7885383807e-001
 3.2084594163e+000	 6.5682050366e-001	 7.5105069270e-001
 3.2020665418e+000	 6.8730987327e-001	 8.8838808095e-001
 3.1953647183e+000	 7.1782262210e-001	 9.8882172465e-001
 3.1883523459e+000	 7.4835440687e-001	 1.0502787875e+000
 3.1810278994e+000	 7.7890083024e-001	 1.0706547230e+000
 3.1733899302e+000	 8.0945744226e-001	 1.0478100770e+000
 3.1654370683e+000	 8.4001974188e-001	 9.7956725486e-001
 3.1571680236e+000	 8.7058317850e-001	 8.6370726679e-001
 3.1485815881e+000	 9.0114315360e-001	 6.9796646267e-001
 3.2449077157e+000	 6.0047807296e-001	 1.4790886194e+000
 3.2390835264e+000	 6.3114016599e-001	 5.7036088503e-001
 3.2329514729e+000	 6.6183440064e-001	 7.1872461687e-001
 3.2265097978e+000	 6.9255651353e-001	 8.3604124939e-001
 3.2197568154e+000	 7.2330218410e-001	 9.2044934283e-001
 3.2126909134e+000	 7.5406703593e-001	 9.7005679660e-001
 3.2053105551e+000	 7.8484663811e-001	 9.8293736178e-001
 3.1976142808e+000	 8.1563650671e-001	 9.5712710338e-001
 3.1896007100e+000	 8.4643210633e-001	 8.9062082427e-001
 3.1812685429e+000	 8.7722885162e-001	 7.8136846355e-001
 3.1726165620e+000	 9.0802210898e-001	 6.2727148254e-001
 3.2694903500e+000	 6.0502714927e-001	 1.3443092655e+000
 3.2636220379e+000	 6.3592153088e-001	 5.7075114462e-001
 3.2574435295e+000	 6.6684829761e-001	 6.9608180203e-001
 3.2509530539e+000	 6.9780315378e-001	 7.9413528626e-001
 3.2441489125e+000	 7.2878174611e-001	 8.6323400675e-001
 3.2370294809e+000	 7.5977966499e-001	 9.0166762471e-001
 3.2295932108e+000	 7.9079244597e-001	 9.0768922721e-001
 3.2218386314e+000	 8.2181557116e-001	 8.7951144674e-001
 3.2137643518e+000	 8.5284447077e-001	 8.1530253867e-001
 3.2053690621e+000	 8.8387452474e-001	 7.1318243003e-001
 3.1966515360e+000	 9.1490106435e-001	 5.7121875345e-001
 3.2940729842e+000	 6.0957622558e-001	 1.1951361851e+000
 3.2881605495e+000	 6.4070289577e-001	 5.8000628538e-001
 3.2819355861e+000	 6.7186219458e-001	 6.8299753118e-001
 3.2753963099e+000	 7.0304979404e-001	 7.6244080358e-001
 3.2685410096e+000	 7.3426130811e-001	 8.1684344357e-001
 3.2613680485e+000	 7.6549229405e-001	 8.4467797138e-001
 3.2538758665e+000	 7.9673825384e-001	 8.4437791947e-001
 3.2460629820e+000	 8.2799463561e-001	 8.1433360647e-001
 3.2379279935e+000	 8.5925683522e-001	 7.5288786522e-001
 3.2294695814e+000	 8.9052019786e-001	 6.5833173895e-001
 3.2206865099e+000	 9.2178001972e-001	 5.2890016014e-001
 3.3186556184e+000	 6.1412530188e-001	 1.0355409012e+000
 3.3126990611e+000	 6.4548426067e-001	 5.9807772991e-001
 3.3064276427e+000	 6.7687609156e-001	 6.7931856570e-001
 3.2998395660e+000	 7.0829643429e-001	 7.4070157664e-001
 3.2929331067e+000	 7.3974087011e-001	 7.8092018806e-001
 3.2857066160e+000	 7.7120492311e-001	 7.9863094665e-001
 3.2781585222e+000	 8.0268406170e-001	 7.9244900950e-001
 3.2702873326e+000	 8.3417370005e-001	 7.6094356943e-001
 3.2620916352e+000	 8.6566919966e-001	 7.0263323064e-001
 3.2535701007e+000	 8.9716587098e-001	 6.1598134918e-001
 3.2447214839e+000	 9.2865897510e-001	 4.9939135357e-001
 3.3432382526e+000	 6.1867437819e-001	 8.6946410447e-001
 3.3372375726e+000	 6.5026562556e-001	 6.2488776687e-001
 3.3309196993e+000	 6.8188998853e-001	 6.8486419396e-001
 3.3242828220e+000	 7.1354307455e-001	 7.2863553064e-001
 3.3173252037e+000	 7.4522043211e-001	 7.5508250882e-001
 3.3100451835e+000	 7.7691755217e-001	 7.6304693830e-001
 3.3024411780e+000	 8.0862986957e-001	 7.5132684887e-001
 3.2945116833e+000	 8.4035276450e-001	 7.1867156407e-001
 3.2862552770e+000	 8.7208156410e-001	 6.6377672130e-001
 3.2776706199e+000	 9.0381154410e-001	 5.8527925339e-001
 3.2687564578e+000	 9.3553793047e-001	 4.8175234782e-001
 3.3678208868e+000	 6.2322345450e-001	 7.0081677921e-001
 3.3617760842e+000	 6.5504699045e-001	 6.6033061427e-001
 3.3554117559e+000	 6.8690388551e-001	 6.9942723396e-001
 3.3487260780e+000	 7.1878971480e-001	 7.2593568409e-001
 3.3417173008e+000	 7.5069999411e-001	 7.3892529387e-001
 3.3343837511e+000	 7.8263018123e-001	 7.3742444108e-001
 3.3267238337e+000	 8.1457567743e-001	 7.2041534421e-001
 3.3187360339e+000	 8.4653182894e-001	 6.8682878155e-001
 3.3104189187e+000	 8.7849392854e-001	 6.3553875250e-001
 3.3017711392e+000	 9.1045721722e-001	 5.6535709719e-001
 3.2927914318e+000	 9.4241688584e-001	 4.7502809072e-001
 3.3924035210e+000	 6.2777253081e-001	 6.7746960024e-001
 3.3863145957e+000	 6.5982835535e-001	 7.0427343651e-001
 3.3799038126e+000	 6.9191778248e-001	 7.2277499242e-001
 3.3731693341e+000	 7.2403635505e-001	 7.3227105127e-001
 3.3661093979e+000	 7.5617955611e-001	 7.3202089780e-001
 3.3587223186e+000	 7.8834281029e-001	 7.2124084999e-001
 3.3510064894e+000	 8.2052148530e-001	 6.9909869800e-001
 3.3429603845e+000	 8.5271089338e-001	 6.6470806545e-001
 3.3345825605e+000	 8.8490629298e-001	 6.1712270881e-001
 3.3258716585e+000	 9.1710289033e-001	 5.5533077143e-001
 3.3168264057e+000	 9.4929584121e-001	 4.7824900978e-001
 3.4169861552e+000	 6.3232160712e-001	 7.5351909620e-001
 3.4108531073e+000	 6.6460972024e-001	 7.5655731755e-001
 3.4043958692e+000	 6.9693167945e-001	 7.5465018247e-001
 3.3976125901e+000	 7.2928299530e-001	 7.4728750564e-001
 3.3905014950e+000	 7.6165911811e-001	 7.3391995232e-001
 3.3830608861e+000	 7.9405543935e-001	 7.1395321922e-001
 3.3752891451e+000	 8.2646729316e-001	 6.8674211729e-001
 3.3671847351e+000	 8.5888995783e-001	 6.5158457184e-001
 3.3587462022e+000	 8.9131865742e-001	 6.0771555659e-001
 3.3499721777e+000	 9.2374856345e-001	 5.5430097894e-001
 3.3408613797e+000	 9.5617479658e-001	 4.9043153445e-001
 3.4415687894e+000	 6.3687068343e-001	 8.3760345740e-001
 3.4353916189e+000	 6.6939108513e-001	 8.1699819234e-001
 3.4288879258e+000	 7.0194557643e-001	 7.9477180192e-001
 3.4220558462e+000	 7.3452963556e-001	 7.7060860636e-001
 3.4148935921e+000	 7.6713868010e-001	 7.4415214206e-001
 3.4073994536e+000	 7.9976806841e-001	 7.1499898864e-001
 3.3995718009e+000	 8.3241310102e-001	 6.8269249217e-001
 3.3914090857e+000	 8.6506902227e-001	 6.4671640088e-001
 3.3829098440e+000	 8.9773102186e-001	 6.0648843044e-001
 3.3740726970e+000	 9.3039423656e-001	 5.6135377692e-001
 3.3648963537e+000	 9.6305375194e-001	 5.1057859610e-001
 3.1245466141e+000	 8.9426419823e-001	 7.9397181020e-001
 3.1157096398e+000	 9.2458284674e-001	 8.7429580878e-001
 3.1065555498e+000	 9.5488879754e-001	 9.3798391772e-001
 3.0970833988e+000	 9.8517735496e-001	 9.8312390642e-001
 3.0872923289e+000	 1.0154437829e+000	 1.0078432162e+000
 3.0771815712e+000	 1.0456833066e+000	 1.0103151963e+000
 3.0667504478e+000	 1.0758911149e+000	 9.8876537197e-001
 3.0559983723e+000	 1.1060623621e+000	 9.4147772744e-001
 3.0449248518e+000	 1.1361921700e+000	 8.6680098871e-001
 3.0335294880e+000	 1.1662756302e+000	 7.6315488811e-001
 3.0218119785e+000	 1.1963078061e+000	 6.2903639375e-001
 3.1485815881e+000	 9.0114315360e-001	 6.9796646267e-001
 3.1396766370e+000	 9.3169502249e-001	 5.9548861349e-001
 3.1304521310e+000	 9.6223409599e-001	 4.6471746343e-001
 3.1209071173e+000	 9.9275564231e-001	 4.0005150407e-001
 3.1110407314e+000	 1.0232548889e+000	 4.4428813955e-001
 3.1008521987e+000	 1.0537270243e+000	 4.6883108778e-001
 3.0903408358e+000	 1.0841672004e+000	 4.7195312550e-001
 3.0795060520e+000	 1.1145705341e+000	 4.5198547505e-001
 3.0683473506e+000	 1.1449321098e+000	 4.0732412313e-001
 3.0568643302e+000	 1.1752469812e+000	 3.3643612127e-001
 3.0450566860e+000	 1.2055101738e+000	 2.3786585057e-001
 3.1726165620e+000	 9.0802210898e-001	 6.2727148254e-001
 3.1636436342e+000	 9.3880719824e-001	 5.3805170503e-001
 3.1543487122e+000	 9.6957939444e-001	 4.2397621522e-001
 3.1447308357e+000	 1.0003339297e+000	 2.8283379863e-001
 3.1347891339e+000	 1.0310659949e+000	 1.1232986763e-001
 3.1245228262e+000	 1.0617707421e+000	-7.7993081490e-002
 3.1139312239e+000	 1.0924432859e+000	-4.5883630550e-002
 3.1030137318e+000	 1.1230787061e+000	-3.4306757351e-002
 3.0917698495e+000	 1.1536720496e+000	-4.4822819893e-002
 3.0801991724e+000	 1.1842183322e+000	-7.8920998005e-002
 3.0683013935e+000	 1.2147125416e+000	-1.3801298818e-001
 3.1966515360e+000	 9.1490106435e-001	 5.7121875345e-001
 3.1876106315e+000	 9.4591937399e-001	 4.9649211752e-001
 3.1782452933e+000	 9.7692469289e-001	 4.0034507177e-001
 3.1685545542e+000	 1.0079122170e+000	 2.8073548082e-001
 3.1585375365e+000	 1.0388771009e+000	 1.3553445693e-001
 3.1481934537e+000	 1.0698144598e+000	-3.7477813938e-002
 3.1375216120e+000	 1.1007193714e+000	-2.4061614920e-001
 3.1265214116e+000	 1.1315868782e+000	-4.7629433223e-001
 3.1151923483e+000	 1.1624119893e+000	-4.8822017997e-001
 3.1035340146e+000	 1.1931896832e+000	-4.8152310191e-001
 3.0915461010e+000	 1.2239149093e+000	-4.9723246146e-001
 3.2206865099e+000	 9.2178001972e-001	 5.2890016014e-001
 3.2115776287e+000	 9.5303154973e-001	 4.6979586659e-001
 3.2021418745e+000	 9.8426999133e-001	 3.9270583259e-001
 3.1923782726e+000	 1.0154905044e+000	 2.9575798695e-001
 3.1822859390e+000	 1.0466882070e+000	 1.7699009493e-001
 3.1718640811e+000	 1.0778581776e+000	 3.4345238726e-002
 3.1611120000e+000	 1.1089954569e+000	-1.3433260537e-001
 3.1500290914e+000	 1.1400950502e+000	-3.3130287447e-001
 3.1386148472e+000	 1.1711519291e+000	-5.5893259220e-001
 3.1268688568e+000	 1.2021610342e+000	-8.1970038846e-001
 3.1147908086e+000	 1.2331172771e+000	-8.3842398983e-001
 3.2447214839e+000	 9.2865897510e-001	 4.9939135357e-001
 3.2355446259e+000	 9.6014372548e-001	 4.5693458395e-001
 3.2260384556e+000	 9.9161528978e-001	 3.9992773503e-001
 3.2162019911e+000	 1.0230687917e+000	 3.2666985283e-001
 3.2060343415e+000	 1.0544993130e+000	 2.3536637614e-001
 3.1955347086e+000	 1.0859018953e+000	 1.2412426784e-001
 3.1847023881e+000	 1.1172715424e+000	-9.0527570805e-003
 3.1735367712e+000	 1.1486032222e+000	-1.6626888745e-001
 3.1620373461e+000	 1.1798918689e+000	-3.4974073597e-001
 3.1502036991e+000	 1.2111323852e+000	-5.6180170344e-001
 3.1380355161e+000	 1.2423196448e+000	-8.0490616704e-001
 3.2687564578e+000	 9.3553793047e-001	 4.8175234782e-001
 3.2595116232e+000	 9.6725590122e-001	 4.5686604616e-001
 3.2499350368e+000	 9.9896058822e-001	 4.2086791607e-001
 3.2400257095e+000	 1.0306470791e+000	 3.7222924078e-001
 3.2297827441e+000	 1.0623104190e+000	 3.0932421946e-001
 3.2192053361e+000	 1.0939456130e+000	 2.3042474593e-001
 3.2082927761e+000	 1.1255476279e+000	 1.3369528387e-001
 3.1970444510e+000	 1.1571113942e+000	 1.7187858909e-002
 3.1854598449e+000	 1.1886318086e+000	-1.2116281182e-001
 3.1735385413e+000	 1.2201037362e+000	-2.8354403194e-001
 3.1612802236e+000	 1.2515220125e+000	-4.8191182730e-001
 3.2927914318e+000	 9.4241688584e-001	 4.7502809072e-001
 3.2834786204e+000	 9.7436807697e-001	 4.6853468030e-001
 3.2738316179e+000	 1.0063058867e+000	 4.5437185399e-001
 3.2638494280e+000	 1.0382253664e+000	 4.3118431819e-001
 3.2535311466e+000	 1.0701215250e+000	 3.9751618486e-001
 3.2428759635e+000	 1.1019893308e+000	 3.5180539377e-001
 3.2318831642e+000	 1.1338237134e+000	 2.9237823138e-001
 3.2205521308e+000	 1.1656195662e+000	 2.1744396730e-001
 3.2088823438e+000	 1.1973717484e+000	 1.2508962980e-001
 3.1968733835e+000	 1.2290750872e+000	 1.3274941946e-002
 3.1845249311e+000	 1.2607243803e+000	-1.9354346442e-001
 3.3168264057e+000	 9.4929584121e-001	 4.7824900978e-001
 3.3074456176e+000	 9.8148025271e-001	 4.9087204769e-001
 3.2977281991e+000	 1.0136511851e+000	 4.9927379075e-001
 3.2876731465e+000	 1.0458036537e+000	 5.0227361972e-001
 3.2772795491e+000	 1.0779326310e+000	 4.9858677622e-001
 3.2665465910e+000	 1.1100330485e+000	 4.8681842498e-001
 3.2554735523e+000	 1.1420997989e+000	 4.6545781254e-001
 3.2440598105e+000	 1.1741277382e+000	 4.3287254444e-001
 3.2323048426e+000	 1.2061116882e+000	 3.8730300294e-001
 3.2202082257e+000	 1.2380464382e+000	 3.2685692794e-001
 3.2077696387e+000	 1.2699267480e+000	 1.0442879610e-001
 3.3408613797e+000	 9.5617479658e-001	 4.9043153445e-001
 3.3314126149e+000	 9.8859242845e-001	 5.2279730661e-001
 3.3216247802e+000	 1.0209964835e+000	 5.5439713621e-001
 3.3114968649e+000	 1.0533819411e+000	 5.8422639372e-001
 3.3010279516e+000	 1.0857437371e+000	 6.1117273110e-001
 3.2902172185e+000	 1.1180767663e+000	 6.3400978009e-001
 3.2790639403e+000	 1.1503758844e+000	 6.5139094701e-001
 3.2675674903e+000	 1.1826359103e+000	 6.6184332684e-001
 3.2557273415e+000	 1.2148516279e+000	 6.6376175943e-001
 3.2435430679e+000	 1.2470177892e+000	 6.5540305142e-001
 3.2310143462e+000	 1.2791291158e+000	 4.1198637419e-001
 3.3648963537e+000	 9.6305375194e-001	 5.1057859610e-001
 3.3553796121e+000	 9.9570460419e-001	 5.6321765534e-001
 3.3455213614e+000	 1.0283417820e+000	 6.1855485494e-001
 3.3353205834e+000	 1.0609602284e+000	 6.7576293396e-001
 3.3247763542e+000	 1.0935548431e+000	 7.3390329816e-001
 3.3138878460e+000	 1.1261204840e+000	 7.9191935062e-001
 3.3026543284e+000	 1.1586519699e+000	 8.4862991872e-001
 3.2910751701e+000	 1.1911440823e+000	 9.0272280115e-001
 3.2791498404e+000	 1.2235915677e+000	 9.5274845890e-001
 3.2668779101e+000	 1.2559891402e+000	 9.4724174296e-001
 3.2542590537e+000	 1.2883314835e+000	 7.2911142518e-001
 3.0218119785e+000	 1.1963078061e+000	 6.2903639375e-001
 3.0097721177e+000	 1.2262837353e+000	 6.6523229734e-001
 2.9974097985e+000	 1.2561984318e+000	 6.6139007593e-001
 2.9847250126e+000	 1.2860468885e+000	 5.9061673127e-001
 2.9717178521e+000	 1.3158240793e+000	 5.1616093115e-001
 2.9583885102e+000	 1.3455249618e+000	 4.3772301365e-001
 2.9447372821e+000	 1.3751444794e+000	 3.5501551535e-001
 2.9307645658e+000	 1.4046775645e+000	 2.6776388754e-001
 2.9164708625e+000	 1.4341191402e+000	 1.7570719948e-001
 2.9018567779e+000	 1.4634641235e+000	 7.8598826650e-002
 2.8869230222e+000	 1.4927074274e+000	-2.3792877620e-002
 3.0450566860e+000	 1.2055101738e+000	 2.3786585057e-001
 3.0329242109e+000	 1.2357166871e+000	 3.2844512713e-001
 3.0204667969e+000	 1.2658614967e+000	 3.4752627458e-001
 3.0076844357e+000	 1.2959395569e+000	 3.1742994245e-001
 2.9945772202e+000	 1.3259458030e+000	 2.8222627868e-001
 2.9811453449e+000	 1.3558751538e+000	 2.4158278119e-001
 2.9673891074e+000	 1.3857225139e+000	 1.9518043658e-001
 2.9533089086e+000	 1.4154827765e+000	 1.4271448825e-001
 2.9389052537e+000	 1.4451508259e+000	 8.3895190343e-002
 2.9241787531e+000	 1.4747215398e+000	 1.8448545350e-002
 2.9091301224e+000	 1.5041897923e+000	-5.3882976287e-002
 3.0683013935e+000	 1.2147125416e+000	-1.3801298818e-001
 3.0560763041e+000	 1.2451496389e+000	 8.0626190374e-003
 3.0435237954e+000	 1.2755245616e+000	 4.2017871571e-002
 3.0306438589e+000	 1.3058322253e+000	 5.2442723489e-002
 3.0174365883e+000	 1.3360675267e+000	 5.6354285114e-002
 3.0039021796e+000	 1.3662253458e+000	 5.3387314994e-002
 2.9900409326e+000	 1.3963005484e+000	 4.3191341861e-002
 2.9758532514e+000	 1.4262879886e+000	 2.5431484586e-002
 2.9613396450e+000	 1.4561825116e+000	-2.1074332794e-004
 2.9465007283e+000	 1.4859789561e+000	-3.4036646761e-002
 2.9313372226e+000	 1.5156721571e+000	-7.6329581553e-002
 3.0915461010e+000	 1.2239149093e+000	-4.9723246146e-001
 3.0792283974e+000	 1.2545825907e+000	-3.1335056132e-001
 3.0665807938e+000	 1.2851876264e+000	-2.5506367051e-001
 3.0536032821e+000	 1.3157248936e+000	-2.0426459948e-001
 3.0402959564e+000	 1.3461892504e+000	-1.6136639265e-001
 3.0266590143e+000	 1.3765755378e+000	-1.2676693735e-001
 3.0126927579e+000	 1.4068785828e+000	-1.0084807768e-001
 2.9983975942e+000	 1.4370932006e+000	-8.3974742727e-002
 2.9837740362e+000	 1.4672141973e+000	-7.6494091586e-002
 2.9688227035e+000	 1.4972363725e+000	-7.8734677081e-002
 2.9535443227e+000	 1.5271545219e+000	-9.1005630523e-002
 3.1147908086e+000	 1.2331172771e+000	-8.3842398983e-001
 3.1023804906e+000	 1.2640155425e+000	-6.4350517098e-001
 3.0896377923e+000	 1.2948506913e+000	-5.4364644028e-001
 3.0765627052e+000	 1.3256175620e+000	-4.5261146467e-001
 3.0631553244e+000	 1.3563109741e+000	-3.7084706038e-001
 3.0494158490e+000	 1.3869257298e+000	-2.9878367439e-001
 3.0353445831e+000	 1.4174566173e+000	-2.3683444544e-001
 3.0209419370e+000	 1.4478984127e+000	-1.8539428065e-001
 3.0062084275e+000	 1.4782458830e+000	-1.4483894997e-001
 2.9911446788e+000	 1.5084937888e+000	-1.1552420075e-001
 2.9757514229e+000	 1.5386368868e+000	-9.7784894646e-002
 3.1380355161e+000	 1.2423196448e+000	-8.0490616704e-001
 3.1255325838e+000	 1.2734484944e+000	-9.5027236161e-001
 3.1126947907e+000	 1.3045137561e+000	-8.2365809419e-001
 3.0995221284e+000	 1.3355102304e+000	-6.9251708332e-001
 3.0860146925e+000	 1.3664326978e+000	-5.7199898794e-001
 3.0721726837e+000	 1.3972759218e+000	-4.6256673540e-001
 3.0579964084e+000	 1.4280346517e+000	-3.6466468771e-001
 3.0434862798e+000	 1.4587036247e+000	-2.7871766652e-001
 3.0286428187e+000	 1.4892775687e+000	-2.0512999708e-001
 3.0134666540e+000	 1.5197512051e+000	-1.4428457369e-001
 2.9979585231e+000	 1.5501192516e+000	-9.6541948811e-002
 3.1612802236e+000	 1.2515220125e+000	-4.8191182730e-001
 3.1486846770e+000	 1.2828814462e+000	-6.2479657976e-001
 3.1357517892e+000	 1.3141768210e+000	-7.9523628905e-001
 3.1224815516e+000	 1.3454028988e+000	-9.2390044805e-001
 3.1088740606e+000	 1.3765544214e+000	-7.6473341056e-001
 3.0949295184e+000	 1.4076261138e+000	-6.1802009524e-001
 3.0806482336e+000	 1.4386126862e+000	-4.8423602256e-001
 3.0660306226e+000	 1.4695088367e+000	-3.6383587150e-001
 3.0510772100e+000	 1.5003092544e+000	-2.5725247313e-001
 3.0357886292e+000	 1.5310086215e+000	-1.6489582685e-001
 3.0201656232e+000	 1.5616016164e+000	-8.7152141810e-002
 3.1845249311e+000	 1.2607243803e+000	-1.9354346442e-001
 3.1718367702e+000	 1.2923143980e+000	-2.8965776248e-001
 3.1588087876e+000	 1.3238398859e+000	-4.1425814128e-001
 3.1454409748e+000	 1.3552955671e+000	-5.6916294838e-001
 3.1317334287e+000	 1.3866761451e+000	-7.5621778483e-001
 3.1176863531e+000	 1.4179763059e+000	-7.6504785935e-001
 3.1033000588e+000	 1.4491907206e+000	-5.9544594911e-001
 3.0885749654e+000	 1.4803140488e+000	-4.4064028474e-001
 3.0735116012e+000	 1.5113409401e+000	-3.0109215946e-001
 3.0581106044e+000	 1.5422660378e+000	-1.7723864157e-001
 3.0423727234e+000	 1.5730839812e+000	-6.9491568093e-002
 3.2077696387e+000	 1.2699267480e+000	 1.0442879610e-001
 3.1949888634e+000	 1.3017473498e+000	 5.5135442916e-002
 3.1818657860e+000	 1.3335029507e+000	-2.3544424807e-002
 3.1684003979e+000	 1.3651882355e+000	-1.3349091837e-001
 3.1545927968e+000	 1.3967978688e+000	-2.7661172047e-001
 3.1404431878e+000	 1.4283264979e+000	-4.5483966552e-001
 3.1259518841e+000	 1.4597687551e+000	-6.7013020429e-001
 3.1111193082e+000	 1.4911192608e+000	-5.0902269823e-001
 3.0959459925e+000	 1.5223726258e+000	-3.3653535892e-001
 3.0804325796e+000	 1.5535234541e+000	-1.8119432600e-001
 3.0645798236e+000	 1.5845663461e+000	-4.3437040752e-002
 3.2310143462e+000	 1.2791291158e+000	 4.1198637419e-001
 3.2181409566e+000	 1.3111803016e+000	 4.0957495077e-001
 3.2049227845e+000	 1.3431660156e+000	 3.7690701415e-001
 3.1913598211e+000	 1.3750809039e+000	 3.1204037375e-001
 3.1774521649e+000	 1.4069195925e+000	 2.1300491561e-001
 3.1632000224e+000	 1.4386766899e+000	 7.7805097656e-002
 3.1486037093e+000	 1.4703467896e+000	-9.5577436887e-002
 3.1336636511e+000	 1.5019244728e+000	-3.0918113097e-001
 3.1183803837e+000	 1.5334043115e+000	-3.6346887714e-001
 3.1027545548e+000	 1.5647808705e+000	-1.7664479257e-001
 3.0867869237e+000	 1.5960487109e+000	-8.8660656714e-003
 3.2542590537e+000	 1.2883314835e+000	 7.2911142518e-001
 3.2412930498e+000	 1.3206132534e+000	 7.7365321707e-001
 3.2279797829e+000	 1.3528290804e+000	 7.8709868870e-001
 3.2143192443e+000	 1.3849735723e+000	 7.6744324542e-001
 3.2003115330e+000	 1.4170413162e+000	 7.1265398302e-001
 3.1859568571e+000	 1.4490268819e+000	 6.2067225886e-001
 3.1712555346e+000	 1.4809248240e+000	 4.8941638367e-001
 3.1562079939e+000	 1.5127296849e+000	 3.1678443068e-001
 3.1408147750e+000	 1.5444359972e+000	 1.0065715879e-001
 3.1250765300e+000	 1.5760382868e+000	-1.6109895456e-001
 3.1089940239e+000	 1.6075310757e+000	 3.4343183217e-002
 2.8869230222e+000	 1.4927074274e+000	-2.3792877620e-002
 2.8716704108e+000	 1.5218439643e+000	-1.5080954947e-001
 2.8560998648e+000	 1.5508686476e+000	-2.5877068906e-001
 2.8402124111e+000	 1.5797763955e+000	-3.4759038538e-001
 2.8240091829e+000	 1.6085621327e+000	-4.1718766267e-001
 2.8074914197e+000	 1.6372207940e+000	-4.6748640332e-001
 2.7906604674e+000	 1.6657473264e+000	-4.9841527283e-001
 2.7735177786e+000	 1.6941366922e+000	-5.0990764711e-001
 2.7560649120e+000	 1.7223838716e+000	-5.0190154294e-001
 2.7383035326e+000	 1.7504838655e+000	-4.7433955195e-001
 2.7202354115e+000	 1.7784316985e+000	-4.2716877870e-001
 2.9091301224e+000	 1.5041897923e+000	-5.3882976287e-002
 2.8937601832e+000	 1.5335504563e+000	-1.5051540265e-001
 2.8780698638e+000	 1.5627984065e+000	-2.3562562598e-001
 2.8620601989e+000	 1.5919285216e+000	-3.0913993227e-001
 2.8457323305e+000	 1.6209356876e+000	-3.7098232819e-001
 2.8290875075e+000	 1.6498148002e+000	-4.2107438615e-001
 2.8121270864e+000	 1.6785607674e+000	-4.5933510027e-001
 2.7948525307e+000	 1.7071685129e+000	-4.8568075406e-001
 2.7772654113e+000	 1.7356329783e+000	-5.0002480065e-001
 2.7593674059e+000	 1.7639491260e+000	-5.0227775608e-001
 2.7411602993e+000	 1.7921119423e+000	-4.9234710665e-001
 2.9313372226e+000	 1.5156721571e+000	-7.6329581553e-002
 2.9158499556e+000	 1.5452569483e+000	-1.4185018266e-001
 2.9000398628e+000	 1.5747281653e+000	-2.0327194517e-001
 2.8839079867e+000	 1.6040806477e+000	-2.6053329845e-001
 2.8674554780e+000	 1.6333092425e+000	-3.1356324393e-001
 2.8506835954e+000	 1.6624088063e+000	-3.6228112280e-001
 2.8335937054e+000	 1.6913742084e+000	-4.0659640342e-001
 2.8161872829e+000	 1.7202003336e+000	-4.4640848969e-001
 2.7984659106e+000	 1.7488820850e+000	-4.8160655124e-001
 2.7804312793e+000	 1.7774143865e+000	-5.1206937636e-001
 2.7620851870e+000	 1.8057921862e+000	-5.3766524853e-001
 2.9535443227e+000	 1.5271545219e+000	-9.1005630523e-002
 2.9379397280e+000	 1.5569634404e+000	-1.2469887441e-001
 2.9220098617e+000	 1.5866579241e+000	-1.6160930343e-001
 2.9057557745e+000	 1.6162327739e+000	-2.0168744200e-001
 2.8891786256e+000	 1.6456827974e+000	-2.4486730238e-001
 2.8722796832e+000	 1.6750028124e+000	-2.9106607530e-001
 2.8550603244e+000	 1.7041876494e+000	-3.4018384935e-001
 2.8375220350e+000	 1.7332321543e+000	-3.9210336026e-001
 2.8196664100e+000	 1.7621311917e+000	-4.4668977131e-001
 2.8014951526e+000	 1.7908796470e+000	-5.0379048606e-001
 2.7830100748e+000	 1.8194724300e+000	-5.6323499419e-001
 2.9757514229e+000	 1.5386368868e+000	-9.7784894646e-002
 2.9600295004e+000	 1.5686699324e+000	-9.8946896617e-002
 2.9439798607e+000	 1.5985876830e+000	-1.1053731400e-001
 2.9276035623e+000	 1.6283849000e+000	-1.3251872318e-001
 2.9109017732e+000	 1.6580563522e+000	-1.6483016686e-001
 2.8938757711e+000	 1.6875968185e+000	-2.0738676816e-001
 2.8765269434e+000	 1.7170010903e+000	-2.6007938222e-001
 2.8588567872e+000	 1.7462639751e+000	-3.2277428675e-001
 2.8408669093e+000	 1.7753802984e+000	-3.9531291296e-001
 2.8225590259e+000	 1.8043449075e+000	-4.7751161810e-001
 2.8039349626e+000	 1.8331526738e+000	-5.6916150083e-001
 2.9979585231e+000	 1.5501192516e+000	-9.6541948811e-002
 2.9821192728e+000	 1.5803764244e+000	-6.4480085757e-002
 2.9659498596e+000	 1.6105174418e+000	-4.9955548208e-002
 2.9494513500e+000	 1.6405370261e+000	-5.2942926538e-002
 2.9326249207e+000	 1.6704299071e+000	-7.3386317078e-002
 2.9154718589e+000	 1.7001908246e+000	-1.1119886011e-001
 2.8979935624e+000	 1.7298145313e+000	-1.6626232407e-001
 2.8801915393e+000	 1.7592957958e+000	-2.3842673764e-001
 2.8620674086e+000	 1.7886294051e+000	-3.2751007138e-001
 2.8436228993e+000	 1.8178101680e+000	-4.3329797026e-001
 2.8248598504e+000	 1.8468329177e+000	-5.5554353866e-001
 3.0201656232e+000	 1.5616016164e+000	-8.7152141810e-002
 3.0042090452e+000	 1.5920829165e+000	-2.1184680684e-002
 2.9879198586e+000	 1.6224472006e+000	 2.0236463003e-002
 2.9712991378e+000	 1.6526891522e+000	 3.7124717906e-002
 2.9543480683e+000	 1.6828034620e+000	 2.9530907402e-002
 2.9370679468e+000	 1.7127848307e+000	-2.4562126973e-003
 2.9194601813e+000	 1.7426279723e+000	-5.8709471279e-002
 2.9015262915e+000	 1.7723276165e+000	-1.3906285585e-001
 2.8832679079e+000	 1.8018785118e+000	-2.4331114504e-001
 2.8646867726e+000	 1.8312754286e+000	-3.7120960134e-001
 2.8457847382e+000	 1.8605131615e+000	-5.2247372570e-001
 3.0423727234e+000	 1.5730839812e+000	-6.9491568093e-002
 3.0262988176e+000	 1.6037894085e+000	 3.1052692043e-002
 3.0098898576e+000	 1.6343769594e+000	 1.0013922761e-001
 2.9931469256e+000	 1.6648412783e+000	 1.3776951443e-001
 2.9760712159e+000	 1.6951770168e+000	 1.4398926551e-001
 2.9586640346e+000	 1.7253788368e+000	 1.1888904411e-001
 2.9409268003e+000	 1.7554414133e+000	 6.2604813274e-002
 2.9228610436e+000	 1.7853594372e+000	-2.4681580093e-002
 2.9044684072e+000	 1.8151276185e+000	-1.4274198885e-001
 2.8857506459e+000	 1.8447406891e+000	-2.9130161867e-001
 2.8667096260e+000	 1.8741934053e+000	-4.7003875232e-001
 3.0645798236e+000	 1.5845663461e+000	-4.3437040752e-002
 3.0483885900e+000	 1.6154959005e+000	 9.2345032208e-002
 3.0318598565e+000	 1.6463067183e+000	 1.8985329107e-001
 3.0149947134e+000	 1.6769934045e+000	 2.4907728223e-001
 2.9977943634e+000	 1.7075505717e+000	 2.7005757490e-001
 2.9802601225e+000	 1.7379728429e+000	 2.5288644919e-001
 2.9623934193e+000	 1.7682548542e+000	 1.9770851206e-001
 2.9441957958e+000	 1.7983912579e+000	 1.0472123903e-001
 2.9256689066e+000	 1.8283767252e+000	-2.5824560653e-002
 2.9068145192e+000	 1.8582059496e+000	-1.9362435755e-001
 2.8876345137e+000	 1.8878736492e+000	-3.5931224206e-001
 3.0867869237e+000	 1.5960487109e+000	-8.8660656714e-003
 3.0704783624e+000	 1.6272023926e+000	 1.6280497938e-001
 3.0538298555e+000	 1.6582364771e+000	 2.8947923503e-001
 3.0368425011e+000	 1.6891455306e+000	 3.7113433693e-001
 3.0195175110e+000	 1.7199241266e+000	 4.0780567385e-001
 3.0018562103e+000	 1.7505668490e+000	 3.9958715026e-001
 2.9838600383e+000	 1.7810682952e+000	 3.4663186850e-001
 2.9655305479e+000	 1.8114230786e+000	 2.4915272792e-001
 2.9468694059e+000	 1.8416258319e+000	 1.0742293857e-001
 2.9278783926e+000	 1.8716712101e+000	-7.8223552871e-002
 2.9085594015e+000	 1.9015538930e+000	-2.2700136199e-001
 3.1089940239e+000	 1.6075310757e+000	 3.4343183217e-002
 3.0925681348e+000	 1.6389088846e+000	 2.4254482578e-001
 3.0757998544e+000	 1.6701662359e+000	 3.9911767597e-001
 3.0586902889e+000	 1.7012976567e+000	 5.0402747285e-001
 3.0412406585e+000	 1.7322976814e+000	 5.5730438480e-001
 3.0234522981e+000	 1.7631608551e+000	 5.5904384636e-001
 3.0053266573e+000	 1.7938817362e+000	 5.0940730625e-001
 2.9868653000e+000	 1.8244548993e+000	 4.0862288370e-001
 2.9680699052e+000	 1.8548749386e+000	 2.5698593055e-001
 2.9489422659e+000	 1.8851364706e+000	 8.4006655215e-002
 2.9294842893e+000	 1.9152341368e+000	-7.5444510014e-002
 2.7202354115e+000	 1.7784316985e+000	-4.2716877870e-001
 2.7018624252e+000	 1.8062224213e+000	-3.8415860246e-001
 2.6831865557e+000	 1.8338511137e+000	-3.6579924543e-001
 2.6642098895e+000	 1.8613128874e+000	-3.7195024675e-001
 2.6449346172e+000	 1.8886028886e+000	-3.6116178467e-001
 2.6253630329e+000	 1.9157163009e+000	-3.3792759394e-001
 2.6054975333e+000	 1.9426483480e+000	-3.4678773266e-001
 2.5853406170e+000	 1.9693942963e+000	-3.8961145585e-001
 2.5648948833e+000	 1.9959494577e+000	-4.6824548409e-001
 2.5441630315e+000	 2.0223091922e+000	-5.8450938465e-001
 2.5231478596e+000	 2.0484689108e+000	-7.4019096187e-001
 2.7411602993e+000	 1.7921119423e+000	-4.9234710665e-001
 2.7226459824e+000	 1.8201164399e+000	-4.8351286378e-001
 2.7038264523e+000	 1.8479576607e+000	-4.9116159404e-001
 2.6847038117e+000	 1.8756306788e+000	-5.1323472839e-001
 2.6652802681e+000	 1.9031306032e+000	-4.6991294464e-001
 2.6455581331e+000	 1.9304525802e+000	-4.4864843688e-001
 2.6255398220e+000	 1.9575917969e+000	-4.5146597415e-001
 2.6052278525e+000	 1.9845434832e+000	-4.8038063692e-001
 2.5846248440e+000	 2.0113029150e+000	-5.3739302882e-001
 2.5637335164e+000	 2.0378654168e+000	-6.2448447390e-001
 2.5425566893e+000	 2.0642263640e+000	-7.4361221158e-001
 2.7620851870e+000	 1.8057921862e+000	-5.3766524853e-001
 2.7434295395e+000	 1.8340104585e+000	-5.6455765510e-001
 2.7244663489e+000	 1.8620642078e+000	-5.9989637377e-001
 2.7051977340e+000	 1.8899484703e+000	-5.9704711566e-001
 2.6856259190e+000	 1.9176583177e+000	-5.6532617543e-001
 2.6657532334e+000	 1.9451888594e+000	-5.4763854589e-001
 2.6455821107e+000	 1.9725352457e+000	-5.4614736678e-001
 2.6251150880e+000	 1.9996926701e+000	-5.6301424133e-001
 2.6043548046e+000	 2.0266563724e+000	-6.0039427386e-001
 2.5833040013e+000	 2.0534216413e+000	-6.6043108102e-001
 2.5619655190e+000	 2.0799838171e+000	-7.4525178941e-001
 2.7830100748e+000	 1.8194724300e+000	-5.6323499419e-001
 2.7642130966e+000	 1.8479044772e+000	-6.2736702628e-001
 2.7451062455e+000	 1.8761707548e+000	-6.8835443067e-001
 2.7256916562e+000	 1.9042662617e+000	-6.6581693463e-001
 2.7059715699e+000	 1.9321860322e+000	-6.4712124570e-001
 2.6859483336e+000	 1.9599251387e+000	-6.3455805283e-001
 2.6656243995e+000	 1.9874786945e+000	-6.3042967256e-001
 2.6450023235e+000	 2.0148418570e+000	-6.3704496117e-001
 2.6240847652e+000	 2.0420098298e+000	-6.5671417599e-001
 2.6028744861e+000	 2.0689778659e+000	-6.9174379870e-001
 2.5813743487e+000	 2.0957412703e+000	-7.4443133351e-001
 2.8039349626e+000	 1.8331526738e+000	-5.6916150083e-001
 2.7849966537e+000	 1.8617984958e+000	-6.7200949674e-001
 2.7657461421e+000	 1.8902773018e+000	-7.1954891995e-001
 2.7461855784e+000	 1.9185840532e+000	-7.1931775485e-001
 2.7263172208e+000	 1.9467137467e+000	-7.1501620800e-001
 2.7061434339e+000	 1.9746614179e+000	-7.0906681294e-001
 2.6856666882e+000	 2.0024221433e+000	-7.0391189962e-001
 2.6648895590e+000	 2.0299910439e+000	-7.0200834005e-001
 2.6438147259e+000	 2.0573632871e+000	-7.0582223113e-001
 2.6224449710e+000	 2.0845340904e+000	-7.1782352782e-001
 2.6007831784e+000	 2.1114987234e+000	-7.4048064003e-001
 2.8248598504e+000	 1.8468329177e+000	-5.5554353866e-001
 2.8057802108e+000	 1.8756925144e+000	-6.9638664430e-001
 2.7863860387e+000	 1.9043838488e+000	-7.3404727659e-001
 2.7666795006e+000	 1.9329018446e+000	-7.5732018785e-001
 2.7466628717e+000	 1.9612414613e+000	-7.6872746240e-001
 2.7263385341e+000	 1.9893976971e+000	-7.7082441508e-001
 2.7057089769e+000	 2.0173655922e+000	-7.6619425603e-001
 2.6847767946e+000	 2.0451402308e+000	-7.5744266754e-001
 2.6635446865e+000	 2.0727167445e+000	-7.4719230618e-001
 2.6420154558e+000	 2.1000903150e+000	-7.3807724380e-001
 2.6201920081e+000	 2.1272561766e+000	-7.3273736103e-001
 2.8457847382e+000	 1.8605131615e+000	-5.2247372570e-001
 2.8265637680e+000	 1.8895865330e+000	-6.6154918937e-001
 2.8070259352e+000	 1.9184903959e+000	-7.3166766680e-001
 2.7871734229e+000	 1.9472196360e+000	-7.7959199585e-001
 2.7670085226e+000	 1.9757691758e+000	-8.0796981714e-001
 2.7465336344e+000	 2.0041339764e+000	-8.1949019152e-001
 2.7257512656e+000	 2.0323090410e+000	-8.1687810572e-001
 2.7046640301e+000	 2.0602894177e+000	-8.0288887819e-001
 2.6832746472e+000	 2.0880702019e+000	-7.8030247836e-001
 2.6615859407e+000	 2.1156465395e+000	-7.5191777326e-001
 2.6396008378e+000	 2.1430136297e+000	-7.2054671561e-001
 2.8667096260e+000	 1.8741934053e+000	-4.7003875232e-001
 2.8473473251e+000	 1.9034805517e+000	-6.0866083147e-001
 2.8276658318e+000	 1.9325969429e+000	-7.1222437507e-001
 2.8076673451e+000	 1.9615374275e+000	-7.8589819573e-001
 2.7873541735e+000	 1.9902968903e+000	-8.3245654681e-001
 2.7667287347e+000	 2.0188702556e+000	-8.5472322732e-001
 2.7457935543e+000	 2.0472524898e+000	-8.5556592625e-001
 2.7245512656e+000	 2.0754386045e+000	-8.3789045501e-001
 2.7030046078e+000	 2.1034236592e+000	-8.0463488156e-001
 2.6811564256e+000	 2.1312027641e+000	-7.5876358052e-001
 2.6590096675e+000	 2.1587710829e+000	-7.0326121375e-001
 2.8876345137e+000	 1.8878736492e+000	-3.5931224206e-001
 2.8681308822e+000	 1.9173745703e+000	-5.3757785856e-001
 2.8483057284e+000	 1.9467034899e+000	-6.7552794479e-001
 2.8281612673e+000	 1.9758552189e+000	-7.7600115856e-001
 2.8076998244e+000	 2.0048246048e+000	-8.4189944788e-001
 2.7869238349e+000	 2.0336065348e+000	-8.7618236928e-001
 2.7658358430e+000	 2.0621959387e+000	-8.8186126850e-001
 2.7444385011e+000	 2.0905877914e+000	-8.6199333711e-001
 2.7227345685e+000	 2.1187771166e+000	-8.1967555931e-001
 2.7007269104e+000	 2.1467589886e+000	-7.5803856329e-001
 2.6784184972e+000	 2.1745285361e+000	-6.8024039216e-001
 2.9085594015e+000	 1.9015538930e+000	-2.2700136199e-001
 2.8889144393e+000	 1.9312685889e+000	-4.4815196646e-001
 2.8689456250e+000	 1.9608100369e+000	-6.2138531282e-001
 2.8486551895e+000	 1.9901730104e+000	-7.4966070471e-001
 2.8280454753e+000	 2.0193523194e+000	-8.3600889186e-001
 2.8071189352e+000	 2.0483428141e+000	-8.8352623452e-001
 2.7858781318e+000	 2.0771393875e+000	-8.9536871805e-001
 2.7643257366e+000	 2.1057369783e+000	-8.7474583139e-001
 2.7424645291e+000	 2.1341305740e+000	-8.2491432418e-001
 2.7202973953e+000	 2.1623152132e+000	-7.4917185722e-001
 2.6978273268e+000	 2.1902859892e+000	-6.5085056153e-001
 2.9294842893e+000	 1.9152341368e+000	-7.5444510014e-002
 2.9096979964e+000	 1.9451626075e+000	-3.4023042277e-001
 2.8895855216e+000	 1.9749165840e+000	-5.4959993834e-001
 2.8691491118e+000	 2.0044908018e+000	-7.0663419500e-001
 2.8483911262e+000	 2.0338800339e+000	-8.1449387621e-001
 2.8273140354e+000	 2.0630790933e+000	-8.7641321867e-001
 2.8059204205e+000	 2.0920828363e+000	-8.9569385822e-001
 2.7842129721e+000	 2.1208861652e+000	-8.7569852793e-001
 2.7621944897e+000	 2.1494840313e+000	-8.1984462318e-001
 2.7398678801e+000	 2.1778714378e+000	-7.3159764889e-001
 2.7172361565e+000	 2.2060434424e+000	-6.1446456456e-001
 2.5231478596e+000	 2.0484689108e+000	-7.4019096187e-001
 2.5018522630e+000	 2.0744240777e+000	-9.0708956672e-001
 2.4802792335e+000	 2.1001702130e+000	-8.9808912274e-001
 2.4584318577e+000	 2.1257028957e+000	-8.7273318701e-001
 2.4363133158e+000	 2.1510177654e+000	-8.4914342773e-001
 2.4139268797e+000	 2.1761105255e+000	-8.2789870808e-001
 2.3912759120e+000	 2.2009769451e+000	-8.0953495014e-001
 2.3683638636e+000	 2.2256128616e+000	-7.9454355930e-001
 2.3451942726e+000	 2.2500141830e+000	-7.8336998100e-001
 2.3217707623e+000	 2.2741768901e+000	-7.7641239409e-001
 2.2980970388e+000	 2.2980970388e+000	-7.7402054453e-001
 2.5425566893e+000	 2.0642263640e+000	-7.4361221158e-001
 2.5210972804e+000	 2.0903811859e+000	-8.8146025368e-001
 2.4993583046e+000	 2.1163253685e+000	-1.0341404554e+000
 2.4773428720e+000	 2.1420544564e+000	-9.8614513022e-001
 2.4550541875e+000	 2.1675640559e+000	-9.4407535643e-001
 2.4324955480e+000	 2.1928498373e+000	-9.0845984878e-001
 2.4096703421e+000	 2.2179075370e+000	-8.7977908548e-001
 2.3865820472e+000	 2.2427329605e+000	-8.5846376133e-001
 2.3632342286e+000	 2.2673219844e+000	-8.4489338205e-001
 2.3396305373e+000	 2.2916705585e+000	-8.3939500419e-001
 2.3157747084e+000	 2.3157747084e+000	-8.4224212437e-001
 2.5619655190e+000	 2.0799838171e+000	-7.4525178941e-001
 2.5403422979e+000	 2.1063382942e+000	-8.5184059546e-001
 2.5184373756e+000	 2.1324805240e+000	-9.8396109973e-001
 2.4962538863e+000	 2.1584060172e+000	-1.1033636466e+000
 2.4737950591e+000	 2.1841103464e+000	-1.0407148342e+000
 2.4510642163e+000	 2.2095891490e+000	-9.8860292125e-001
 2.4280647722e+000	 2.2348381289e+000	-9.4745434091e-001
 2.4048002307e+000	 2.2598530594e+000	-9.1764046869e-001
 2.3812741845e+000	 2.2846297858e+000	-8.9947625269e-001
 2.3574903124e+000	 2.3091642269e+000	-8.9321899847e-001
 2.3334523779e+000	 2.3334523779e+000	-8.9906731222e-001
 2.5813743487e+000	 2.0957412703e+000	-7.4443133351e-001
 2.5595873153e+000	 2.1222954025e+000	-8.1758014277e-001
 2.5375164466e+000	 2.1486356795e+000	-9.2043264753e-001
 2.5151649006e+000	 2.1747575779e+000	-1.0551440904e+000
 2.4925359308e+000	 2.2006566370e+000	-1.1381145350e+000
 2.4696328847e+000	 2.2263284607e+000	-1.0674198640e+000
 2.4464592022e+000	 2.2517687207e+000	-1.0116935531e+000
 2.4230184143e+000	 2.2769731584e+000	-9.7124903405e-001
 2.3993141405e+000	 2.3019375872e+000	-9.4633806250e-001
 2.3753500875e+000	 2.3266578953e+000	-9.3714954608e-001
 2.3511300474e+000	 2.3511300474e+000	-9.4380854009e-001
 2.6007831784e+000	 2.1114987234e+000	-7.4048064003e-001
 2.5788323327e+000	 2.1382525108e+000	-7.7803544714e-001
 2.5565955176e+000	 2.1647908350e+000	-8.4942441228e-001
 2.5340759149e+000	 2.1911091386e+000	-9.5681355000e-001
 2.5112768024e+000	 2.2172029275e+000	-1.1023285514e+000
 2.4882015530e+000	 2.2430677725e+000	-1.1440046136e+000
 2.4648536323e+000	 2.2686993126e+000	-1.0716302156e+000
 2.4412365979e+000	 2.2940932573e+000	-1.0184640907e+000
 2.4173540964e+000	 2.3192453886e+000	-9.8469615091e-001
 2.3932098626e+000	 2.3441515636e+000	-9.7044824158e-001
 2.3688077170e+000	 2.3688077170e+000	-9.7577318784e-001
 2.6201920081e+000	 2.1272561766e+000	-7.3273736103e-001
 2.5980773501e+000	 2.1542096191e+000	-7.3256980163e-001
 2.5756745887e+000	 2.1809459905e+000	-7.7032666908e-001
 2.5529869292e+000	 2.2074606994e+000	-8.4818698590e-001
 2.5300176741e+000	 2.2337492180e+000	-9.6828518656e-001
 2.5067702213e+000	 2.2598070842e+000	-1.1327059142e+000
 2.4832480624e+000	 2.2856299045e+000	-1.1263984545e+000
 2.4594547814e+000	 2.3112133562e+000	-1.0584595791e+000
 2.4353940524e+000	 2.3365531900e+000	-1.0137658061e+000
 2.4110696377e+000	 2.3616452320e+000	-9.9237323729e-001
 2.3864853865e+000	 2.3864853865e+000	-9.9426377036e-001
 2.6396008378e+000	 2.1430136297e+000	-7.2054671561e-001
 2.6173223675e+000	 2.1701667274e+000	-6.8055299296e-001
 2.5947536597e+000	 2.1971011459e+000	-6.8253507812e-001
 2.5718979435e+000	 2.2238122601e+000	-7.2868723630e-001
 2.5487585458e+000	 2.2502955085e+000	-8.2115490035e-001
 2.5253388896e+000	 2.2765463959e+000	-9.6202938456e-001
 2.5016424925e+000	 2.3025604964e+000	-1.1533426803e+000
 2.4776729650e+000	 2.3283334552e+000	-1.0904087725e+000
 2.4534340083e+000	 2.3538609914e+000	-1.0327603405e+000
 2.4289294128e+000	 2.3791389004e+000	-1.0021793699e+000
 2.4041630560e+000	 2.4041630560e+000	-9.9857811640e-001
 2.6590096675e+000	 2.1587710829e+000	-7.0326121375e-001
 2.6365673849e+000	 2.1861238357e+000	-6.2136106453e-001
 2.6138327307e+000	 2.2132563014e+000	-5.8545048820e-001
 2.5908089578e+000	 2.2401638209e+000	-5.9774122643e-001
 2.5674994174e+000	 2.2668417990e+000	-6.6039196385e-001
 2.5439075579e+000	 2.2932857077e+000	-7.7550295560e-001
 2.5200369226e+000	 2.3194910883e+000	-9.4511074305e-001
 2.4958911486e+000	 2.3454535541e+000	-1.1134843012e+000
 2.4714739642e+000	 2.3711687928e+000	-1.0408911627e+000
 2.4467891879e+000	 2.3966325688e+000	-9.9911828147e-001
 2.4218407256e+000	 2.4218407256e+000	-9.8800953958e-001
 2.6784184972e+000	 2.1745285361e+000	-6.8024039216e-001
 2.6558124023e+000	 2.2020809440e+000	-5.5437608970e-001
 2.6329118018e+000	 2.2294114569e+000	-4.7847874867e-001
 2.6097199721e+000	 2.2565153816e+000	-4.5477982057e-001
 2.5862402891e+000	 2.2833880895e+000	-4.8545349378e-001
 2.5624762262e+000	 2.3100250194e+000	-5.7261123190e-001
 2.5384313527e+000	 2.3364216802e+000	-7.1829640621e-001
 2.5141093321e+000	 2.3625736530e+000	-9.2447903678e-001
 2.4895139202e+000	 2.3884765942e+000	-1.0373678466e+000
 2.4646489630e+000	 2.4141262372e+000	-9.8243853513e-001
 2.4395183951e+000	 2.4395183951e+000	-9.6184700202e-001
 2.6978273268e+000	 2.1902859892e+000	-6.5085056153e-001
 2.6750574197e+000	 2.2180380522e+000	-4.7898595494e-001
 2.6519908728e+000	 2.2455666124e+000	-3.6103052962e-001
 2.6286309864e+000	 2.2728669423e+000	-2.9923768025e-001
 2.6049811607e+000	 2.2999343800e+000	-2.9579935015e-001
 2.5810448945e+000	 2.3267643311e+000	-3.5284047725e-001
 2.5568257828e+000	 2.3533522720e+000	-4.7241354016e-001
 2.5323275157e+000	 2.3796937520e+000	-6.5649321935e-001
 2.5075538761e+000	 2.4057843956e+000	-9.0697118756e-001
 2.4825087381e+000	 2.4316199056e+000	-9.5138572588e-001
 2.4571960646e+000	 2.4571960646e+000	-9.1937527086e-001
 2.7172361565e+000	 2.2060434424e+000	-6.1446456456e-001
 2.6943024371e+000	 2.2339951605e+000	-3.9458415218e-001
 2.6710699438e+000	 2.2617217679e+000	-2.3252114969e-001
 2.6475420007e+000	 2.2892185031e+000	-1.3055312871e-001
 2.6237220324e+000	 2.3164806705e+000	-9.0892038315e-002
 2.5996135628e+000	 2.3435036429e+000	-1.1567855539e-001
 2.5752202129e+000	 2.3702828639e+000	-2.0697654127e-001
 2.5505456993e+000	 2.3968138509e+000	-3.6676761965e-001
 2.5255938321e+000	 2.4230921970e+000	-5.9694589058e-001
 2.5003685132e+000	 2.4491135740e+000	-8.9931279475e-001
 2.4748737342e+000	 2.4748737342e+000	-8.5987506805e-001
 2.2980970388e+000	 2.2980970388e+000	-7.7402054453e-001
 2.2741768901e+000	 2.3217707623e+000	-7.5617708796e-001
 2.2500141830e+000	 2.3451942726e+000	-7.5481078694e-001
 2.2256128616e+000	 2.3683638636e+000	-7.6962191403e-001
 2.2009769451e+000	 2.3912759120e+000	-8.0024921599e-001
 2.1761105255e+000	 2.4139268797e+000	-8.4627004486e-001
 2.1510177654e+000	 2.4363133158e+000	-9.0720065430e-001
 2.1257028957e+000	 2.4584318577e+000	-9.8249666099e-001
 2.1001702130e+000	 2.4802792335e+000	-1.0715536698e+000
 2.0744240777e+000	 2.5018522630e+000	-1.1654278343e+000
 2.0484689108e+000	 2.5231478596e+000	-1.1869112900e+000
 2.3157747084e+000	 2.3157747084e+000	-8.4224212437e-001
 2.2916705585e+000	 2.3396305373e+000	-8.2183911591e-001
 2.2673219844e+000	 2.3632342286e+000	-8.1878686802e-001
 2.2427329605e+000	 2.3865820472e+000	-8.3282739050e-001
 2.2179075370e+000	 2.4096703421e+000	-8.6363878856e-001
 2.1928498373e+000	 2.4324955480e+000	-9.1083534676e-001
 2.1675640559e+000	 2.4550541875e+000	-9.7396778382e-001
 2.1420544564e+000	 2.4773428720e+000	-1.0525236776e+000
 2.1163253685e+000	 2.4993583046e+000	-1.1459280597e+000
 2.0903811859e+000	 2.5210972804e+000	-1.1594032953e+000
 2.0642263640e+000	 2.5425566893e+000	-1.1884857801e+000
 2.3334523779e+000	 2.3334523779e+000	-8.9906731222e-001
 2.3091642269e+000	 2.3574903124e+000	-8.7694709754e-001
 2.2846297858e+000	 2.3812741845e+000	-8.7307620354e-001
 2.2598530594e+000	 2.4048002307e+000	-8.8723816538e-001
 2.2348381289e+000	 2.4280647722e+000	-9.1915019147e-001
 2.2095891490e+000	 2.4510642163e+000	-9.6846320057e-001
 2.1841103464e+000	 2.4737950591e+000	-1.0347620351e+000
 2.1584060172e+000	 2.4962538863e+000	-1.1175658503e+000
 2.1324805240e+000	 2.5184373756e+000	-1.1332044776e+000
 2.1063382942e+000	 2.5403422979e+000	-1.1506340384e+000
 2.0799838171e+000	 2.5619655190e+000	-1.1880798364e+000
 2.3511300474e+000	 2.3511300474e+000	-9.4380854009e-001
 2.3266578953e+000	 2.3753500875e+000	-9.2079238005e-001
 2.3019375872e+000	 2.3993141405e+000	-9.1694963000e-001
 2.2769731584e+000	 2.4230184143e+000	-9.3210514988e-001
 2.2517687207e+000	 2.4464592022e+000	-9.6601500688e-001
 2.2263284607e+000	 2.4696328847e+000	-1.0183664658e+000
 2.2006566370e+000	 2.4925359308e+000	-1.0887781611e+000
 2.1747575779e+000	 2.5151649006e+000	-1.1083382289e+000
 2.1486356795e+000	 2.5375164466e+000	-1.1131060021e+000
 2.1222954025e+000	 2.5595873153e+000	-1.1380976666e+000
 2.0957412703e+000	 2.5813743487e+000	-1.1846482840e+000
 2.3688077170e+000	 2.3688077170e+000	-9.7577318784e-001
 2.3441515636e+000	 2.3932098626e+000	-9.5266183496e-001
 2.3192453886e+000	 2.4173540964e+000	-9.4967408128e-001
 2.2940932573e+000	 2.4412365979e+000	-9.6667592206e-001
 2.2686993126e+000	 2.4648536323e+000	-1.0034620494e+000
 2.2430677725e+000	 2.4882015530e+000	-1.0597557958e+000
 2.2172029275e+000	 2.5112768024e+000	-1.0847019611e+000
 2.1911091386e+000	 2.5340759149e+000	-1.0760158168e+000
 2.1647908350e+000	 2.5565955176e+000	-1.0875337812e+000
 2.1382525108e+000	 2.5788323327e+000	-1.1207717752e+000
 2.1114987234e+000	 2.6007831784e+000	-1.1771464776e+000
 2.3864853865e+000	 2.3864853865e+000	-9.9426377036e-001
 2.3616452320e+000	 2.4110696377e+000	-9.7183802387e-001
 2.3365531900e+000	 2.4353940524e+000	-9.7051273320e-001
 2.3112133562e+000	 2.4594547814e+000	-9.9019485030e-001
 2.2856299045e+000	 2.4832480624e+000	-1.0307174684e+000
 2.2598070842e+000	 2.5067702213e+000	-1.0620507648e+000
 2.2337492180e+000	 2.5300176741e+000	-1.0393479740e+000
 2.2074606994e+000	 2.5529869292e+000	-1.0365932314e+000
 2.1809459905e+000	 2.5756745887e+000	-1.0554879188e+000
 2.1542096191e+000	 2.5980773501e+000	-1.0976339522e+000
 2.1272561766e+000	 2.6201920081e+000	-1.1645302809e+000
 2.4041630560e+000	 2.4041630560e+000	-9.9857811640e-001
 2.3791389004e+000	 2.4289294128e+000	-9.7759935691e-001
 2.3538609914e+000	 2.4534340083e+000	-9.7872514167e-001
 2.3283334552e+000	 2.4776729650e+000	-1.0019032113e+000
 2.3025604964e+000	 2.5016424925e+000	-1.0399808655e+000
 2.2765463959e+000	 2.5253388896e+000	-1.0029406547e+000
 2.2502955085e+000	 2.5487585458e+000	-9.8534765429e-001
 2.2238122601e+000	 2.5718979435e+000	-9.8909284912e-001
 2.1971011459e+000	 2.5947536597e+000	-1.0159680090e+000
 2.1701667274e+000	 2.6173223675e+000	-1.0676617787e+000
 2.1430136297e+000	 2.6396008378e+000	-1.1457560488e+000
 2.4218407256e+000	 2.4218407256e+000	-9.8800953958e-001
 2.3966325688e+000	 2.4467891879e+000	-9.6922024428e-001
 2.3711687928e+000	 2.4714739642e+000	-9.7356737485e-001
 2.3454535541e+000	 2.4958911486e+000	-1.0010393028e+000
 2.3194910883e+000	 2.5200369226e+000	-9.6646887745e-001
 2.2932857077e+000	 2.5439075579e+000	-9.3371829869e-001
 2.2668417990e+000	 2.5674994174e+000	-9.2174543811e-001
 2.2401638209e+000	 2.5908089578e+000	-9.3253606595e-001
 2.2132563014e+000	 2.6138327307e+000	-9.6797315457e-001
 2.1861238357e+000	 2.6365673849e+000	-1.0298328293e+000
 2.1587710829e+000	 2.6590096675e+000	-1.1197806089e+000
 2.4395183951e+000	 2.4395183951e+000	-9.6184700202e-001
 2.4141262372e+000	 2.4646489630e+000	-9.4597124112e-001
 2.3884765942e+000	 2.4895139202e+000	-9.5429213945e-001
 2.3625736530e+000	 2.5141093321e+000	-9.2942750954e-001
 2.3364216802e+000	 2.5384313527e+000	-8.8145886321e-001
 2.3100250194e+000	 2.5624762262e+000	-8.5345000157e-001
 2.2833880895e+000	 2.5862402891e+000	-8.4758434124e-001
 2.2565153816e+000	 2.6097199721e+000	-8.6594333316e-001
 2.2294114569e+000	 2.6329118018e+000	-9.1050198505e-001
 2.2020809440e+000	 2.6558124023e+000	-9.8312467195e-001
 2.1745285361e+000	 2.6784184972e+000	-1.0855612446e+000
 2.4571960646e+000	 2.4571960646e+000	-9.1937527086e-001
 2.4316199056e+000	 2.4825087381e+000	-9.0711918625e-001
 2.4057843956e+000	 2.5075538761e+000	-8.9111419611e-001
 2.3796937520e+000	 2.5323275157e+000	-8.2813820376e-001
 2.3533522720e+000	 2.5568257828e+000	-7.8403882382e-001
 2.3267643311e+000	 2.5810448945e+000	-7.6120023611e-001
 2.2999343800e+000	 2.6049811607e+000	-7.6190601002e-001
 2.2728669423e+000	 2.6286309864e+000	-7.8833419114e-001
 2.2455666124e+000	 2.6519908728e+000	-8.4255267352e-001
 2.2180380522e+000	 2.6750574197e+000	-9.2651486828e-001
 2.1902859892e+000	 2.6978273268e+000	-1.0420556787e+000
 2.4748737342e+000	 2.4748737342e+000	-8.5987506805e-001
 2.4491135740e+000	 2.5003685132e+000	-8.5061226878e-001
 2.4230921970e+000	 2.5255938321e+000	-7.7312296947e-001
 2.3968138509e+000	 2.5505456993e+000	-7.1315456037e-001
 2.3702828639e+000	 2.5752202129e+000	-6.7329454433e-001
 2.3435036429e+000	 2.5996135628e+000	-6.5603170869e-001
 2.3164806705e+000	 2.6237220324e+000	-6.6375077029e-001
 2.2892185031e+000	 2.6475420007e+000	-6.9872730201e-001
 2.2617217679e+000	 2.6710699438e+000	-7.6312295305e-001
 2.2339951605e+000	 2.6943024371e+000	-8.5898097406e-001
 2.2060434424e+000	 2.7172361565e+000	-9.8822205757e-001
 2.0484689108e+000	 2.5231478596e+000	-1.1869112900e+000
 2.0223091922e+000	 2.5441630315e+000	-1.0301238001e+000
 1.9959494577e+000	 2.5648948833e+000	-8.9760369407e-001
 1.9693942963e+000	 2.5853406170e+000	-7.9017337686e-001
 1.9426483480e+000	 2.6054975333e+000	-7.0855402982e-001
 1.9157163009e+000	 2.6253630329e+000	-6.5336404889e-001
 1.8886028886e+000	 2.6449346172e+000	-6.2511775421e-001
 1.8613128874e+000	 2.6642098895e+000	-6.6657724254e-001
 1.8338511137e+000	 2.6831865557e+000	-7.6417291982e-001
 1.8062224213e+000	 2.7018624252e+000	-8.6936241999e-001
 1.7784316985e+000	 2.7202354115e+000	-9.8001084989e-001
 2.0642263640e+000	 2.5425566893e+000	-1.1884857801e+000
 2.0378654168e+000	 2.5637335164e+000	-1.0385501162e+000
 2.0113029150e+000	 2.5846248440e+000	-9.1234478395e-001
 1.9845434832e+000	 2.6052278525e+000	-8.1069279303e-001
 1.9575917969e+000	 2.6255398220e+000	-7.3431437534e-001
 1.9304525802e+000	 2.6455581331e+000	-6.8382540278e-001
 1.9031306032e+000	 2.6652802681e+000	-6.5973608114e-001
 1.8756306788e+000	 2.6847038117e+000	-6.6244992176e-001
 1.8479576607e+000	 2.7038264523e+000	-7.5495469496e-001
 1.8201164399e+000	 2.7226459824e+000	-8.5469250301e-001
 1.7921119423e+000	 2.7411602993e+000	-9.5776243633e-001
 2.0799838171e+000	 2.5619655190e+000	-1.1880798364e+000
 2.0534216413e+000	 2.5833040013e+000	-1.0440442179e+000
 2.0266563724e+000	 2.6043548046e+000	-9.2326974803e-001
 1.9996926701e+000	 2.6251150880e+000	-8.2658121524e-001
 1.9725352457e+000	 2.6455821107e+000	-7.5469898852e-001
 1.9451888594e+000	 2.6657532334e+000	-7.0823741289e-001
 1.9176583177e+000	 2.6856259190e+000	-6.8770348659e-001
 1.8899484703e+000	 2.7051977340e+000	-6.9349582155e-001
 1.8620642078e+000	 2.7244663489e+000	-7.5004716836e-001
 1.8340104585e+000	 2.7434295395e+000	-8.4402370139e-001
 1.8057921862e+000	 2.7620851870e+000	-9.3923146051e-001
 2.0957412703e+000	 2.5813743487e+000	-1.1846482840e+000
 2.0689778659e+000	 2.6028744861e+000	-1.0455784471e+000
 2.0420098298e+000	 2.6240847652e+000	-9.2936852644e-001
 2.0148418570e+000	 2.6450023235e+000	-8.3684626194e-001
 1.9874786945e+000	 2.6656243995e+000	-7.6873324383e-001
 1.9599251387e+000	 2.6859483336e+000	-7.2564328476e-001
 1.9321860322e+000	 2.7059715699e+000	-7.0808107936e-001
 1.9042662617e+000	 2.7256916562e+000	-7.1644115255e-001
 1.8761707548e+000	 2.7451062455e+000	-7.5100709766e-001
 1.8479044772e+000	 2.7642130966e+000	-8.3730220364e-001
 1.8194724300e+000	 2.7830100748e+000	-9.2438614448e-001
 2.1114987234e+000	 2.6007831784e+000	-1.1771464776e+000
 2.0845340904e+000	 2.6224449710e+000	-1.0421250274e+000
 2.0573632871e+000	 2.6438147259e+000	-9.2963031017e-001
 2.0299910439e+000	 2.6648895590e+000	-8.4049418833e-001
 2.0024221433e+000	 2.6856666882e+000	-7.7544055544e-001
 1.9746614179e+000	 2.7061434339e+000	-7.3508368396e-001
 1.9467137467e+000	 2.7263172208e+000	-7.1992686606e-001
 1.9185840532e+000	 2.7461855784e+000	-7.3036134904e-001
 1.8902773018e+000	 2.7657461421e+000	-7.6666556625e-001
 1.8617984958e+000	 2.7849966537e+000	-8.3446951716e-001
 1.8331526738e+000	 2.8039349626e+000	-9.1318953932e-001
 2.1272561766e+000	 2.6201920081e+000	-1.1645302809e+000
 2.1000903150e+000	 2.6420154558e+000	-1.0326560683e+000
 2.0727167445e+000	 2.6635446865e+000	-9.2304356872e-001
 2.0451402308e+000	 2.6847767946e+000	-8.3652993677e-001
 2.0173655922e+000	 2.7057089769e+000	-7.7384244979e-001
 1.9893976971e+000	 2.7263385341e+000	-7.3559683009e-001
 1.9612414613e+000	 2.7466628717e+000	-7.2229586604e-001
 1.9329018446e+000	 2.7666795006e+000	-7.3432833382e-001
 1.9043838488e+000	 2.7863860387e+000	-7.7196822041e-001
 1.8756925144e+000	 2.8057802108e+000	-8.3537424790e-001
 1.8468329177e+000	 2.8248598504e+000	-9.0559971669e-001
 2.1430136297e+000	 2.6396008378e+000	-1.1457560488e+000
 2.1156465395e+000	 2.6615859407e+000	-1.0161435696e+000
 2.0880702019e+000	 2.6832746472e+000	-9.0859607667e-001
 2.0602894177e+000	 2.7046640301e+000	-8.2395718514e-001
 2.0323090410e+000	 2.7257512656e+000	-7.6295863506e-001
 2.0041339764e+000	 2.7465336344e+000	-7.2621858675e-001
 1.9757691758e+000	 2.7670085226e+000	-7.1424022121e-001
 1.9472196360e+000	 2.7871734229e+000	-7.2741064729e-001
 1.9184903959e+000	 2.8070259352e+000	-7.6600011620e-001
 1.8895865330e+000	 2.8265637680e+000	-8.3016154345e-001
 1.8605131615e+000	 2.8457847382e+000	-9.0156995190e-001
 2.1587710829e+000	 2.6590096675e+000	-1.1197806089e+000
 2.1312027641e+000	 2.6811564256e+000	-9.9155942555e-001
 2.1034236592e+000	 2.7030046078e+000	-8.8527493906e-001
 2.0754386045e+000	 2.7245512656e+000	-8.0177839289e-001
 2.0472524898e+000	 2.7457935543e+000	-7.4180706744e-001
 2.0188702556e+000	 2.7667287347e+000	-7.0598254750e-001
 1.9902968903e+000	 2.7873541735e+000	-6.9480930104e-001
 1.9615374275e+000	 2.8076673451e+000	-7.0867357091e-001
 1.9325969429e+000	 2.8276658318e+000	-7.4784258030e-001
 1.9034805517e+000	 2.8473473251e+000	-8.1246405171e-001
 1.8741934053e+000	 2.8667096260e+000	-9.0104889894e-001
 2.1745285361e+000	 2.6784184972e+000	-1.0855612446e+000
 2.1467589886e+000	 2.7007269104e+000	-9.5787542829e-001
 2.1187771166e+000	 2.7227345685e+000	-8.5206661560e-001
 2.0905877914e+000	 2.7444385011e+000	-7.6899484528e-001
 2.0621959387e+000	 2.7658358430e+000	-7.0940401468e-001
 2.0336065348e+000	 2.7869238349e+000	-6.7392011813e-001
 2.0048246048e+000	 2.8076998244e+000	-6.6304980303e-001
 1.9758552189e+000	 2.8281612673e+000	-6.7717924531e-001
 1.9467034899e+000	 2.8483057284e+000	-7.1657334514e-001
 1.9173745703e+000	 2.8681308822e+000	-7.8137524255e-001
 1.8878736492e+000	 2.8876345137e+000	-8.7160615175e-001
 2.1902859892e+000	 2.6978273268e+000	-1.0420556787e+000
 2.1623152132e+000	 2.7202973953e+000	-9.1406327184e-001
 2.1341305740e+000	 2.7424645291e+000	-8.0795694392e-001
 2.1057369783e+000	 2.7643257366e+000	-7.2460669555e-001
 2.0771393875e+000	 2.7858781318e+000	-6.6476411681e-001
 2.0483428141e+000	 2.8071189352e+000	-6.2906059535e-001
 2.0193523194e+000	 2.8280454753e+000	-6.1800584881e-001
 1.9901730104e+000	 2.8486551895e+000	-6.3198678320e-001
 1.9608100369e+000	 2.8689456250e+000	-6.7126667819e-001
 1.9312685889e+000	 2.8889144393e+000	-7.3598469891e-001
 1.9015538930e+000	 2.9085594015e+000	-8.2615573305e-001
 2.2060434424e+000	 2.7172361565e+000	-9.8822205757e-001
 2.1778714378e+000	 2.7398678801e+000	-8.5909455548e-001
 2.1494840313e+000	 2.7621944897e+000	-7.5193116177e-001
 2.1208861652e+000	 2.7842129721e+000	-6.6761300537e-001
 2.0920828363e+000	 2.8059204205e+000	-6.0690044424e-001
 2.0630790933e+000	 2.8273140354e+000	-5.7043124211e-001
 2.0338800339e+000	 2.8483911262e+000	-5.5871907615e-001
 2.0044908018e+000	 2.8691491118e+000	-5.7215237756e-001
 1.9749165840e+000	 2.8895855216e+000	-6.1099350570e-001
 1.9451626075e+000	 2.9096979964e+000	-6.7537825561e-001
 1.9152341368e+000	 2.9294842893e+000	-7.6531569763e-001
 1.7784316985e+000	 2.7202354115e+000	-9.8001084989e-001
 1.7504838655e+000	 2.7383035326e+000	-9.8495133644e-001
 1.7223838716e+000	 2.7560649120e+000	-9.9171559682e-001
 1.6941366922e+000	 2.7735177786e+000	-9.9819820575e-001
 1.6657473264e+000	 2.7906604674e+000	-1.0023148622e+000
 1.6372207940e+000	 2.8074914197e+000	-1.0020055189e+000
 1.6085621327e+000	 2.8240091829e+000	-9.9523743944e-001
 1.5797763955e+000	 2.8402124111e+000	-9.8000817739e-001
 1.5508686476e+000	 2.8560998648e+000	-9.5434847122e-001
 1.5218439643e+000	 2.8716704108e+000	-9.1632504994e-001
 1.4927074274e+000	 2.8869230222e+000	-8.6404334407e-001
 1.7921119423e+000	 2.7411602993e+000	-9.5776243633e-001
 1.7639491260e+000	 2.7593674059e+000	-9.5407445995e-001
 1.7356329783e+000	 2.7772654113e+000	-9.5043273534e-001
 1.7071685129e+000	 2.7948525307e+000	-9.4480694090e-001
 1.6785607674e+000	 2.8121270864e+000	-9.3518886258e-001
 1.6498148002e+000	 2.8290875075e+000	-9.1959546291e-001
 1.6209356876e+000	 2.8457323305e+000	-8.9607187695e-001
 1.5919285216e+000	 2.8620601989e+000	-8.6269432917e-001
 1.5627984065e+000	 2.8780698638e+000	-8.1757296569e-001
 1.5335504563e+000	 2.8937601832e+000	-7.5885459631e-001
 1.5041897923e+000	 2.9091301224e+000	-6.8472534140e-001
 1.8057921862e+000	 2.7620851870e+000	-9.3923146051e-001
 1.7774143865e+000	 2.7804312793e+000	-9.3001363815e-001
 1.7488820850e+000	 2.7984659106e+000	-9.1907913630e-001
 1.7202003336e+000	 2.8161872829e+000	-9.0447067506e-001
 1.6913742084e+000	 2.8335937054e+000	-8.8425406974e-001
 1.6624088063e+000	 2.8506835954e+000	-8.5652124179e-001
 1.6333092425e+000	 2.8674554780e+000	-8.1939315573e-001
 1.6040806477e+000	 2.8839079867e+000	-7.7102267620e-001
 1.5747281653e+000	 2.9000398628e+000	-7.0959733941e-001
 1.5452569483e+000	 2.9158499556e+000	-6.3334203386e-001
 1.5156721571e+000	 2.9313372226e+000	-5.4052158514e-001
 1.8194724300e+000	 2.7830100748e+000	-9.2438614448e-001
 1.7908796470e+000	 2.8014951526e+000	-9.1268281933e-001
 1.7621311917e+000	 2.8196664100e+000	-8.9751410644e-001
 1.7332321543e+000	 2.8375220350e+000	-8.7699372849e-001
 1.7041876494e+000	 2.8550603244e+000	-8.4925949553e-001
 1.6750028124e+000	 2.8722796832e+000	-8.1247626013e-001
 1.6456827974e+000	 2.8891786256e+000	-7.6483879749e-001
 1.6162327739e+000	 2.9057557745e+000	-7.0457460476e-001
 1.5866579241e+000	 2.9220098617e+000	-6.2994661400e-001
 1.5569634404e+000	 2.9379397280e+000	-5.3925581355e-001
 1.5271545219e+000	 2.9535443227e+000	-4.3084377287e-001
 1.8331526738e+000	 2.8039349626e+000	-9.1318953932e-001
 1.8043449075e+000	 2.8225590259e+000	-9.0199256982e-001
 1.7753802984e+000	 2.8408669093e+000	-8.8559537133e-001
 1.7462639751e+000	 2.8588567872e+000	-8.6218065193e-001
 1.7170010903e+000	 2.8765269434e+000	-8.2995620394e-001
 1.6875968185e+000	 2.8938757711e+000	-7.8715780542e-001
 1.6580563522e+000	 2.9109017732e+000	-7.3205204570e-001
 1.6283849000e+000	 2.9276035623e+000	-6.6293906916e-001
 1.5985876830e+000	 2.9439798607e+000	-5.7815523176e-001
 1.5686699324e+000	 2.9600295004e+000	-4.7607566521e-001
 1.5386368868e+000	 2.9757514229e+000	-3.5511674385e-001
 1.8468329177e+000	 2.8248598504e+000	-9.0559971669e-001
 1.8178101680e+000	 2.8436228993e+000	-8.9785019930e-001
 1.7886294051e+000	 2.8620674086e+000	-8.8317913394e-001
 1.7592957958e+000	 2.8801915393e+000	-8.5983621808e-001
 1.7298145313e+000	 2.8979935624e+000	-8.2609723507e-001
 1.7001908246e+000	 2.9154718589e+000	-7.8026690419e-001
 1.6704299071e+000	 2.9326249207e+000	-7.2068165373e-001
 1.6405370261e+000	 2.9494513500e+000	-6.4571231144e-001
 1.6105174418e+000	 2.9659498596e+000	-5.5376670676e-001
 1.5803764244e+000	 2.9821192728e+000	-4.4329217979e-001
 1.5501192516e+000	 2.9979585231e+000	-3.1277799225e-001
 1.8605131615e+000	 2.8457847382e+000	-9.0156995190e-001
 1.8312754286e+000	 2.8646867726e+000	-9.0015988051e-001
 1.8018785118e+000	 2.8832679079e+000	-8.9012013060e-001
 1.7723276165e+000	 2.9015262915e+000	-8.6976541343e-001
 1.7426279723e+000	 2.9194601813e+000	-8.3743753252e-001
 1.7127848307e+000	 2.9370679468e+000	-7.9150818455e-001
 1.6828034620e+000	 2.9543480683e+000	-7.3038168223e-001
 1.6526891522e+000	 2.9712991378e+000	-6.5249759345e-001
 1.6224472006e+000	 2.9879198586e+000	-5.5633329131e-001
 1.5920829165e+000	 3.0042090452e+000	-4.4040641004e-001
 1.5616016164e+000	 3.0201656232e+000	-3.0327720194e-001
 1.8741934053e+000	 2.8667096260e+000	-9.0104889894e-001
 1.8447406891e+000	 2.8857506459e+000	-9.0882276369e-001
 1.8151276185e+000	 2.9044684072e+000	-9.0627168458e-001
 1.7853594372e+000	 2.9228610436e+000	-8.9177343047e-001
 1.7554414133e+000	 2.9409268003e+000	-8.6373387386e-001
 1.7253788368e+000	 2.9586640346e+000	-8.2058974476e-001
 1.6951770168e+000	 2.9760712159e+000	-7.6081130548e-001
 1.6648412783e+000	 2.9931469256e+000	-6.8290494063e-001
 1.6343769594e+000	 3.0098898576e+000	-5.8541565707e-001
 1.6037894085e+000	 3.0262988176e+000	-4.6692948871e-001
 1.5730839812e+000	 3.0423727234e+000	-3.2607580159e-001
 1.8878736492e+000	 2.8876345137e+000	-8.7160615175e-001
 1.8582059496e+000	 2.9068145192e+000	-9.2373708617e-001
 1.8283767252e+000	 2.9256689066e+000	-9.3148575722e-001
 1.7983912579e+000	 2.9441957958e+000	-9.2566566021e-001
 1.7682548542e+000	 2.9623934193e+000	-9.0474480424e-001
 1.7379728429e+000	 2.9802601225e+000	-8.6722302750e-001
 1.7075505717e+000	 2.9977943634e+000	-8.1163462609e-001
 1.6769934045e+000	 3.0149947134e+000	-7.3655089699e-001
 1.6463067183e+000	 3.0318598565e+000	-6.4058258996e-001
 1.6154959005e+000	 3.0483885900e+000	-5.2238226334e-001
 1.5845663461e+000	 3.0645798236e+000	-3.8064653913e-001
 1.9015538930e+000	 2.9085594015e+000	-8.2615573305e-001
 1.8716712101e+000	 2.9278783926e+000	-9.4479827708e-001
 1.8416258319e+000	 2.9468694059e+000	-9.6561299698e-001
 1.8114230786e+000	 2.9655305479e+000	-9.7124768505e-001
 1.7810682952e+000	 2.9838600383e+000	-9.6023057278e-001
 1.7505668490e+000	 3.0018562103e+000	-9.3112269956e-001
 1.7199241266e+000	 3.0195175110e+000	-8.8252049772e-001
 1.6891455306e+000	 3.0368425011e+000	-8.1305829057e-001
 1.6582364771e+000	 3.0538298555e+000	-7.2141069831e-001
 1.6272023926e+000	 3.0704783624e+000	-6.0629494679e-001
 1.5960487109e+000	 3.0867869237e+000	-4.6647307459e-001
 1.9152341368e+000	 2.9294842893e+000	-7.6531569763e-001
 1.8851364706e+000	 2.9489422659e+000	-9.2550440849e-001
 1.8548749386e+000	 2.9680699052e+000	-1.0085027863e+000
 1.8244548993e+000	 2.9868653000e+000	-1.0283252719e+000
 1.7938817362e+000	 3.0053266573e+000	-1.0299530717e+000
 1.7631608551e+000	 3.0234522981e+000	-1.0120065367e+000
 1.7322976814e+000	 3.0412406585e+000	-9.7314235540e-001
 1.7012976567e+000	 3.0586902889e+000	-9.1205600908e-001
 1.6701662359e+000	 3.0757998544e+000	-8.2748413350e-001
 1.6389088846e+000	 3.0925681348e+000	-7.1820678277e-001
 1.6075310757e+000	 3.1089940239e+000	-5.8304959039e-001
 1.4927074274e+000	 2.8869230222e+000	-8.6404334407e-001
 1.4634641235e+000	 2.9018567779e+000	-9.2221277670e-001
 1.4341191402e+000	 2.9164708625e+000	-9.3574915584e-001
 1.4046775645e+000	 2.9307645658e+000	-9.0382945314e-001
 1.3751444794e+000	 2.9447372821e+000	-8.2569294448e-001
 1.3455249618e+000	 2.9583885102e+000	-7.0064223686e-001
 1.3158240793e+000	 2.9717178521e+000	-5.2804417528e-001
 1.2860468885e+000	 2.9847250126e+000	-3.0733062867e-001
 1.2561984318e+000	 2.9974097985e+000	-3.7999154533e-002
 1.2262837353e+000	 3.0097721177e+000	 1.4615257013e-001
 1.1963078061e+000	 3.0218119785e+000	 4.4133970237e-001
 1.5041897923e+000	 2.9091301224e+000	-6.8472534140e-001
 1.4747215398e+000	 2.9241787531e+000	-7.4048920565e-001
 1.4451508259e+000	 2.9389052537e+000	-7.5113242622e-001
 1.4154827765e+000	 2.9533089086e+000	-7.1591143142e-001
 1.3857225139e+000	 2.9673891074e+000	-6.3414494526e-001
 1.3558751538e+000	 2.9811453449e+000	-5.0521495331e-001
 1.3259458030e+000	 2.9945772202e+000	-3.2856754877e-001
 1.2959395569e+000	 3.0076844357e+000	-1.0371365798e-001
 1.2658614967e+000	 3.0204667969e+000	 1.6977035508e-001
 1.2357166871e+000	 3.0329242109e+000	 4.7558764320e-001
 1.2055101738e+000	 3.0450566860e+000	 8.9790679365e-001
 1.5156721571e+000	 2.9313372226e+000	-5.4052158514e-001
 1.4859789561e+000	 2.9465007283e+000	-5.9695986485e-001
 1.4561825116e+000	 2.9613396450e+000	-6.0777640084e-001
 1.4262879886e+000	 2.9758532514e+000	-5.7230523414e-001
 1.3963005484e+000	 2.9900409326e+000	-4.8994272246e-001
 1.3662253458e+000	 3.0039021796e+000	-3.6014844671e-001
 1.3360675267e+000	 3.0174365883e+000	-1.8244599789e-001
 1.3058322253e+000	 3.0306438589e+000	 4.3576356301e-002
 1.2755245616e+000	 3.0435237954e+000	 3.1826512557e-001
 1.2451496389e+000	 3.0560763041e+000	 6.5922207232e-001
 1.2147125416e+000	 3.0683013935e+000	 1.2130820848e+000
 1.5271545219e+000	 2.9535443227e+000	-4.3084377287e-001
 1.4972363725e+000	 2.9688227035e+000	-4.9098117995e-001
 1.4672141973e+000	 2.9837740362e+000	-5.0498227636e-001
 1.4370932006e+000	 2.9983975942e+000	-4.7225689330e-001
 1.4068785828e+000	 3.0126927579e+000	-3.9227722904e-001
 1.3765755378e+000	 3.0266590143e+000	-2.6457869769e-001
 1.3461892504e+000	 3.0402959564e+000	-8.8760658568e-002
 1.3157248936e+000	 3.0536032821e+000	 1.3551297460e-001
 1.2851876264e+000	 3.0665807938e+000	 4.0851324493e-001
 1.2545825907e+000	 3.0792283974e+000	 7.3044578410e-001
 1.2239149093e+000	 3.0915461010e+000	 1.3812459657e+000
 1.5386368868e+000	 2.9757514229e+000	-3.5511674385e-001
 1.5084937888e+000	 2.9911446788e+000	-4.2192453587e-001
 1.4782458830e+000	 3.0062084275e+000	-4.4206802379e-001
 1.4478984127e+000	 3.0209419370e+000	-4.1503102705e-001
 1.4174566173e+000	 3.0353445831e+000	-3.4035981177e-001
 1.3869257298e+000	 3.0494158490e+000	-2.1766388345e-001
 1.3563109741e+000	 3.0631553244e+000	-4.6616660341e-002
 1.3256175620e+000	 3.0765627052e+000	 1.7304397323e-001
 1.2948506913e+000	 3.0896377923e+000	 4.4151523376e-001
 1.2640155425e+000	 3.1023804906e+000	 7.5892912578e-001
 1.2331172771e+000	 3.1147908086e+000	 1.3967477175e+000
 1.5501192516e+000	 2.9979585231e+000	-3.1277799225e-001
 1.5197512051e+000	 3.0134666540e+000	-3.8917572271e-001
 1.4892775687e+000	 3.0286428187e+000	-4.1836776718e-001
 1.4587036247e+000	 3.0434862798e+000	-3.9991015127e-001
 1.4280346517e+000	 3.0579964084e+000	-3.3342145591e-001
 1.3972759218e+000	 3.0721726837e+000	-2.1858355566e-001
 1.3664326978e+000	 3.0860146925e+000	-5.5142237681e-002
 1.3355102304e+000	 3.0995221284e+000	 1.5709229935e-001
 1.3045137561e+000	 3.1126947907e+000	 4.1824506636e-001
 1.2734484944e+000	 3.1255325838e+000	 7.2740247138e-001
 1.2423196448e+000	 3.1380355161e+000	 1.2226807901e+000
 1.5616016164e+000	 3.0201656232e+000	-3.0327720194e-001
 1.5310086215e+000	 3.0357886292e+000	-3.9213440617e-001
 1.5003092544e+000	 3.0510772100e+000	-4.3323118981e-001
 1.4695088367e+000	 3.0660306226e+000	-4.2619402161e-001
 1.4386126862e+000	 3.0806482336e+000	-3.7071206319e-001
 1.4076261138e+000	 3.0949295184e+000	-2.6653785464e-001
 1.3765544214e+000	 3.1088740606e+000	-1.1348788056e-001
 1.3454028988e+000	 3.1224815516e+000	 8.8556983816e-002
 1.3141768210e+000	 3.1357517892e+000	 3.3631757459e-001
 1.2828814462e+000	 3.1486846770e+000	 6.2218301346e-001
 1.2515220125e+000	 3.1612802236e+000	 9.4339688113e-001
 1.5730839812e+000	 3.0423727234e+000	-3.2607580159e-001
 1.5422660378e+000	 3.0581106044e+000	-4.3021362112e-001
 1.5113409401e+000	 3.0735116012e+000	-4.8602296631e-001
 1.4803140488e+000	 3.0885749654e+000	-4.9319900428e-001
 1.4491907206e+000	 3.1033000588e+000	-4.5149976146e-001
 1.4179763059e+000	 3.1176863531e+000	-3.6074675792e-001
 1.3866761451e+000	 3.1317334287e+000	-2.1142540669e-001
 1.3552955671e+000	 3.1454409748e+000	-8.7067991030e-003
 1.3238398859e+000	 3.1588087876e+000	 2.3280187656e-001
 1.2923143980e+000	 3.1718367702e+000	 5.1022091063e-001
 1.2607243803e+000	 3.1845249311e+000	 8.2078074083e-001
 1.5845663461e+000	 3.0645798236e+000	-3.8064653913e-001
 1.5535234541e+000	 3.0804325796e+000	-5.0283928726e-001
 1.5223726258e+000	 3.0959459925e+000	-5.7612221949e-001
 1.4911192608e+000	 3.1111193082e+000	-6.0025747424e-001
 1.4597687551e+000	 3.1259518841e+000	-5.7244092254e-001
 1.4283264979e+000	 3.1404431878e+000	-4.5942048767e-001
 1.3967978688e+000	 3.1545927968e+000	-3.0322703548e-001
 1.3651882355e+000	 3.1684003979e+000	-1.0709527800e-001
 1.3335029507e+000	 3.1818657860e+000	 1.2585051245e-001
 1.3017473498e+000	 3.1949888634e+000	 3.9259893370e-001
 1.2699267480e+000	 3.2077696387e+000	 6.9025359371e-001
 1.5960487109e+000	 3.0867869237e+000	-4.6647307459e-001
 1.5647808705e+000	 3.1027545548e+000	-6.0944974555e-001
 1.5334043115e+000	 3.1183803837e+000	-7.0292200061e-001
 1.5019244728e+000	 3.1336636511e+000	-7.1345228563e-001
 1.4703467896e+000	 3.1486037093e+000	-6.5047126328e-001
 1.4386766899e+000	 3.1632000224e+000	-5.4255716980e-001
 1.4069195925e+000	 3.1774521649e+000	-3.9319780115e-001
 1.3750809039e+000	 3.1913598211e+000	-2.0576863362e-001
 1.3431660156e+000	 3.2049227845e+000	 1.6470009348e-002
 1.3111803016e+000	 3.2181409566e+000	 2.7037548909e-001
 1.2791291158e+000	 3.2310143462e+000	 5.5292508351e-001
 1.6075310757e+000	 3.1089940239e+000	-5.8304959039e-001
 1.5760382868e+000	 3.1250765300e+000	-7.4913881998e-001
 1.5444359972e+000	 3.1408147750e+000	-7.8964739611e-001
 1.5127296849e+000	 3.1562079939e+000	-7.7923210452e-001
 1.4809248240e+000	 3.1712555346e+000	-7.2174966963e-001
 1.4490268819e+000	 3.1859568571e+000	-6.2094667047e-001
 1.4170413162e+000	 3.2003115330e+000	-4.8045597426e-001
 1.3849735723e+000	 3.2143192443e+000	-3.0379348084e-001
 1.3528290804e+000	 3.2279797829e+000	-9.4355178513e-002
 1.3206132534e+000	 3.2412930498e+000	 1.4458548900e-001
 1.2883314835e+000	 3.2542590537e+000	 4.0987994539e-001
 1.1963078061e+000	 3.0218119785e+000	 4.4133970237e-001
 1.1662756302e+000	 3.0335294880e+000	-4.9110413556e-001
 1.1361921700e+000	 3.0449248518e+000	-1.2055916709e+000
 1.1060623621e+000	 3.0559983723e+000	-1.7100391171e+000
 1.0758911149e+000	 3.0667504478e+000	-2.0128976563e+000
 1.0456833066e+000	 3.0771815712e+000	-2.1231224128e+000
 1.0154437829e+000	 3.0872923289e+000	-2.0501409019e+000
 9.8517735496e-001	 3.0970833988e+000	-1.8038210468e+000
 9.5488879754e-001	 3.1065555498e+000	-1.3944388545e+000
 9.2458284674e-001	 3.1157096398e+000	-8.3264583903e-001
 8.9426419823e-001	 3.1245466141e+000	-1.2943628191e-001
 1.2055101738e+000	 3.0450566860e+000	 8.9790679365e-001
 1.1752469812e+000	 3.0568643302e+000	-3.6889699299e-002
 1.1449321098e+000	 3.0683473506e+000	-7.5150835067e-001
 1.1145705341e+000	 3.0795060520e+000	-1.2533966397e+000
 1.0841672004e+000	 3.0903408358e+000	-1.5505570937e+000
 1.0537270243e+000	 3.1008521987e+000	-1.6515160772e+000
 1.0232548889e+000	 3.1110407314e+000	-1.5652920257e+000
 9.9275564231e-001	 3.1209071173e+000	-1.3013632171e+000
 9.6223409599e-001	 3.1304521310e+000	-9.1936745011e-001
 9.3169502249e-001	 3.1396766370e+000	-4.4073350091e-001
 9.0114315360e-001	 3.1485815881e+000	 1.5051390376e-001
 1.2147125416e+000	 3.0683013935e+000	 1.2130820848e+000
 1.1842183322e+000	 3.0801991724e+000	 3.0173858132e-001
 1.1536720496e+000	 3.0917698495e+000	-3.8685288425e-001
 1.1230787061e+000	 3.1030137318e+000	-8.5968832155e-001
 1.0924432859e+000	 3.1139312239e+000	-1.1243391219e+000
 1.0617707421e+000	 3.1245228262e+000	-1.1889206390e+000
 1.0310659949e+000	 3.1347891339e+000	-1.1449808387e+000
 1.0003339297e+000	 3.1447308357e+000	-9.5435736656e-001
 9.6957939444e-001	 3.1543487122e+000	-6.2916987879e-001
 9.3880719824e-001	 3.1636436342e+000	-1.8411483088e-001
 9.0802210898e-001	 3.1726165620e+000	 3.6684894365e-001
 1.2239149093e+000	 3.0915461010e+000	 1.3812459657e+000
 1.1931896832e+000	 3.1035340146e+000	 5.1886628474e-001
 1.1624119893e+000	 3.1151923483e+000	-1.1783210597e-001
 1.1315868782e+000	 3.1265214116e+000	-5.4412809541e-001
 1.1007193714e+000	 3.1375216120e+000	-8.2877268996e-001
 1.0698144598e+000	 3.1481934537e+000	-9.4185264213e-001
 1.0388771009e+000	 3.1585375365e+000	-8.9951503617e-001
 1.0079122170e+000	 3.1685545542e+000	-7.1707564091e-001
 9.7692469289e-001	 3.1782452933e+000	-4.0904502258e-001
 9.4591937399e-001	 3.1876106315e+000	 1.0844204195e-002
 9.1490106435e-001	 3.1966515360e+000	 5.2960911180e-001
 1.2331172771e+000	 3.1147908086e+000	 1.3967477175e+000
 1.2021610342e+000	 3.1268688568e+000	 6.0122563465e-001
 1.1711519291e+000	 3.1386148472e+000	-1.7602623825e-002
 1.1400950502e+000	 3.1500290914e+000	-4.4389852228e-001
 1.1089954569e+000	 3.1611120000e+000	-6.9466555701e-001
 1.0778581776e+000	 3.1718640811e+000	-7.8600555579e-001
 1.0466882070e+000	 3.1822859390e+000	-7.3314403286e-001
 1.0154905044e+000	 3.1923782726e+000	-5.5045694289e-001
 9.8426999133e-001	 3.2021418745e+000	-2.5149870409e-001
 9.5303154973e-001	 3.2115776287e+000	 1.5096863927e-001
 9.2178001972e-001	 3.2206865099e+000	 6.4494524395e-001
 1.2423196448e+000	 3.1380355161e+000	 1.2226807901e+000
 1.2111323852e+000	 3.1502036991e+000	 4.7902575823e-001
 1.1798918689e+000	 3.1620373461e+000	-6.9326717339e-002
 1.1486032222e+000	 3.1735367712e+000	-4.3944628288e-001
 1.1172715424e+000	 3.1847023881e+000	-6.4745257004e-001
 1.0859018953e+000	 3.1955347086e+000	-7.0854092477e-001
 1.0544993130e+000	 3.2060343415e+000	-6.3700968043e-001
 1.0230687917e+000	 3.2162019911e+000	-4.4628884072e-001
 9.9161528978e-001	 3.2260384556e+000	-1.4897003791e-001
 9.6014372548e-001	 3.2355446259e+000	 2.4316236789e-001
 9.2865897510e-001	 3.2447214839e+000	 7.1909918207e-001
 1.2515220125e+000	 3.1612802236e+000	 9.4339688113e-001
 1.2201037362e+000	 3.1735385413e+000	 2.5411667863e-001
 1.1886318086e+000	 3.1854598449e+000	-2.1471852687e-001
 1.1571113942e+000	 3.1970444510e+000	-5.2000899834e-001
 1.1255476279e+000	 3.2082927761e+000	-6.7698565077e-001
 1.0939456130e+000	 3.2192053361e+000	-6.9993191854e-001
 1.0623104190e+000	 3.2297827441e+000	-6.0221297092e-001
 1.0306470791e+000	 3.2400257095e+000	-3.9630634878e-001
 9.9896058822e-001	 3.2499350368e+000	-9.3833883181e-002
 9.6725590122e-001	 3.2595116232e+000	 2.9440524299e-001
 9.3553793047e-001	 3.2687564578e+000	 7.5840042853e-001
 1.2607243803e+000	 3.1845249311e+000	 8.2078074083e-001
 1.2290750872e+000	 3.1968733835e+000	-6.1549623118e-002
 1.1973717484e+000	 3.2088823438e+000	-4.4241421827e-001
 1.1656195662e+000	 3.2205521308e+000	-6.7481863053e-001
 1.1338237134e+000	 3.2318831642e+000	-7.7309984591e-001
 1.1019893308e+000	 3.2428759635e+000	-7.5062359348e-001
 1.0701215250e+000	 3.2535311466e+000	-6.1981552800e-001
 1.0382253664e+000	 3.2638494280e+000	-3.9219384562e-001
 1.0063058867e+000	 3.2738316179e+000	-7.8403188619e-002
 9.7436807697e-001	 3.2834786204e+000	 3.1175030461e-001
 9.4241688584e-001	 3.2927914318e+000	 7.6926294685e-001
 1.2699267480e+000	 3.2077696387e+000	 6.9025359371e-001
 1.2380464382e+000	 3.2202082257e+000	-4.5603724603e-001
 1.2061116882e+000	 3.2323048426e+000	-7.4105528601e-001
 1.1741277382e+000	 3.2440598105e+000	-8.9310168708e-001
 1.1420997989e+000	 3.2554735523e+000	-9.2561393856e-001
 1.1100330485e+000	 3.2665465910e+000	-8.5103391146e-001
 1.0779326310e+000	 3.2772795491e+000	-6.8084103332e-001
 1.0458036537e+000	 3.2876731465e+000	-4.2558690862e-001
 1.0136511851e+000	 3.2977281991e+000	-9.4931235689e-002
 9.8148025271e-001	 3.3074456176e+000	 3.0232112826e-001
 9.4929584121e-001	 3.3168264057e+000	 7.5818210147e-001
 1.2791291158e+000	 3.2310143462e+000	 5.5292508351e-001
 1.2470177892e+000	 3.2435430679e+000	-9.1742579076e-001
 1.2148516279e+000	 3.2557273415e+000	-1.0992883616e+000
 1.1826359103e+000	 3.2675674903e+000	-1.1640794176e+000
 1.1503758844e+000	 3.2790639403e+000	-1.1243310332e+000
 1.1180767663e+000	 3.2902172185e+000	-9.9155471450e-001
 1.0857437371e+000	 3.3010279516e+000	-7.7627659141e-001
 1.0533819411e+000	 3.3114968649e+000	-4.8807406938e-001
 1.0209964835e+000	 3.3216247802e+000	-1.3561378490e-001
 9.8859242845e-001	 3.3314126149e+000	 2.7330928760e-001
 9.5617479658e-001	 3.3408613797e+000	 7.3173172968e-001
 1.2883314835e+000	 3.2542590537e+000	 4.0987994539e-001
 1.2559891402e+000	 3.2668779101e+000	-1.1669182548e+000
 1.2235915677e+000	 3.2791498404e+000	-1.5057650300e+000
 1.1911440823e+000	 3.2910751701e+000	-1.4769680014e+000
 1.1586519699e+000	 3.3026543284e+000	-1.3590391159e+000
 1.1261204840e+000	 3.3138878460e+000	-1.1625526576e+000
 1.0935548431e+000	 3.3247763542e+000	-8.9707403592e-001
 1.0609602284e+000	 3.3353205834e+000	-5.7119849399e-001
 1.0283417820e+000	 3.3455213614e+000	-1.9259113010e-001
 9.9570460419e-001	 3.3553796121e+000	 2.3197192597e-001
 9.6305375194e-001	 3.3648963537e+000	 6.9656133903e-001
 8.9426419823e-001	 3.1245466141e+000	-1.2943628191e-001
 8.6393750537e-001	 3.1330675043e+000	-7.8910991984e-002
 8.3360737744e-001	 3.1412734265e+000	 1.0614082745e-001
 8.0327837781e-001	 3.1491655796e+000	 4.1540538173e-001
 7.7295502237e-001	 3.1567452436e+000	 8.3516340049e-001
 7.4264177780e-001	 3.1640137784e+000	 1.3522490448e+000
 7.1234306010e-001	 3.1709726212e+000	 1.9540245102e+000
 6.8206323302e-001	 3.1776232857e+000	 2.6283543683e+000
 6.5180660668e-001	 3.1839673596e+000	 3.3635797404e+000
 6.2157743620e-001	 3.1900065032e+000	 3.3121323133e+000
 5.9137992034e-001	 3.1957424473e+000	-3.3572199456e+000
 9.0114315360e-001	 3.1485815881e+000	 1.5051390376e-001
 8.7058317850e-001	 3.1571680236e+000	 1.3594465280e-001
 8.4001974188e-001	 3.1654370683e+000	 2.4797649932e-001
 8.0945744226e-001	 3.1733899302e+000	 4.7331637006e-001
 7.7890083024e-001	 3.1810278994e+000	 7.9925980392e-001
 7.4835440687e-001	 3.1883523459e+000	 1.2136640309e+000
 7.1782262210e-001	 3.1953647183e+000	 1.7049207140e+000
 6.8730987327e-001	 3.2020665418e+000	 2.2619284542e+000
 6.5682050366e-001	 3.2084594163e+000	 2.8740651583e+000
 6.2635880109e-001	 3.2145450148e+000	 3.5311603624e+000
 5.9592899665e-001	 3.2203250815e+000	-3.3842997590e+000
 9.0802210898e-001	 3.1726165620e+000	 3.6684894365e-001
 8.7722885162e-001	 3.1812685429e+000	 2.9844214282e-001
 8.4643210633e-001	 3.1896007100e+000	 3.4453420158e-001
 8.1563650671e-001	 3.1976142808e+000	 4.9284385633e-001
 7.8484663811e-001	 3.2053105551e+000	 7.3168888332e-001
 7.5406703593e-001	 3.2126909134e+000	 1.0499572707e+000
 7.2330218410e-001	 3.2197568154e+000	 1.4370780753e+000
 6.9255651353e-001	 3.2265097978e+000	 1.8829920689e+000
 6.6183440064e-001	 3.2329514729e+000	 2.3781222755e+000
 6.3114016599e-001	 3.2390835264e+000	 2.9133444981e+000
 6.0047807296e-001	 3.2449077157e+000	-3.2409421142e+000
 9.1490106435e-001	 3.1966515360e+000	 5.2960911180e-001
 8.8387452474e-001	 3.2053690621e+000	 4.1397300034e-001
 8.5284447077e-001	 3.2137643518e+000	 4.0053376565e-001
 8.2181557116e-001	 3.2218386314e+000	 4.7802950472e-001
 7.9079244597e-001	 3.2295932108e+000	 6.3580806768e-001
 7.5977966499e-001	 3.2370294809e+000	 8.6379629876e-001
 7.2878174611e-001	 3.2441489125e+000	 1.1524689843e+000
 6.9780315378e-001	 3.2509530539e+000	 1.4928176161e+000
 6.6684829761e-001	 3.2574435295e+000	 1.8763190752e+000
 6.3592153088e-001	 3.2636220379e+000	 2.2949043376e+000
 6.0502714927e-001	 3.2694903500e+000	-2.9492947232e+000
 9.2178001972e-001	 3.2206865099e+000	 6.4494524395e-001
 8.9052019786e-001	 3.2294695814e+000	 4.8803506451e-001
 8.5925683522e-001	 3.2379279935e+000	 4.2081321474e-001
 8.2799463561e-001	 3.2460629820e+000	 4.3304510505e-001
 7.9673825384e-001	 3.2538758665e+000	 5.1511689874e-001
 7.6549229405e-001	 3.2613680485e+000	 6.5800279748e-001
 7.3426130811e-001	 3.2685410096e+000	 8.5323205608e-001
 7.0304979404e-001	 3.2753963099e+000	 1.0928558387e+000
 6.7186219458e-001	 3.2819355861e+000	 1.3694140253e+000
 6.4070289577e-001	 3.2881605495e+000	 1.6759020724e+000
 6.0957622558e-001	 3.2940729842e+000	-2.5312904481e+000
 9.2865897510e-001	 3.2447214839e+000	 7.1909918207e-001
 8.9716587098e-001	 3.2535701007e+000	 5.2622855373e-001
 8.6566919966e-001	 3.2620916352e+000	 4.1032438639e-001
 8.3417370005e-001	 3.2702873326e+000	 3.6218775326e-001
 8.0268406170e-001	 3.2781585222e+000	 3.7325176759e-001
 7.7120492311e-001	 3.2857066160e+000	 4.3554688781e-001
 7.3974087011e-001	 3.2929331067e+000	 5.4166597430e-001
 7.0829643429e-001	 3.2998395660e+000	 6.8472921385e-001
 6.7687609156e-001	 3.3064276427e+000	 8.5834902390e-001
 6.4548426067e-001	 3.3126990611e+000	 1.0565950450e+000
 6.1412530188e-001	 3.3186556184e+000	-2.0086552588e+000
 9.3553793047e-001	 3.2687564578e+000	 7.5840042853e-001
 9.0381154410e-001	 3.2776706199e+000	 5.3425230166e-001
 8.7208156410e-001	 3.2862552770e+000	 3.7412874812e-001
 8.4035276450e-001	 3.2945116833e+000	 2.6987524459e-001
 8.0862986957e-001	 3.3024411780e+000	 2.1398088339e-001
 7.7691755217e-001	 3.3100451835e+000	 1.9954167192e-001
 7.4522043211e-001	 3.3173252037e+000	 2.2022360627e-001
 7.1354307455e-001	 3.3242828220e+000	 2.7022563871e-001
 6.8188998853e-001	 3.3309196993e+000	 3.4424265517e-001
 6.5026562556e-001	 3.3372375726e+000	 4.3742857446e-001
 6.1867437819e-001	 3.3432382526e+000	-1.4029158394e+000
 9.4241688584e-001	 3.2927914318e+000	 7.6926294685e-001
 9.1045721722e-001	 3.3017711392e+000	 5.1790015816e-001
 8.7849392854e-001	 3.3104189187e+000	 3.1739339633e-001
 8.4653182894e-001	 3.3187360339e+000	 1.6064166850e-001
 8.1457567743e-001	 3.3267238337e+000	 4.1199462514e-002
 7.8263018123e-001	 3.3343837511e+000	-4.6761985041e-002
 7.5069999411e-001	 3.3417173008e+000	-1.0849362417e-001
 7.1878971480e-001	 3.3487260780e+000	-1.4870760628e-001
 6.8690388551e-001	 3.3554117559e+000	-1.7161625886e-001
 6.5504699045e-001	 3.3617760842e+000	-1.8097090449e-001
 6.2322345450e-001	 3.3678208868e+000	-7.3540686128e-001
 9.4929584121e-001	 3.3168264057e+000	 7.5818210147e-001
 9.1710289033e-001	 3.3258716585e+000	 4.8305754667e-001
 8.8490629298e-001	 3.3345825605e+000	 2.4538722919e-001
 8.5271089338e-001	 3.3429603845e+000	 3.9133195114e-002
 8.2052148530e-001	 3.3510064894e+000	-1.4107487313e-001
 7.8834281029e-001	 3.3587223186e+000	-2.9998044640e-001
 7.5617955611e-001	 3.3661093979e+000	-4.4174111912e-001
 7.2403635505e-001	 3.3731693341e+000	-5.6996963240e-001
 6.9191778248e-001	 3.3799038126e+000	-6.8777482642e-001
 6.5982835535e-001	 3.3863145957e+000	-7.9780240318e-001
 6.2777253081e-001	 3.3924035210e+000	-9.0227538520e-001
 9.5617479658e-001	 3.3408613797e+000	 7.3173172968e-001
 9.2374856345e-001	 3.3499721777e+000	 4.3569817018e-001
 8.9131865742e-001	 3.3587462022e+000	 1.6347728467e-001
 8.5888995783e-001	 3.3671847351e+000	-8.9895956470e-002
 8.2646729316e-001	 3.3752891451e+000	-3.2870649923e-001
 7.9405543935e-001	 3.3830608861e+000	-5.5660207989e-001
 7.6165911811e-001	 3.3905014950e+000	-7.7663625681e-001
 7.2928299530e-001	 3.3976125901e+000	-9.9131146806e-001
 6.9693167945e-001	 3.4043958692e+000	-1.2026219878e+000
 6.6460972024e-001	 3.4108531073e+000	-1.4120966582e+000
 6.3232160712e-001	 3.4169861552e+000	-1.6208412801e+000
 9.6305375194e-001	 3.3648963537e+000	 6.9656133903e-001
 9.3039423656e-001	 3.3740726970e+000	 3.8188085842e-001
 8.9773102186e-001	 3.3829098440e+000	 7.7125235573e-002
 8.6506902227e-001	 3.3914090857e+000	-2.2158737707e-001
 8.3241310102e-001	 3.3995718009e+000	-5.1744600340e-001
 7.9976806841e-001	 3.4073994536e+000	-8.1299182893e-001
 7.6713868010e-001	 3.4148935921e+000	-1.1101633210e+000
 7.3452963556e-001	 3.4220558462e+000	-1.4103413475e+000
 7.0194557643e-001	 3.4288879258e+000	-1.7143941640e+000
 6.6939108513e-001	 3.4353916189e+000	-2.0227221410e+000
 6.3687068343e-001	 3.4415687894e+000	-2.3353021121e+000
 5.9137992034e-001	 3.1957424473e+000	-3.3572199456e+000
 5.6121820030e-001	 3.2011769916e+000	-2.0620890044e+000
 5.3109635855e-001	 3.2063120026e+000	-1.0408715382e+000
 5.0101841767e-001	 3.2111494118e+000	-2.6588933653e-001
 4.7098833933e-001	 3.2156912140e+000	 2.8947727090e-001
 4.4101002328e-001	 3.2199394651e+000	 6.5085324555e-001
 4.1108730644e-001	 3.2238962803e+000	 8.4293180025e-001
 3.8122396201e-001	 3.2275638322e+000	 8.8953632939e-001
 3.5142369869e-001	 3.2309443486e+000	 8.1368116005e-001
 3.2169015991e-001	 3.2340401112e+000	 6.3763098577e-001
 2.9202692318e-001	 3.2368534530e+000	 3.8295885445e-001
 5.9592899665e-001	 3.2203250815e+000	-3.3842997590e+000
 5.6553526338e-001	 3.2258014300e+000	-2.1896806684e+000
 5.3518171515e-001	 3.2309759410e+000	-1.2373264326e+000
 5.0487240550e-001	 3.2358505611e+000	-5.0222568265e-001
 4.7461132655e-001	 3.2404273003e+000	 3.9579337913e-002
 4.4440240807e-001	 3.2447082303e+000	 4.1106065306e-001
 4.1424951648e-001	 3.2486954825e+000	 6.3427144708e-001
 3.8415645402e-001	 3.2523912463e+000	 7.3041180531e-001
 3.5412695790e-001	 3.2557977667e+000	 7.1989314973e-001
 3.2416469960e-001	 3.2589173428e+000	 6.2240122682e-001
 2.9427328412e-001	 3.2617523257e+000	 4.5695751583e-001
 6.0047807296e-001	 3.2449077157e+000	-3.2409421142e+000
 5.6985232646e-001	 3.2504258684e+000	-2.1658128695e+000
 5.3926707176e-001	 3.2556398795e+000	-1.3010145469e+000
 5.0872639332e-001	 3.2605517105e+000	-6.2422191603e-001
 4.7823431377e-001	 3.2651633866e+000	-1.1415858719e-001
 4.4779479286e-001	 3.2694769954e+000	 2.4947496551e-001
 4.1741172653e-001	 3.2734946847e+000	 4.8607227539e-001
 3.8708894603e-001	 3.2772186604e+000	 6.1419047969e-001
 3.5683021712e-001	 3.2806511848e+000	 6.5161848323e-001
 3.2663923928e-001	 3.2837945745e+000	 6.1544354278e-001
 2.9651964507e-001	 3.2866511984e+000	 5.2211613649e-001
 6.0502714927e-001	 3.2694903500e+000	-2.9492947232e+000
 5.7416938954e-001	 3.2750503068e+000	-2.0108736262e+000
 5.4335242836e-001	 3.2803038180e+000	-1.2505554234e+000
 5.1258038115e-001	 3.2852528598e+000	-6.4872130887e-001
 4.8185730100e-001	 3.2898994728e+000	-1.8679669383e-001
 4.5118717765e-001	 3.2942457605e+000	 1.5282491539e-001
 4.2057393658e-001	 3.2982938868e+000	 3.8685681436e-001
 3.9002143804e-001	 3.3020460744e+000	 5.3119259843e-001
 3.5953347634e-001	 3.3055046028e+000	 6.0097809915e-001
 3.2911377897e-001	 3.3086718061e+000	 6.1068160808e-001
 2.9876600601e-001	 3.3115500711e+000	 5.7416224906e-001
 6.0957622558e-001	 3.2940729842e+000	-2.5312904481e+000
 5.7848645261e-001	 3.2996747452e+000	-1.7450670080e+000
 5.4743778496e-001	 3.3049677565e+000	-1.1044156534e+000
 5.1643436897e-001	 3.3099540091e+000	-5.9244526426e-001
 4.8548028822e-001	 3.3146355591e+000	-1.9330445483e-001
 4.5457956245e-001	 3.3190145256e+000	 1.0789874214e-001
 4.2373614662e-001	 3.3230930890e+000	 3.2517584625e-001
 3.9295393006e-001	 3.3268734885e+000	 4.7173537556e-001
 3.6223673555e-001	 3.3303580209e+000	 5.6005860080e-001
 3.3158831866e-001	 3.3335490377e+000	 6.0197345269e-001
 3.0101236695e-001	 3.3364489438e+000	 6.0872643923e-001
 6.1412530188e-001	 3.3186556184e+000	-2.0086552588e+000
 5.8280351569e-001	 3.3242991836e+000	-1.3884199481e+000
 5.5152314156e-001	 3.3296316950e+000	-8.8091454216e-001
 5.2028835680e-001	 3.3346551584e+000	-4.7199782992e-001
 4.8910327544e-001	 3.3393716454e+000	-1.4856398626e-001
 4.5797194724e-001	 3.3437832907e+000	 1.0154198812e-001
 4.2689835667e-001	 3.3478922911e+000	 2.8960736002e-001
 3.9588642207e-001	 3.3517009026e+000	 4.2613310548e-001
 3.6493999477e-001	 3.3552114390e+000	 5.2091352792e-001
 3.3406285835e-001	 3.3584262693e+000	 5.8311389345e-001
 3.0325872790e-001	 3.3613478166e+000	 6.2134593632e-001
 6.1867437819e-001	 3.3432382526e+000	-1.4029158394e+000
 5.8712057877e-001	 3.3489236220e+000	-9.6078875593e-001
 5.5560849817e-001	 3.3542956335e+000	-5.9822952347e-001
 5.2414234463e-001	 3.3593563078e+000	-3.0387001265e-001
 4.9272626267e-001	 3.3641077316e+000	-6.7373259098e-002
 4.6136433203e-001	 3.3685520559e+000	 1.2065539194e-001
 4.3006056672e-001	 3.3726914933e+000	 2.6875555107e-001
 3.9881891408e-001	 3.3765283167e+000	 3.8469727034e-001
 3.6764325399e-001	 3.3800648570e+000	 4.7556457220e-001
 3.3653739804e-001	 3.3833035010e+000	 5.4783685803e-001
 3.0550508885e-001	 3.3862466893e+000	 6.0746804554e-001
 6.2322345450e-001	 3.3678208868e+000	-7.3540686128e-001
 5.9143764185e-001	 3.3735480604e+000	-4.8186534436e-001
 5.5969385477e-001	 3.3789595719e+000	-2.7440133774e-001
 5.2799633246e-001	 3.3840574571e+000	-1.0444390396e-001
 4.9634924989e-001	 3.3888438179e+000	 3.5550829784e-002
 4.6475671683e-001	 3.3933208210e+000	 1.5219287397e-001
 4.3322277677e-001	 3.3974906954e+000	 2.5124986477e-001
 4.0175140610e-001	 3.4013557308e+000	 3.3773664266e-001
 3.7034651321e-001	 3.4049182751e+000	 4.1600273966e-001
 3.3901193773e-001	 3.4081807326e+000	 4.8981760719e-001
 3.0775144979e-001	 3.4111455620e+000	 5.6245342986e-001
 6.2777253081e-001	 3.3924035210e+000	-9.0227538520e-001
 5.9575470493e-001	 3.3981724988e+000	 2.8816814087e-002
 5.6377921137e-001	 3.4036235104e+000	 7.2661015422e-002
 5.3185032028e-001	 3.4087586064e+000	 1.1000337370e-001
 4.9997223712e-001	 3.4135799042e+000	 1.4556952016e-001
 4.6814910162e-001	 3.4180895861e+000	 1.8315960946e-001
 4.3638498682e-001	 3.4222898976e+000	 2.2574408166e-001
 4.0468389811e-001	 3.4261831449e+000	 2.7555738352e-001
 3.7304977243e-001	 3.4297716932e+000	 3.3418946244e-001
 3.4148647742e-001	 3.4330579642e+000	 4.0267486037e-001
 3.0999781074e-001	 3.4360444347e+000	 4.8157924925e-001
 6.3232160712e-001	 3.4169861552e+000	-1.6208412801e+000
 6.0007176801e-001	 3.4227969372e+000	 5.5187698782e-001
 5.6786456798e-001	 3.4282874489e+000	 4.2517553839e-001
 5.3570430811e-001	 3.4334597557e+000	 3.2329589115e-001
 5.0359522435e-001	 3.4383159904e+000	 2.4811937776e-001
 4.7154148642e-001	 3.4428583512e+000	 2.0061018487e-001
 4.3954719687e-001	 3.4470890998e+000	 1.8091544205e-001
 4.0761639013e-001	 3.4510105590e+000	 1.8846313647e-001
 3.7575303165e-001	 3.4546251112e+000	 2.2205766258e-001
 3.4396101711e-001	 3.4579351959e+000	 2.7997282960e-001
 3.1224417169e-001	 3.4609433074e+000	 3.6004216435e-001
 6.3687068343e-001	 3.4415687894e+000	-2.3353021121e+000
 6.0438883109e-001	 3.4474213756e+000	 1.0680817312e+000
 5.7194992458e-001	 3.4529513874e+000	 7.6548269966e-001
 5.3955829594e-001	 3.4581609051e+000	 5.1935529836e-001
 5.0721821157e-001	 3.4630520767e+000	 3.2870960408e-001
 4.7493387121e-001	 3.4676271163e+000	 1.9164683314e-001
 4.4270940692e-001	 3.4718883019e+000	 1.0546380817e-001
 4.1054888215e-001	 3.4758379731e+000	 6.6755117463e-002
 3.7845629087e-001	 3.4794785293e+000	 7.1512770277e-002
 3.4643555681e-001	 3.4828124275e+000	 1.1522316614e-001
 3.1449053264e-001	 3.4858421801e+000	 1.9296121147e-001
 2.9202692318e-001	 3.2368534530e+000	 3.8295885445e-001
 2.6243749943e-001	 3.2393867566e+000	 2.7037460665e-001
 2.3292533249e-001	 3.2416424524e+000	 1.2063683105e-001
 2.0349379852e-001	 3.2436230166e+000	-4.8517421317e-002
 1.7414620565e-001	 3.2453309691e+000	-2.1978533910e-001
 1.4488579349e-001	 3.2467688718e+000	-3.7624818845e-001
 1.1571573288e-001	 3.2479393266e+000	-5.0132322570e-001
 8.6639125561e-002	 3.2488449735e+000	-5.7871774212e-001
 5.7659003953e-002	 3.2494884889e+000	-5.9238528847e-001
 2.8778330992e-002	 3.2498725833e+000	-5.2648411798e-001
 0.0000000000e+000	 3.2500000000e+000	-3.6533787729e-001
 2.9427328412e-001	 3.2617523257e+000	 4.5695751583e-001
 2.6445624942e-001	 3.2643051163e+000	 3.8061087457e-001
 2.3471706581e-001	 3.2665781636e+000	 2.7089951326e-001
 2.0505913543e-001	 3.2685739629e+000	 1.4339731528e-001
 1.7548579184e-001	 3.2702950535e+000	 1.3279386069e-002
 1.4600029959e-001	 3.2717440170e+000	-1.0462523977e-001
 1.1660585390e-001	 3.2729234752e+000	-1.9578310355e-001
 8.7305580372e-002	 3.2738360887e+000	-2.4590809749e-001
 5.8102534752e-002	 3.2744845542e+000	-2.4091555788e-001
 2.8999702769e-002	 3.2748716032e+000	-1.6687871472e-001
 0.0000000000e+000	 3.2750000000e+000	-9.9875273830e-003
 2.9651964507e-001	 3.2866511984e+000	 5.2211613649e-001
 2.6647499942e-001	 3.2892234759e+000	 4.7339222593e-001
 2.3650879913e-001	 3.2915138748e+000	 3.9518782699e-001
 2.0662447234e-001	 3.2935249092e+000	 3.0089147864e-001
 1.7682537804e-001	 3.2952591379e+000	 2.0352871324e-001
 1.4711480569e-001	 3.2967191621e+000	 1.1581734294e-001
 1.1749597492e-001	 3.2979076239e+000	 5.0220395236e-002
 8.7972035183e-002	 3.2988272039e+000	 1.8996638782e-002
 5.8546065551e-002	 3.2994806195e+000	 3.4248651183e-002
 2.9221074545e-002	 3.2998706230e+000	 1.0796839016e-001
 0.0000000000e+000	 3.3000000000e+000	 2.5208023914e-001
 2.9876600601e-001	 3.3115500711e+000	 5.7416224906e-001
 2.6849374941e-001	 3.3141418356e+000	 5.4606107723e-001
 2.3830053246e-001	 3.3164495860e+000	 4.9245828742e-001
 2.0818980925e-001	 3.3184758555e+000	 4.2453409155e-001
 1.7816496423e-001	 3.3202232222e+000	 3.5314178903e-001
 1.4822931180e-001	 3.3216943073e+000	 2.8886566782e-001
 1.1838609594e-001	 3.3228917726e+000	 2.4207641388e-001
 8.8638489994e-002	 3.3238183191e+000	 2.2298396950e-001
 5.8989596350e-002	 3.3244766848e+000	 2.4168779178e-001
 2.9442446322e-002	 3.3248696429e+000	 3.0822447274e-001
 0.0000000000e+000	 3.3250000000e+000	 4.3261269231e-001
 3.0101236695e-001	 3.3364489438e+000	 6.0872643923e-001
 2.7051249940e-001	 3.3390601953e+000	 5.9583726171e-001
 2.4009226578e-001	 3.3413852971e+000	 5.6151922428e-001
 2.0975514616e-001	 3.3434268017e+000	 5.1472043265e-001
 1.7950455043e-001	 3.3451873066e+000	 4.6409851030e-001
 1.4934381790e-001	 3.3466694525e+000	 4.1808114991e-001
 1.1927621697e-001	 3.3478759212e+000	 3.8492403054e-001
 8.9304944806e-002	 3.3488094342e+000	 3.7276604059e-001
 5.9433127149e-002	 3.3494727501e+000	 3.8968175725e-001
 2.9663818098e-002	 3.3498686628e+000	 4.4373114394e-001
 0.0000000000e+000	 3.3500000000e+000	 5.4300643741e-001
 3.0325872790e-001	 3.3613478166e+000	 6.2134593632e-001
 2.7253124940e-001	 3.3639785549e+000	 6.1982256949e-001
 2.4188399911e-001	 3.3663210083e+000	 6.0103627014e-001
 2.1132048307e-001	 3.3683777480e+000	 5.7167847139e-001
 1.8084413662e-001	 3.3701513910e+000	 5.3818690377e-001
 1.5045832400e-001	 3.3716445976e+000	 5.0680883310e-001
 1.2016633799e-001	 3.3728600699e+000	 4.8366151993e-001
 8.9971399617e-002	 3.3738005494e+000	 4.7478983953e-001
 5.9876657948e-002	 3.3744688154e+000	 4.8622101309e-001
 2.9885189875e-002	 3.3748676827e+000	 5.2401641129e-001
 0.0000000000e+000	 3.3750000000e+000	 5.9432040250e-001
 3.0550508885e-001	 3.3862466893e+000	 6.0746804554e-001
 2.7454999939e-001	 3.3888969146e+000	 6.1500508739e-001
 2.4367573243e-001	 3.3912567195e+000	 6.0953760664e-001
 2.1288581998e-001	 3.3933286943e+000	 5.9547501913e-001
 1.8218372282e-001	 3.3951154754e+000	 5.7701018005e-001
 1.5157283010e-001	 3.3966197428e+000	 5.5818534498e-001
 1.2105645901e-001	 3.3978442186e+000	 5.4295520640e-001
 9.0637854428e-002	 3.3987916646e+000	 5.3524694380e-001
 6.0320188747e-002	 3.3994648807e+000	 5.3901723765e-001
 3.0106561652e-002	 3.3998667025e+000	 5.5830620840e-001
 0.0000000000e+000	 3.4000000000e+000	 5.9728825306e-001
 3.0775144979e-001	 3.4111455620e+000	 5.6245342986e-001
 2.7656874939e-001	 3.4138152743e+000	 5.7826334870e-001
 2.4546746576e-001	 3.4161924307e+000	 5.8541898096e-001
 2.1445115689e-001	 3.4182796406e+000	 5.8602161081e-001
 1.8352330902e-001	 3.4200795598e+000	 5.8199347878e-001
 1.5268733621e-001	 3.4215948880e+000	 5.7514650324e-001
 1.2194658003e-001	 3.4228283672e+000	 5.6724792929e-001
 9.1304309239e-002	 3.4237827798e+000	 5.6008284244e-001
 6.0763719546e-002	 3.4244609460e+000	 5.5551349688e-001
 3.0327933428e-002	 3.4248657224e+000	 5.5553541956e-001
 0.0000000000e+000	 3.4250000000e+000	 5.6233026288e-001
 3.0999781074e-001	 3.4360444347e+000	 4.8157924925e-001
 2.7858749938e-001	 3.4387336339e+000	 5.0637030249e-001
 2.4725919909e-001	 3.4411281418e+000	 5.2694850416e-001
 2.1601649380e-001	 3.4432305869e+000	 5.4308013090e-001
 1.8486289521e-001	 3.4450436441e+000	 5.5439032046e-001
 1.5380184231e-001	 3.4465700331e+000	 5.6043459142e-001
 1.2283670105e-001	 3.4478125159e+000	 5.6076714021e-001
 9.1970764051e-002	 3.4487738950e+000	 5.5500585228e-001
 6.1207250346e-002	 3.4494570113e+000	 5.4289397664e-001
 3.0549305205e-002	 3.4498647423e+000	 5.2435842503e-001
 0.0000000000e+000	 3.4500000000e+000	 4.9956466884e-001
 3.1224417169e-001	 3.4609433074e+000	 3.6004216435e-001
 2.8060624938e-001	 3.4636519936e+000	 3.9599711161e-001
 2.4905093241e-001	 3.4660638530e+000	 4.3227124242e-001
 2.1758183071e-001	 3.4681815332e+000	 4.6626819651e-001
 1.8620248141e-001	 3.4700077285e+000	 4.9528877982e-001
 1.5491634841e-001	 3.4715451783e+000	 5.1660532057e-001
 1.2372682207e-001	 3.4727966646e+000	 5.2753265078e-001
 9.2637218862e-002	 3.4737650101e+000	 5.2549564930e-001
 6.1650781145e-002	 3.4744530766e+000	 5.0809329492e-001
 3.0770676981e-002	 3.4748637621e+000	 4.7315919112e-001
 0.0000000000e+000	 3.4750000000e+000	 4.1881853550e-001
 3.1449053264e-001	 3.4858421801e+000	 1.9296121147e-001
 2.8262499937e-001	 3.4885703533e+000	 2.4371678792e-001
 2.5084266574e-001	 3.4909995642e+000	 2.9941361146e-001
 2.1914716763e-001	 3.4931324794e+000	 3.5506430981e-001
 1.8754206761e-001	 3.4949718129e+000	 4.0561739458e-001
 1.5603085452e-001	 3.4965203235e+000	 4.4603449252e-001
 1.2461694309e-001	 3.4977808132e+000	 4.7136404838e-001
 9.3303673673e-002	 3.4987561253e+000	 4.7681143442e-001
 6.2094311944e-002	 3.4994491419e+000	 4.5780541504e-001
 3.0992048758e-002	 3.4998627820e+000	 4.1006092778e-001
 0.0000000000e+000	 3.5000000000e+000	 3.2963815420e-001
 3.5000000000e+000	 0.0000000000e+000	 1.1164774761e+000
 3.4998627820e+000	 3.0992048758e-002	 1.0830364146e+000
 3.4994491419e+000	 6.2094311944e-002	 1.0531401968e+000
 3.4987561253e+000	 9.3303673673e-002	 1.0279847782e+000
 3.4977808132e+000	 1.2461694309e-001	 1.0084480076e+000
 3.4965203235e+000	 1.5603085452e-001	 9.9508920468e-001
 3.4949718129e+000	 1.8754206761e-001	 9.8814961960e-001
 3.4931324794e+000	 2.1914716763e-001	 9.8755380538e-001
 3.4909995642e+000	 2.5084266574e-001	 9.9291192698e-001
 3.4885703533e+000	 2.8262499937e-001	 1.0035230323e+000
 3.4858421801e+000	 3.1449053264e-001	 1.0183793070e+000
 3.5250000000e+000	 0.0000000000e+000	 1.1030473672e+000
 3.5248618019e+000	 3.1213420535e-002	 1.0686531730e+000
 3.5244452072e+000	 6.2537842743e-002	 1.0401777798e+000
 3.5237472405e+000	 9.3970128485e-002	 1.0183865054e+000
 3.5227649619e+000	 1.2550706412e-001	 1.0037105337e+000
 3.5214954686e+000	 1.5714536062e-001	 9.9624672376e-001
 3.5199358973e+000	 1.8888165380e-001	 9.9575833862e-001
 3.5180834257e+000	 2.2071250454e-001	 1.0016767217e+000
 3.5159352753e+000	 2.5263439907e-001	 1.0131039482e+000
 3.5134887129e+000	 2.8464374937e-001	 1.0288164764e+000
 3.5107410529e+000	 3.1673689358e-001	 1.0472698208e+000
 3.5500000000e+000	 0.0000000000e+000	 1.0943437030e+000
 3.5498608218e+000	 3.1434792311e-002	 1.0565544584e+000
 3.5494412725e+000	 6.2981373542e-002	 1.0272696654e+000
 3.5487383557e+000	 9.4636583296e-002	 1.0068225767e+000
 3.5477491106e+000	 1.2639718514e-001	 9.9519602667e-001
 3.5464706138e+000	 1.5825986672e-001	 9.9202247172e-001
 3.5448999816e+000	 1.9022124000e-001	 9.9658498572e-001
 3.5430343720e+000	 2.2227784145e-001	 1.0078192412e+000
 3.5408709865e+000	 2.5442613239e-001	 1.0243165030e+000
 3.5384070726e+000	 2.8666249936e-001	 1.0443276597e+000
 3.5356399256e+000	 3.1898325453e-001	 1.0657683163e+000
 3.5750000000e+000	 0.0000000000e+000	 1.0886475654e+000
 3.5748598416e+000	 3.1656164088e-002	 1.0453171925e+000
 3.5744373378e+000	 6.3424904341e-002	 1.0132897346e+000
 3.5737294709e+000	 9.5303038108e-002	 9.9246481969e-001
 3.5727332592e+000	 1.2728730616e-001	 9.8237511262e-001
 3.5714457590e+000	 1.5937437283e-001	 9.8218658497e-001
 3.5698640660e+000	 1.9156082620e-001	 9.9069977710e-001
 3.5679853183e+000	 2.2384317836e-001	 1.0063520832e+000
 3.5658066977e+000	 2.5621786572e-001	 1.0272210871e+000
 3.5633254323e+000	 2.8868124936e-001	 1.0510289747e+000
 3.5605387983e+000	 3.2122961548e-001	 1.0751480471e+000
 3.6000000000e+000	 0.0000000000e+000	 1.0842877841e+000
 3.5998588615e+000	 3.1877535864e-002	 1.0335614944e+000
 3.5994334031e+000	 6.3868435141e-002	 9.9715053821e-001
 3.5987205860e+000	 9.5969492919e-002	 9.7451922863e-001
 3.5977174079e+000	 1.2817742718e-001	 9.6474810714e-001
 3.5964209041e+000	 1.6048887893e-001	 9.6653444128e-001
 3.5948281504e+000	 1.9290041239e-001	 9.7819375254e-001
 3.5929362646e+000	 2.2540851527e-001	 9.9766240496e-001
 3.5907424089e+000	 2.5800959905e-001	 1.0225012832e+000
 3.5882437919e+000	 2.9069999936e-001	 1.0499005868e+000
 3.5854376710e+000	 3.2347597643e-001	 1.0766857645e+000
 3.6250000000e+000	 0.0000000000e+000	 1.0796392900e+000
 3.6248578814e+000	 3.2098907641e-002	 1.0199491912e+000
 3.6244294683e+000	 6.4311965940e-002	 9.7780196310e-001
 3.6237117012e+000	 9.6635947731e-002	 9.5222478596e-001
 3.6227015566e+000	 1.2906754820e-001	 9.4184399179e-001
 3.6213960493e+000	 1.6160338503e-001	 9.4488578945e-001
 3.6197922348e+000	 1.9423999859e-001	 9.5917805733e-001
 3.6178872109e+000	 2.2697385218e-001	 9.8215323523e-001
 3.6156781200e+000	 2.5980133237e-001	 1.0108523449e+000
 3.6131621516e+000	 2.9271874935e-001	 1.0419301667e+000
 3.6103365437e+000	 3.2572233738e-001	 1.0716615966e+000
 3.6500000000e+000	 0.0000000000e+000	 1.0731215364e+000
 3.6498569012e+000	 3.2320279418e-002	 1.0031823893e+000
 3.6494255336e+000	 6.4755496739e-002	 9.5422995393e-001
 3.6487028164e+000	 9.7302402542e-002	 9.2485233273e-001
 3.6476857052e+000	 1.2995766922e-001	 9.1321943234e-001
 3.6463711945e+000	 1.6271789114e-001	 9.1708391468e-001
 3.6447563192e+000	 1.9557958479e-001	 9.3378325375e-001
 3.6428381571e+000	 2.2853918909e-001	 9.6024293060e-001
 3.6406138312e+000	 2.6159306570e-001	 9.9298079667e-001
 3.6380805113e+000	 2.9473749935e-001	 1.0281126333e+000
 3.6352354164e+000	 3.2796869832e-001	 1.0613589329e+000
 3.6750000000e+000	 0.0000000000e+000	 1.0631969847e+000
 3.6748559211e+000	 3.2541651194e-002	 9.8200210471e-001
 3.6744215989e+000	 6.5199027538e-002	 9.2545528647e-001
 3.6736939316e+000	 9.7968857353e-002	 8.9170348494e-001
 3.6726698539e+000	 1.3084779024e-001	 8.7845783713e-001
 3.6713463396e+000	 1.6383239724e-001	 8.8299483797e-001
 3.6697204035e+000	 1.9691917098e-001	 9.0215866058e-001
 3.6677891034e+000	 2.3010452601e-001	 9.3236465418e-001
 3.6655495424e+000	 2.6338479903e-001	 9.6960405047e-001
 3.6629988709e+000	 2.9675624934e-001	 1.0094499070e+000
 3.6601342892e+000	 3.3021505927e-001	 1.0470643134e+000
 3.7000000000e+000	 0.0000000000e+000	 1.0483696516e+000
 3.6998549410e+000	 3.2763022971e-002	 9.5518694848e-001
 3.6994176642e+000	 6.5642558337e-002	 8.9053239097e-001
 3.6986850468e+000	 9.8635312165e-002	 8.5210959385e-001
 3.6976540026e+000	 1.3173791127e-001	 8.3716845360e-001
 3.6963214848e+000	 1.6494690334e-001	 8.4250654805e-001
 3.6946844879e+000	 1.9825875718e-001	 8.6447171947e-001
 3.6927400497e+000	 2.3166986292e-001	 8.9896587534e-001
 3.6904852536e+000	 2.6517653235e-001	 9.4145003809e-001
 3.6879172306e+000	 2.9877499934e-001	 9.8695067320e-001
 3.6850331619e+000	 3.3246142022e-001	 1.0300673223e+000
 3.7250000000e+000	 0.0000000000e+000	 1.0271837140e+000
 3.7248539609e+000	 3.2984394747e-002	 9.2155186491e-001
 3.7244137295e+000	 6.6086089136e-002	 8.4854822276e-001
 3.7236761619e+000	 9.9301766976e-002	 8.0543074814e-001
 3.7226381512e+000	 1.3262803229e-001	 7.8898550123e-001
 3.7212966300e+000	 1.6606140945e-001	 7.9552826420e-001
 3.7196485723e+000	 1.9959834338e-001	 8.2090738679e-001
 3.7176909960e+000	 2.3323519983e-001	 8.6050788966e-001
 3.7154209647e+000	 2.6696826568e-001	 9.0925685805e-001
 3.7128355903e+000	 3.0079374934e-001	 9.6163015555e-001
 3.7099320346e+000	 3.3470778117e-001	 1.0116604853e+000
 3.7500000000e+000	 0.0000000000e+000	 9.9822217119e-001
 3.7498529807e+000	 3.3205766524e-002	 8.7994692060e-001
 3.7494097948e+000	 6.6529619936e-002	 7.9862117811e-001
 3.7486672771e+000	 9.9968221788e-002	 7.5105481603e-001
 3.7476222999e+000	 1.3351815331e-001	 7.3356733909e-001
 3.7462717751e+000	 1.6717591555e-001	 7.4198972858e-001
 3.7446126567e+000	 2.0093792957e-001	 7.7166754979e-001
 3.7426419423e+000	 2.3480053674e-001	 8.1746535803e-001
 3.7403566759e+000	 2.6875999901e-001	 8.7377243670e-001
 3.7377539499e+000	 3.0281249933e-001	 9.3450989765e-001
 3.7348309073e+000	 3.3695414212e-001	 9.9313917209e-001
 3.4858421801e+000	 3.1449053264e-001	 1.0183793070e+000
 3.4828124275e+000	 3.4643555681e-001	 1.0173223553e+000
 3.4794785293e+000	 3.7845629087e-001	 1.0052173347e+000
 3.4758379731e+000	 4.1054888215e-001	 9.8007771748e-001
 3.4718883019e+000	 4.4270940692e-001	 9.3964651603e-001
 3.4676271163e+000	 4.7493387121e-001	 8.8140599655e-001
 3.4630520767e+000	 5.0721821157e-001	 8.0258845607e-001
 3.4581609051e+000	 5.3955829594e-001	 7.0018806551e-001
 3.4529513874e+000	 5.7194992458e-001	 5.7097377942e-001
 3.4474213756e+000	 6.0438883109e-001	 4.1150330953e-001
 3.4415687894e+000	 6.3687068343e-001	 8.3760345740e-001
 3.5107410529e+000	 3.1673689358e-001	 1.0472698208e+000
 3.5076896591e+000	 3.4891009650e-001	 1.0487138338e+000
 3.5043319474e+000	 3.8115955010e-001	 1.0366530316e+000
 3.5006653872e+000	 4.1348137416e-001	 1.0085631880e+000
 3.4966875041e+000	 4.4587161697e-001	 9.6163824320e-001
 3.4923958815e+000	 4.7832625601e-001	 8.9280061026e-001
 3.4877881630e+000	 5.1084119880e-001	 7.9871258223e-001
 3.4828620544e+000	 5.4341228377e-001	 6.7578884400e-001
 3.4776153259e+000	 5.7603528119e-001	 5.2021008868e-001
 3.4720458140e+000	 6.0870589417e-001	 3.2793773554e-001
 3.4661514237e+000	 6.4141975974e-001	 9.4657992106e-001
 3.5356399256e+000	 3.1898325453e-001	 1.0657683163e+000
 3.5325668907e+000	 3.5138463619e-001	 1.0703021783e+000
 3.5291853654e+000	 3.8386280932e-001	 1.0590615320e+000
 3.5254928013e+000	 4.1641386618e-001	 1.0289800599e+000
 3.5214867062e+000	 4.4903382702e-001	 9.7669798168e-001
 3.5171646466e+000	 4.8171864080e-001	 8.9857295644e-001
 3.5125242492e+000	 5.1446418603e-001	 7.9069212445e-001
 3.5075632037e+000	 5.4726627160e-001	 6.4888529263e-001
 3.5022792644e+000	 5.8012063779e-001	 4.6873926288e-001
 3.4966702524e+000	 6.1302295724e-001	 2.4561330024e-001
 3.4907340579e+000	 6.4596883605e-001	 1.0501032673e+000
 3.5605387983e+000	 3.2122961548e-001	 1.0751480471e+000
 3.5574441224e+000	 3.5385917588e-001	 1.0836401387e+000
 3.5540387835e+000	 3.8656606854e-001	 1.0742746983e+000
 3.5503202154e+000	 4.1934635820e-001	 1.0434387677e+000
 3.5462859084e+000	 4.5219603707e-001	 9.8721403763e-001
 3.5419334117e+000	 4.8511102560e-001	 9.0138835004e-001
 3.5372603355e+000	 5.1808717325e-001	 7.8146837899e-001
 3.5322643530e+000	 5.5112025943e-001	 6.2269349439e-001
 3.5269432028e+000	 5.8420599440e-001	 4.2005080784e-001
 3.5212946908e+000	 6.1734002033e-001	 1.6829139700e-001
 3.5153166921e+000	 6.5051791236e-001	 1.1482912342e+000
 3.5854376710e+000	 3.2347597643e-001	 1.0766857645e+000
 3.5823213540e+000	 3.5633371558e-001	 1.0902803156e+000
 3.5788922016e+000	 3.8926932776e-001	 1.0841206409e+000
 3.5751476295e+000	 4.2227885021e-001	 1.0540424359e+000
 3.5710851106e+000	 4.5535824712e-001	 9.9556389637e-001
 3.5667021768e+000	 4.8850341040e-001	 9.0389782375e-001
 3.5619964217e+000	 5.2171016048e-001	 7.7396494943e-001
 3.5569655023e+000	 5.5497424726e-001	 6.0040848202e-001
 3.5516071413e+000	 5.8829135100e-001	 3.7760987630e-001
 3.5459191292e+000	 6.2165708341e-001	 9.9705819948e-002
 3.5398993263e+000	 6.5506698867e-001	 1.2412307727e+000
 3.6103365437e+000	 3.2572233738e-001	 1.0716615966e+000
 3.6071985856e+000	 3.5880825527e-001	 1.0917751660e+000
 3.6037456196e+000	 3.9197258699e-001	 1.0904238468e+000
 3.5999750436e+000	 4.2521134223e-001	 1.0628871305e+000
 3.5958843127e+000	 4.5852045717e-001	 1.0041145955e+000
 3.5914709419e+000	 4.9189579519e-001	 9.0873862047e-001
 3.5867325080e+000	 5.2533314771e-001	 7.7108835673e-001
 3.5816666517e+000	 5.5882823509e-001	 5.8520496390e-001
 3.5762710798e+000	 5.9237670761e-001	 3.4485810777e-001
 3.5705435676e+000	 6.2597414649e-001	 9.0647225263e-002
 3.5644819605e+000	 6.5961606499e-001	 1.3289791085e+000
 3.6352354164e+000	 3.2796869832e-001	 1.0613589329e+000
 3.6320758172e+000	 3.6128279496e-001	 1.0896770074e+000
 3.6285990377e+000	 3.9467584621e-001	 1.0950053044e+000
 3.6248024577e+000	 4.2814383425e-001	 1.0720621012e+000
 3.6206835149e+000	 4.6168266723e-001	 1.0152230827e+000
 3.6162397070e+000	 4.9528817999e-001	 9.1853466559e-001
 3.6114685943e+000	 5.2895613494e-001	 7.7572862429e-001
 3.6063678010e+000	 5.6268222292e-001	 5.8023802008e-001
 3.6009350183e+000	 5.9646206422e-001	 3.2521443368e-001
 3.5951680060e+000	 6.3029120957e-001	 2.5024505684e-001
 3.5890645947e+000	 6.6416514130e-001	 1.4115647598e+000
 3.6601342892e+000	 3.3021505927e-001	 1.0470643134e+000
 3.6569530489e+000	 3.6375733466e-001	 1.0855380230e+000
 3.6534524558e+000	 3.9737910543e-001	 1.0996826219e+000
 3.6496298718e+000	 4.3107632627e-001	 1.0836500132e+000
 3.6454827170e+000	 4.6484487728e-001	 1.0312365590e+000
 3.6410084722e+000	 4.9868056479e-001	 9.3589701994e-001
 3.6362046805e+000	 5.3257912217e-001	 7.9075983906e-001
 3.6310689503e+000	 5.6653621075e-001	 5.8864376991e-001
 3.6255989568e+000	 6.0054742082e-001	 3.2207584984e-001
 3.6197924444e+000	 6.3460827265e-001	 4.1211773045e-001
 3.6136472289e+000	 6.6871421761e-001	 1.4889885139e+000
 3.6850331619e+000	 3.3246142022e-001	 1.0300673223e+000
 3.6818302805e+000	 3.6623187435e-001	 1.0809102664e+000
 3.6783058738e+000	 4.0008236465e-001	 1.1062701417e+000
 3.6744572859e+000	 4.3400881828e-001	 1.0997271693e+000
 3.6702819192e+000	 4.6800708733e-001	 1.0544928078e+000
 3.6657772373e+000	 5.0207294958e-001	 9.6342431441e-001
 3.6609407668e+000	 5.3620210939e-001	 8.1904068996e-001
 3.6557700996e+000	 5.7039019858e-001	 6.1354001261e-001
 3.6502628952e+000	 6.0463277743e-001	 3.3881815747e-001
 3.6444168828e+000	 6.3892533573e-001	 5.7618821184e-001
 3.6382298631e+000	 6.7326329392e-001	 1.5612243640e+000
 3.7099320346e+000	 3.3470778117e-001	 1.0116604853e+000
 3.7067075121e+000	 3.6870641404e-001	 1.0773456656e+000
 3.7031592919e+000	 4.0278562387e-001	 1.1165790504e+000
 3.6992847000e+000	 4.3694131030e-001	 1.1223637236e+000
 3.6950811213e+000	 4.7116929738e-001	 1.0873205114e+000
 3.6905460024e+000	 5.0546533438e-001	 1.0037031671e+000
 3.6856768530e+000	 5.3982509662e-001	 8.6341498457e-001
 3.6804712489e+000	 5.7424418641e-001	 6.5802684204e-001
 3.6749268337e+000	 6.0871813404e-001	 3.7879667444e-001
 3.6690413212e+000	 6.4324239882e-001	 7.4235625302e-001
 3.6628124973e+000	 6.7781237024e-001	 1.6282204083e+000
 3.7348309073e+000	 3.3695414212e-001	 9.9313917209e-001
 3.7315847437e+000	 3.7118095373e-001	 1.0763960272e+000
 3.7280127100e+000	 4.0548888310e-001	 1.1324174832e+000
 3.7241121140e+000	 4.3987380232e-001	 1.1536238868e+000
 3.7198803235e+000	 4.7433150743e-001	 1.1320395538e+000
 3.7153147675e+000	 5.0885771918e-001	 1.0593085836e+000
 3.7104129393e+000	 5.4344808385e-001	 9.2671214519e-001
 3.7051723983e+000	 5.7809817425e-001	 7.2518723688e-001
 3.6995907722e+000	 6.1280349065e-001	 4.4534691804e-001
 3.6936657595e+000	 6.4755946190e-001	 9.1049916604e-001
 3.6873951316e+000	 6.8236144655e-001	 1.6898997133e+000
 3.4415687894e+000	 6.3687068343e-001	 8.3760345740e-001
 3.4353916189e+000	 6.6939108513e-001	 8.1699819234e-001
 3.4288879258e+000	 7.0194557643e-001	 7.9477180192e-001
 3.4220558462e+000	 7.3452963556e-001	 7.7060860636e-001
 3.4148935921e+000	 7.6713868010e-001	 7.4415214206e-001
 3.4073994536e+000	 7.9976806841e-001	 7.1499898864e-001
 3.3995718009e+000	 8.3241310102e-001	 6.8269249217e-001
 3.3914090857e+000	 8.6506902227e-001	 6.4671640088e-001
 3.3829098440e+000	 8.9773102186e-001	 6.0648843044e-001
 3.3740726970e+000	 9.3039423656e-001	 5.6135377692e-001
 3.3648963537e+000	 9.6305375194e-001	 5.1057859610e-001
 3.4661514237e+000	 6.4141975974e-001	 9.4657992106e-001
 3.4599301304e+000	 6.7417245002e-001	 8.9605398497e-001
 3.4533799824e+000	 7.0695947340e-001	 8.4578484899e-001
 3.4464991022e+000	 7.3977627581e-001	 7.9573691789e-001
 3.4392856892e+000	 7.7261824210e-001	 7.4583475666e-001
 3.4317380212e+000	 8.0548069746e-001	 6.9595652311e-001
 3.4238544566e+000	 8.3835890888e-001	 6.4592728709e-001
 3.4156334363e+000	 8.7124808671e-001	 5.9551225317e-001
 3.4070734857e+000	 9.0414338630e-001	 5.4440990461e-001
 3.3981732162e+000	 9.3703990968e-001	 4.9224508736e-001
 3.3889313276e+000	 9.6993270731e-001	 4.3856205343e-001
 3.4907340579e+000	 6.4596883605e-001	 1.0501032673e+000
 3.4844686420e+000	 6.7895381492e-001	 9.7202471027e-001
 3.4778720390e+000	 7.1197337037e-001	 8.9607572347e-001
 3.4709423583e+000	 7.4502291606e-001	 8.2250158186e-001
 3.4636777863e+000	 7.7809780410e-001	 7.5150865608e-001
 3.4560765887e+000	 8.1119332652e-001	 6.8325744757e-001
 3.4481371123e+000	 8.4430471674e-001	 6.1785550066e-001
 3.4398577869e+000	 8.7742715115e-001	 5.5535020919e-001
 3.4312371274e+000	 9.1055575074e-001	 4.9572153591e-001
 3.4222737355e+000	 9.4368558279e-001	 4.3887466426e-001
 3.4129663016e+000	 9.7681166268e-001	 3.8463260260e-001
 3.5153166921e+000	 6.5051791236e-001	 1.1482912342e+000
 3.5090071536e+000	 6.8373517981e-001	 1.0448826738e+000
 3.5023640956e+000	 7.1698726735e-001	 9.4547212223e-001
 3.4953856143e+000	 7.5026955631e-001	 8.5058659090e-001
 3.4880698834e+000	 7.8357736610e-001	 7.6071511415e-001
 3.4804151562e+000	 8.1690595558e-001	 6.7630138383e-001
 3.4724197680e+000	 8.5025052460e-001	 5.9773625111e-001
 3.4640821375e+000	 8.8360621559e-001	 5.2535011368e-001
 3.4554007692e+000	 9.1696811518e-001	 4.5940520748e-001
 3.4463742548e+000	 9.5033125591e-001	 4.0008782291e-001
 3.4370012755e+000	 9.8369061805e-001	 3.4750046658e-001
 3.5398993263e+000	 6.5506698867e-001	 1.2412307727e+000
 3.5335456651e+000	 6.8851654471e-001	 1.1145720857e+000
 3.5268561522e+000	 7.2200116432e-001	 9.9377632499e-001
 3.5198288704e+000	 7.5551619657e-001	 8.7965318428e-001
 3.5124619805e+000	 7.8905692810e-001	 7.7297529945e-001
 3.5047537237e+000	 8.2261858464e-001	 6.7447047961e-001
 3.4967024237e+000	 8.5619633247e-001	 5.8481379537e-001
 3.4883064882e+000	 8.8978528004e-001	 5.0461954344e-001
 3.4795644109e+000	 9.2338047962e-001	 4.3443310719e-001
 3.4704747740e+000	 9.5697692902e-001	 3.7472273396e-001
 3.4610362495e+000	 9.9056957342e-001	 3.2587125091e-001
 3.5644819605e+000	 6.5961606499e-001	 1.3289791085e+000
 3.5580841767e+000	 6.9329790960e-001	 1.1810100293e+000
 3.5513482089e+000	 7.2701506130e-001	 1.0407660707e+000
 3.5442721264e+000	 7.6076283682e-001	 9.0934063253e-001
 3.5368540775e+000	 7.9453649010e-001	 7.8779096858e-001
 3.5290922913e+000	 8.2833121370e-001	 6.7713001098e-001
 3.5209850795e+000	 8.6214214033e-001	 5.7831804158e-001
 3.5125308388e+000	 8.9596434448e-001	 4.9225423045e-001
 3.5037280527e+000	 9.2979284406e-001	 4.1976806195e-001
 3.4945752933e+000	 9.6362260214e-001	 3.6161066969e-001
 3.4850712234e+000	 9.9744852879e-001	 3.1844610294e-001
 3.5890645947e+000	 6.6416514130e-001	 1.4115647598e+000
 3.5826226883e+000	 6.9807927450e-001	 1.2440873904e+000
 3.5758402655e+000	 7.3202895827e-001	 1.0861953982e+000
 3.5687153825e+000	 7.6600947708e-001	 9.3926698977e-001
 3.5612461746e+000	 8.0001605210e-001	 8.0464513094e-001
 3.5534308588e+000	 8.3404384276e-001	 6.8362896027e-001
 3.5452677352e+000	 8.6808794820e-001	 5.7746504047e-001
 3.5367551894e+000	 9.0214340892e-001	 4.8733846746e-001
 3.5278916944e+000	 9.3620520850e-001	 4.1436385832e-001
 3.5186758126e+000	 9.7026827526e-001	 3.5957624035e-001
 3.5091061974e+000	 1.0043274842e+000	 3.2392186449e-001
 3.6136472289e+000	 6.6871421761e-001	 1.4889885139e+000
 3.6071611998e+000	 7.0286063939e-001	 1.3036697482e+000
 3.6003323221e+000	 7.3704285525e-001	 1.1297954519e+000
 3.5931586385e+000	 7.7125611733e-001	 9.6902981536e-001
 3.5856382717e+000	 8.0549561411e-001	 8.2300268642e-001
 3.5777694263e+000	 8.3975647182e-001	 6.9330057017e-001
 3.5695503909e+000	 8.7403375606e-001	 5.8145745669e-001
 3.5609795400e+000	 9.0832247337e-001	 4.8894549712e-001
 3.5520553362e+000	 9.4261757294e-001	 4.1716554997e-001
 3.5427763318e+000	 9.7691394838e-001	 3.6743762069e-001
 3.5331411713e+000	 1.0112064395e+000	 3.4099121831e-001
 3.6382298631e+000	 6.7326329392e-001	 1.5612243640e+000
 3.6316997114e+000	 7.0764200429e-001	 1.3595982302e+000
 3.6248243787e+000	 7.4205675223e-001	 1.1712752557e+000
 3.6176018945e+000	 7.7650275759e-001	 9.9820686631e-001
 3.6100303688e+000	 8.1097517611e-001	 8.4231103720e-001
 3.6021079939e+000	 8.4546910088e-001	 7.0546287557e-001
 3.5938330466e+000	 8.7997956393e-001	 5.8948502106e-001
 3.5852038906e+000	 9.1450153782e-001	 4.9613788526e-001
 3.5762189779e+000	 9.4902993738e-001	 4.2710975275e-001
 3.5668768511e+000	 9.8355962149e-001	 3.8400676740e-001
 3.5571761453e+000	 1.0180853949e+000	 3.6834282861e-001
 3.6628124973e+000	 6.7781237024e-001	 1.6282204083e+000
 3.6562382230e+000	 7.1242336919e-001	 1.4116903330e+000
 3.6493164353e+000	 7.4707064920e-001	 1.2103224551e+000
 3.6420451506e+000	 7.8174939785e-001	 1.0263567617e+000
 3.6344224659e+000	 8.1645473811e-001	 8.6200067489e-001
 3.6264465614e+000	 8.5118172995e-001	 7.1941921382e-001
 3.6181157023e+000	 8.8592537179e-001	 6.0072496458e-001
 3.6094282412e+000	 9.2068060226e-001	 5.0796787920e-001
 3.6003826196e+000	 9.5544230183e-001	 4.4312492780e-001
 3.5909773704e+000	 9.9020529461e-001	 4.0808962778e-001
 3.5812111192e+000	 1.0249643503e+000	 4.0466147584e-001
 3.6873951316e+000	 6.8236144655e-001	 1.6898997133e+000
 3.6807767345e+000	 7.1720473409e-001	 1.4597407094e+000
 3.6738084919e+000	 7.5208454618e-001	 1.2466040298e+000
 3.6664884066e+000	 7.8699603810e-001	 1.0530196209e+000
 3.6588145630e+000	 8.2193430012e-001	 8.8148574426e-001
 3.6507851289e+000	 8.5689435901e-001	 7.3445871469e-001
 3.6423983581e+000	 8.9187117966e-001	 6.1434243507e-001
 3.6336525918e+000	 9.2685966671e-001	 5.2347775167e-001
 3.6245462614e+000	 9.6185466627e-001	 4.6413165339e-001
 3.6150778896e+000	 9.9685096773e-001	 4.3848634003e-001
 3.6052460932e+000	 1.0318433056e+000	 4.4862818624e-001
 3.3648963537e+000	 9.6305375194e-001	 5.1057859610e-001
 3.3553796121e+000	 9.9570460419e-001	 5.6321765534e-001
 3.3455213614e+000	 1.0283417820e+000	 6.1855485494e-001
 3.3353205834e+000	 1.0609602284e+000	 6.7576293396e-001
 3.3247763542e+000	 1.0935548431e+000	 7.3390329816e-001
 3.3138878460e+000	 1.1261204840e+000	 7.9191935062e-001
 3.3026543284e+000	 1.1586519699e+000	 8.4862991872e-001
 3.2910751701e+000	 1.1911440823e+000	 9.0272280115e-001
 3.2791498404e+000	 1.2235915677e+000	 9.5274845890e-001
 3.2668779101e+000	 1.2559891402e+000	 9.4724174296e-001
 3.2542590537e+000	 1.2883314835e+000	 7.2911142518e-001
 3.3889313276e+000	 9.6993270731e-001	 4.3856205343e-001
 3.3793466093e+000	 1.0028167799e+000	 4.9206915351e-001
 3.3694179425e+000	 1.0356870804e+000	 5.4777727613e-001
 3.3591443018e+000	 1.0685385158e+000	 6.0498095216e-001
 3.3485247567e+000	 1.1013659491e+000	 6.6286262546e-001
 3.3375584734e+000	 1.1341642017e+000	 7.2048571599e-001
 3.3262447164e+000	 1.1669280554e+000	 7.7678777752e-001
 3.3145828499e+000	 1.1996522543e+000	 8.3057377398e-001
 3.3025723392e+000	 1.2323315075e+000	 8.8050949908e-001
 3.2902127523e+000	 1.2649604912e+000	 7.9724498566e-001
 3.2775037612e+000	 1.2975338512e+000	 5.7333190275e-001
 3.4129663016e+000	 9.7681166268e-001	 3.8463260260e-001
 3.4033136065e+000	 1.0099289557e+000	 4.3852473695e-001
 3.3933145237e+000	 1.0430323789e+000	 4.9418797133e-001
 3.3829680203e+000	 1.0761168031e+000	 5.5104087809e-001
 3.3722731592e+000	 1.1091770551e+000	 6.0838912685e-001
 3.3612291009e+000	 1.1422079195e+000	 6.6541827535e-001
 3.3498351045e+000	 1.1752041409e+000	 7.2118665276e-001
 3.3380905297e+000	 1.2081604263e+000	 7.7461836040e-001
 3.3259948381e+000	 1.2410714472e+000	 8.2449641521e-001
 3.3135475946e+000	 1.2739318422e+000	 6.6125897745e-001
 3.3007484688e+000	 1.3067362190e+000	 4.3355956979e-001
 3.4370012755e+000	 9.8369061805e-001	 3.4750046658e-001
 3.4272806038e+000	 1.0170411314e+000	 4.0122053058e-001
 3.4172111048e+000	 1.0503776773e+000	 4.5634923676e-001
 3.4067917387e+000	 1.0836950905e+000	 5.1243149397e-001
 3.3960215617e+000	 1.1169881611e+000	 5.6889843083e-001
 3.3848997284e+000	 1.1502516372e+000	 6.2505990907e-001
 3.3734254925e+000	 1.1834802264e+000	 6.8009712754e-001
 3.3615982095e+000	 1.2166685983e+000	 7.3305534231e-001
 3.3494173369e+000	 1.2498113870e+000	 7.8283672882e-001
 3.3368824368e+000	 1.2829031932e+000	 5.3916275984e-001
 3.3239931763e+000	 1.3159385867e+000	 3.0964283212e-001
 3.4610362495e+000	 9.9056957342e-001	 3.2587125091e-001
 3.4512476010e+000	 1.0241533072e+000	 3.7878889355e-001
 3.4411076860e+000	 1.0577229757e+000	 4.3282046666e-001
 3.4306154572e+000	 1.0912733778e+000	 4.8763955581e-001
 3.4197699643e+000	 1.1247992672e+000	 5.4280502690e-001
 3.4085703558e+000	 1.1582953550e+000	 5.9775325704e-001
 3.3970158806e+000	 1.1917563119e+000	 6.5179045402e-001
 3.3851058893e+000	 1.2251767703e+000	 7.0408509072e-001
 3.3728398358e+000	 1.2585513268e+000	 6.7581263952e-001
 3.3602172790e+000	 1.2918745442e+000	 4.3083883426e-001
 3.3472378838e+000	 1.3251409544e+000	 2.0143450538e-001
 3.4850712234e+000	 9.9744852879e-001	 3.1844610294e-001
 3.4752145982e+000	 1.0312654829e+000	 3.6985854908e-001
 3.4650042671e+000	 1.0650682742e+000	 4.2215825339e-001
 3.4544391756e+000	 1.0988516651e+000	 4.7514986318e-001
 3.4435183668e+000	 1.1326103732e+000	 5.2852230488e-001
 3.4322409833e+000	 1.1663390727e+000	 5.8184072705e-001
 3.4206062687e+000	 1.2000323974e+000	 6.3453853034e-001
 3.4086135690e+000	 1.2336849423e+000	 6.8590951104e-001
 3.3962623346e+000	 1.2672912665e+000	 5.7885197426e-001
 3.3835521212e+000	 1.3008458952e+000	 3.3617304272e-001
 3.3704825914e+000	 1.3343433222e+000	 1.0879166292e-001
 3.5091061974e+000	 1.0043274842e+000	 3.2392186449e-001
 3.4991815955e+000	 1.0383776586e+000	 3.7305470901e-001
 3.4889008483e+000	 1.0724135726e+000	 4.2291648336e-001
 3.4782628941e+000	 1.1064299525e+000	 4.7344532630e-001
 3.4672667693e+000	 1.1404214792e+000	 5.2446259250e-001
 3.4559116108e+000	 1.1743827904e+000	 5.7566450264e-001
 3.4441966567e+000	 1.2083084829e+000	 6.2661387849e-001
 3.4321212488e+000	 1.2421931143e+000	 6.7673199048e-001
 3.4196848335e+000	 1.2760312063e+000	 4.9358846358e-001
 3.4068869634e+000	 1.3098172462e+000	 2.5505445341e-001
 3.3937272989e+000	 1.3435456899e+000	 3.1575490040e-002
 3.5331411713e+000	 1.0112064395e+000	 3.4099121831e-001
 3.5231485927e+000	 1.0454898344e+000	 3.8699919322e-001
 3.5127974294e+000	 1.0797588711e+000	 4.3364642910e-001
 3.5020866125e+000	 1.1140082398e+000	 4.8100703023e-001
 3.4910151719e+000	 1.1482325852e+000	 5.2903719158e-001
 3.4795822382e+000	 1.1824265082e+000	 5.7756655079e-001
 3.4677870448e+000	 1.2165845684e+000	 6.2628962309e-001
 3.4556289286e+000	 1.2507012864e+000	 6.6847933504e-001
 3.4431073324e+000	 1.2847711461e+000	 4.1994116621e-001
 3.4302218056e+000	 1.3187885972e+000	 1.8737525096e-001
 3.4169720064e+000	 1.3527480577e+000	-3.0348855914e-002
 3.5571761453e+000	 1.0180853949e+000	 3.6834282861e-001
 3.5471155899e+000	 1.0526020101e+000	 4.1031054418e-001
 3.5366940106e+000	 1.0871041695e+000	 4.5289683756e-001
 3.5259103310e+000	 1.1215865272e+000	 4.9631429658e-001
 3.5147635744e+000	 1.1560436912e+000	 5.4065641268e-001
 3.5032528657e+000	 1.1904702259e+000	 5.8588862921e-001
 3.4913774329e+000	 1.2248606539e+000	 6.3183947103e-001
 3.4791366084e+000	 1.2592094584e+000	 5.9839609210e-001
 3.4665298312e+000	 1.2935110859e+000	 3.5783133366e-001
 3.4535566479e+000	 1.3277599482e+000	 1.3303063119e-001
 3.4402167139e+000	 1.3619504254e+000	-7.7112379718e-002
 3.5812111192e+000	 1.0249643503e+000	 4.0466147584e-001
 3.5710825871e+000	 1.0597141859e+000	 4.4160413702e-001
 3.5605905918e+000	 1.0944494679e+000	 4.7921401482e-001
 3.5497340494e+000	 1.1291648145e+000	 5.1784474266e-001
 3.5385119769e+000	 1.1638547973e+000	 5.5772960832e-001
 3.5269234932e+000	 1.1985139437e+000	 5.9897229337e-001
 3.5149678209e+000	 1.2331367394e+000	 6.4153769196e-001
 3.5026442882e+000	 1.2677176304e+000	 5.3803186215e-001
 3.4899523301e+000	 1.3022510256e+000	 3.0718233665e-001
 3.4768914901e+000	 1.3367312992e+000	 9.1918700006e-002
 3.4634614215e+000	 1.3711527931e+000	-1.0884237706e-001
 3.6052460932e+000	 1.0318433056e+000	 4.4862818624e-001
 3.5950495844e+000	 1.0668263616e+000	 4.7949228503e-001
 3.5844871729e+000	 1.1017947664e+000	 5.1114190753e-001
 3.5735577679e+000	 1.1367431019e+000	 5.4407433831e-001
 3.5622603795e+000	 1.1716659033e+000	 5.7866520498e-001
 3.5505941207e+000	 1.2065576614e+000	 6.1515890324e-001
 3.5385582090e+000	 1.2414128249e+000	 6.5365909947e-001
 3.5261519680e+000	 1.2762258024e+000	 4.8733642853e-001
 3.5133748290e+000	 1.3109909654e+000	 2.6791959446e-001
 3.5002263323e+000	 1.3457026502e+000	 6.3940376449e-002
 3.4867061290e+000	 1.3803551609e+000	-1.2566255820e-001
 3.2542590537e+000	 1.2883314835e+000	 7.2911142518e-001
 3.2412930498e+000	 1.3206132534e+000	 7.7365321707e-001
 3.2279797829e+000	 1.3528290804e+000	 7.8709868870e-001
 3.2143192443e+000	 1.3849735723e+000	 7.6744324542e-001
 3.2003115330e+000	 1.4170413162e+000	 7.1265398302e-001
 3.1859568571e+000	 1.4490268819e+000	 6.2067225886e-001
 3.1712555346e+000	 1.4809248240e+000	 4.8941638367e-001
 3.1562079939e+000	 1.5127296849e+000	 3.1678443068e-001
 3.1408147750e+000	 1.5444359972e+000	 1.0065715879e-001
 3.1250765300e+000	 1.5760382868e+000	-1.6109895456e-001
 3.1089940239e+000	 1.6075310757e+000	 3.4343183217e-002
 3.2775037612e+000	 1.2975338512e+000	 5.7333190275e-001
 3.2644451431e+000	 1.3300462052e+000	 6.0878357427e-001
 3.2510367814e+000	 1.3624921453e+000	 6.1901455917e-001
 3.2372786675e+000	 1.3948662406e+000	 6.0199670897e-001
 3.2231709011e+000	 1.4271630399e+000	 5.5566731620e-001
 3.2087136918e+000	 1.4593770739e+000	 4.7793165460e-001
 3.1939073598e+000	 1.4915028585e+000	 3.6666564866e-001
 3.1787523367e+000	 1.5235348969e+000	 2.1971866957e-001
 3.1632491662e+000	 1.5554676828e+000	 3.4916454030e-002
 3.1473985053e+000	 1.5872957031e+000	-1.8993585785e-001
 3.1312011241e+000	 1.6190134405e+000	-4.5705056996e-001
 3.3007484688e+000	 1.3067362190e+000	 4.3355956979e-001
 3.2875972363e+000	 1.3394791570e+000	 4.5990845446e-001
 3.2740937798e+000	 1.3721552102e+000	 4.6684808822e-001
 3.2602380906e+000	 1.4047589090e+000	 4.5232595441e-001
 3.2460302692e+000	 1.4372847636e+000	 4.1424874782e-001
 3.2314705265e+000	 1.4697272659e+000	 3.5048488509e-001
 3.2165591851e+000	 1.5020808929e+000	 2.5886715332e-001
 3.2012966795e+000	 1.5343401089e+000	 1.3719549399e-001
 3.1856835575e+000	 1.5664993685e+000	-1.6760081283e-002
 3.1697204805e+000	 1.5985531195e+000	-2.0525644661e-001
 3.1534082243e+000	 1.6304958054e+000	-4.3057419381e-001
 3.3239931763e+000	 1.3159385867e+000	 3.0964283212e-001
 3.3107493295e+000	 1.3489121088e+000	 3.2688820465e-001
 3.2971507783e+000	 1.3818182750e+000	 3.3047332335e-001
 3.2831975138e+000	 1.4146515774e+000	 3.1832049004e-001
 3.2688896373e+000	 1.4474064873e+000	 2.8830500705e-001
 3.2542273612e+000	 1.4800774579e+000	 2.3825765912e-001
 3.2392110103e+000	 1.5126589274e+000	 1.6596734225e-001
 3.2238410223e+000	 1.5451453210e+000	 6.9183836778e-002
 3.2081179487e+000	 1.5775310542e+000	-5.4379278589e-002
 3.1920424557e+000	 1.6098105358e+000	-2.0704157525e-001
 3.1756153244e+000	 1.6419781702e+000	-3.9115258997e-001
 3.3472378838e+000	 1.3251409544e+000	 2.0143450538e-001
 3.3339014227e+000	 1.3583450606e+000	 2.0958735309e-001
 3.3202077768e+000	 1.3914813399e+000	 2.0976821995e-001
 3.3061569370e+000	 1.4245442458e+000	 1.9987341374e-001
 3.2917490054e+000	 1.4575282109e+000	 1.7774604935e-001
 3.2769841959e+000	 1.4904276499e+000	 1.4117850334e-001
 3.2618628356e+000	 1.5232369618e+000	 8.7915024278e-002
 3.2463853651e+000	 1.5559505330e+000	 1.5654496170e-002
 3.2305523400e+000	 1.5885627399e+000	-7.7946648001e-002
 3.2143644309e+000	 1.6210679521e+000	-1.9527136613e-001
 3.1978224246e+000	 1.6534605350e+000	-3.3873880427e-001
 3.3704825914e+000	 1.3343433222e+000	 1.0879166292e-001
 3.3570535159e+000	 1.3677780124e+000	 1.0787446508e-001
 3.3432647752e+000	 1.4011444047e+000	 1.0461450653e-001
 3.3291163602e+000	 1.4344369141e+000	 9.6881289226e-002
 3.3146083735e+000	 1.4676499346e+000	 8.2484945210e-002
 3.2997410306e+000	 1.5007778420e+000	 5.9178665080e-002
 3.2845146608e+000	 1.5338149963e+000	 2.4661290945e-002
 3.2689297079e+000	 1.5667557450e+000	-2.3419928526e-002
 3.2529867312e+000	 1.5995944256e+000	-8.7466423865e-002
 3.2366864061e+000	 1.6323253685e+000	-1.6992523479e-001
 3.2200295248e+000	 1.6649428998e+000	-2.7328578829e-001
 3.3937272989e+000	 1.3435456899e+000	 3.1575490040e-002
 3.3802056091e+000	 1.3772109643e+000	 2.1622004677e-002
 3.3663217737e+000	 1.4108074696e+000	 1.4897555472e-002
 3.3520757833e+000	 1.4443295825e+000	 9.2440273105e-003
 3.3374677416e+000	 1.4777716583e+000	 2.4377734853e-003
 3.3224978653e+000	 1.5111280340e+000	-7.8079808069e-003
 3.3071664861e+000	 1.5443930308e+000	-2.3840561660e-002
 3.2914740508e+000	 1.5775609571e+000	-4.8065098602e-002
 3.2754211225e+000	 1.6106261113e+000	-8.2941608448e-002
 3.2590083813e+000	 1.6435827848e+000	-1.3098191418e-001
 3.2422366249e+000	 1.6764252647e+000	-1.9474640261e-001
 3.4169720064e+000	 1.3527480577e+000	-3.0348855914e-002
 3.4033577023e+000	 1.3866439161e+000	-4.9293797866e-002
 3.3893787721e+000	 1.4204705345e+000	-5.9493740877e-002
 3.3750352065e+000	 1.4542222509e+000	-6.3135227904e-002
 3.3603271097e+000	 1.4878933820e+000	-6.2476480942e-002
 3.3452547000e+000	 1.5214782260e+000	-5.9845021327e-002
 3.3298183113e+000	 1.5549710652e+000	-5.7635107895e-002
 3.3140183936e+000	 1.5883661691e+000	-5.8304995118e-002
 3.2978555137e+000	 1.6216577970e+000	-6.4374013848e-002
 3.2813303565e+000	 1.6548402011e+000	-7.8419477856e-002
 3.2644437251e+000	 1.6879076295e+000	-1.0307341988e-001
 3.4402167139e+000	 1.3619504254e+000	-7.7112379718e-002
 3.4265097956e+000	 1.3960768679e+000	-1.0499307337e-001
 3.4124357706e+000	 1.4301335993e+000	-1.1866708914e-001
 3.3979946297e+000	 1.4641149192e+000	-1.2035020828e-001
 3.3831864778e+000	 1.4980151057e+000	-1.1233602533e-001
 3.3680115347e+000	 1.5318284180e+000	-9.6993591089e-002
 3.3524701366e+000	 1.5655490997e+000	-7.6764864505e-002
 3.3365627364e+000	 1.5991713811e+000	-5.4161975667e-002
 3.3202899050e+000	 1.6326894827e+000	-3.1764302204e-002
 3.3036523318e+000	 1.6660976175e+000	-1.2215362280e-002
 3.2866508253e+000	 1.6993899943e+000	 1.7804722263e-003
 3.4634614215e+000	 1.3711527931e+000	-1.0884237706e-001
 3.4496618888e+000	 1.4055098197e+000	-1.4559243583e-001
 3.4354927690e+000	 1.4397966642e+000	-1.6272690902e-001
 3.4209540529e+000	 1.4740075876e+000	-1.6249162646e-001
 3.4060458459e+000	 1.5081368294e+000	-1.4721635332e-001
 3.3907683694e+000	 1.5421786100e+000	-1.1931245460e-001
 3.3751219618e+000	 1.5761271341e+000	-8.1270359675e-002
 3.3591070792e+000	 1.6099765932e+000	-3.5656828852e-002
 3.3427242962e+000	 1.6437211684e+000	 1.4887975720e-002
 3.3259743070e+000	 1.6773550338e+000	 6.7653611825e-002
 3.3088579254e+000	 1.7108723591e+000	 1.1986266810e-001
 3.4867061290e+000	 1.3803551609e+000	-1.2566255820e-001
 3.4728139820e+000	 1.4149427715e+000	-1.7120509965e-001
 3.4585497675e+000	 1.4494597290e+000	-1.9177444291e-001
 3.4439134760e+000	 1.4839002560e+000	-1.8964727653e-001
 3.4289052139e+000	 1.5182585531e+000	-1.6719033534e-001
 3.4135252041e+000	 1.5525288020e+000	-1.2685808527e-001
 3.3977737871e+000	 1.5867051686e+000	-7.1190199308e-002
 3.3816514220e+000	 1.6207818052e+000	-2.8088265869e-003
 3.3651586875e+000	 1.6547528541e+000	 7.5584343483e-002
 3.3482962822e+000	 1.6886124501e+000	 1.6121121894e-001
 3.3310650256e+000	 1.7223547240e+000	 2.5122064151e-001
 3.1089940239e+000	 1.6075310757e+000	 3.4343183217e-002
 3.0925681348e+000	 1.6389088846e+000	 2.4254482578e-001
 3.0757998544e+000	 1.6701662359e+000	 3.9911767597e-001
 3.0586902889e+000	 1.7012976567e+000	 5.0402747285e-001
 3.0412406585e+000	 1.7322976814e+000	 5.5730438480e-001
 3.0234522981e+000	 1.7631608551e+000	 5.5904384636e-001
 3.0053266573e+000	 1.7938817362e+000	 5.0940730625e-001
 2.9868653000e+000	 1.8244548993e+000	 4.0862288370e-001
 2.9680699052e+000	 1.8548749386e+000	 2.5698593055e-001
 2.9489422659e+000	 1.8851364706e+000	 8.4006655215e-002
 2.9294842893e+000	 1.9152341368e+000	-7.5444510014e-002
 3.1312011241e+000	 1.6190134405e+000	-4.5705056996e-001
 3.1146579071e+000	 1.6506153766e+000	-3.9554826057e-001
 3.0977698534e+000	 1.6820959948e+000	-1.8804964461e-001
 3.0805380767e+000	 1.7134497828e+000	-3.0683142468e-002
 3.0629638061e+000	 1.7446712363e+000	 7.6526650042e-002
 3.0450483860e+000	 1.7757548612e+000	 1.3361907114e-001
 3.0267932762e+000	 1.8066951771e+000	 1.4069818963e-001
 3.0082000522e+000	 1.8374867200e+000	 9.7933511600e-002
 2.9892704045e+000	 1.8681240453e+000	 5.5605946713e-003
 2.9700061392e+000	 1.8986017311e+000	-6.8449320511e-002
 2.9504091771e+000	 1.9289143807e+000	-1.6307441103e-001
 3.1534082243e+000	 1.6304958054e+000	-4.3057419381e-001
 3.1367476795e+000	 1.6623218687e+000	-6.4568577250e-001
 3.1197398523e+000	 1.6940257536e+000	-7.6712740330e-001
 3.1023858645e+000	 1.7256019089e+000	-5.5832296057e-001
 3.0846869536e+000	 1.7570447912e+000	-3.9822726878e-001
 3.0666444738e+000	 1.7883488673e+000	-2.8685676112e-001
 3.0482598952e+000	 1.8195086181e+000	-2.2416440073e-001
 3.0295348043e+000	 1.8505185407e+000	-2.1003892363e-001
 3.0104709038e+000	 1.8813731520e+000	-2.2740997111e-001
 2.9910700125e+000	 1.9120669916e+000	-2.2059557827e-001
 2.9713340648e+000	 1.9425946245e+000	-2.5106491416e-001
 3.1756153244e+000	 1.6419781702e+000	-3.9115258997e-001
 3.1588374519e+000	 1.6740283607e+000	-5.5067741899e-001
 3.1417098513e+000	 1.7059555124e+000	-7.8774406579e-001
 3.1242336522e+000	 1.7377540350e+000	-1.0787211877e+000
 3.1064101012e+000	 1.7694183460e+000	-8.6676062708e-001
 3.0882405617e+000	 1.8009428734e+000	-7.0216052964e-001
 3.0697265142e+000	 1.8323220591e+000	-5.8493055349e-001
 3.0508695565e+000	 1.8635503614e+000	-5.1501731705e-001
 3.0316714032e+000	 1.8946222587e+000	-4.4058943460e-001
 3.0121338859e+000	 1.9255322521e+000	-3.7192866247e-001
 2.9922589526e+000	 1.9562748683e+000	-3.3887363609e-001
 3.1978224246e+000	 1.6534605350e+000	-3.3873880427e-001
 3.1809272243e+000	 1.6857348527e+000	-4.4325156735e-001
 3.1636798503e+000	 1.7178852712e+000	-6.2374305074e-001
 3.1460814400e+000	 1.7499061612e+000	-8.8239687886e-001
 3.1281332488e+000	 1.7817919009e+000	-1.2213737428e+000
 3.1098366495e+000	 1.8135368796e+000	-1.1120723824e+000
 3.0911931332e+000	 1.8451355001e+000	-9.4135433956e-001
 3.0722043086e+000	 1.8765821821e+000	-8.1300826072e-001
 3.0528719025e+000	 1.9078713654e+000	-6.5187858412e-001
 3.0331977592e+000	 1.9389975126e+000	-5.2195131544e-001
 3.0131838404e+000	 1.9699551122e+000	-4.2596515415e-001
 3.2200295248e+000	 1.6649428998e+000	-2.7328578829e-001
 3.2030169967e+000	 1.6974413448e+000	-3.2333422248e-001
 3.1856498492e+000	 1.7298150301e+000	-4.4781479487e-001
 3.1679292278e+000	 1.7620582873e+000	-6.4900828690e-001
 3.1498563963e+000	 1.7941654558e+000	-9.2917507770e-001
 3.1314327373e+000	 1.8261308857e+000	-1.2905511514e+000
 3.1126597521e+000	 1.8579489410e+000	-1.2931936748e+000
 3.0935390607e+000	 1.8896140028e+000	-1.0808820742e+000
 3.0740724018e+000	 1.9211204721e+000	-8.6082313930e-001
 3.0542616325e+000	 1.9524627731e+000	-6.7017226379e-001
 3.0341087282e+000	 1.9836353560e+000	-5.1181076626e-001
 3.2422366249e+000	 1.6764252647e+000	-1.9474640261e-001
 3.2251067691e+000	 1.7091478368e+000	-1.9085190027e-001
 3.2076198482e+000	 1.7417447889e+000	-2.5985890692e-001
 3.1897770156e+000	 1.7742104134e+000	-4.0414579334e-001
 3.1715795439e+000	 1.8065390106e+000	-6.2607306103e-001
 3.1530288252e+000	 1.8387248918e+000	-9.2797924243e-001
 3.1341263711e+000	 1.8707623820e+000	-1.3121767411e+000
 3.1148738129e+000	 1.9026458236e+000	-1.3454668598e+000
 3.0952729011e+000	 1.9343695788e+000	-1.0669738989e+000
 3.0753255058e+000	 1.9659280336e+000	-8.1610601340e-001
 3.0550336159e+000	 1.9973155998e+000	-5.9588826081e-001
 3.2644437251e+000	 1.6879076295e+000	-1.0307341988e-001
 3.2471965415e+000	 1.7208543288e+000	-4.5731610211e-002
 3.2295898471e+000	 1.7536745477e+000	-5.9776083460e-002
 3.2116248033e+000	 1.7863625395e+000	-1.4768324607e-001
 3.1933026914e+000	 1.8189125655e+000	-3.1191417086e-001
 3.1746249130e+000	 1.8513188979e+000	-5.5491038922e-001
 3.1555929901e+000	 1.8835758230e+000	-8.6249729958e-001
 3.1362085650e+000	 1.9156776443e+000	-1.1946282819e+000
 3.1164734004e+000	 1.9476186855e+000	-1.2698865682e+000
 3.0963893791e+000	 1.9793932941e+000	-9.5927265287e-001
 3.0759585037e+000	 2.0109958437e+000	-6.7768169586e-001
 3.2866508253e+000	 1.6993899943e+000	 1.7804722263e-003
 3.2692863139e+000	 1.7325608209e+000	 1.1209916128e-001
 3.2515598461e+000	 1.7656043065e+000	 1.5253192786e-001
 3.2334725911e+000	 1.7985146656e+000	 1.2050386975e-001
 3.2150258390e+000	 1.8312861203e+000	 1.3452879555e-002
 3.1962210009e+000	 1.8639129040e+000	-1.7116603856e-001
 3.1770596091e+000	 1.8963892639e+000	-3.9582503258e-001
 3.1575433171e+000	 1.9287094650e+000	-6.6566963398e-001
 3.1376738998e+000	 1.9608677923e+000	-9.9599619981e-001
 3.1174532525e+000	 1.9928585546e+000	-1.0991976649e+000
 3.0968833915e+000	 2.0246760875e+000	-7.5668118737e-001
 3.3088579254e+000	 1.7108723591e+000	 1.1986266810e-001
 3.2913760863e+000	 1.7442673129e+000	 2.8271246684e-001
 3.2735298451e+000	 1.7775340654e+000	 3.7716236362e-001
 3.2553203789e+000	 1.8106667917e+000	 4.0053848668e-001
 3.2367489865e+000	 1.8436596752e+000	 3.5017721673e-001
 3.2178170887e+000	 1.8765069101e+000	 2.2575883794e-001
 3.1985262280e+000	 1.9092027049e+000	 7.8903128087e-002
 3.1788780693e+000	 1.9417412857e+000	-1.3032141788e-001
 3.1588743991e+000	 1.9741168990e+000	-3.9932127453e-001
 3.1385171258e+000	 2.0063238151e+000	-7.2539989357e-001
 3.1178082793e+000	 2.0383563313e+000	-8.3238270586e-001
 3.3310650256e+000	 1.7223547240e+000	 2.5122064151e-001
 3.3134658586e+000	 1.7559738049e+000	 4.6617991358e-001
 3.2954998440e+000	 1.7894638242e+000	 6.1421147843e-001
 3.2771681667e+000	 1.8228189179e+000	 6.9254200769e-001
 3.2584721341e+000	 1.8560332301e+000	 6.9840587895e-001
 3.2394131765e+000	 1.8891009162e+000	 6.4966756569e-001
 3.2199928470e+000	 1.9220161459e+000	 5.6112589588e-001
 3.2002128214e+000	 1.9547731064e+000	 4.1085903084e-001
 3.1800748984e+000	 1.9873660057e+000	 2.0150599579e-001
 3.1595809991e+000	 2.0197890756e+000	-6.4191427010e-002
 3.1387331671e+000	 2.0520365752e+000	-3.8339579175e-001
 2.9294842893e+000	 1.9152341368e+000	-7.5444510014e-002
 2.9096979964e+000	 1.9451626075e+000	-3.4023042277e-001
 2.8895855216e+000	 1.9749165840e+000	-5.4959993834e-001
 2.8691491118e+000	 2.0044908018e+000	-7.0663419500e-001
 2.8483911262e+000	 2.0338800339e+000	-8.1449387621e-001
 2.8273140354e+000	 2.0630790933e+000	-8.7641321867e-001
 2.8059204205e+000	 2.0920828363e+000	-8.9569385822e-001
 2.7842129721e+000	 2.1208861652e+000	-8.7569852793e-001
 2.7621944897e+000	 2.1494840313e+000	-8.1984462318e-001
 2.7398678801e+000	 2.1778714378e+000	-7.3159764889e-001
 2.7172361565e+000	 2.2060434424e+000	-6.1446456456e-001
 2.9504091771e+000	 1.9289143807e+000	-1.6307441103e-001
 2.9304815535e+000	 1.9590566262e+000	-3.9038542463e-001
 2.9102254181e+000	 1.9890231310e+000	-5.7150837262e-001
 2.8896430340e+000	 2.0188085932e+000	-7.0952100930e-001
 2.8687367771e+000	 2.0484077484e+000	-8.0757213628e-001
 2.8475091357e+000	 2.0778153725e+000	-8.6887550531e-001
 2.8259627092e+000	 2.1070262851e+000	-8.9670356929e-001
 2.8041002076e+000	 2.1360353521e+000	-8.9438109603e-001
 2.7819244504e+000	 2.1648374887e+000	-8.6527865981e-001
 2.7594383650e+000	 2.1934276623e+000	-8.1280602646e-001
 2.7366449862e+000	 2.2218008955e+000	-7.4040544770e-001
 2.9713340648e+000	 1.9425946245e+000	-2.5106491416e-001
 2.9512651106e+000	 1.9729506448e+000	-4.3768228593e-001
 2.9308653147e+000	 2.0031296780e+000	-5.8720193266e-001
 2.9101369562e+000	 2.0331263847e+000	-7.0270072521e-001
 2.8890824280e+000	 2.0629354629e+000	-7.8731818567e-001
 2.8677042359e+000	 2.0925516518e+000	-8.4425028206e-001
 2.8460049979e+000	 2.1219697340e+000	-8.7674308131e-001
 2.8239874432e+000	 2.1511845390e+000	-8.8808627542e-001
 2.8016544110e+000	 2.1801909460e+000	-8.8160659624e-001
 2.7790088499e+000	 2.2089838869e+000	-8.6066113486e-001
 2.7560538159e+000	 2.2375583487e+000	-8.2863058157e-001
 2.9922589526e+000	 1.9562748683e+000	-3.3887363609e-001
 2.9720486678e+000	 1.9868446634e+000	-4.8162117206e-001
 2.9515052113e+000	 2.0172362251e+000	-5.9622616323e-001
 2.9306308784e+000	 2.0474441761e+000	-6.8576709364e-001
 2.9094280789e+000	 2.0774631775e+000	-7.5337680244e-001
 2.8878993362e+000	 2.1072879310e+000	-8.0223616760e-001
 2.8660472866e+000	 2.1369131828e+000	-8.3556765765e-001
 2.8438746787e+000	 2.1663337259e+000	-8.5662876710e-001
 2.8213843716e+000	 2.1955444034e+000	-8.6870535103e-001
 2.7985793347e+000	 2.2245401114e+000	-8.7510487522e-001
 2.7754626456e+000	 2.2533158019e+000	-8.7914959824e-001
 3.0131838404e+000	 1.9699551122e+000	-4.2596515415e-001
 2.9928322249e+000	 2.0007386820e+000	-5.2170770799e-001
 2.9721451079e+000	 2.0313427721e+000	-5.9813048890e-001
 2.9511248007e+000	 2.0617619676e+000	-6.5831608727e-001
 2.9297737298e+000	 2.0919908920e+000	-7.0539325080e-001
 2.9080944364e+000	 2.1220242103e+000	-7.4253045409e-001
 2.8860895753e+000	 2.1518566316e+000	-7.7292934622e-001
 2.8637619142e+000	 2.1814829128e+000	-7.9981809204e-001
 2.8411143323e+000	 2.2108978608e+000	-8.2644462324e-001
 2.8181498196e+000	 2.2400963360e+000	-8.5606981575e-001
 2.7948714753e+000	 2.2690732550e+000	-8.9196061030e-001
 3.0341087282e+000	 1.9836353560e+000	-5.1181076626e-001
 3.0136157820e+000	 2.0146327007e+000	-5.5745278997e-001
 2.9927850045e+000	 2.0454493191e+000	-5.9246808021e-001
 2.9716187229e+000	 2.0760797590e+000	-6.1994582399e-001
 2.9501193807e+000	 2.1065186065e+000	-6.4301326435e-001
 2.9282895367e+000	 2.1367604895e+000	-6.6482915296e-001
 2.9061318640e+000	 2.1668000805e+000	-6.8857709033e-001
 2.8836491497e+000	 2.1966320997e+000	-7.1745876974e-001
 2.8608442929e+000	 2.2262513181e+000	-7.5468714140e-001
 2.8377203044e+000	 2.2556525605e+000	-8.0347951361e-001
 2.8142803050e+000	 2.2848307082e+000	-8.6705060814e-001
 3.0550336159e+000	 1.9973155998e+000	-5.9588826081e-001
 3.0343993391e+000	 2.0285267193e+000	-5.8837240505e-001
 3.0134249010e+000	 2.0595558661e+000	-5.7879572543e-001
 2.9921126451e+000	 2.0903975504e+000	-5.7025649336e-001
 2.9704650316e+000	 2.1210463210e+000	-5.6588303000e-001
 2.9484846369e+000	 2.1514967687e+000	-5.6882703876e-001
 2.9261741528e+000	 2.1817435293e+000	-5.8225683504e-001
 2.9035363852e+000	 2.2117812866e+000	-6.0935048958e-001
 2.8805742536e+000	 2.2416047755e+000	-6.5328890224e-001
 2.8572907893e+000	 2.2712087851e+000	-7.1724882346e-001
 2.8336891347e+000	 2.3005881613e+000	-8.0439584080e-001
 3.0759585037e+000	 2.0109958437e+000	-6.7768169586e-001
 3.0551828962e+000	 2.0424207379e+000	-6.1398745792e-001
 3.0340647976e+000	 2.0736624132e+000	-5.5667370748e-001
 3.0126065673e+000	 2.1047153419e+000	-5.0885028621e-001
 2.9908106825e+000	 2.1355740356e+000	-4.7364917256e-001
 2.9686797371e+000	 2.1662330480e+000	-4.5421769120e-001
 2.9462164415e+000	 2.1966869781e+000	-4.5371162911e-001
 2.9234236207e+000	 2.2269304735e+000	-4.7528827507e-001
 2.9003042142e+000	 2.2569582329e+000	-5.2209939966e-001
 2.8768612741e+000	 2.2867650096e+000	-5.9728419351e-001
 2.8530979643e+000	 2.3163456145e+000	-7.0396218137e-001
 3.0968833915e+000	 2.0246760875e+000	-7.5668118737e-001
 3.0759664533e+000	 2.0563147565e+000	-6.3382360475e-001
 3.0547046942e+000	 2.0877689602e+000	-5.2566568586e-001
 3.0331004896e+000	 2.1190331333e+000	-4.3533132699e-001
 3.0111563334e+000	 2.1501017501e+000	-3.6595873996e-001
 2.9888748374e+000	 2.1809693272e+000	-3.2069353557e-001
 2.9662587302e+000	 2.2116304270e+000	-3.0268172288e-001
 2.9433108562e+000	 2.2420796604e+000	-3.1506264148e-001
 2.9200341748e+000	 2.2723116903e+000	-3.6096184439e-001
 2.8964317590e+000	 2.3023212342e+000	-4.4348394948e-001
 2.8725067940e+000	 2.3321030677e+000	-5.6570547749e-001
 3.1178082793e+000	 2.0383563313e+000	-8.3238270586e-001
 3.0967500104e+000	 2.0702087752e+000	-6.4741109374e-001
 3.0753445908e+000	 2.1018755072e+000	-4.8533858338e-001
 3.0535944118e+000	 2.1333509248e+000	-3.4930560889e-001
 3.0315019843e+000	 2.1646294646e+000	-2.4245918900e-001
 3.0090699376e+000	 2.1957056065e+000	-1.6794588144e-001
 2.9863010189e+000	 2.2265738758e+000	-1.2890466215e-001
 2.9631980917e+000	 2.2572288473e+000	-1.2845974715e-001
 2.9397641355e+000	 2.2876651476e+000	-1.6971337488e-001
 2.9160022438e+000	 2.3178774588e+000	-2.5573856720e-001
 2.8919156237e+000	 2.3478605208e+000	-3.8957188777e-001
 3.1387331671e+000	 2.0520365752e+000	-3.8339579175e-001
 3.1175335675e+000	 2.0841027938e+000	-6.5428461210e-001
 3.0959844873e+000	 2.1159820543e+000	-4.3526247734e-001
 3.0740883340e+000	 2.1476687162e+000	-2.5038093155e-001
 3.0518476352e+000	 2.1791571792e+000	-1.0279837179e-001
 3.0292650379e+000	 2.2104418857e+000	 4.3350401528e-003
 3.0063433076e+000	 2.2415173246e+000	 6.7884621673e-002
 2.9830853273e+000	 2.2723780342e+000	 8.4738461290e-002
 2.9594940961e+000	 2.3030186050e+000	 5.1814740336e-002
 2.9355727287e+000	 2.3334336833e+000	-3.3930934244e-002
 2.9113244534e+000	 2.3636179740e+000	-1.7549820481e-001
 2.7172361565e+000	 2.2060434424e+000	-6.1446456456e-001
 2.6943024371e+000	 2.2339951605e+000	-3.9458415218e-001
 2.6710699438e+000	 2.2617217679e+000	-2.3252114969e-001
 2.6475420007e+000	 2.2892185031e+000	-1.3055312871e-001
 2.6237220324e+000	 2.3164806705e+000	-9.0892038315e-002
 2.5996135628e+000	 2.3435036429e+000	-1.1567855539e-001
 2.5752202129e+000	 2.3702828639e+000	-2.0697654127e-001
 2.5505456993e+000	 2.3968138509e+000	-3.6676761965e-001
 2.5255938321e+000	 2.4230921970e+000	-5.9694589058e-001
 2.5003685132e+000	 2.4491135740e+000	-8.9931279475e-001
 2.4748737342e+000	 2.4748737342e+000	-8.5987506805e-001
 2.7366449862e+000	 2.2218008955e+000	-7.4040544770e-001
 2.7135474545e+000	 2.2499522688e+000	-5.3945425488e-001
 2.6901490148e+000	 2.2778769234e+000	-3.8875755367e-001
 2.6664530150e+000	 2.3055700638e+000	-2.9080867199e-001
 2.6424629041e+000	 2.3330269610e+000	-2.4804232405e-001
 2.6181822311e+000	 2.3602429546e+000	-2.6282867272e-001
 2.5936146430e+000	 2.3872134558e+000	-3.3746748909e-001
 2.5687638828e+000	 2.4139339499e+000	-4.7418242470e-001
 2.5436337880e+000	 2.4403999984e+000	-6.7511541191e-001
 2.5182282883e+000	 2.4666072423e+000	-9.4232120723e-001
 2.4925514037e+000	 2.4925514037e+000	-1.1522660883e+000
 2.7560538159e+000	 2.2375583487e+000	-8.2863058157e-001
 2.7327924719e+000	 2.2659093771e+000	-6.4916145402e-001
 2.7092280859e+000	 2.2940320788e+000	-5.1251018691e-001
 2.6853640292e+000	 2.3219216245e+000	-4.2138605994e-001
 2.6612037757e+000	 2.3495732515e+000	-3.7844665899e-001
 2.6367508994e+000	 2.3769822663e+000	-3.8629164914e-001
 2.6120090731e+000	 2.4041440477e+000	-4.4745663564e-001
 2.5869820664e+000	 2.4310540488e+000	-5.6440712934e-001
 2.5616737440e+000	 2.4577077999e+000	-7.3953263215e-001
 2.5360880634e+000	 2.4841009107e+000	-9.7514085850e-001
 2.5102290732e+000	 2.5102290732e+000	-1.2409532463e+000
 2.7754626456e+000	 2.2533158019e+000	-8.7914959824e-001
 2.7520374893e+000	 2.2818664854e+000	-7.2363841415e-001
 2.7283071569e+000	 2.3101872343e+000	-6.0363252432e-001
 2.7042750435e+000	 2.3382731853e+000	-5.2205739999e-001
 2.6799446474e+000	 2.3661195420e+000	-4.8179365113e-001
 2.6553195677e+000	 2.3937215781e+000	-4.8567050837e-001
 2.6304035032e+000	 2.4210746396e+000	-5.3645938419e-001
 2.6052002500e+000	 2.4481741477e+000	-6.3686752995e-001
 2.5797136999e+000	 2.4750156013e+000	-7.8953180547e-001
 2.5539478385e+000	 2.5015945791e+000	-9.9250403853e-001
 2.5279067427e+000	 2.5279067427e+000	-1.1753948633e+000
 2.7948714753e+000	 2.2690732550e+000	-8.9196061030e-001
 2.7712825068e+000	 2.2978235937e+000	-7.6280811689e-001
 2.7473862279e+000	 2.3263423898e+000	-6.6197026009e-001
 2.7231860578e+000	 2.3546247460e+000	-5.9258898606e-001
 2.6986855190e+000	 2.3826658325e+000	-5.5776812617e-001
 2.6738882360e+000	 2.4104608898e+000	-5.6056658634e-001
 2.6487979333e+000	 2.4380052315e+000	-6.0399160681e-001
 2.6234184335e+000	 2.4652942467e+000	-6.9099210957e-001
 2.5977536559e+000	 2.4923234027e+000	-8.2445215071e-001
 2.5718076136e+000	 2.5190882475e+000	-9.5508121498e-001
 2.5455844123e+000	 2.5455844123e+000	-1.1053293302e+000
 2.8142803050e+000	 2.2848307082e+000	-8.6705060814e-001
 2.7905275242e+000	 2.3137807020e+000	-7.6658419478e-001
 2.7664652989e+000	 2.3424975453e+000	-6.8736157598e-001
 2.7420970721e+000	 2.3709763067e+000	-6.3274149899e-001
 2.7174263907e+000	 2.3992121230e+000	-6.0605125799e-001
 2.6924569043e+000	 2.4272002015e+000	-6.1057958932e-001
 2.6671923634e+000	 2.4549358234e+000	-6.4956962820e-001
 2.6416366171e+000	 2.4824143456e+000	-7.2621194524e-001
 2.6157936118e+000	 2.5096312041e+000	-8.2052530199e-001
 2.5896673887e+000	 2.5365819159e+000	-9.0928950391e-001
 2.5632620818e+000	 2.5632620818e+000	-1.0308709553e+000
 2.8336891347e+000	 2.3005881613e+000	-8.0439584080e-001
 2.8097725416e+000	 2.3297378103e+000	-7.3487125144e-001
 2.7855443700e+000	 2.3586527008e+000	-6.7963739864e-001
 2.7610080864e+000	 2.3873278675e+000	-6.4227019880e-001
 2.7361672624e+000	 2.4157584135e+000	-6.2632069371e-001
 2.7110255726e+000	 2.4439395133e+000	-6.3530764975e-001
 2.6855867935e+000	 2.4718664152e+000	-6.7271021020e-001
 2.6598548007e+000	 2.4995344445e+000	-7.4196061914e-001
 2.6338335677e+000	 2.5269390055e+000	-7.8532067189e-001
 2.6075271638e+000	 2.5540755843e+000	-8.5532827689e-001
 2.5809397513e+000	 2.5809397513e+000	-9.5214308863e-001
 2.8530979643e+000	 2.3163456145e+000	-7.0396218137e-001
 2.8290175590e+000	 2.3456949186e+000	-6.6756516873e-001
 2.8046234410e+000	 2.3748078563e+000	-6.3862164630e-001
 2.7799191007e+000	 2.4036794282e+000	-6.2092510906e-001
 2.7549081340e+000	 2.4323047040e+000	-6.1825067361e-001
 2.7295942409e+000	 2.4606788250e+000	-6.3434737981e-001
 2.7039812235e+000	 2.4887970071e+000	-6.7293053691e-001
 2.6780729842e+000	 2.5166545435e+000	-7.0496851415e-001
 2.6518735237e+000	 2.5442468069e+000	-7.3840708742e-001
 2.6253869389e+000	 2.5715692527e+000	-7.9340348249e-001
 2.5986174209e+000	 2.5986174209e+000	-8.6927781470e-001
 2.8725067940e+000	 2.3321030677e+000	-5.6570547749e-001
 2.8482625764e+000	 2.3616520268e+000	-5.6455340136e-001
 2.8237025120e+000	 2.3909630117e+000	-5.6413146566e-001
 2.7988301150e+000	 2.4200309889e+000	-5.6845119380e-001
 2.7736490057e+000	 2.4488509945e+000	-5.8151214626e-001
 2.7481629093e+000	 2.4774181367e+000	-6.0729392272e-001
 2.7223756536e+000	 2.5057275990e+000	-6.3999954481e-001
 2.6962911678e+000	 2.5337746424e+000	-6.5197287772e-001
 2.6699134796e+000	 2.5615546083e+000	-6.8006658116e-001
 2.6432467140e+000	 2.5890629210e+000	-7.2372742408e-001
 2.6162950904e+000	 2.6162950904e+000	-7.8241565726e-001
 2.8919156237e+000	 2.3478605208e+000	-3.8957188777e-001
 2.8675075938e+000	 2.3776091351e+000	-4.2571525969e-001
 2.8427815831e+000	 2.4071181672e+000	-4.5597745899e-001
 2.8177411293e+000	 2.4363825497e+000	-4.8458852730e-001
 2.7923898773e+000	 2.4653972850e+000	-5.1577287898e-001
 2.7667315776e+000	 2.4941574485e+000	-5.5374100207e-001
 2.7407700837e+000	 2.5226581909e+000	-5.6810735003e-001
 2.7145093514e+000	 2.5508947413e+000	-5.8430754876e-001
 2.6879534356e+000	 2.5788624097e+000	-6.1058536147e-001
 2.6611064891e+000	 2.6065565894e+000	-6.4651854654e-001
 2.6339727599e+000	 2.6339727599e+000	-6.9170529613e-001
 2.9113244534e+000	 2.3636179740e+000	-1.7549820481e-001
 2.8867526112e+000	 2.3935662434e+000	-2.5092218122e-001
 2.8618606541e+000	 2.4232733227e+000	-3.1396390238e-001
 2.8366521436e+000	 2.4527341104e+000	-3.6907245706e-001
 2.8111307490e+000	 2.4819435755e+000	-4.2069756386e-001
 2.7853002459e+000	 2.5108967602e+000	-4.5913340460e-001
 2.7591645138e+000	 2.5395887828e+000	-4.7851355305e-001
 2.7327275349e+000	 2.5680148403e+000	-5.0232665288e-001
 2.7059933915e+000	 2.5961702111e+000	-5.3025367331e-001
 2.6789662642e+000	 2.6240502578e+000	-5.6200123160e-001
 2.6516504295e+000	 2.6516504295e+000	-5.9730329534e-001
 2.4748737342e+000	 2.4748737342e+000	-8.5987506805e-001
 2.4491135740e+000	 2.5003685132e+000	-8.5061226878e-001
 2.4230921970e+000	 2.5255938321e+000	-7.7312296947e-001
 2.3968138509e+000	 2.5505456993e+000	-7.1315456037e-001
 2.3702828639e+000	 2.5752202129e+000	-6.7329454433e-001
 2.3435036429e+000	 2.5996135628e+000	-6.5603170869e-001
 2.3164806705e+000	 2.6237220324e+000	-6.6375077029e-001
 2.2892185031e+000	 2.6475420007e+000	-6.9872730201e-001
 2.2617217679e+000	 2.6710699438e+000	-7.6312295305e-001
 2.2339951605e+000	 2.6943024371e+000	-8.5898097406e-001
 2.2060434424e+000	 2.7172361565e+000	-9.8822205757e-001
 2.4925514037e+000	 2.4925514037e+000	-1.1522660883e+000
 2.4666072423e+000	 2.5182282883e+000	-1.0509938590e+000
 2.4403999984e+000	 2.5436337880e+000	-9.4392113739e-001
 2.4139339499e+000	 2.5687638828e+000	-8.5786018688e-001
 2.3872134558e+000	 2.5936146430e+000	-7.9537450328e-001
 2.3602429546e+000	 2.6181822311e+000	-7.5892363972e-001
 2.3330269610e+000	 2.6424629041e+000	-7.5085783094e-001
 2.3055700638e+000	 2.6664530150e+000	-7.7341290896e-001
 2.2778769234e+000	 2.6901490148e+000	-8.2870552268e-001
 2.2499522688e+000	 2.7135474545e+000	-9.1872867240e-001
 2.2218008955e+000	 2.7366449862e+000	-1.0453475700e+000
 2.5102290732e+000	 2.5102290732e+000	-1.2409532463e+000
 2.4841009107e+000	 2.5360880634e+000	-1.2550812111e+000
 2.4577077999e+000	 2.5616737440e+000	-1.1157215350e+000
 2.4310540488e+000	 2.5869820664e+000	-1.0008696700e+000
 2.4041440477e+000	 2.6120090731e+000	-9.1306771115e-001
 2.3769822663e+000	 2.6367508994e+000	-8.5474854096e-001
 2.3495732515e+000	 2.6612037757e+000	-8.2823042934e-001
 2.3219216245e+000	 2.6853640292e+000	-8.3571193538e-001
 2.2940320788e+000	 2.7092280859e+000	-8.7926712303e-001
 2.2659093771e+000	 2.7327924719e+000	-9.6084110217e-001
 2.2375583487e+000	 2.7560538159e+000	-1.0822459055e+000
 2.5279067427e+000	 2.5279067427e+000	-1.1753948633e+000
 2.5015945791e+000	 2.5539478385e+000	-1.4330421385e+000
 2.4750156013e+000	 2.5797136999e+000	-1.2872975044e+000
 2.4481741477e+000	 2.6052002500e+000	-1.1409958655e+000
 2.4210746396e+000	 2.6304035032e+000	-1.0252277721e+000
 2.3937215781e+000	 2.6553195677e+000	-9.4240198819e-001
 2.3661195420e+000	 2.6799446474e+000	-8.9480732388e-001
 2.3382731853e+000	 2.7042750435e+000	-8.8460751980e-001
 2.3101872343e+000	 2.7283071569e+000	-9.1383645592e-001
 2.2818664854e+000	 2.7520374893e+000	-9.8439369614e-001
 2.2533158019e+000	 2.7754626456e+000	-1.0980403791e+000
 2.5455844123e+000	 2.5455844123e+000	-1.1053293302e+000
 2.5190882475e+000	 2.5718076136e+000	-1.3233655428e+000
 2.4923234027e+000	 2.5977536559e+000	-1.4574294535e+000
 2.4652942467e+000	 2.6234184335e+000	-1.2770573499e+000
 2.4380052315e+000	 2.6487979333e+000	-1.1307126468e+000
 2.4104608898e+000	 2.6738882360e+000	-1.0207825314e+000
 2.3826658325e+000	 2.6986855190e+000	-9.4952884714e-001
 2.3546247460e+000	 2.7231860578e+000	-9.1908295803e-001
 2.3263423898e+000	 2.7473862279e+000	-9.3144094729e-001
 2.2978235937e+000	 2.7712825068e+000	-9.8845916257e-001
 2.2690732550e+000	 2.7948714753e+000	-1.0918501178e+000
 2.5632620818e+000	 2.5632620818e+000	-1.0308709553e+000
 2.5365819159e+000	 2.5896673887e+000	-1.2073019281e+000
 2.5096312041e+000	 2.6157936118e+000	-1.4449546335e+000
 2.4824143456e+000	 2.6416366171e+000	-1.4078782233e+000
 2.4549358234e+000	 2.6671923634e+000	-1.2283845025e+000
 2.4272002015e+000	 2.6924569043e+000	-1.0887915922e+000
 2.3992121230e+000	 2.7174263907e+000	-9.9133685159e-001
 2.3709763067e+000	 2.7420970721e+000	-9.3812169769e-001
 2.3424975453e+000	 2.7664652989e+000	-9.3110679122e-001
 2.3137807020e+000	 2.7905275242e+000	-9.7210757922e-001
 2.2848307082e+000	 2.8142803050e+000	-1.0627902053e+000
 2.5809397513e+000	 2.5809397513e+000	-9.5214308863e-001
 2.5540755843e+000	 2.6075271638e+000	-1.0850208781e+000
 2.5269390055e+000	 2.6338335677e+000	-1.2819698921e+000
 2.4995344445e+000	 2.6598548007e+000	-1.5322879200e+000
 2.4718664152e+000	 2.6855867935e+000	-1.3171095686e+000
 2.4439395133e+000	 2.7110255726e+000	-1.1453333656e+000
 2.4157584135e+000	 2.7361672624e+000	-1.0191746575e+000
 2.3873278675e+000	 2.7610080864e+000	-9.4070733308e-001
 2.3586527008e+000	 2.7855443700e+000	-9.1185899211e-001
 2.3297378103e+000	 2.8097725416e+000	-9.3440648338e-001
 2.3005881613e+000	 2.8336891347e+000	-1.0099718202e+000
 2.5986174209e+000	 2.5986174209e+000	-8.6927781470e-001
 2.5715692527e+000	 2.6253869389e+000	-9.5669953466e-001
 2.5442468069e+000	 2.6518735237e+000	-1.1110008218e+000
 2.5166545435e+000	 2.6780729842e+000	-1.3302456597e+000
 2.4887970071e+000	 2.7039812235e+000	-1.3957579987e+000
 2.4606788250e+000	 2.7295942409e+000	-1.1893147253e+000
 2.4323047040e+000	 2.7549081340e+000	-1.0319870033e+000
 2.4036794282e+000	 2.7799191007e+000	-9.2582360014e-001
 2.3748078563e+000	 2.8046234410e+000	-8.7272140515e-001
 2.3456949186e+000	 2.8290175590e+000	-8.7442095830e-001
 2.3163456145e+000	 2.8530979643e+000	-9.3250236881e-001
 2.6162950904e+000	 2.6162950904e+000	-7.8241565726e-001
 2.5890629210e+000	 2.6432467140e+000	-8.2252234325e-001
 2.5615546083e+000	 2.6699134796e+000	-9.3227618110e-001
 2.5337746424e+000	 2.6962911678e+000	-1.1096199727e+000
 2.5057275990e+000	 2.7223756536e+000	-1.3524648914e+000
 2.4774181367e+000	 2.7481629093e+000	-1.2196451338e+000
 2.4488509945e+000	 2.7736490057e+000	-1.0287199970e+000
 2.4200309889e+000	 2.7988301150e+000	-8.9245437165e-001
 2.3909630117e+000	 2.8237025120e+000	-8.1271677514e-001
 2.3616520268e+000	 2.8482625764e+000	-7.9121371613e-001
 2.3321030677e+000	 2.8725067940e+000	-8.2948561287e-001
 2.6339727599e+000	 2.6339727599e+000	-6.9170529613e-001
 2.6065565894e+000	 2.6611064891e+000	-6.8268080730e-001
 2.5788624097e+000	 2.6879534356e+000	-7.4603067178e-001
 2.5508947413e+000	 2.7145093514e+000	-8.7957699047e-001
 2.5226581909e+000	 2.7407700837e+000	-1.0811088071e+000
 2.4941574485e+000	 2.7667315776e+000	-1.2352365550e+000
 2.4653972850e+000	 2.7923898773e+000	-1.0083210711e+000
 2.4363825497e+000	 2.8177411293e+000	-8.3958365272e-001
 2.4071181672e+000	 2.8427815831e+000	-7.3086677376e-001
 2.3776091351e+000	 2.8675075938e+000	-6.8384517740e-001
 2.3478605208e+000	 2.8919156237e+000	-7.0002179164e-001
 2.6516504295e+000	 2.6516504295e+000	-5.9730329534e-001
 2.6240502578e+000	 2.6789662642e+000	-5.3737325313e-001
 2.5961702111e+000	 2.7059933915e+000	-5.5250474059e-001
 2.5680148403e+000	 2.7327275349e+000	-6.4039961511e-001
 2.5395887828e+000	 2.7591645138e+000	-7.9872529017e-001
 2.5108967602e+000	 2.7853002459e+000	-1.0251183180e+000
 2.4819435755e+000	 2.8111307490e+000	-9.6973893772e-001
 2.4527341104e+000	 2.8366521436e+000	-7.6619557628e-001
 2.4232733227e+000	 2.8618606541e+000	-6.2619203533e-001
 2.3935662434e+000	 2.8867526112e+000	-5.5137354752e-001
 2.3636179740e+000	 2.9113244534e+000	-5.4320773936e-001
 2.2060434424e+000	 2.7172361565e+000	-9.8822205757e-001
 2.1778714378e+000	 2.7398678801e+000	-8.5909455548e-001
 2.1494840313e+000	 2.7621944897e+000	-7.5193116177e-001
 2.1208861652e+000	 2.7842129721e+000	-6.6761300537e-001
 2.0920828363e+000	 2.8059204205e+000	-6.0690044424e-001
 2.0630790933e+000	 2.8273140354e+000	-5.7043124211e-001
 2.0338800339e+000	 2.8483911262e+000	-5.5871907615e-001
 2.0044908018e+000	 2.8691491118e+000	-5.7215237756e-001
 1.9749165840e+000	 2.8895855216e+000	-6.1099350570e-001
 1.9451626075e+000	 2.9096979964e+000	-6.7537825561e-001
 1.9152341368e+000	 2.9294842893e+000	-7.6531569763e-001
 2.2218008955e+000	 2.7366449862e+000	-1.0453475700e+000
 2.1934276623e+000	 2.7594383650e+000	-9.0144406574e-001
 2.1648374887e+000	 2.7819244504e+000	-7.7838112473e-001
 2.1360353521e+000	 2.8041002076e+000	-6.7728634104e-001
 2.1070262851e+000	 2.8259627092e+000	-5.9916420854e-001
 2.0778153725e+000	 2.8475091357e+000	-5.4489401602e-001
 2.0484077484e+000	 2.8687367771e+000	-5.1522808167e-001
 2.0188085932e+000	 2.8896430340e+000	-5.1079032924e-001
 1.9890231310e+000	 2.9102254181e+000	-5.3207520706e-001
 1.9590566262e+000	 2.9304815535e+000	-5.7944694998e-001
 1.9289143807e+000	 2.9504091771e+000	-6.5313918328e-001
 2.2375583487e+000	 2.7560538159e+000	-1.0822459055e+000
 2.2089838869e+000	 2.7790088499e+000	-9.2779745951e-001
 2.1801909460e+000	 2.8016544110e+000	-7.9314967700e-001
 2.1511845390e+000	 2.8239874432e+000	-6.7967533825e-001
 2.1219697340e+000	 2.8460049979e+000	-5.8862170167e-001
 2.0925516518e+000	 2.8677042359e+000	-5.2110811832e-001
 2.0629354629e+000	 2.8890824280e+000	-4.7812399437e-001
 2.0331263847e+000	 2.9101369562e+000	-4.6052710423e-001
 2.0031296780e+000	 2.9308653147e+000	-4.6904225578e-001
 1.9729506448e+000	 2.9512651106e+000	-5.0426030844e-001
 1.9425946245e+000	 2.9713340648e+000	-5.6663754328e-001
 2.2533158019e+000	 2.7754626456e+000	-1.0980403791e+000
 2.2245401114e+000	 2.7985793347e+000	-9.3718444527e-001
 2.1955444034e+000	 2.8213843716e+000	-7.9517284360e-001
 2.1663337259e+000	 2.8438746787e+000	-6.7362231326e-001
 2.1369131828e+000	 2.8660472866e+000	-5.7402155710e-001
 2.1072879310e+000	 2.8878993362e+000	-4.9772857646e-001
 2.0774631775e+000	 2.9094280789e+000	-4.4596836274e-001
 2.0474441761e+000	 2.9306308784e+000	-4.1983094865e-001
 2.0172362251e+000	 2.9515052113e+000	-4.2026982132e-001
 1.9868446634e+000	 2.9720486678e+000	-4.4810069788e-001
 1.9562748683e+000	 2.9922589526e+000	-5.0400066356e-001
 2.2690732550e+000	 2.7948714753e+000	-1.0918501178e+000
 2.2400963360e+000	 2.8181498196e+000	-9.2863302792e-001
 2.2108978608e+000	 2.8411143323e+000	-7.8338745000e-001
 2.1814829128e+000	 2.8637619142e+000	-6.5797290543e-001
 2.1518566316e+000	 2.8860895753e+000	-5.5411827138e-001
 2.1220242103e+000	 2.9080944364e+000	-4.7341883702e-001
 2.0919908920e+000	 2.9297737298e+000	-4.1733372517e-001
 2.0617619676e+000	 2.9511248007e+000	-3.8718368298e-001
 2.0313427721e+000	 2.9721451079e+000	-3.8414924416e-001
 2.0007386820e+000	 2.9928322249e+000	-4.0926926384e-001
 1.9699551122e+000	 3.0131838404e+000	-4.6343982612e-001
 2.2848307082e+000	 2.8142803050e+000	-1.0627902053e+000
 2.2556525605e+000	 2.8377203044e+000	-9.0116956748e-001
 2.2262513181e+000	 2.8608442929e+000	-7.5673109459e-001
 2.1966320997e+000	 2.8836491497e+000	-6.3157596265e-001
 2.1668000805e+000	 2.9061318640e+000	-5.2767200196e-001
 2.1367604895e+000	 2.9282895367e+000	-4.4685047536e-001
 2.1065186065e+000	 2.9501193807e+000	-3.9080323105e-001
 2.0760797590e+000	 2.9716187229e+000	-3.6108023390e-001
 2.0454493191e+000	 2.9927850045e+000	-3.5908747815e-001
 2.0146327007e+000	 3.0136157820e+000	-3.8608528295e-001
 1.9836353560e+000	 3.0341087282e+000	-4.4318697124e-001
 2.3005881613e+000	 2.8336891347e+000	-1.0099718202e+000
 2.2712087851e+000	 2.8572907893e+000	-8.5381883543e-001
 2.2416047755e+000	 2.8805742536e+000	-7.1414212210e-001
 2.2117812866e+000	 2.9035363852e+000	-5.9328343145e-001
 2.1817435293e+000	 2.9261741528e+000	-4.9344837332e-001
 2.1514967687e+000	 2.9484846369e+000	-4.1670291723e-001
 2.1210463210e+000	 2.9704650316e+000	-3.6497027734e-001
 2.0903975504e+000	 2.9921126451e+000	-3.4002818551e-001
 2.0595558661e+000	 3.0134249010e+000	-3.4350655578e-001
 2.0285267193e+000	 3.0343993391e+000	-3.7688554209e-001
 1.9973155998e+000	 3.0550336159e+000	-4.4149399004e-001
 2.3163456145e+000	 2.8530979643e+000	-9.3250236881e-001
 2.2867650096e+000	 2.8768612741e+000	-7.8560406879e-001
 2.2569582329e+000	 2.9003042142e+000	-6.5455959831e-001
 2.2269304735e+000	 2.9234236207e+000	-5.4195025161e-001
 2.1966869781e+000	 2.9462164415e+000	-4.5021829102e-001
 2.1662330480e+000	 2.9686797371e+000	-3.8166317179e-001
 2.1355740356e+000	 2.9908106825e+000	-3.3843816005e-001
 2.1047153419e+000	 3.0126065673e+000	-3.2254734879e-001
 2.0736624132e+000	 3.0340647976e+000	-3.3584307534e-001
 2.0424207379e+000	 3.0551828962e+000	-3.8002374269e-001
 2.0109958437e+000	 3.0759585037e+000	-4.5663204582e-001
 2.3321030677e+000	 2.8725067940e+000	-8.2948561287e-001
 2.3023212342e+000	 2.8964317590e+000	-6.9554702189e-001
 2.2723116903e+000	 2.9200341748e+000	-5.7692328567e-001
 2.2420796604e+000	 2.9433108562e+000	-4.7643425504e-001
 2.2116304270e+000	 2.9662587302e+000	-3.9675776328e-001
 2.1809693272e+000	 2.9888748374e+000	-3.4042557535e-001
 2.1501017501e+000	 3.0111563334e+000	-3.0981973976e-001
 2.1190331333e+000	 3.0331004896e+000	-3.0716934850e-001
 2.0877689602e+000	 3.0547046942e+000	-3.3454770878e-001
 2.0563147565e+000	 3.0759664533e+000	-3.9386992939e-001
 2.0246760875e+000	 3.0968833915e+000	-4.8689092300e-001
 2.3478605208e+000	 2.8919156237e+000	-7.0002179164e-001
 2.3178774588e+000	 2.9160022438e+000	-5.8266801617e-001
 2.2876651476e+000	 2.9397641355e+000	-4.8017361986e-001
 2.2572288473e+000	 2.9631980917e+000	-3.9559606870e-001
 2.2265738758e+000	 2.9863010189e+000	-3.3184772977e-001
 2.1957056065e+000	 3.0090699376e+000	-2.9169154557e-001
 2.1646294646e+000	 3.0315019843e+000	-2.7773712073e-001
 2.1333509248e+000	 3.0535944118e+000	-2.9243722679e-001
 2.1018755072e+000	 3.0753445908e+000	-3.3808472951e-001
 2.0702087752e+000	 3.0967500104e+000	-4.1680994155e-001
 2.0383563313e+000	 3.1178082793e+000	-5.3057840227e-001
 2.3636179740e+000	 2.9113244534e+000	-5.4320773936e-001
 2.3334336833e+000	 2.9355727287e+000	-4.4598598792e-001
 2.3030186050e+000	 2.9594940961e+000	-3.6325168744e-001
 2.2723780342e+000	 2.9830853273e+000	-2.9829902148e-001
 2.2415173246e+000	 3.0063433076e+000	-2.5427389720e-001
 2.2104418857e+000	 3.0292650379e+000	-2.3416934536e-001
 2.1791571792e+000	 3.0518476352e+000	-2.4082134269e-001
 2.1476687162e+000	 3.0740883340e+000	-2.7690506257e-001
 2.1159820543e+000	 3.0959844873e+000	-3.4493155897e-001
 2.0841027938e+000	 3.1175335675e+000	-4.4724488677e-001
 2.0520365752e+000	 3.1387331671e+000	-4.9984979564e-001
 1.9152341368e+000	 2.9294842893e+000	-7.6531569763e-001
 1.8851364706e+000	 2.9489422659e+000	-9.2550440849e-001
 1.8548749386e+000	 2.9680699052e+000	-1.0085027863e+000
 1.8244548993e+000	 2.9868653000e+000	-1.0283252719e+000
 1.7938817362e+000	 3.0053266573e+000	-1.0299530717e+000
 1.7631608551e+000	 3.0234522981e+000	-1.0120065367e+000
 1.7322976814e+000	 3.0412406585e+000	-9.7314235540e-001
 1.7012976567e+000	 3.0586902889e+000	-9.1205600908e-001
 1.6701662359e+000	 3.0757998544e+000	-8.2748413350e-001
 1.6389088846e+000	 3.0925681348e+000	-7.1820678277e-001
 1.6075310757e+000	 3.1089940239e+000	-5.8304959039e-001
 1.9289143807e+000	 2.9504091771e+000	-6.5313918328e-001
 1.8986017311e+000	 2.9700061392e+000	-8.2641431340e-001
 1.8681240453e+000	 2.9892704045e+000	-9.9117291185e-001
 1.8374867200e+000	 3.0082000522e+000	-1.0148951689e+000
 1.8066951771e+000	 3.0267932762e+000	-1.0212972090e+000
 1.7757548612e+000	 3.0450483860e+000	-1.0089055498e+000
 1.7446712363e+000	 3.0629638061e+000	-9.7628329990e-001
 1.7134497828e+000	 3.0805380767e+000	-9.2203273913e-001
 1.6820959948e+000	 3.0977698534e+000	-8.4479780243e-001
 1.6506153766e+000	 3.1146579071e+000	-7.4326646363e-001
 1.6190134405e+000	 3.1312011241e+000	-5.8245905515e-001
 1.9425946245e+000	 2.9713340648e+000	-5.6663754328e-001
 1.9120669916e+000	 2.9910700125e+000	-7.5245494319e-001
 1.8813731520e+000	 3.0104709038e+000	-9.7496753684e-001
 1.8505185407e+000	 3.0295348043e+000	-1.0458670912e+000
 1.8195086181e+000	 3.0482598952e+000	-1.0564601190e+000
 1.7883488673e+000	 3.0666444738e+000	-1.0490248223e+000
 1.7570447912e+000	 3.0846869536e+000	-1.0220304944e+000
 1.7256019089e+000	 3.1023858645e+000	-9.7398599184e-001
 1.6940257536e+000	 3.1197398523e+000	-9.0344234163e-001
 1.6623218687e+000	 3.1367476795e+000	-7.3726744367e-001
 1.6304958054e+000	 3.1534082243e+000	-5.0583811550e-001
 1.9562748683e+000	 2.9922589526e+000	-5.0400066356e-001
 1.9255322521e+000	 3.0121338859e+000	-7.0184036381e-001
 1.8946222587e+000	 3.0316714032e+000	-9.3971431464e-001
 1.8635503614e+000	 3.0508695565e+000	-1.1203488375e+000
 1.8323220591e+000	 3.0697265142e+000	-1.1345777890e+000
 1.8009428734e+000	 3.0882405617e+000	-1.1315287511e+000
 1.7694183460e+000	 3.1064101012e+000	-1.1095769475e+000
 1.7377540350e+000	 3.1242336522e+000	-1.0671375714e+000
 1.7059555124e+000	 3.1417098513e+000	-8.9135703426e-001
 1.6740283607e+000	 3.1588374519e+000	-6.7397982880e-001
 1.6419781702e+000	 3.1756153244e+000	-4.2313453656e-001
 1.9699551122e+000	 3.0131838404e+000	-4.6343982612e-001
 1.9389975126e+000	 3.0331977592e+000	-6.7280543282e-001
 1.9078713654e+000	 3.0528719025e+000	-9.2558882242e-001
 1.8765821821e+000	 3.0722043086e+000	-1.2225528079e+000
 1.8451355001e+000	 3.0911931332e+000	-1.2548051446e+000
 1.8135368796e+000	 3.1098366495e+000	-1.2556000410e+000
 1.7817919009e+000	 3.1281332488e+000	-1.2178920590e+000
 1.7499061612e+000	 3.1460814400e+000	-1.0510415722e+000
 1.7178852712e+000	 3.1636798503e+000	-8.4568205803e-001
 1.6857348527e+000	 3.1809272243e+000	-6.0538794938e-001
 1.6534605350e+000	 3.1978224246e+000	-3.3361737041e-001
 1.9836353560e+000	 3.0341087282e+000	-4.4318697124e-001
 1.9524627731e+000	 3.0542616325e+000	-6.6360508245e-001
 1.9211204721e+000	 3.0740724018e+000	-9.3086989343e-001
 1.8896140028e+000	 3.0935390607e+000	-1.2457070028e+000
 1.8579489410e+000	 3.1126597521e+000	-1.4163153964e+000
 1.8261308857e+000	 3.1314327373e+000	-1.3775093603e+000
 1.7941654558e+000	 3.1498563963e+000	-1.2225241975e+000
 1.7620582873e+000	 3.1679292278e+000	-1.0272780310e+000
 1.7298150301e+000	 3.1856498492e+000	-7.9548869996e-001
 1.6974413448e+000	 3.2030169967e+000	-5.3075859713e-001
 1.6649428998e+000	 3.2200295248e+000	-2.3657022782e-001
 1.9973155998e+000	 3.0550336159e+000	-4.4149399004e-001
 1.9659280336e+000	 3.0753255058e+000	-6.7251363214e-001
 1.9343695788e+000	 3.0952729011e+000	-9.5385517800e-001
 1.9026458236e+000	 3.1148738129e+000	-1.2862075381e+000
 1.8707623820e+000	 3.1341263711e+000	-1.5565953623e+000
 1.8387248918e+000	 3.1530288252e+000	-1.4118751863e+000
 1.8065390106e+000	 3.1715795439e+000	-1.2249852014e+000
 1.7742104134e+000	 3.1897770156e+000	-9.9979068933e-001
 1.7417447889e+000	 3.2076198482e+000	-7.4004269896e-001
 1.7091478368e+000	 3.2251067691e+000	-4.4937323485e-001
 1.6764252647e+000	 3.2422366249e+000	-1.3129077962e-001
 2.0109958437e+000	 3.0759585037e+000	-4.5663204582e-001
 1.9793932941e+000	 3.0963893791e+000	-6.9782412907e-001
 1.9476186855e+000	 3.1164734004e+000	-9.9286050356e-001
 1.9156776443e+000	 3.1362085650e+000	-1.2671152156e+000
 1.8835758230e+000	 3.1555929901e+000	-1.5126029428e+000
 1.8513188979e+000	 3.1746249130e+000	-1.4448826473e+000
 1.8189125655e+000	 3.1933026914e+000	-1.2245267417e+000
 1.7863625395e+000	 3.2116248033e+000	-9.6784538916e-001
 1.7536745477e+000	 3.2295898471e+000	-6.7862455225e-001
 1.7208543288e+000	 3.2471965415e+000	-3.6052749733e-001
 1.6879076295e+000	 3.2644437251e+000	-1.7090278526e-002
 2.0246760875e+000	 3.0968833915e+000	-4.8689092300e-001
 1.9928585546e+000	 3.1174532525e+000	-7.3784771548e-001
 1.9608677923e+000	 3.1376738998e+000	-9.6238808213e-001
 1.9287094650e+000	 3.1575433171e+000	-1.1676675469e+000
 1.8963892639e+000	 3.1770596091e+000	-1.3944143831e+000
 1.8639129040e+000	 3.1962210009e+000	-1.4757856627e+000
 1.8312861203e+000	 3.2150258390e+000	-1.2204158698e+000
 1.7985146656e+000	 3.2334725911e+000	-9.3072279464e-001
 1.7656043065e+000	 3.2515598461e+000	-6.1052901669e-001
 1.7325608209e+000	 3.2692863139e+000	-2.6353071262e-001
 1.6993899943e+000	 3.2866508253e+000	 1.0670689976e-001
 2.0383563313e+000	 3.1178082793e+000	-5.3057840227e-001
 2.0063238151e+000	 3.1385171258e+000	-7.0351992794e-001
 1.9741168990e+000	 3.1588743991e+000	-8.6353502293e-001
 1.9417412857e+000	 3.1788780693e+000	-1.0482867442e+000
 1.9092027049e+000	 3.1985262280e+000	-1.2548424633e+000
 1.8765069101e+000	 3.2178170887e+000	-1.4804129464e+000
 1.8436596752e+000	 3.2367489865e+000	-1.2119345010e+000
 1.8106667917e+000	 3.2553203789e+000	-8.8771789460e-001
 1.7775340654e+000	 3.2735298451e+000	-5.3506463033e-001
 1.7442673129e+000	 3.2913760863e+000	-1.5770544251e-001
 1.7108723591e+000	 3.3088579254e+000	 2.4076369688e-001
 2.0520365752e+000	 3.1387331671e+000	-4.9984979564e-001
 2.0197890756e+000	 3.1595809991e+000	-6.0939933497e-001
 1.9873660057e+000	 3.1800748984e+000	-7.4717973792e-001
 1.9547731064e+000	 3.2002128214e+000	-9.1003578072e-001
 1.9220161459e+000	 3.2199928470e+000	-1.0949590720e+000
 1.8891009162e+000	 3.2394131765e+000	-1.2990893999e+000
 1.8560332301e+000	 3.2584721341e+000	-1.1983789188e+000
 1.8228189179e+000	 3.2771681667e+000	-8.3813952500e-001
 1.7894638242e+000	 3.2954998440e+000	-4.5155325302e-001
 1.7559738049e+000	 3.3134658586e+000	-4.2387041379e-002
 1.7223547240e+000	 3.3310650256e+000	 3.8573079462e-001
 1.6075310757e+000	 3.1089940239e+000	-5.8304959039e-001
 1.5760382868e+000	 3.1250765300e+000	-7.4913881998e-001
 1.5444359972e+000	 3.1408147750e+000	-7.8964739611e-001
 1.5127296849e+000	 3.1562079939e+000	-7.7923210452e-001
 1.4809248240e+000	 3.1712555346e+000	-7.2174966963e-001
 1.4490268819e+000	 3.1859568571e+000	-6.2094667047e-001
 1.4170413162e+000	 3.2003115330e+000	-4.8045597426e-001
 1.3849735723e+000	 3.2143192443e+000	-3.0379348084e-001
 1.3528290804e+000	 3.2279797829e+000	-9.4355178513e-002
 1.3206132534e+000	 3.2412930498e+000	 1.4458548900e-001
 1.2883314835e+000	 3.2542590537e+000	 4.0987994539e-001
 1.6190134405e+000	 3.1312011241e+000	-5.8245905515e-001
 1.5872957031e+000	 3.1473985053e+000	-6.8268029276e-001
 1.5554676828e+000	 3.1632491662e+000	-7.2665014801e-001
 1.5235348969e+000	 3.1787523367e+000	-7.1847074083e-001
 1.4915028585e+000	 3.1939073598e+000	-6.6213629866e-001
 1.4593770739e+000	 3.2087136918e+000	-5.6152912699e-001
 1.4271630399e+000	 3.2231709011e+000	-4.2041589572e-001
 1.3948662406e+000	 3.2372786675e+000	-2.4244424306e-001
 1.3624921453e+000	 3.2510367814e+000	-3.1139697730e-002
 1.3300462052e+000	 3.2644451431e+000	 2.1009708074e-001
 1.2975338512e+000	 3.2775037612e+000	 4.7799274452e-001
 1.6304958054e+000	 3.1534082243e+000	-5.0583811550e-001
 1.5985531195e+000	 3.1697204805e+000	-6.1189302327e-001
 1.5664993685e+000	 3.1856835575e+000	-6.6040278836e-001
 1.5343401089e+000	 3.2012966795e+000	-6.5560870219e-001
 1.5020808929e+000	 3.2165591851e+000	-6.0164246709e-001
 1.4697272659e+000	 3.2314705265e+000	-5.0252201338e-001
 1.4372847636e+000	 3.2460302692e+000	-3.6214763886e-001
 1.4047589090e+000	 3.2602380906e+000	-1.8429847277e-001
 1.3721552102e+000	 3.2740937798e+000	 2.7370735057e-002
 1.3394791570e+000	 3.2875972363e+000	 2.6933249979e-001
 1.3067362190e+000	 3.3007484688e+000	 5.3818916293e-001
 1.6419781702e+000	 3.1756153244e+000	-4.2313453656e-001
 1.6098105358e+000	 3.1920424557e+000	-5.3599658987e-001
 1.5775310542e+000	 3.2081179487e+000	-5.9009009522e-001
 1.5451453210e+000	 3.2238410223e+000	-5.8979558550e-001
 1.5126589274e+000	 3.2392110103e+000	-5.3938223401e-001
 1.4800774579e+000	 3.2542273612e+000	-4.4300351822e-001
 1.4474064873e+000	 3.2688896373e+000	-3.0469321289e-001
 1.4146515774e+000	 3.2831975138e+000	-1.2836171450e-001
 1.3818182750e+000	 3.2971507783e+000	 8.2207301963e-002
 1.3489121088e+000	 3.3107493295e+000	 3.2335989384e-001
 1.3159385867e+000	 3.3239931763e+000	 5.9157453001e-001
 1.6534605350e+000	 3.1978224246e+000	-3.3361737041e-001
 1.6210679521e+000	 3.2143644309e+000	-4.5422646239e-001
 1.5885627399e+000	 3.2305523400e+000	-5.1491357206e-001
 1.5559505330e+000	 3.2463853651e+000	-5.2019856765e-001
 1.5232369618e+000	 3.2618628356e+000	-4.7448811317e-001
 1.4904276499e+000	 3.2769841959e+000	-3.8207117910e-001
 1.4575282109e+000	 3.2917490054e+000	-2.4711488947e-001
 1.4245442458e+000	 3.3061569370e+000	-7.3660707292e-002
 1.3914813399e+000	 3.3202077768e+000	 1.3437904051e-001
 1.3583450606e+000	 3.3339014227e+000	 3.7322429836e-001
 1.3251409544e+000	 3.3472378838e+000	 6.3923007838e-001
 1.6649428998e+000	 3.2200295248e+000	-2.3657022782e-001
 1.6323253685e+000	 3.2366864061e+000	-3.6583345414e-001
 1.5995944256e+000	 3.2529867312e+000	-4.3409087103e-001
 1.5667557450e+000	 3.2689297079e+000	-4.4600179932e-001
 1.5338149963e+000	 3.2845146608e+000	-4.0611043666e-001
 1.5007778420e+000	 3.2997410306e+000	-3.1884121543e-001
 1.4676499346e+000	 3.3146083735e+000	-1.8849450405e-001
 1.4344369141e+000	 3.3291163602e+000	-1.9242653826e-002
 1.4011444047e+000	 3.3432647752e+000	 1.8487360725e-001
 1.3677780124e+000	 3.3570535159e+000	 4.1994843360e-001
 1.3343433222e+000	 3.3704825914e+000	 6.8221377472e-001
 1.6764252647e+000	 3.2422366249e+000	-1.3129077962e-001
 1.6435827848e+000	 3.2590083813e+000	-2.7008319643e-001
 1.6106261113e+000	 3.2754211225e+000	-3.4685523990e-001
 1.5775609571e+000	 3.2914740508e+000	-3.6640582365e-001
 1.5443930308e+000	 3.3071664861e+000	-3.3341674469e-001
 1.5111280340e+000	 3.3224978653e+000	-2.5244788867e-001
 1.4777716583e+000	 3.3374677416e+000	-1.2793278582e-001
 1.4443295825e+000	 3.3520757833e+000	 3.5825480367e-002
 1.4108074696e+000	 3.3663217737e+000	 2.3465800994e-001
 1.3772109643e+000	 3.3802056091e+000	 4.6453346878e-001
 1.3435456899e+000	 3.3937272989e+000	 7.2156111662e-001
 1.6879076295e+000	 3.2644437251e+000	-1.7090278526e-002
 1.6548402011e+000	 3.2813303565e+000	-1.6625563457e-001
 1.6216577970e+000	 3.2978555137e+000	-2.5245499161e-001
 1.5883661691e+000	 3.3140183936e+000	-2.8062701872e-001
 1.5549710652e+000	 3.3298183113e+000	-2.5559120024e-001
 1.5214782260e+000	 3.3452547000e+000	-1.8204288861e-001
 1.4878933820e+000	 3.3603271097e+000	-6.4548715100e-002
 1.4542222509e+000	 3.3750352065e+000	 9.2457639118e-002
 1.4204705345e+000	 3.3893787721e+000	 2.8467930996e-001
 1.3866439161e+000	 3.4033577023e+000	 5.0795975511e-001
 1.3527480577e+000	 3.4169720064e+000	 7.5828589680e-001
 1.6993899943e+000	 3.2866508253e+000	 1.0670689976e-001
 1.6660976175e+000	 3.3036523318e+000	-5.3644544324e-002
 1.6326894827e+000	 3.3202899050e+000	-1.5015299533e-001
 1.5991713811e+000	 3.3365627364e+000	-1.8789706256e-001
 1.5655490997e+000	 3.3524701366e+000	-1.7183402754e-001
 1.5318284180e+000	 3.3680115347e+000	-1.0679474461e-001
 1.4980151057e+000	 3.3831864778e+000	 2.5210932403e-003
 1.4641149192e+000	 3.3979946297e+000	 1.5154932058e-001
 1.4301335993e+000	 3.4124357706e+000	 3.3586529610e-001
 1.3960768679e+000	 3.4265097956e+000	 5.5118752914e-001
 1.3619504254e+000	 3.4402167139e+000	 7.9338093639e-001
 1.7108723591e+000	 3.3088579254e+000	 2.4076369688e-001
 1.6773550338e+000	 3.3259743070e+000	 6.8442932265e-002
 1.6437211684e+000	 3.3427242962e+000	-3.9226187962e-002
 1.6099765932e+000	 3.3591070792e+000	-8.7462419716e-002
 1.5761271341e+000	 3.3751219618e+000	-8.1360973041e-002
 1.5421786100e+000	 3.3907683694e+000	-2.5888260501e-002
 1.5081368294e+000	 3.4060458459e+000	 7.4122981576e-002
 1.4740075876e+000	 3.4209540529e+000	 2.1397819619e-001
 1.4397966642e+000	 3.4354927690e+000	 3.8912513135e-001
 1.4055098197e+000	 3.4496618888e+000	 5.9515758774e-001
 1.3711527931e+000	 3.4634614215e+000	 8.2781878869e-001
 1.7223547240e+000	 3.3310650256e+000	 3.8573079462e-001
 1.6886124501e+000	 3.3482962822e+000	 2.0068673237e-001
 1.6547528541e+000	 3.3651586875e+000	 8.1034894759e-002
 1.6207818052e+000	 3.3816514220e+000	 2.1416151584e-002
 1.5867051686e+000	 3.3977737871e+000	 1.6597211943e-002
 1.5525288020e+000	 3.4135252041e+000	 6.1476027900e-002
 1.5182585531e+000	 3.4289052139e+000	 1.5108681760e-001
 1.4839002560e+000	 3.4439134760e+000	 2.8060470491e-001
 1.4494597290e+000	 3.4585497675e+000	 4.4534997370e-001
 1.4149427715e+000	 3.4728139820e+000	 6.4079193606e-001
 1.3803551609e+000	 3.4867061290e+000	 8.6255241473e-001
 1.2883314835e+000	 3.2542590537e+000	 4.0987994539e-001
 1.2559891402e+000	 3.2668779101e+000	-1.1669182548e+000
 1.2235915677e+000	 3.2791498404e+000	-1.5057650300e+000
 1.1911440823e+000	 3.2910751701e+000	-1.4769680014e+000
 1.1586519699e+000	 3.3026543284e+000	-1.3590391159e+000
 1.1261204840e+000	 3.3138878460e+000	-1.1625526576e+000
 1.0935548431e+000	 3.3247763542e+000	-8.9707403592e-001
 1.0609602284e+000	 3.3353205834e+000	-5.7119849399e-001
 1.0283417820e+000	 3.3455213614e+000	-1.9259113010e-001
 9.9570460419e-001	 3.3553796121e+000	 2.3197192597e-001
 9.6305375194e-001	 3.3648963537e+000	 6.9656133903e-001
 1.2975338512e+000	 3.2775037612e+000	 4.7799274452e-001
 1.2649604912e+000	 3.2902127523e+000	-1.0484276855e+000
 1.2323315075e+000	 3.3025723392e+000	-1.6972526235e+000
 1.1996522543e+000	 3.3145828499e+000	-1.5534140078e+000
 1.1669280554e+000	 3.3262447164e+000	-1.3382426312e+000
 1.1341642017e+000	 3.3375584734e+000	-1.0616592667e+000
 1.1013659491e+000	 3.3485247567e+000	-7.3254610194e-001
 1.0685385158e+000	 3.3591443018e+000	-3.5878732647e-001
 1.0356870804e+000	 3.3694179425e+000	 5.2688947971e-002
 1.0028167799e+000	 3.3793466093e+000	 4.9586759778e-001
 9.6993270731e-001	 3.3889313276e+000	 9.6560239004e-001
 1.3067362190e+000	 3.3007484688e+000	 5.3818916293e-001
 1.2739318422e+000	 3.3135475946e+000	-9.3042757810e-001
 1.2410714472e+000	 3.3259948381e+000	-1.9333668521e+000
 1.2081604263e+000	 3.3380905297e+000	-1.6765876565e+000
 1.1752041409e+000	 3.3498351045e+000	-1.3666642048e+000
 1.1422079195e+000	 3.3612291009e+000	-1.0128532356e+000
 1.1091770551e+000	 3.3722731592e+000	-6.2334267379e-001
 1.0761168031e+000	 3.3829680203e+000	-2.0529412557e-001
 1.0430323789e+000	 3.3933145237e+000	 2.3511327280e-001
 1.0099289557e+000	 3.4033136065e+000	 6.9263782211e-001
 9.7681166268e-001	 3.4129663016e+000	 1.1629292094e+000
 1.3159385867e+000	 3.3239931763e+000	 5.9157453001e-001
 1.2829031932e+000	 3.3368824368e+000	-8.1196686445e-001
 1.2498113870e+000	 3.3494173369e+000	-2.2023731568e+000
 1.2166685983e+000	 3.3615982095e+000	-1.8351371412e+000
 1.1834802264e+000	 3.3734254925e+000	-1.4333427197e+000
 1.1502516372e+000	 3.3848997284e+000	-1.0055717995e+000
 1.1169881611e+000	 3.3960215617e+000	-5.5930672249e-001
 1.0836950905e+000	 3.4067917387e+000	-1.0097469892e-001
 1.0503776773e+000	 3.4172111048e+000	 3.6400638614e-001
 1.0170411314e+000	 3.4272806038e+000	 8.3118096653e-001
 9.8369061805e-001	 3.4370012755e+000	 1.2970077603e+000
 1.3251409544e+000	 3.3472378838e+000	 6.3923007838e-001
 1.2918745442e+000	 3.3602172790e+000	-6.9211425100e-001
 1.2585513268e+000	 3.3728398358e+000	-2.0291780574e+000
 1.2251767703e+000	 3.3851058893e+000	-2.0177216441e+000
 1.1917563119e+000	 3.3970158806e+000	-1.5273235888e+000
 1.1582953550e+000	 3.4085703558e+000	-1.0292542230e+000
 1.1247992672e+000	 3.4197699643e+000	-5.3027870944e-001
 1.0912733778e+000	 3.4306154572e+000	-3.6077768925e-002
 1.0577229757e+000	 3.4411076860e+000	 4.4870452507e-001
 1.0241533072e+000	 3.4512476010e+000	 9.2041173598e-001
 9.9056957342e-001	 3.4610362495e+000	 1.3763250150e+000
 1.3343433222e+000	 3.3704825914e+000	 6.8221377472e-001
 1.3008458952e+000	 3.3835521212e+000	-5.6995753693e-001
 1.2672912665e+000	 3.3962623346e+000	-1.8367277159e+000
 1.2336849423e+000	 3.4086135690e+000	-2.2130109578e+000
 1.2000323974e+000	 3.4206062687e+000	-1.6376585294e+000
 1.1663390727e+000	 3.4322409833e+000	-1.0733417302e+000
 1.1326103732e+000	 3.4435183668e+000	-5.2609667298e-001
 1.0988516651e+000	 3.4544391756e+000	-8.4521698734e-004
 1.0650682742e+000	 3.4650042671e+000	 4.9855521863e-001
 1.0312654829e+000	 3.4752145982e+000	 9.6926060937e-001
 9.9744852879e-001	 3.4850712234e+000	 1.4093882306e+000
 1.3435456899e+000	 3.3937272989e+000	 7.2156111662e-001
 1.3098172462e+000	 3.4068869634e+000	-4.4460296034e-001
 1.2760312063e+000	 3.4196848335e+000	-1.6342120113e+000
 1.2421931143e+000	 3.4321212488e+000	-2.4096851211e+000
 1.2083084829e+000	 3.4441966567e+000	-1.7534053474e+000
 1.1743827904e+000	 3.4559116108e+000	-1.1272774375e+000
 1.1404214792e+000	 3.4672667693e+000	-5.3659631136e-001
 1.1064299525e+000	 3.4782628941e+000	 1.4487682165e-002
 1.0724135726e+000	 3.4889008483e+000	 5.2291690117e-001
 1.0383776586e+000	 3.4991815955e+000	 9.8667329945e-001
 1.0043274842e+000	 3.5091061974e+000	 1.4047242544e+000
 1.3527480577e+000	 3.4169720064e+000	 7.5828589680e-001
 1.3187885972e+000	 3.4302218056e+000	-3.1517457100e-001
 1.2847711461e+000	 3.4431073324e+000	-1.4208947786e+000
 1.2507012864e+000	 3.4556289286e+000	-2.5572153883e+000
 1.2165845684e+000	 3.4677870448e+000	-1.8636277303e+000
 1.1824265082e+000	 3.4795822382e+000	-1.1805062896e+000
 1.1482325852e+000	 3.4910151719e+000	-5.5161106230e-001
 1.1140082398e+000	 3.5020866125e+000	 1.9692035773e-002
 1.0797588711e+000	 3.5127974294e+000	 5.3115854140e-001
 1.0454898344e+000	 3.5231485927e+000	 9.8161023457e-001
 1.0112064395e+000	 3.5331411713e+000	 1.3708788574e+000
 1.3619504254e+000	 3.4402167139e+000	 7.9338093639e-001
 1.3277599482e+000	 3.4535566479e+000	-1.8081362866e-001
 1.2935110859e+000	 3.4665298312e+000	-1.1960532596e+000
 1.2592094584e+000	 3.4791366084e+000	-2.2503711654e+000
 1.2248606539e+000	 3.4913774329e+000	-1.9573950484e+000
 1.1904702259e+000	 3.5032528657e+000	-1.2224749971e+000
 1.1560436912e+000	 3.5147635744e+000	-5.6097217943e-001
 1.1215865272e+000	 3.5259103310e+000	 2.4545117442e-002
 1.0871041695e+000	 3.5366940106e+000	 5.3265928648e-001
 1.0526020101e+000	 3.5471155899e+000	 9.6304606160e-001
 1.0180853949e+000	 3.5571761453e+000	 1.3164160951e+000
 1.3711527931e+000	 3.4634614215e+000	 8.2781878869e-001
 1.3367312992e+000	 3.4768914901e+000	-4.0678025516e-002
 1.3022510256e+000	 3.4899523301e+000	-9.5897765283e-001
 1.2677176304e+000	 3.5026442882e+000	-1.9248094937e+000
 1.2331367394e+000	 3.5149678209e+000	-2.0237821642e+000
 1.1985139437e+000	 3.5269234932e+000	-1.2426319778e+000
 1.1638547973e+000	 3.5385119769e+000	-5.5450880551e-001
 1.1291648145e+000	 3.5497340494e+000	 3.8830160214e-002
 1.0944494679e+000	 3.5605905918e+000	 5.3680812052e-001
 1.0597141859e+000	 3.5710825871e+000	 9.3996916875e-001
 1.0249643503e+000	 3.5812111192e+000	 1.2499176938e+000
 1.3803551609e+000	 3.4867061290e+000	 8.6255241473e-001
 1.3457026502e+000	 3.5002263323e+000	 1.0605826821e-001
 1.3109909654e+000	 3.5133748290e+000	-7.0897068168e-001
 1.2762258024e+000	 3.5261519680e+000	-1.5799636066e+000
 1.2414128249e+000	 3.5385582090e+000	-2.0518692492e+000
 1.2065576614e+000	 3.5505941207e+000	-1.2304272996e+000
 1.1716659033e+000	 3.5622603795e+000	-5.2204804284e-001
 1.1367431019e+000	 3.5735577679e+000	 7.2336157919e-002
 1.1017947664e+000	 3.5844871729e+000	 5.5300353661e-001
 1.0668263616e+000	 3.5950495844e+000	 9.2138122755e-001
 1.0318433056e+000	 3.6052460932e+000	 1.1799824618e+000
 9.6305375194e-001	 3.3648963537e+000	 6.9656133903e-001
 9.3039423656e-001	 3.3740726970e+000	 3.8188085842e-001
 8.9773102186e-001	 3.3829098440e+000	 7.7125235573e-002
 8.6506902227e-001	 3.3914090857e+000	-2.2158737707e-001
 8.3241310102e-001	 3.3995718009e+000	-5.1744600340e-001
 7.9976806841e-001	 3.4073994536e+000	-8.1299182893e-001
 7.6713868010e-001	 3.4148935921e+000	-1.1101633210e+000
 7.3452963556e-001	 3.4220558462e+000	-1.4103413475e+000
 7.0194557643e-001	 3.4288879258e+000	-1.7143941640e+000
 6.6939108513e-001	 3.4353916189e+000	-2.0227221410e+000
 6.3687068343e-001	 3.4415687894e+000	-2.3353021121e+000
 9.6993270731e-001	 3.3889313276e+000	 9.6560239004e-001
 9.3703990968e-001	 3.3981732162e+000	 6.3677396699e-001
 9.0414338630e-001	 3.4070734857e+000	 2.9939169552e-001
 8.7124808671e-001	 3.4156334363e+000	-4.8702549054e-002
 8.3835890888e-001	 3.4238544566e+000	-4.0896781916e-001
 8.0548069746e-001	 3.4317380212e+000	-7.8221171540e-001
 7.7261824210e-001	 3.4392856892e+000	-1.1686380999e+000
 7.3977627581e-001	 3.4464991022e+000	-1.5678947623e+000
 7.0695947340e-001	 3.4533799824e+000	-1.9791209027e+000
 6.7417245002e-001	 3.4599301304e+000	-2.4009943012e+000
 6.4141975974e-001	 3.4661514237e+000	-2.8317780486e+000
 9.7681166268e-001	 3.4129663016e+000	 1.1629292094e+000
 9.4368558279e-001	 3.4222737355e+000	 8.3603067968e-001
 9.1055575074e-001	 3.4312371274e+000	 4.8185126432e-001
 8.7742715115e-001	 3.4398577869e+000	 9.9961043623e-002
 8.4430471674e-001	 3.4481371123e+000	-3.0936421061e-001
 8.1119332652e-001	 3.4560765887e+000	-7.4519331424e-001
 7.7809780410e-001	 3.4636777863e+000	-1.2059900012e+000
 7.4502291606e-001	 3.4709423583e+000	-1.6896631602e+000
 7.1197337037e-001	 3.4778720390e+000	-2.1936168375e+000
 6.7895381492e-001	 3.4844686420e+000	-2.7147998718e+000
 6.4596883605e-001	 3.4907340579e+000	-3.2497550318e+000
 9.8369061805e-001	 3.4370012755e+000	 1.2970077603e+000
 9.5033125591e-001	 3.4463742548e+000	 9.8723863780e-001
 9.1696811518e-001	 3.4554007692e+000	 6.3120670152e-001
 8.8360621559e-001	 3.4640821375e+000	 2.3021521509e-001
 8.5025052460e-001	 3.4724197680e+000	-2.1371987661e-001
 8.1690595558e-001	 3.4804151562e+000	-6.9792290979e-001
 7.8357736610e-001	 3.4880698834e+000	-1.2191114735e+000
 7.5026955631e-001	 3.4953856143e+000	-1.7734492409e+000
 7.1698726735e-001	 3.5023640956e+000	-2.3565985166e+000
 6.8373517981e-001	 3.5090071536e+000	-2.9637723606e+000
 6.5051791236e-001	 3.5153166921e+000	-3.5897861557e+000
 9.9056957342e-001	 3.4610362495e+000	 1.3763250150e+000
 9.5697692902e-001	 3.4704747740e+000	 1.0980234131e+000
 9.2338047962e-001	 3.4795644109e+000	 7.5421566935e-001
 8.8978528004e-001	 3.4883064882e+000	 3.4794369777e-001
 8.5619633247e-001	 3.4967024237e+000	-1.1703054642e-001
 8.2261858464e-001	 3.5047537237e+000	-6.3628073728e-001
 7.8905692810e-001	 3.5124619805e+000	-1.2047718158e+000
 7.5551619657e-001	 3.5198288704e+000	-1.8169154410e+000
 7.2200116432e-001	 3.5268561522e+000	-2.4666251056e+000
 6.8851654471e-001	 3.5335456651e+000	-3.1473707737e+000
 6.5506698867e-001	 3.5398993263e+000	-3.8522329030e+000
 9.9744852879e-001	 3.4850712234e+000	 1.4093882306e+000
 9.6362260214e-001	 3.4945752933e+000	 1.1760472000e+000
 9.2979284406e-001	 3.5037280527e+000	 8.5768883955e-001
 8.9596434448e-001	 3.5125308388e+000	 4.5909966241e-001
 8.6214214033e-001	 3.5209850795e+000	-1.4206047652e-002
 8.2833121370e-001	 3.5290922913e+000	-5.5604463970e-001
 7.9453649010e-001	 3.5368540775e+000	-1.1596214247e+000
 7.6076283682e-001	 3.5442721264e+000	-1.8175887710e+000
 7.2701506130e-001	 3.5513482089e+000	-2.5221038145e+000
 6.9329790960e-001	 3.5580841767e+000	-3.2648856335e+000
 6.5961606499e-001	 3.5644819605e+000	-4.0372717516e+000
 1.0043274842e+000	 3.5091061974e+000	 1.4047242544e+000
 9.7026827526e-001	 3.5186758126e+000	 1.2290075611e+000
 9.3620520850e-001	 3.5278916944e+000	 9.4848807799e-001
 9.0214340892e-001	 3.5367551894e+000	 5.6970334008e-001
 8.6808794820e-001	 3.5452677352e+000	 9.9926751953e-002
 8.3404384276e-001	 3.5534308588e+000	-4.5289357439e-001
 8.0001605210e-001	 3.5612461746e+000	-1.0801958656e+000
 7.6600947708e-001	 3.5687153825e+000	-1.7728654529e+000
 7.3202895827e-001	 3.5758402655e+000	-2.5212951012e+000
 6.9807927450e-001	 3.5826226883e+000	-3.3154447483e+000
 6.6416514130e-001	 3.5890645947e+000	-4.1449005113e+000
 1.0112064395e+000	 3.5331411713e+000	 1.3708788574e+000
 9.7691394838e-001	 3.5427763318e+000	 1.2646362243e+000
 9.4261757294e-001	 3.5520553362e+000	 1.0335247034e+000
 9.0832247337e-001	 3.5609795400e+000	 6.8583974120e-001
 8.7403375606e-001	 3.5695503909e+000	 2.3062112271e-001
 8.3975647182e-001	 3.5777694263e+000	-3.2241097649e-001
 8.0549561411e-001	 3.5856382717e+000	-9.6291977908e-001
 7.7125611733e-001	 3.5931586385e+000	-1.6800153687e+000
 7.3704285525e-001	 3.6003323221e+000	-2.4623176638e+000
 7.0286063939e-001	 3.6071611998e+000	-3.2980187469e+000
 6.6871421761e-001	 3.6136472289e+000	-4.1749444000e+000
 1.0180853949e+000	 3.5571761453e+000	 1.3164160951e+000
 9.8355962149e-001	 3.5668768511e+000	 1.2906979288e+000
 9.4902993738e-001	 3.5762189779e+000	 1.1197578164e+000
 9.1450153782e-001	 3.5852038906e+000	 8.1365646708e-001
 8.7997956393e-001	 3.5938330466e+000	 3.8320776564e-001
 8.4546910088e-001	 3.6021079939e+000	-1.6008798604e-001
 8.1097517611e-001	 3.6100303688e+000	-8.0411062822e-001
 7.7650275759e-001	 3.6176018945e+000	-1.5361863289e+000
 7.4205675223e-001	 3.6248243787e+000	-2.3431532293e+000
 7.0764200429e-001	 3.6316997114e+000	-3.2114263886e+000
 6.7326329392e-001	 3.6382298631e+000	-4.1270618753e+000
 1.0249643503e+000	 3.5812111192e+000	 1.2499176938e+000
 9.9020529461e-001	 3.5909773704e+000	 1.3149893169e+000
 9.5544230183e-001	 3.6003826196e+000	 1.2141926968e+000
 9.2068060226e-001	 3.6094282412e+000	 9.5936160948e-001
 8.8592537179e-001	 3.6181157023e+000	 5.6309221413e-001
 8.5118172995e-001	 3.6264465614e+000	 3.8673454857e-002
 8.1645473811e-001	 3.6344224659e+000	-5.9998229503e-001
 7.8174939785e-001	 3.6420451506e+000	-1.3384081688e+000
 7.4707064920e-001	 3.6493164353e+000	-2.1616511500e+000
 7.1242336919e-001	 3.6562382230e+000	-3.0543396597e+000
 6.7781237024e-001	 3.6628124973e+000	-4.0007502299e+000
 1.0318433056e+000	 3.6052460932e+000	 1.1799824618e+000
 9.9685096773e-001	 3.6150778896e+000	 1.3453378709e+000
 9.6185466627e-001	 3.6245462614e+000	 1.3238792632e+000
 9.2685966671e-001	 3.6336525918e+000	 1.1292217343e+000
 8.9187117966e-001	 3.6423983581e+000	 7.7575233951e-001
 8.5689435901e-001	 3.6507851289e+000	 2.7855762878e-001
 8.2193430012e-001	 3.6588145630e+000	-3.4664853327e-001
 7.8699603810e-001	 3.6664884066e+000	-1.0835966807e+000
 7.5208454618e-001	 3.6738084919e+000	-1.9155328159e+000
 7.1720473409e-001	 3.6807767345e+000	-2.8252886658e+000
 6.8236144655e-001	 3.6873951316e+000	-3.7953509642e+000
 6.3687068343e-001	 3.4415687894e+000	-2.3353021121e+000
 6.0438883109e-001	 3.4474213756e+000	 1.0680817312e+000
 5.7194992458e-001	 3.4529513874e+000	 7.6548269966e-001
 5.3955829594e-001	 3.4581609051e+000	 5.1935529836e-001
 5.0721821157e-001	 3.4630520767e+000	 3.2870960408e-001
 4.7493387121e-001	 3.4676271163e+000	 1.9164683314e-001
 4.4270940692e-001	 3.4718883019e+000	 1.0546380817e-001
 4.1054888215e-001	 3.4758379731e+000	 6.6755117463e-002
 3.7845629087e-001	 3.4794785293e+000	 7.1512770277e-002
 3.4643555681e-001	 3.4828124275e+000	 1.1522316614e-001
 3.1449053264e-001	 3.4858421801e+000	 1.9296121147e-001
 6.4141975974e-001	 3.4661514237e+000	-2.8317780486e+000
 6.0870589417e-001	 3.4720458140e+000	 1.7515146149e+000
 5.7603528119e-001	 3.4776153259e+000	 1.2501123329e+000
 5.4341228377e-001	 3.4828620544e+000	 8.3815523934e-001
 5.1084119880e-001	 3.4877881630e+000	 5.1180417170e-001
 4.7832625601e-001	 3.4923958815e+000	 2.6631809076e-001
 4.4587161697e-001	 3.4966875041e+000	 9.6162954610e-002
 4.1348137416e-001	 3.5006653872e+000	-4.8818483705e-003
 3.8115955010e-001	 3.5043319474e+000	-4.3619709412e-002
 3.4891009650e-001	 3.5076896591e+000	-2.7335838623e-002
 3.1673689358e-001	 3.5107410529e+000	 3.6300695485e-002
 6.4596883605e-001	 3.4907340579e+000	-3.2497550318e+000
 6.1302295724e-001	 3.4966702524e+000	 2.4644676337e+000
 5.8012063779e-001	 3.5022792644e+000	 1.7634945115e+000
 5.4726627160e-001	 3.5075632037e+000	 1.1852762768e+000
 5.1446418603e-001	 3.5125242492e+000	 7.2309523578e-001
 4.8171864080e-001	 3.5171646466e+000	 3.6933878004e-001
 4.4903382702e-001	 3.5214867062e+000	 1.1561272190e-001
 4.1641386618e-001	 3.5254928013e+000	-4.7147945723e-002
 3.8386280932e-001	 3.5291853654e+000	-1.2857107293e-001
 3.5138463619e-001	 3.5325668907e+000	-1.3874235081e-001
 3.1898325453e-001	 3.5356399256e+000	-8.8103459141e-002
 6.5051791236e-001	 3.5153166921e+000	-3.5897861557e+000
 6.1734002033e-001	 3.5212946908e+000	 3.1865574489e+000
 5.8420599440e-001	 3.5269432028e+000	 2.2867188600e+000
 5.5112025943e-001	 3.5322643530e+000	 1.5432881697e+000
 5.1808717325e-001	 3.5372603355e+000	 9.4663900632e-001
 4.8511102560e-001	 3.5419334117e+000	 4.8625702972e-001
 4.5219603707e-001	 3.5462859084e+000	 1.5085778400e-001
 4.1934635820e-001	 3.5503202154e+000	-7.1498162060e-002
 3.8656606854e-001	 3.5540387835e+000	-1.9329300004e-001
 3.5385917588e-001	 3.5574441224e+000	-2.2744258811e-001
 3.2122961548e-001	 3.5605387983e+000	-1.8719065808e-001
 6.5506698867e-001	 3.5398993263e+000	-3.8522329030e+000
 6.2165708341e-001	 3.5459191292e+000	 3.8975717664e+000
 5.8829135100e-001	 3.5516071413e+000	 2.8010254108e+000
 5.5497424726e-001	 3.5569655023e+000	 1.8948903877e+000
 5.2171016048e-001	 3.5619964217e+000	 1.1666006546e+000
 4.8850341040e-001	 3.5667021768e+000	 6.0270913758e-001
 4.5535824712e-001	 3.5710851106e+000	 1.8901015748e-001
 4.2227885021e-001	 3.5751476295e+000	-8.9340994152e-002
 3.8926932776e-001	 3.5788922016e+000	-2.4771154867e-001
 3.5633371558e-001	 3.5823213540e+000	-3.0187802366e-001
 3.2347597643e-001	 3.5854376710e+000	-2.6791643994e-001
 6.5961606499e-001	 3.5644819605e+000	-4.0372717516e+000
 6.2597414649e-001	 3.5705435676e+000	 4.2930944104e+000
 5.9237670761e-001	 3.5762710798e+000	 3.2877994180e+000
 5.5882823509e-001	 3.5816666517e+000	 2.2229076384e+000
 5.2533314771e-001	 3.5867325080e+000	 1.3672505561e+000
 4.9189579519e-001	 3.5914709419e+000	 7.0441653013e-001
 4.5852045717e-001	 3.5958843127e+000	 2.1724687934e-001
 4.2521134223e-001	 3.5999750436e+000	-1.1204005120e-001
 3.9197258699e-001	 3.6037456196e+000	-3.0172803839e-001
 3.5880825527e-001	 3.6071985856e+000	-3.7048554966e-001
 3.2572233738e-001	 3.6103365437e+000	-3.3725191994e-001
 6.6416514130e-001	 3.5890645947e+000	-4.1449005113e+000
 6.3029120957e-001	 3.5951680060e+000	 3.7135237367e+000
 5.9646206422e-001	 3.6009350183e+000	 3.7285663842e+000
 5.6268222292e-001	 3.6063678010e+000	 2.5102855780e+000
 5.2895613494e-001	 3.6114685943e+000	 1.5329606872e+000
 4.9528817999e-001	 3.6162397070e+000	 7.7718284725e-001
 4.6168266723e-001	 3.6206835149e+000	 2.2280778032e-001
 4.2814383425e-001	 3.6248024577e+000	-1.5091559209e-001
 3.9467584621e-001	 3.6285990377e+000	-3.6521989763e-001
 3.6128279496e-001	 3.6320758172e+000	-4.4169763426e-001
 3.2796869832e-001	 3.6352354164e+000	-4.0218325648e-001
 6.6871421761e-001	 3.6136472289e+000	-4.1749444000e+000
 6.3460827265e-001	 3.6197924444e+000	 3.1627174700e+000
 6.0054742082e-001	 3.6255989568e+000	 4.1049872896e+000
 5.6653621075e-001	 3.6310689503e+000	 2.7400866980e+000
 5.3257912217e-001	 3.6362046805e+000	 1.6482011696e+000
 4.9868056479e-001	 3.6410084722e+000	 8.0689114579e-001
 4.6484487728e-001	 3.6454827170e+000	 1.9299334906e-001
 4.3107632627e-001	 3.6496298718e+000	-2.1724599986e-001
 3.9737910543e-001	 3.6534524558e+000	-4.4804147630e-001
 3.6375733466e-001	 3.6569530489e+000	-5.2394247202e-001
 3.3021505927e-001	 3.6601342892e+000	-4.6971113945e-001
 6.7326329392e-001	 3.6382298631e+000	-4.1270618753e+000
 6.3892533573e-001	 3.6444168828e+000	 2.6413552233e+000
 6.0463277743e-001	 3.6502628952e+000	 4.3988540158e+000
 5.7039019858e-001	 3.6557700996e+000	 2.8954863776e+000
 5.3620210939e-001	 3.6609407668e+000	 1.6975369550e+000
 5.0207294958e-001	 3.6657772373e+000	 7.7950121659e-001
 4.6800708733e-001	 3.6702819192e+000	 1.1516268280e-001
 4.3400881828e-001	 3.6744572859e+000	-3.2226919650e-001
 4.0008236465e-001	 3.6783058738e+000	-5.6002482546e-001
 3.6623187435e-001	 3.6818302805e+000	-6.2564412830e-001
 3.3246142022e-001	 3.6850331619e+000	-5.4685029931e-001
 6.7781237024e-001	 3.6628124973e+000	-4.0007502299e+000
 6.4324239882e-001	 3.6690413212e+000	 2.1502604755e+000
 6.0871813404e-001	 3.6749268337e+000	 4.5920849525e+000
 5.7424418641e-001	 3.6804712489e+000	 2.9597690956e+000
 5.3982509662e-001	 3.6856768530e+000	 1.6656246420e+000
 5.0546533438e-001	 3.6905460024e+000	 6.8104700950e-001
 4.7116929738e-001	 3.6950811213e+000	-2.3268479316e-002
 4.3694131030e-001	 3.6992847000e+000	-4.7718400059e-001
 4.0278562387e-001	 3.7031592919e+000	-7.1098044565e-001
 3.6870641404e-001	 3.7067075121e+000	-7.5522267784e-001
 3.3470778117e-001	 3.7099320346e+000	-6.4062903595e-001
 6.8236144655e-001	 3.6873951316e+000	-3.7953509642e+000
 6.4755946190e-001	 3.6936657595e+000	 1.6903957757e+000
 6.1280349065e-001	 3.6995907722e+000	 4.6667207810e+000
 5.7809817425e-001	 3.7051723983e+000	 2.9163247941e+000
 5.4344808385e-001	 3.7104129393e+000	 1.5372094219e+000
 5.0885771918e-001	 3.7153147675e+000	 4.9763416144e-001
 4.7433150743e-001	 3.7198803235e+000	-2.3482964429e-001
 4.3987380232e-001	 3.7241121140e+000	-6.9315143087e-001
 4.0548888310e-001	 3.7280127100e+000	-9.1069800516e-001
 3.7118095373e-001	 3.7315847437e+000	-9.2109433774e-001
 3.3695414212e-001	 3.7348309073e+000	-7.5808876634e-001
 3.1449053264e-001	 3.4858421801e+000	 1.9296121147e-001
 2.8262499937e-001	 3.4885703533e+000	 2.4371678792e-001
 2.5084266574e-001	 3.4909995642e+000	 2.9941361146e-001
 2.1914716763e-001	 3.4931324794e+000	 3.5506430981e-001
 1.8754206761e-001	 3.4949718129e+000	 4.0561739458e-001
 1.5603085452e-001	 3.4965203235e+000	 4.4603449252e-001
 1.2461694309e-001	 3.4977808132e+000	 4.7136404838e-001
 9.3303673673e-002	 3.4987561253e+000	 4.7681143442e-001
 6.2094311944e-002	 3.4994491419e+000	 4.5780541504e-001
 3.0992048758e-002	 3.4998627820e+000	 4.1006092778e-001
 0.0000000000e+000	 3.5000000000e+000	 3.2963815420e-001
 3.1673689358e-001	 3.5107410529e+000	 3.6300695485e-002
 2.8464374937e-001	 3.5134887129e+000	 9.2864254401e-002
 2.5263439907e-001	 3.5159352753e+000	 1.6341369009e-001
 2.2071250454e-001	 3.5180834257e+000	 2.4004875687e-001
 1.8888165380e-001	 3.5199358973e+000	 3.1485130926e-001
 1.5714536062e-001	 3.5214954686e+000	 3.7996573657e-001
 1.2550706412e-001	 3.5227649619e+000	 4.2767569751e-001
 9.3970128485e-002	 3.5237472405e+000	 4.5047708885e-001
 6.2537842743e-002	 3.5244452072e+000	 4.4114719635e-001
 3.1213420535e-002	 3.5248618019e+000	 3.9280998914e-001
 0.0000000000e+000	 3.5250000000e+000	 2.9899753176e-001
 3.1898325453e-001	 3.5356399256e+000	-8.8103459141e-002
 2.8666249936e-001	 3.5384070726e+000	-3.2011398448e-002
 2.5442613239e-001	 3.5408709865e+000	 4.7195048272e-002
 2.2227784145e-001	 3.5430343720e+000	 1.3867792704e-001
 1.9022124000e-001	 3.5448999816e+000	 2.3162795925e-001
 1.5825986672e-001	 3.5464706138e+000	 3.1534821729e-001
 1.2639718514e-001	 3.5477491106e+000	 3.7933392627e-001
 9.4636583296e-002	 3.5487383557e+000	 4.1334832566e-001
 6.2981373542e-002	 3.5494412725e+000	 4.0749453819e-001
 3.1434792311e-002	 3.5498608218e+000	 3.5228340755e-001
 0.0000000000e+000	 3.5500000000e+000	 2.3869727939e-001
 3.2122961548e-001	 3.5605387983e+000	-1.8719065808e-001
 2.8868124936e-001	 3.5633254323e+000	-1.3618512788e-001
 2.5621786572e-001	 3.5658066977e+000	-5.2853211772e-002
 2.2384317836e-001	 3.5679853183e+000	 4.9003763596e-002
 1.9156082620e-001	 3.5698640660e+000	 1.5566009476e-001
 1.5937437283e-001	 3.5714457590e+000	 2.5355265592e-001
 1.2728730616e-001	 3.5727332592e+000	 3.2936380416e-001
 9.5303038108e-002	 3.5737294709e+000	 3.7010016802e-001
 6.3424904341e-002	 3.5744373378e+000	 3.6316726665e-001
 3.1656164088e-002	 3.5748598416e+000	 2.9643992107e-001
 0.0000000000e+000	 3.5750000000e+000	 1.5832843243e-001
 3.2347597643e-001	 3.5854376710e+000	-2.6791643994e-001
 2.9069999936e-001	 3.5882437919e+000	-2.2497325684e-001
 2.5800959905e-001	 3.5907424089e+000	-1.4040856563e-001
 2.2540851527e-001	 3.5929362646e+000	-3.1013549848e-002
 1.9290041239e-001	 3.5948281504e+000	 8.6543563990e-002
 1.6048887893e-001	 3.5964209041e+000	 1.9580777836e-001
 1.2817742718e-001	 3.5977174079e+000	 2.8062336994e-001
 9.5969492919e-002	 3.5987205860e+000	 3.2521563980e-001
 6.3868435141e-002	 3.5994334031e+000	 3.1426831552e-001
 3.1877535864e-002	 3.5998588615e+000	 2.3299656657e-001
 0.0000000000e+000	 3.6000000000e+000	 6.7215608599e-002
 3.2572233738e-001	 3.6103365437e+000	-3.3725191994e-001
 2.9271874935e-001	 3.6131621516e+000	-3.0373204755e-001
 2.5980133237e-001	 3.6156781200e+000	-2.1921277091e-001
 2.2697385218e-001	 3.6178872109e+000	-1.0350242528e-001
 1.9423999859e-001	 3.6197922348e+000	 2.3761344314e-002
 1.6160338503e-001	 3.6213960493e+000	 1.4320521158e-001
 1.2906754820e-001	 3.6227015566e+000	 2.3580939129e-001
 9.6635947731e-002	 3.6237117012e+000	 2.8299238624e-001
 6.4311965940e-002	 3.6244294683e+000	 2.6669120532e-001
 3.2098907641e-002	 3.6248578814e+000	 1.6943701423e-001
 0.0000000000e+000	 3.6250000000e+000	-2.5573805242e-002
 3.2796869832e-001	 3.6352354164e+000	-4.0218325648e-001
 2.9473749935e-001	 3.6380805113e+000	-3.7785633373e-001
 2.6159306570e-001	 3.6406138312e+000	-2.9306966582e-001
 2.2853918909e-001	 3.6428381571e+000	-1.7067683616e-001
 1.9557958479e-001	 3.6447563192e+000	-3.3312592334e-002
 1.6271789114e-001	 3.6463711945e+000	 9.6704178741e-002
 1.2995766922e-001	 3.6476857052e+000	 1.9746288779e-001
 9.7302402542e-002	 3.6487028164e+000	 2.4754902247e-001
 6.4755496739e-002	 3.6494255336e+000	 2.2612721500e-001
 3.2320279418e-002	 3.6498569012e+000	 1.1301955959e-001
 0.0000000000e+000	 3.6500000000e+000	-1.1122084378e-001
 3.3021505927e-001	 3.6601342892e+000	-4.6971113945e-001
 2.9675624934e-001	 3.6629988709e+000	-4.5277820867e-001
 2.6338479903e-001	 3.6655495424e+000	-3.6584305754e-001
 2.3010452601e-001	 3.6677891034e+000	-2.3483340720e-001
 1.9691917098e-001	 3.6697204035e+000	-8.5409571770e-002
 1.6383239724e-001	 3.6713463396e+000	 5.7136002784e-002
 1.3084779024e-001	 3.6726698539e+000	 1.6797442850e-001
 9.7968857353e-002	 3.6736939316e+000	 2.2283122305e-001
 6.5199027538e-002	 3.6744215989e+000	 1.9807226090e-001
 3.2541651194e-002	 3.6748559211e+000	 7.0784789306e-002
 0.0000000000e+000	 3.6750000000e+000	-1.8114651353e-001
 3.3246142022e-001	 3.6850331619e+000	-5.4685029931e-001
 2.9877499934e-001	 3.6879172306e+000	-5.3396576641e-001
 2.6517653235e-001	 3.6904852536e+000	-4.4145469630e-001
 2.3166986292e-001	 3.6927400497e+000	-2.9834862204e-001
 1.9825875718e-001	 3.6946844879e+000	-1.3336266021e-001
 1.6494690334e-001	 3.6963214848e+000	 2.5208427344e-002
 1.3173791127e-001	 3.6976540026e+000	 1.4958921472e-001
 9.8635312165e-002	 3.6986850468e+000	 2.1261756453e-001
 6.5642558337e-002	 3.6994176642e+000	 1.8783349682e-001
 3.2763022971e-002	 3.6998549410e+000	 4.9562936202e-002
 0.0000000000e+000	 3.7000000000e+000	-2.2700368573e-001
 3.3470778117e-001	 3.7099320346e+000	-6.4062903595e-001
 3.0079374934e-001	 3.7128355903e+000	-6.2692189371e-001
 2.6696826568e-001	 3.7154209647e+000	-5.2388233092e-001
 2.3323519983e-001	 3.7176909960e+000	-3.6367614346e-001
 1.9959834338e-001	 3.7196485723e+000	-1.7810325015e-001
 1.6606140945e-001	 3.7212966300e+000	 1.5097637209e-003
 1.3262803229e-001	 3.7226381512e+000	 1.4441195814e-001
 9.9301766976e-002	 3.7236761619e+000	 2.2052513271e-001
 6.6086089136e-002	 3.7244137295e+000	 2.0053564839e-001
 3.2984394747e-002	 3.7248539609e+000	 5.5980938131e-002
 0.0000000000e+000	 3.7250000000e+000	-2.4066931558e-001
 3.3695414212e-001	 3.7348309073e+000	-7.5808876634e-001
 3.0281249933e-001	 3.7377539499e+000	-7.3718311024e-001
 2.6875999901e-001	 3.7403566759e+000	-6.1715784225e-001
 2.3480053674e-001	 3.7426419423e+000	-4.3334424074e-001
 2.0093792957e-001	 3.7446126567e+000	-2.2065778286e-001
 1.6717591555e-001	 3.7462717751e+000	-1.3487128043e-002
 1.3351815331e-001	 3.7476222999e+000	 1.5441156377e-001
 9.9968221788e-002	 3.7486672771e+000	 2.5001490577e-001
 6.6529619936e-002	 3.7494097948e+000	 2.4112709393e-001
 3.3205766524e-002	 3.7498529807e+000	 9.6469214460e-002
 0.0000000000e+000	 3.7500000000e+000	-2.1423697283e-001
 3.7500000000e+000	 0.0000000000e+000	 9.9822217119e-001
 3.7498529807e+000	 3.3205766524e-002	 8.7994692060e-001
 3.7494097948e+000	 6.6529619936e-002	 7.9862117811e-001
 3.7486672771e+000	 9.9968221788e-002	 7.5105481603e-001
 3.7476222999e+000	 1.3351815331e-001	 7.3356733909e-001
 3.7462717751e+000	 1.6717591555e-001	 7.4198972858e-001
 3.7446126567e+000	 2.0093792957e-001	 7.7166754979e-001
 3.7426419423e+000	 2.3480053674e-001	 8.1746535803e-001
 3.7403566759e+000	 2.6875999901e-001	 8.7377243670e-001
 3.7377539499e+000	 3.0281249933e-001	 9.3450989765e-001
 3.7348309073e+000	 3.3695414212e-001	 9.9313917209e-001
 3.7750000000e+000	 0.0000000000e+000	 9.6785192278e-001
 3.7748520006e+000	 3.3427138301e-002	 8.5890744664e-001
 3.7744058601e+000	 6.6973150735e-002	 7.9029993235e-001
 3.7736583923e+000	 1.0063467660e-001	 7.5460853124e-001
 3.7726064486e+000	 1.3440827433e-001	 7.4453162845e-001
 3.7712469203e+000	 1.6829042165e-001	 7.5289185898e-001
 3.7695767410e+000	 2.0227751577e-001	 7.7264072328e-001
 3.7675928885e+000	 2.3636587365e-001	 7.9686278041e-001
 3.7652923871e+000	 2.7055173233e-001	 8.1877939781e-001
 3.7626723096e+000	 3.0483124933e-001	 8.3175203715e-001
 3.7597297800e+000	 3.3920050307e-001	 8.2928505689e-001
 3.8000000000e+000	 0.0000000000e+000	 9.3734611549e-001
 3.7998510205e+000	 3.3648510077e-002	 8.3505864132e-001
 3.7994019254e+000	 6.7416681534e-002	 7.7070495076e-001
 3.7986495075e+000	 1.0130113141e-001	 7.3701566350e-001
 3.7975905972e+000	 1.3529839535e-001	 7.2685056909e-001
 3.7962220655e+000	 1.6940492775e-001	 7.3320362126e-001
 3.7945408254e+000	 2.0361710197e-001	 7.4920751180e-001
 3.7925438348e+000	 2.3793121056e-001	 7.6813780144e-001
 3.7902280982e+000	 2.7234346566e-001	 7.8341658623e-001
 3.7875906693e+000	 3.0684999932e-001	 7.8861567834e-001
 3.7846286527e+000	 3.4144686401e-001	 7.7745928146e-001
 3.8250000000e+000	 0.0000000000e+000	 9.0752628214e-001
 3.8248500403e+000	 3.3869881854e-002	 8.1353545260e-001
 3.8243979907e+000	 6.7860212333e-002	 7.5497373367e-001
 3.8236406227e+000	 1.0196758622e-001	 7.2472423499e-001
 3.8225747459e+000	 1.3618851637e-001	 7.1580932611e-001
 3.8211972106e+000	 1.7051943386e-001	 7.2139560988e-001
 3.8195049098e+000	 2.0495668816e-001	 7.3479845525e-001
 3.8174947811e+000	 2.3949654747e-001	 7.4948606619e-001
 3.8151638094e+000	 2.7413519899e-001	 7.5908306474e-001
 3.8125090289e+000	 3.0886874932e-001	 7.5737356654e-001
 3.8095275254e+000	 3.4369322496e-001	 7.3830372856e-001
 3.8500000000e+000	 0.0000000000e+000	 8.7919261700e-001
 3.8498490602e+000	 3.4091253630e-002	 7.9499863120e-001
 3.8493940560e+000	 6.8303743132e-002	 7.4362633234e-001
 3.8486317379e+000	 1.0263404103e-001	 7.1811239885e-001
 3.8475588946e+000	 1.3707863739e-001	 7.1164301517e-001
 3.8461723558e+000	 1.7163393996e-001	 7.1755882516e-001
 3.8444689942e+000	 2.0629627436e-001	 7.2935942433e-001
 3.8424457274e+000	 2.4106188438e-001	 7.4070736715e-001
 3.8400995206e+000	 2.7592693231e-001	 7.4543166685e-001
 3.8374273886e+000	 3.1088749931e-001	 7.3753076538e-001
 3.8344263981e+000	 3.4593958591e-001	 7.1117495296e-001
 3.8750000000e+000	 0.0000000000e+000	 8.5312466421e-001
 3.8748480801e+000	 3.4312625407e-002	 7.8009001616e-001
 3.8743901213e+000	 6.8747273931e-002	 7.3716562578e-001
 3.8736228530e+000	 1.0330049584e-001	 7.1754287562e-001
 3.8725430432e+000	 1.3796875842e-001	 7.1457305860e-001
 3.8711475010e+000	 1.7274844606e-001	 7.2177231223e-001
 3.8694330785e+000	 2.0763586056e-001	 7.3282607088e-001
 3.8673966737e+000	 2.4262722129e-001	 7.4159301187e-001
 3.8650352318e+000	 2.7771866564e-001	 7.4210847188e-001
 3.8623457483e+000	 3.1290624931e-001	 7.2858731119e-001
 3.8593252709e+000	 3.4818594685e-001	 6.9542620440e-001
 3.9000000000e+000	 0.0000000000e+000	 8.3008197954e-001
 3.8998471000e+000	 3.4533997183e-002	 7.6943314104e-001
 3.8993861866e+000	 6.9190804730e-002	 7.3607787120e-001
 3.8986139682e+000	 1.0396695066e-001	 7.2336344794e-001
 3.8975271919e+000	 1.3885887944e-001	 7.2480762427e-001
 3.8961226461e+000	 1.7386295217e-001	 7.3410354416e-001
 3.8943971629e+000	 2.0897544675e-001	 7.4512415545e-001
 3.8923476199e+000	 2.4419255820e-001	 7.5192609493e-001
 3.8899709429e+000	 2.7951039896e-001	 7.4875302146e-001
 3.8872641079e+000	 3.1492499930e-001	 7.3003837415e-001
 3.8842241436e+000	 3.5043230780e-001	 6.9040753362e-001
 3.9250000000e+000	 0.0000000000e+000	 8.1080476708e-001
 3.9248461198e+000	 3.4755368960e-002	 7.6363381689e-001
 3.9243822519e+000	 6.9634335529e-002	 7.4083323331e-001
 3.9236050834e+000	 1.0463340547e-001	 7.3590743622e-001
 3.9225113406e+000	 1.3974900046e-001	 7.4254204770e-001
 3.9210977913e+000	 1.7497745827e-001	 7.5460879053e-001
 3.9193612473e+000	 2.1031503295e-001	 7.6616986225e-001
 3.9172985662e+000	 2.4575789511e-001	 7.7148175947e-001
 3.9149066541e+000	 2.8130213229e-001	 7.6499852772e-001
 3.9121824676e+000	 3.1694374929e-001	 7.4137441325e-001
 3.9091230163e+000	 3.5267866874e-001	 6.9546589417e-001
 3.9500000000e+000	 0.0000000000e+000	 7.9601449154e-001
 3.9498451397e+000	 3.4976740737e-002	 7.6328069304e-001
 3.9493783172e+000	 7.0077866328e-002	 7.5188629362e-001
 3.9485961986e+000	 1.0529986028e-001	 7.5549415631e-001
 3.9474954892e+000	 1.4063912148e-001	 7.6795923815e-001
 3.9460729365e+000	 1.7609196437e-001	 7.8333347197e-001
 3.9443253317e+000	 2.1165461914e-001	 7.9587010224e-001
 3.9422495125e+000	 2.4732323202e-001	 8.0002744883e-001
 3.9398423653e+000	 2.8309386561e-001	 7.9047207360e-001
 3.9371008273e+000	 3.1896249929e-001	 7.6208132537e-001
 3.9340218890e+000	 3.5492502969e-001	 7.0994524042e-001
 3.9750000000e+000	 0.0000000000e+000	 7.8641446759e-001
 3.9748441596e+000	 3.5198112513e-002	 7.6894579686e-001
 3.9743743825e+000	 7.0521397127e-002	 7.6967654044e-001
 3.9735873138e+000	 1.0596631509e-001	 7.8242935992e-001
 3.9724796379e+000	 1.4152924250e-001	 8.0123006938e-001
 3.9710480817e+000	 1.7720647047e-001	 8.2031250131e-001
 3.9692894161e+000	 2.1299420534e-001	 8.3412280473e-001
 3.9672004588e+000	 2.4888856893e-001	 8.3732314872e-001
 3.9647780764e+000	 2.8488559894e-001	 8.2479480559e-001
 3.9620191869e+000	 3.2098124928e-001	 7.9164058877e-001
 3.9589207617e+000	 3.5717139063e-001	 7.3318662192e-001
 4.0000000000e+000	 0.0000000000e+000	 7.8269042702e-001
 3.9998431794e+000	 3.5419484290e-002	 7.8118505312e-001
 3.9993704478e+000	 7.0964927926e-002	 7.9462884057e-001
 3.9985784289e+000	 1.0663276990e-001	 8.1700565849e-001
 3.9974637866e+000	 1.4241936352e-001	 8.4251375578e-001
 3.9960232268e+000	 1.7832097657e-001	 8.6557061196e-001
 3.9942535004e+000	 2.1433379153e-001	 8.8081719805e-001
 3.9921514051e+000	 2.5045390584e-001	 8.8312162018e-001
 3.9897137876e+000	 2.8667733226e-001	 8.6758211921e-001
 3.9869375466e+000	 3.2299999927e-001	 8.2952940115e-001
 3.9838196344e+000	 3.5941775158e-001	 7.6452827414e-001
 3.7348309073e+000	 3.3695414212e-001	 9.9313917209e-001
 3.7315847437e+000	 3.7118095373e-001	 1.0763960272e+000
 3.7280127100e+000	 4.0548888310e-001	 1.1324174832e+000
 3.7241121140e+000	 4.3987380232e-001	 1.1536238868e+000
 3.7198803235e+000	 4.7433150743e-001	 1.1320395538e+000
 3.7153147675e+000	 5.0885771918e-001	 1.0593085836e+000
 3.7104129393e+000	 5.4344808385e-001	 9.2671214519e-001
 3.7051723983e+000	 5.7809817425e-001	 7.2518723688e-001
 3.6995907722e+000	 6.1280349065e-001	 4.4534691804e-001
 3.6936657595e+000	 6.4755946190e-001	 9.1049916604e-001
 3.6873951316e+000	 6.8236144655e-001	 1.6898997133e+000
 3.7597297800e+000	 3.3920050307e-001	 8.2928505689e-001
 3.7564619753e+000	 3.7365549343e-001	 8.5005245945e-001
 3.7528661280e+000	 4.0819214232e-001	 8.3594108344e-001
 3.7489395281e+000	 4.4280629434e-001	 7.9412273196e-001
 3.7446795256e+000	 4.7749371748e-001	 7.5076442358e-001
 3.7400835326e+000	 5.1225010397e-001	 6.6635330012e-001
 3.7351490256e+000	 5.4707107108e-001	 5.3196059467e-001
 3.7298735476e+000	 5.8195216208e-001	 3.3829812343e-001
 3.7242547107e+000	 6.1688884725e-001	 7.5738813640e-002
 3.7182901979e+000	 6.5187652498e-001	 6.4232230812e-001
 3.7119777658e+000	 6.8691052287e-001	 1.3504632123e+000
 3.7846286527e+000	 3.4144686401e-001	 7.7745928146e-001
 3.7813392070e+000	 3.7613003312e-001	 7.9957181040e-001
 3.7777195461e+000	 4.1089540154e-001	 7.9013224073e-001
 3.7737669422e+000	 4.4573878635e-001	 7.4363208966e-001
 3.7694787278e+000	 4.8065592754e-001	 6.5472992780e-001
 3.7648522977e+000	 5.1564248877e-001	 5.1825118166e-001
 3.7598851118e+000	 5.5069405831e-001	 3.2918732297e-001
 3.7545746969e+000	 5.8580614991e-001	 8.2694434091e-002
 3.7489186492e+000	 6.2097420386e-001	-2.1202009529e-001
 3.7429146363e+000	 6.5619358806e-001	 4.3135238345e-001
 3.7365604000e+000	 6.9145959918e-001	 1.0677452044e+000
 3.8095275254e+000	 3.4369322496e-001	 7.3830372856e-001
 3.8062164386e+000	 3.7860457281e-001	 7.6188288170e-001
 3.8025729642e+000	 4.1359866076e-001	 7.5710148152e-001
 3.7985943563e+000	 4.4867127837e-001	 7.1871390026e-001
 3.7942779299e+000	 4.8381813759e-001	 6.4164752871e-001
 3.7896210628e+000	 5.1903487357e-001	 5.2100225865e-001
 3.7846211981e+000	 5.5431704553e-001	 3.5204932959e-001
 3.7792758462e+000	 5.8966013774e-001	 1.3022952886e-001
 3.7735825876e+000	 6.2505956047e-001	-1.4719907117e-001
 3.7675390747e+000	 6.6051065114e-001	 4.6483009778e-001
 3.7611430342e+000	 6.9600867549e-001	 9.5441628995e-001
 3.8344263981e+000	 3.4593958591e-001	 7.1117495296e-001
 3.8310936702e+000	 3.8107911250e-001	 7.3620411440e-001
 3.8274263822e+000	 4.1630191998e-001	 7.3592953416e-001
 3.8234217704e+000	 4.5160377038e-001	 7.0537083601e-001
 3.8190771321e+000	 4.8698034763e-001	 6.3972680368e-001
 3.8143898280e+000	 5.2242725836e-001	 5.3437454181e-001
 3.8093572843e+000	 5.5794003276e-001	 3.8486797816e-001
 3.8039769955e+000	 5.9351412557e-001	 1.8693569625e-001
 3.7982465261e+000	 6.2914491707e-001	 3.7565126593e-002
 3.7921635131e+000	 6.6482771422e-001	 5.6892383284e-001
 3.7857256684e+000	 7.0055775180e-001	 9.8477593526e-001
 3.8593252709e+000	 3.4818594685e-001	 6.9542620440e-001
 3.8559709018e+000	 3.8355365219e-001	 7.2175207611e-001
 3.8522798003e+000	 4.1900517920e-001	 7.2569665358e-001
 3.8482491845e+000	 4.5453626240e-001	 7.0254729050e-001
 3.8438763342e+000	 4.9014255768e-001	 6.4777681961e-001
 3.8391585931e+000	 5.2581964315e-001	 5.5704239066e-001
 3.8340933706e+000	 5.6156301998e-001	 4.2618362612e-001
 3.8286781449e+000	 5.9736811339e-001	 2.5122008408e-001
 3.8229104646e+000	 6.3323027367e-001	 2.0315997606e-001
 3.8167879515e+000	 6.6914477730e-001	 6.5755650060e-001
 3.8103083026e+000	 7.0510682811e-001	 1.0033193056e+000
 3.8842241436e+000	 3.5043230780e-001	 6.9040753362e-001
 3.8808481335e+000	 3.8602819188e-001	 7.1774152113e-001
 3.8771332183e+000	 4.2170843842e-001	 7.2548263650e-001
 3.8730765986e+000	 4.5746875441e-001	 7.0918852276e-001
 3.8686755364e+000	 4.9330476773e-001	 6.6460880029e-001
 3.8639273582e+000	 5.2921202794e-001	 5.8768357998e-001
 3.8588294569e+000	 5.6518600721e-001	 4.7454127060e-001
 3.8533792942e+000	 6.0122210122e-001	 3.2149566959e-001
 3.8475744031e+000	 6.3731563028e-001	 3.4994959621e-001
 3.8414123899e+000	 6.7346184038e-001	 7.3108629230e-001
 3.8348909368e+000	 7.0965590442e-001	 1.0104000852e+000
 3.9091230163e+000	 3.5267866874e-001	 6.9546589417e-001
 3.9057253651e+000	 3.8850273157e-001	 7.2338544811e-001
 3.9019866364e+000	 4.2441169764e-001	 7.3436683595e-001
 3.8979040127e+000	 4.6040124642e-001	 7.2424062974e-001
 3.8934747386e+000	 4.9646697778e-001	 6.8903605771e-001
 3.8886961233e+000	 5.3260441274e-001	 6.2497919102e-001
 3.8835655431e+000	 5.6880899443e-001	 5.2849040066e-001
 3.8780804435e+000	 6.0507608904e-001	 3.9618107375e-001
 3.8722383416e+000	 6.4140098688e-001	 4.7830486719e-001
 3.8660368283e+000	 6.7777890346e-001	 7.8987924263e-001
 3.8594735710e+000	 7.1420498073e-001	 1.0063808477e+000
 3.9340218890e+000	 3.5492502969e-001	 7.0994524042e-001
 3.9306025967e+000	 3.9097727126e-001	 7.3789515568e-001
 3.9268400545e+000	 4.2711495685e-001	 7.5142817540e-001
 3.9227314268e+000	 4.6333373843e-001	 7.4665051978e-001
 3.9182739407e+000	 4.9962918782e-001	 7.1987392602e-001
 3.9134648884e+000	 5.3599679753e-001	 6.6761350690e-001
 3.9083016294e+000	 5.7243198165e-001	 5.8658485516e-001
 3.9027815928e+000	 6.0893007687e-001	 4.7370038273e-001
 3.8969022800e+000	 6.4548634348e-001	 5.8860321638e-001
 3.8906612667e+000	 6.8209596653e-001	 8.3430898152e-001
 3.8840562052e+000	 7.1875405704e-001	 9.9163277541e-001
 3.9589207617e+000	 3.5717139063e-001	 7.3318662192e-001
 3.9554798283e+000	 3.9345181095e-001	 7.6048029589e-001
 3.9516934725e+000	 4.2981821607e-001	 7.7574516220e-001
 3.9475588409e+000	 4.6626623045e-001	 7.7536588705e-001
 3.9430731429e+000	 5.0279139787e-001	 7.5593969786e-001
 3.9382336535e+000	 5.3938918232e-001	 7.1427391190e-001
 3.9330377156e+000	 5.7605496887e-001	 6.4738268593e-001
 3.9274827422e+000	 6.1278406469e-001	 5.5248297597e-001
 3.9215662185e+000	 6.4957170008e-001	 6.8122841251e-001
 3.9152857051e+000	 6.8641302961e-001	 8.6475649525e-001
 3.9086388394e+000	 7.2330313334e-001	 9.6653538833e-001
 3.9838196344e+000	 3.5941775158e-001	 7.6452827414e-001
 3.9803570600e+000	 3.9592635063e-001	 7.9034892564e-001
 3.9765468906e+000	 4.3252147529e-001	 8.0639590062e-001
 3.9723862550e+000	 4.6919872246e-001	 8.0933518707e-001
 3.9678723450e+000	 5.0595360791e-001	 7.9605256325e-001
 3.9630024187e+000	 5.4278156711e-001	 7.6365079455e-001
 3.9577738019e+000	 5.7967795609e-001	 7.0944602619e-001
 3.9521838915e+000	 6.1663805252e-001	 6.3096336084e-001
 3.9462301570e+000	 6.5365705668e-001	 7.5657036747e-001
 3.9399101435e+000	 6.9073009268e-001	 8.8160989663e-001
 3.9332214737e+000	 7.2785220965e-001	 9.3147628356e-001
 3.6873951316e+000	 6.8236144655e-001	 1.6898997133e+000
 3.6807767345e+000	 7.1720473409e-001	 1.4597407094e+000
 3.6738084919e+000	 7.5208454618e-001	 1.2466040298e+000
 3.6664884066e+000	 7.8699603810e-001	 1.0530196209e+000
 3.6588145630e+000	 8.2193430012e-001	 8.8148574426e-001
 3.6507851289e+000	 8.5689435901e-001	 7.3445871469e-001
 3.6423983581e+000	 8.9187117966e-001	 6.1434243507e-001
 3.6336525918e+000	 9.2685966671e-001	 5.2347775167e-001
 3.6245462614e+000	 9.6185466627e-001	 4.6413165339e-001
 3.6150778896e+000	 9.9685096773e-001	 4.3848634003e-001
 3.6052460932e+000	 1.0318433056e+000	 4.4862818624e-001
 3.7119777658e+000	 6.8691052287e-001	 1.3504632123e+000
 3.7053152461e+000	 7.2198609898e-001	 1.1502787733e+000
 3.6983005485e+000	 7.5709844316e-001	 9.6685601597e-001
 3.6909316627e+000	 7.9224267836e-001	 8.0274247866e-001
 3.6832066601e+000	 8.2741386212e-001	 6.6045279759e-001
 3.6751236964e+000	 8.6260698807e-001	 5.4245825266e-001
 3.6666810138e+000	 8.9781698753e-001	 4.5117610769e-001
 3.6578769425e+000	 9.3303873116e-001	 3.8895876827e-001
 3.6487099031e+000	 9.6826703071e-001	 3.5808278139e-001
 3.6391784089e+000	 1.0034966409e+000	 3.6073770276e-001
 3.6292810672e+000	 1.0387222610e+000	 3.9901485858e-001
 3.7365604000e+000	 6.9145959918e-001	 1.0677452044e+000
 3.7298537576e+000	 7.2676746388e-001	 8.9250135404e-001
 3.7227926051e+000	 7.6211234014e-001	 7.3378368985e-001
 3.7153749187e+000	 7.9748931862e-001	 5.9416160809e-001
 3.7075987571e+000	 8.3289342413e-001	 4.7617040183e-001
 3.6994622640e+000	 8.6831961714e-001	 3.8230060937e-001
 3.6909636695e+000	 9.0376279540e-001	 3.1498715385e-001
 3.6821012931e+000	 9.3921779561e-001	 2.7659829765e-001
 3.6728735449e+000	 9.7467939516e-001	 2.6942443660e-001
 3.6632789282e+000	 1.0101423140e+000	 2.9566675999e-001
 3.6533160411e+000	 1.0456012164e+000	 3.5742580405e-001
 3.7611430342e+000	 6.9600867549e-001	 9.5441628995e-001
 3.7543922692e+000	 7.3154882878e-001	 7.2793205800e-001
 3.7472846618e+000	 7.6712623712e-001	 5.4601237321e-001
 3.7398181748e+000	 8.0273595887e-001	 4.2589940176e-001
 3.7319908542e+000	 8.3837298613e-001	 3.2725831995e-001
 3.7238008315e+000	 8.7403224620e-001	 2.5260323410e-001
 3.7152463252e+000	 9.0970860326e-001	 2.0439104115e-001
 3.7063256437e+000	 9.4539686005e-001	 1.8501017383e-001
 3.6970371866e+000	 9.8109175960e-001	 1.9676918321e-001
 3.6873794474e+000	 1.0167879871e+000	 2.4188518538e-001
 3.6773510151e+000	 1.0524801718e+000	 3.2247220027e-001
 3.7857256684e+000	 7.0055775180e-001	 9.8477593526e-001
 3.7789307808e+000	 7.3633019367e-001	 7.7289455204e-001
 3.7717767184e+000	 7.7214013409e-001	 5.8031461045e-001
 3.7642614308e+000	 8.0798259913e-001	 4.0902935983e-001
 3.7563829513e+000	 8.4385254813e-001	 2.6101255921e-001
 3.7481393990e+000	 8.7974487526e-001	 1.5198755282e-001
 3.7395289810e+000	 9.1565441113e-001	 1.1800605915e-001
 3.7305499943e+000	 9.5157592450e-001	 1.1280990266e-001
 3.7212008284e+000	 9.8750412404e-001	 1.3873011238e-001
 3.7114799667e+000	 1.0234336602e+000	 1.9800404043e-001
 3.7013859890e+000	 1.0593591271e+000	 2.9276347988e-001
 3.8103083026e+000	 7.0510682811e-001	 1.0033193056e+000
 3.8034692923e+000	 7.4111155856e-001	 8.0539144196e-001
 3.7962687750e+000	 7.7715403107e-001	 6.2687495741e-001
 3.7887046868e+000	 8.1322923938e-001	 4.6960328050e-001
 3.7807750484e+000	 8.4933211013e-001	 3.3538791419e-001
 3.7724779665e+000	 8.8545750432e-001	 2.2602184145e-001
 3.7638116367e+000	 9.2160021899e-001	 1.4328312662e-001
 3.7547743449e+000	 9.5775498894e-001	 8.8938704352e-002
 3.7453644701e+000	 9.9391648849e-001	 9.3920825280e-002
 3.7355804860e+000	 1.0300793333e+000	 1.6263379428e-001
 3.7254209630e+000	 1.0662380825e+000	 2.6690738681e-001
 3.8348909368e+000	 7.0965590442e-001	 1.0104000852e+000
 3.8280078039e+000	 7.4589292346e-001	 8.2585461526e-001
 3.8207608316e+000	 7.8216792804e-001	 6.6083963663e-001
 3.8131479429e+000	 8.1847587964e-001	 5.1702737233e-001
 3.8051671455e+000	 8.5481167213e-001	 3.9606566076e-001
 3.7968165341e+000	 8.9117013338e-001	 2.9958159435e-001
 3.7880942924e+000	 9.2754602686e-001	 2.2918536367e-001
 3.7789986955e+000	 9.6393405339e-001	 1.8647429829e-001
 3.7695281119e+000	 1.0003288529e+000	 1.7303709476e-001
 3.7596810052e+000	 1.0367250065e+000	 1.9045822113e-001
 3.7494559369e+000	 1.0731170379e+000	 2.4351003046e-001
 3.8594735710e+000	 7.1420498073e-001	 1.0063808477e+000
 3.8525463155e+000	 7.5067428835e-001	 8.3472378778e-001
 3.8452528882e+000	 7.8718182501e-001	 6.8272539107e-001
 3.8375911989e+000	 8.2372251989e-001	 5.5189524628e-001
 3.8295592426e+000	 8.6029123413e-001	 4.4371607397e-001
 3.8211551016e+000	 8.9688276244e-001	 3.5964760100e-001
 3.8123769481e+000	 9.3349183472e-001	 3.0113064994e-001
 3.8032230461e+000	 9.7011311783e-001	 2.6959143477e-001
 3.7936917536e+000	 1.0067412174e+000	 2.6644605250e-001
 3.7837815245e+000	 1.0433706796e+000	 2.9310516017e-001
 3.7734909109e+000	 1.0799959932e+000	 3.5097882488e-001
 3.8840562052e+000	 7.1875405704e-001	 9.9163277541e-001
 3.8770848270e+000	 7.5545565324e-001	 8.3244625599e-001
 3.8697449448e+000	 7.9219572198e-001	 6.9305551838e-001
 3.8620344550e+000	 8.2896916014e-001	 5.7480604431e-001
 3.8539513397e+000	 8.6577079613e-001	 4.7901393898e-001
 3.8454936691e+000	 9.0259539150e-001	 4.0697004384e-001
 3.8366596038e+000	 9.3943764258e-001	 3.5994427415e-001
 3.8274473967e+000	 9.7629218228e-001	 3.3919017217e-001
 3.8178553953e+000	 1.0131535818e+000	 3.4594966556e-001
 3.8078820438e+000	 1.0500163527e+000	 3.8145801967e-001
 3.7975258849e+000	 1.0868749486e+000	 4.4694897139e-001
 3.9086388394e+000	 7.2330313334e-001	 9.6653538833e-001
 3.9016233386e+000	 7.6023701813e-001	 8.1947665861e-001
 3.8942370014e+000	 7.9720961895e-001	 6.9235966475e-001
 3.8864777110e+000	 8.3421580039e-001	 5.8636426545e-001
 3.8783434368e+000	 8.7125035813e-001	 5.0263840916e-001
 3.8698322366e+000	 9.0830802055e-001	 4.4230248781e-001
 3.8609422596e+000	 9.4538345045e-001	 4.0645392527e-001
 3.8516717474e+000	 9.8247124672e-001	 3.9617199095e-001
 3.8420190371e+000	 1.0195659463e+000	 4.1252282781e-001
 3.8319825630e+000	 1.0566620258e+000	 4.5656468323e-001
 3.8215608588e+000	 1.0937539040e+000	 5.2935332961e-001
 3.9332214737e+000	 7.2785220965e-001	 9.3147628356e-001
 3.9261618501e+000	 7.6501838302e-001	 7.9627674716e-001
 3.9187290581e+000	 8.0222351592e-001	 6.8117362654e-001
 3.9109209671e+000	 8.3946244064e-001	 5.8717959841e-001
 3.9027355338e+000	 8.7672992013e-001	 5.1527286964e-001
 3.8941708042e+000	 9.1402064961e-001	 4.6640177466e-001
 3.8852249153e+000	 9.5132925831e-001	 4.4148961758e-001
 3.8758960980e+000	 9.8865031116e-001	 4.4143974914e-001
 3.8661826788e+000	 1.0259783107e+000	 4.6714086738e-001
 3.8560830823e+000	 1.0633076989e+000	 5.1947253006e-001
 3.8455958328e+000	 1.1006328594e+000	 5.9931086537e-001
 3.6052460932e+000	 1.0318433056e+000	 4.4862818624e-001
 3.5950495844e+000	 1.0668263616e+000	 4.7949228503e-001
 3.5844871729e+000	 1.1017947664e+000	 5.1114190753e-001
 3.5735577679e+000	 1.1367431019e+000	 5.4407433831e-001
 3.5622603795e+000	 1.1716659033e+000	 5.7866520498e-001
 3.5505941207e+000	 1.2065576614e+000	 6.1515890324e-001
 3.5385582090e+000	 1.2414128249e+000	 6.5365909947e-001
 3.5261519680e+000	 1.2762258024e+000	 4.8733642853e-001
 3.5133748290e+000	 1.3109909654e+000	 2.6791959446e-001
 3.5002263323e+000	 1.3457026502e+000	 6.3940376449e-002
 3.4867061290e+000	 1.3803551609e+000	-1.2566255820e-001
 3.6292810672e+000	 1.0387222610e+000	 3.9901485858e-001
 3.6190165816e+000	 1.0739385374e+000	 4.3600356124e-001
 3.6083837541e+000	 1.1091400648e+000	 4.7376802498e-001
 3.5973814863e+000	 1.1443213892e+000	 5.1289919658e-001
 3.5860087820e+000	 1.1794770093e+000	 5.5386448958e-001
 3.5742647481e+000	 1.2146013792e+000	 5.9699793479e-001
 3.5621485970e+000	 1.2496889104e+000	 6.4249040791e-001
 3.5496596478e+000	 1.2847339744e+000	 4.3360941747e-001
 3.5367973278e+000	 1.3197309052e+000	 2.3813578360e-001
 3.5235611745e+000	 1.3546740012e+000	 5.7405775330e-002
 3.5099508365e+000	 1.3895575286e+000	-1.0967613393e-001
 3.6533160411e+000	 1.0456012164e+000	 3.5742580405e-001
 3.6429835788e+000	 1.0810507131e+000	 3.9822052940e-001
 3.6322803352e+000	 1.1164853633e+000	 4.3985236113e-001
 3.6212052048e+000	 1.1518996766e+000	 4.8300909961e-001
 3.6097571845e+000	 1.1872881153e+000	 5.2825307835e-001
 3.5979353756e+000	 1.2226450969e+000	 5.7601103411e-001
 3.5857389851e+000	 1.2579649959e+000	 5.7072008181e-001
 3.5731673276e+000	 1.2932421464e+000	 3.8460469955e-001
 3.5602198267e+000	 1.3284708449e+000	 2.1363120768e-001
 3.5468960167e+000	 1.3636453522e+000	 5.6741300181e-002
 3.5331955441e+000	 1.3987598963e+000	-8.7195242686e-002
 3.6773510151e+000	 1.0524801718e+000	 3.2247220027e-001
 3.6669505761e+000	 1.0881628888e+000	 3.6470974723e-001
 3.6561769164e+000	 1.1238306617e+000	 4.0791721372e-001
 3.6450289232e+000	 1.1594779639e+000	 4.5288247824e-001
 3.6335055871e+000	 1.1950992213e+000	 5.0026596136e-001
 3.6216060031e+000	 1.2306888146e+000	 5.5059020930e-001
 3.6093293732e+000	 1.2662410814e+000	 5.0083772422e-001
 3.5966750074e+000	 1.3017503184e+000	 3.4037077801e-001
 3.5836423255e+000	 1.3372107847e+000	 1.9445397126e-001
 3.5702308590e+000	 1.3726167032e+000	 6.1994458944e-002
 3.5564402516e+000	 1.4079622641e+000	-5.8173175023e-002
 3.7013859890e+000	 1.0593591271e+000	 2.9276347988e-001
 3.6909175733e+000	 1.0952750646e+000	 3.3403605814e-001
 3.6800734975e+000	 1.1311759602e+000	 3.7648320587e-001
 3.6688526417e+000	 1.1670562512e+000	 4.2099613752e-001
 3.6572539896e+000	 1.2029103274e+000	 4.6833656073e-001
 3.6452766306e+000	 1.2387325324e+000	 5.1912596761e-001
 3.6329197612e+000	 1.2745171669e+000	 4.3525111764e-001
 3.6201826871e+000	 1.3102584905e+000	 3.0095481695e-001
 3.6070648244e+000	 1.3459507245e+000	 1.8065093442e-001
 3.5935657012e+000	 1.3815880542e+000	 7.3211619034e-002
 3.5796849591e+000	 1.4171646318e+000	-2.2564248792e-002
 3.7254209630e+000	 1.0662380825e+000	 2.6690738681e-001
 3.7148845705e+000	 1.1023872403e+000	 3.0476264655e-001
 3.7039700787e+000	 1.1385212586e+000	 3.4406934016e-001
 3.6926763602e+000	 1.1746345386e+000	 3.8582530910e-001
 3.6810023921e+000	 1.2107214334e+000	 4.3089678125e-001
 3.6689472580e+000	 1.2467762501e+000	 4.8000736378e-001
 3.6565101493e+000	 1.2827932524e+000	 3.7400616677e-001
 3.6436903669e+000	 1.3187666625e+000	 2.6640268445e-001
 3.6304873233e+000	 1.3546906642e+000	 1.7226775286e-001
 3.6169005434e+000	 1.3905594052e+000	 9.0438044131e-002
 3.6029296666e+000	 1.4263669996e+000	 1.9676224001e-002
 3.7494559369e+000	 1.0731170379e+000	 2.4351003046e-001
 3.7388515678e+000	 1.1094994161e+000	 2.7545109103e-001
 3.7278666598e+000	 1.1458665570e+000	 3.0919305050e-001
 3.7165000786e+000	 1.1822128259e+000	 3.4584370169e-001
 3.7047507947e+000	 1.2185325394e+000	 3.8637705898e-001
 3.6926178855e+000	 1.2548199679e+000	 4.1163778404e-001
 3.6801005373e+000	 1.2910693379e+000	 3.1714744183e-001
 3.6671980467e+000	 1.3272748345e+000	 2.3675899416e-001
 3.6539098221e+000	 1.3634306040e+000	 1.6934891659e-001
 3.6402353856e+000	 1.3995307562e+000	 1.1371792956e-001
 3.6261743742e+000	 1.4355693673e+000	 6.8591969057e-002
 3.7734909109e+000	 1.0799959932e+000	 3.5097882488e-001
 3.7628185650e+000	 1.1166115918e+000	 3.1767647594e-001
 3.7517632410e+000	 1.1532118555e+000	 2.8072414000e-001
 3.7403237971e+000	 1.1897911133e+000	 2.9952354957e-001
 3.7284991972e+000	 1.2263436454e+000	 3.3320640806e-001
 3.7162885130e+000	 1.2628636856e+000	 3.3105011089e-001
 3.7036909254e+000	 1.2993454234e+000	 2.6471822105e-001
 3.6907057265e+000	 1.3357830065e+000	 2.1206714523e-001
 3.6773323210e+000	 1.3721705438e+000	 1.7193778696e-001
 3.6635702278e+000	 1.4085021072e+000	 1.4309443629e-001
 3.6494190817e+000	 1.4447717350e+000	 1.2422578043e-001
 3.7975258849e+000	 1.0868749486e+000	 4.4694897139e-001
 3.7867855622e+000	 1.1237237676e+000	 4.1300922937e-001
 3.7756598221e+000	 1.1605571539e+000	 3.7400807303e-001
 3.7641475155e+000	 1.1973694006e+000	 3.3072323819e-001
 3.7522475997e+000	 1.2341547515e+000	 2.8398214011e-001
 3.7399591404e+000	 1.2709074034e+000	 2.5444525544e-001
 3.7272813135e+000	 1.3076215089e+000	 2.1676053154e-001
 3.7142134063e+000	 1.3442911785e+000	 1.9236936075e-001
 3.7007548198e+000	 1.3809104835e+000	 1.8007663246e-001
 3.6869050700e+000	 1.4174734582e+000	 1.7860972373e-001
 3.6726637892e+000	 1.4539741028e+000	 1.8661955001e-001
 3.8215608588e+000	 1.0937539040e+000	 5.2935332961e-001
 3.8107525595e+000	 1.1308359433e+000	 4.9643361302e-001
 3.7995564033e+000	 1.1679024524e+000	 4.5703677638e-001
 3.7879712340e+000	 1.2049476880e+000	 4.1185142576e-001
 3.7759960022e+000	 1.2419658575e+000	 3.6161736514e-001
 3.7636297679e+000	 1.2789511211e+000	 2.7296222939e-001
 3.7508717015e+000	 1.3158975944e+000	 1.7926172474e-001
 3.7377210861e+000	 1.3527993506e+000	 1.7770672472e-001
 3.7241773187e+000	 1.3896504233e+000	 1.9380666302e-001
 3.7102399122e+000	 1.4264448092e+000	 2.2030498114e-001
 3.6959084967e+000	 1.4631764705e+000	 2.5581429591e-001
 3.8455958328e+000	 1.1006328594e+000	 5.9931086537e-001
 3.8347195567e+000	 1.1379481191e+000	 5.6910249735e-001
 3.8234529844e+000	 1.1752477508e+000	 5.3099641578e-001
 3.8117949524e+000	 1.2125259753e+000	 4.8558958108e-001
 3.7997444048e+000	 1.2497769635e+000	 4.3353166485e-001
 3.7873003954e+000	 1.2869948389e+000	 3.6718117257e-001
 3.7744620896e+000	 1.3241736799e+000	 3.0368043517e-001
 3.7612287659e+000	 1.3613075226e+000	 2.4589714299e-001
 3.7475998176e+000	 1.3983903631e+000	 2.1316806314e-001
 3.7335747544e+000	 1.4354161602e+000	 2.6822045800e-001
 3.7191532043e+000	 1.4723788383e+000	 3.3185018972e-001
 3.4867061290e+000	 1.3803551609e+000	-1.2566255820e-001
 3.4728139820e+000	 1.4149427715e+000	-1.7120509965e-001
 3.4585497675e+000	 1.4494597290e+000	-1.9177444291e-001
 3.4439134760e+000	 1.4839002560e+000	-1.8964727653e-001
 3.4289052139e+000	 1.5182585531e+000	-1.6719033534e-001
 3.4135252041e+000	 1.5525288020e+000	-1.2685808527e-001
 3.3977737871e+000	 1.5867051686e+000	-7.1190199308e-002
 3.3816514220e+000	 1.6207818052e+000	-2.8088265869e-003
 3.3651586875e+000	 1.6547528541e+000	 7.5584343483e-002
 3.3482962822e+000	 1.6886124501e+000	 1.6121121894e-001
 3.3310650256e+000	 1.7223547240e+000	 2.5122064151e-001
 3.5099508365e+000	 1.3895575286e+000	-1.0967613393e-001
 3.4959660752e+000	 1.4243757233e+000	-1.5775181019e-001
 3.4816067659e+000	 1.4591227939e+000	-1.8434090934e-001
 3.4668728992e+000	 1.4937929244e+000	-1.9172946116e-001
 3.4517645820e+000	 1.5283802767e+000	-1.8229122314e-001
 3.4362820388e+000	 1.5628789940e+000	-1.5848530637e-001
 3.4204256123e+000	 1.5972832030e+000	-1.2285359373e-001
 3.4041957648e+000	 1.6315870172e+000	-7.8017952093e-002
 3.3875930787e+000	 1.6657845398e+000	-2.6677241044e-002
 3.3706182574e+000	 1.6998698665e+000	 2.8395878919e-002
 3.3532721258e+000	 1.7338370888e+000	 8.4358335169e-002
 3.5331955441e+000	 1.3987598963e+000	-8.7195242686e-002
 3.5191181684e+000	 1.4338086751e+000	-1.3618854747e-001
 3.5046637644e+000	 1.4687858588e+000	-1.6711277294e-001
 3.4898323224e+000	 1.5036855927e+000	-1.8226414012e-001
 3.4746239501e+000	 1.5385020004e+000	-1.8402434300e-001
 3.4590388735e+000	 1.5732291861e+000	-1.7485811510e-001
 3.4430774376e+000	 1.6078612375e+000	-1.5731058930e-001
 3.4267401076e+000	 1.6423922293e+000	-1.3400445272e-001
 3.4100274700e+000	 1.6768162255e+000	-1.0763689923e-001
 3.3929402326e+000	 1.7111272828e+000	-8.0976382843e-002
 3.3754792260e+000	 1.7453194536e+000	-5.6859175440e-002
 3.5564402516e+000	 1.4079622641e+000	-5.8173175023e-002
 3.5422702616e+000	 1.4432416269e+000	-1.0648839572e-001
 3.5277207628e+000	 1.4784489236e+000	-1.4008384292e-001
 3.5127917456e+000	 1.5135782611e+000	-1.6126677837e-001
 3.4974833182e+000	 1.5486237241e+000	-1.7242774535e-001
 3.4817957082e+000	 1.5835793781e+000	-1.7603807556e-001
 3.4657292628e+000	 1.6184392720e+000	-1.7464719000e-001
 3.4492844505e+000	 1.6531974413e+000	-1.7087969599e-001
 3.4324618612e+000	 1.6878479112e+000	-1.6743228278e-001
 3.4152622078e+000	 1.7223846991e+000	-1.6707041925e-001
 3.3976863261e+000	 1.7568018184e+000	-1.7262485739e-001
 3.5796849591e+000	 1.4171646318e+000	-2.2564248792e-002
 3.5654223549e+000	 1.4526745787e+000	-6.8624855951e-002
 3.5507777613e+000	 1.4881119885e+000	-1.0324770668e-001
 3.5357511687e+000	 1.5234709295e+000	-1.2875195258e-001
 3.5203426863e+000	 1.5587454478e+000	-1.4753789813e-001
 3.5045525429e+000	 1.5939295701e+000	-1.6208444755e-001
 3.4883810881e+000	 1.6290173064e+000	-1.7494634629e-001
 3.4718287933e+000	 1.6640026533e+000	-1.8875121944e-001
 3.4548962525e+000	 1.6988795969e+000	-2.0619640990e-001
 3.4375841830e+000	 1.7336421155e+000	-2.3004561949e-001
 3.4198934263e+000	 1.7682841833e+000	-2.6312535730e-001
 3.6029296666e+000	 1.4263669996e+000	 1.9676224001e-002
 3.5885744481e+000	 1.4621075305e+000	-2.2571832447e-002
 3.5738347597e+000	 1.4977750533e+000	-5.6597736983e-002
 3.5587105919e+000	 1.5333635979e+000	-8.4733379814e-002
 3.5432020544e+000	 1.5688671715e+000	-1.0938973783e-001
 3.5273093776e+000	 1.6042797621e+000	-1.3305426092e-001
 3.5110329133e+000	 1.6395953409e+000	-1.5828805357e-001
 3.4943731361e+000	 1.6748078654e+000	-1.8772285418e-001
 3.4773306437e+000	 1.7099112826e+000	-2.2405781484e-001
 3.4599061583e+000	 1.7448995318e+000	-2.7005608534e-001
 3.4421005265e+000	 1.7797665481e+000	-3.2854120522e-001
 3.6261743742e+000	 1.4355693673e+000	 6.8591969057e-002
 3.6117265413e+000	 1.4715404823e+000	 3.1696380111e-002
 3.5968917582e+000	 1.5074381182e+000	-1.2709878650e-004
 3.5816700151e+000	 1.5432562662e+000	-2.9223945069e-002
 3.5660614225e+000	 1.5789888952e+000	-5.8016718592e-002
 3.5500662123e+000	 1.6146299541e+000	-8.9002386998e-002
 3.5336847386e+000	 1.6501733753e+000	-1.2474944695e-001
 3.5169174789e+000	 1.6856130774e+000	-1.6789484362e-001
 3.4997650350e+000	 1.7209429682e+000	-2.2114069157e-001
 3.4822281335e+000	 1.7561569481e+000	-2.8725080055e-001
 3.4643076266e+000	 1.7912489129e+000	-3.6904701066e-001
 3.6494190817e+000	 1.4447717350e+000	 1.2422578043e-001
 3.6348786345e+000	 1.4809734342e+000	 9.4205109098e-002
 3.6199487566e+000	 1.5171011831e+000	 6.6171244101e-002
 3.6046294383e+000	 1.5531489346e+000	 3.7764272236e-002
 3.5889207906e+000	 1.5891106189e+000	 6.5491406145e-003
 3.5728230470e+000	 1.6249801461e+000	-2.9981607358e-002
 3.5563365638e+000	 1.6607514098e+000	-7.4404892270e-002
 3.5394618217e+000	 1.6964182894e+000	-1.2936395783e-001
 3.5221994262e+000	 1.7319746539e+000	-1.9756503199e-001
 3.5045501087e+000	 1.7674143645e+000	-2.8177379393e-001
 3.4865147268e+000	 1.8027312778e+000	-3.8481165117e-001
 3.6726637892e+000	 1.4539741028e+000	 1.8661955001e-001
 3.6580307277e+000	 1.4904063860e+000	 1.6497931591e-001
 3.6430057551e+000	 1.5267642479e+000	 1.4230452267e-001
 3.6275888614e+000	 1.5630416030e+000	 1.1621997276e-001
 3.6117801587e+000	 1.5992323426e+000	 8.4277210537e-002
 3.5955798816e+000	 1.6353303381e+000	 4.3957320049e-002
 3.5789883890e+000	 1.6713294442e+000	-7.3260738004e-003
 3.5620061645e+000	 1.7072235015e+000	-7.2223603364e-002
 3.5446338175e+000	 1.7430063396e+000	-1.5344675895e-001
 3.5268720839e+000	 1.7786717808e+000	-2.5376429607e-001
 3.5087218270e+000	 1.8142136426e+000	-3.7599845370e-001
 3.6959084967e+000	 1.4631764705e+000	 2.5581429591e-001
 3.6811828209e+000	 1.4998393378e+000	 2.4404360744e-001
 3.6660627535e+000	 1.5364273128e+000	 2.2828015659e-001
 3.6505482846e+000	 1.5729342714e+000	 2.0613261271e-001
 3.6346395268e+000	 1.6093540662e+000	 1.7513820796e-001
 3.6183367163e+000	 1.6456805302e+000	 1.3276559726e-001
 3.6016402143e+000	 1.6819074787e+000	 7.6417921471e-002
 3.5845505073e+000	 1.7180287135e+000	 3.4360709046e-003
 3.5670682087e+000	 1.7540380253e+000	-8.8897854181e-002
 3.5491940591e+000	 1.7899291972e+000	-2.0335689028e-001
 3.5309289271e+000	 1.8256960074e+000	-3.4276536915e-001
 3.7191532043e+000	 1.4723788383e+000	 3.3185018972e-001
 3.7043349141e+000	 1.5092722896e+000	 3.3142224723e-001
 3.6891197520e+000	 1.5460903777e+000	 3.2410574828e-001
 3.6735077078e+000	 1.5828269397e+000	 3.0749238022e-001
 3.6574988949e+000	 1.6194757899e+000	 2.7910415364e-001
 3.6410935510e+000	 1.6560307222e+000	 2.3639632507e-001
 3.6242920395e+000	 1.6924855132e+000	 1.7676052266e-001
 3.6070948501e+000	 1.7288339256e+000	 9.7528072019e-002
 3.5895026000e+000	 1.7650697110e+000	-4.0264814443e-003
 3.5715160343e+000	 1.8011866135e+000	-1.3068165781e-001
 3.5531360273e+000	 1.8371783722e+000	-2.8526514043e-001
 3.3310650256e+000	 1.7223547240e+000	 2.5122064151e-001
 3.3134658586e+000	 1.7559738049e+000	 4.6617991358e-001
 3.2954998440e+000	 1.7894638242e+000	 6.1421147843e-001
 3.2771681667e+000	 1.8228189179e+000	 6.9254200769e-001
 3.2584721341e+000	 1.8560332301e+000	 6.9840587895e-001
 3.2394131765e+000	 1.8891009162e+000	 6.4966756569e-001
 3.2199928470e+000	 1.9220161459e+000	 5.6112589588e-001
 3.2002128214e+000	 1.9547731064e+000	 4.1085903084e-001
 3.1800748984e+000	 1.9873660057e+000	 2.0150599579e-001
 3.1595809991e+000	 2.0197890756e+000	-6.4191427010e-002
 3.1387331671e+000	 2.0520365752e+000	-3.8339579175e-001
 3.3532721258e+000	 1.7338370888e+000	 8.4358335169e-002
 3.3355556310e+000	 1.7676802970e+000	 2.7782189931e-001
 3.3174698430e+000	 1.8013935830e+000	 4.1343531023e-001
 3.2990159544e+000	 1.8349710440e+000	 4.8835756868e-001
 3.2801952817e+000	 1.8684067849e+000	 4.9974589772e-001
 3.2610092644e+000	 1.9016949223e+000	 4.8104142395e-001
 3.2414594660e+000	 1.9348295869e+000	 4.1431365686e-001
 3.2215475736e+000	 1.9678049271e+000	 2.9419475477e-001
 3.2012753977e+000	 2.0006151124e+000	 1.2336855628e-001
 3.1806448724e+000	 2.0332543361e+000	-9.5385875745e-002
 3.1596580548e+000	 2.0657168190e+000	-3.5920155310e-001
 3.3754792260e+000	 1.7453194536e+000	-5.6859175440e-002
 3.3576454034e+000	 1.7793867890e+000	 1.1457125050e-001
 3.3394398419e+000	 1.8133233418e+000	 2.3711731601e-001
 3.3208637422e+000	 1.8471231701e+000	 3.0786951481e-001
 3.3019184292e+000	 1.8807803398e+000	 3.3028264297e-001
 3.2826053522e+000	 1.9142889284e+000	 3.3088397326e-001
 3.2629260850e+000	 1.9476430278e+000	 2.8367316548e-001
 3.2428823257e+000	 1.9808367478e+000	 1.9128629371e-001
 3.2224758970e+000	 2.0138642191e+000	 5.6454502148e-002
 3.2017087458e+000	 2.0467195966e+000	-1.1800328621e-001
 3.1805829426e+000	 2.0793970629e+000	-3.2918787739e-001
 3.3976863261e+000	 1.7568018184e+000	-1.7262485739e-001
 3.3797351758e+000	 1.7910932810e+000	-2.3739152467e-002
 3.3614098409e+000	 1.8252531007e+000	 8.5118645532e-002
 3.3427115300e+000	 1.8592752962e+000	 1.5096968064e-001
 3.3236415768e+000	 1.8931538947e+000	 1.8862315655e-001
 3.3042014401e+000	 1.9268829345e+000	 1.9841773144e-001
 3.2843927040e+000	 1.9604564688e+000	 1.6844171495e-001
 3.2642170778e+000	 1.9938685685e+000	 1.0138813207e-001
 3.2436763964e+000	 2.0271133258e+000	 3.7937655585e-005
 3.2227726191e+000	 2.0601848571e+000	-1.3274749434e-001
 3.2015078304e+000	 2.0930773067e+000	-2.9403409099e-001
 3.4198934263e+000	 1.7682841833e+000	-2.6312535730e-001
 3.4018249482e+000	 1.8027997731e+000	-1.3727065094e-001
 3.3833798398e+000	 1.8371828595e+000	-4.2694375735e-002
 3.3645593178e+000	 1.8714274223e+000	 1.7554413427e-002
 3.3453647243e+000	 1.9055274495e+000	 6.6031991085e-002
 3.3257975279e+000	 1.9394769406e+000	 8.2868222156e-002
 3.3058593229e+000	 1.9732699098e+000	 6.7858760573e-002
 3.2855518300e+000	 2.0069003892e+000	 2.3756012660e-002
 3.2648768957e+000	 2.0403624325e+000	-4.6606738007e-002
 3.2438364924e+000	 2.0736501176e+000	-1.4032306415e-001
 3.2224327182e+000	 2.1067575505e+000	-2.5442133057e-001
 3.4421005265e+000	 1.7797665481e+000	-3.2854120522e-001
 3.4239147206e+000	 1.8145062651e+000	-2.2617899436e-001
 3.4053498388e+000	 1.8491126183e+000	-1.4645041360e-001
 3.3864071056e+000	 1.8835795485e+000	-8.6778119626e-002
 3.3670878719e+000	 1.9179010044e+000	-3.8273252847e-002
 3.3473936158e+000	 1.9520709467e+000	-1.6536122115e-002
 3.3273259419e+000	 1.9860833507e+000	-1.8834150003e-002
 3.3068865821e+000	 2.0199322099e+000	-4.2353103887e-002
 3.2860773950e+000	 2.0536115392e+000	-8.4204840225e-002
 3.2649003657e+000	 2.0871153781e+000	-1.4143526421e-001
 3.2433576059e+000	 2.1204377944e+000	-2.1103248467e-001
 3.4643076266e+000	 1.7912489129e+000	-3.6904701066e-001
 3.4460044930e+000	 1.8262127571e+000	-2.9061451955e-001
 3.4273198378e+000	 1.8610423772e+000	-2.2627328567e-001
 3.4082548933e+000	 1.8957316746e+000	-1.6871906838e-001
 3.3888110195e+000	 1.9302745593e+000	-1.2507142504e-001
 3.3689897036e+000	 1.9646649528e+000	-1.0056405326e-001
 3.3487925609e+000	 1.9988967917e+000	-9.2393443850e-002
 3.3282213343e+000	 2.0329640306e+000	-9.7681078181e-002
 3.3072778943e+000	 2.0668606459e+000	-1.1348140811e-001
 3.2859642391e+000	 2.1005806386e+000	-1.3679004506e-001
 3.2642824937e+000	 2.1341180382e+000	-1.6455213759e-001
 3.4865147268e+000	 1.8027312778e+000	-3.8481165117e-001
 3.4680942654e+000	 1.8379192492e+000	-3.3072232301e-001
 3.4492898367e+000	 1.8729721360e+000	-2.8228211575e-001
 3.4301026811e+000	 1.9078838007e+000	-2.3191944032e-001
 3.4105341670e+000	 1.9426481142e+000	-1.9513793872e-001
 3.3905857914e+000	 1.9772589590e+000	-1.6998159723e-001
 3.3702591799e+000	 2.0117102327e+000	-1.5357358726e-001
 3.3495560864e+000	 2.0459958514e+000	-1.4296862960e-001
 3.3284783936e+000	 2.0801097526e+000	-1.3516121329e-001
 3.3070281124e+000	 2.1140458991e+000	-1.2709401752e-001
 3.2852073815e+000	 2.1477982820e+000	-1.1566651535e-001
 3.5087218270e+000	 1.8142136426e+000	-3.7599845370e-001
 3.4901840378e+000	 1.8496257412e+000	-3.4664242684e-001
 3.4712598357e+000	 1.8849018948e+000	-3.1217358438e-001
 3.4519504689e+000	 1.9200359268e+000	-2.7715791663e-001
 3.4322573146e+000	 1.9550216690e+000	-2.4924487928e-001
 3.4121818793e+000	 1.9898529651e+000	-2.2555214030e-001
 3.3917257989e+000	 2.0245236737e+000	-2.0312714778e-001
 3.3708908386e+000	 2.0590276721e+000	-1.7895537240e-001
 3.3496788930e+000	 2.0933588593e+000	-1.4996876841e-001
 3.3280919857e+000	 2.1275111596e+000	-1.1305443178e-001
 3.3061322693e+000	 2.1614785259e+000	-6.5063433778e-002
 3.5309289271e+000	 1.8256960074e+000	-3.4276536915e-001
 3.5122738102e+000	 1.8613322332e+000	-3.3850993823e-001
 3.4932298346e+000	 1.8968316537e+000	-3.2214781913e-001
 3.4737982567e+000	 1.9321880529e+000	-3.0520934011e-001
 3.4539804622e+000	 1.9673952239e+000	-2.8816110896e-001
 3.4337779671e+000	 2.0024469712e+000	-2.6803651206e-001
 3.4131924178e+000	 2.0373371146e+000	-2.4180485396e-001
 3.3922255907e+000	 2.0720594928e+000	-2.0637985049e-001
 3.3708793923e+000	 2.1066079660e+000	-1.5862833521e-001
 3.3491558591e+000	 2.1409764201e+000	-9.5379157294e-002
 3.3270571571e+000	 2.1751587697e+000	-1.3432248459e-002
 3.5531360273e+000	 1.8371783722e+000	-2.8526514043e-001
 3.5343635826e+000	 1.8730387253e+000	-3.0645520311e-001
 3.5151998336e+000	 1.9087614125e+000	-3.1382371326e-001
 3.4956460444e+000	 1.9443401791e+000	-3.1684483507e-001
 3.4757036097e+000	 1.9797687788e+000	-3.1265236755e-001
 3.4553740550e+000	 2.0150409773e+000	-2.9819306533e-001
 3.4346590368e+000	 2.0501505556e+000	-2.7035565277e-001
 3.4135603429e+000	 2.0850913135e+000	-2.2597957084e-001
 3.3920798916e+000	 2.1198570727e+000	-1.6186393242e-001
 3.3702197324e+000	 2.1544416806e+000	-7.4776663429e-002
 3.3479820449e+000	 2.1888390135e+000	 3.8536193329e-002
 3.1387331671e+000	 2.0520365752e+000	-3.8339579175e-001
 3.1175335675e+000	 2.0841027938e+000	-6.5428461210e-001
 3.0959844873e+000	 2.1159820543e+000	-4.3526247734e-001
 3.0740883340e+000	 2.1476687162e+000	-2.5038093155e-001
 3.0518476352e+000	 2.1791571792e+000	-1.0279837179e-001
 3.0292650379e+000	 2.2104418857e+000	 4.3350401528e-003
 3.0063433076e+000	 2.2415173246e+000	 6.7884621673e-002
 2.9830853273e+000	 2.2723780342e+000	 8.4738461290e-002
 2.9594940961e+000	 2.3030186050e+000	 5.1814740336e-002
 2.9355727287e+000	 2.3334336833e+000	-3.3930934244e-002
 2.9113244534e+000	 2.3636179740e+000	-1.7549820481e-001
 3.1596580548e+000	 2.0657168190e+000	-3.5920155310e-001
 3.1383171247e+000	 2.0979968124e+000	-8.4482790748e-001
 3.1166243839e+000	 2.1300886013e+000	-1.0612997441e+000
 3.0945822562e+000	 2.1619865077e+000	-8.0791998121e-001
 3.0721932861e+000	 2.1936848937e+000	-5.9301419661e-001
 3.0494601381e+000	 2.2251781649e+000	-4.1987352433e-001
 3.0263855963e+000	 2.2564607735e+000	-2.9177293046e-001
 3.0029725628e+000	 2.2875272211e+000	-2.1196369453e-001
 2.9792240568e+000	 2.3183720624e+000	-1.8366586080e-001
 2.9551432136e+000	 2.3489899079e+000	-2.1006067852e-001
 2.9307332831e+000	 2.3793754271e+000	-2.9428305065e-001
 3.1805829426e+000	 2.0793970629e+000	-3.2918787739e-001
 3.1591006818e+000	 2.1118908310e+000	-7.4666400925e-001
 3.1372642805e+000	 2.1441951483e+000	-1.2137986695e+000
 3.1150761784e+000	 2.1763042991e+000	-1.3542866936e+000
 3.0925389370e+000	 2.2082126082e+000	-1.0719489655e+000
 3.0696552384e+000	 2.2399144442e+000	-8.3267781171e-001
 3.0464278850e+000	 2.2714042223e+000	-6.3988992358e-001
 3.0228597983e+000	 2.3026764080e+000	-4.9697740485e-001
 2.9989540174e+000	 2.3337255197e+000	-4.0729999334e-001
 2.9747136984e+000	 2.3645461324e+000	-3.7417727172e-001
 2.9501421128e+000	 2.3951328803e+000	-4.0088088740e-001
 3.2015078304e+000	 2.0930773067e+000	-2.9403409099e-001
 3.1798842389e+000	 2.1257848497e+000	-6.4468973479e-001
 3.1579041771e+000	 2.1583016954e+000	-1.0462612424e+000
 3.1355701007e+000	 2.1906220906e+000	-1.4949886330e+000
 3.1128845879e+000	 2.2227403228e+000	-1.5391421621e+000
 3.0898503386e+000	 2.2546507234e+000	-1.2335934258e+000
 3.0664701738e+000	 2.2863476711e+000	-9.7595847537e-001
 3.0427470338e+000	 2.3178255949e+000	-7.6977171658e-001
 3.0186839780e+000	 2.3490789771e+000	-6.1853407006e-001
 2.9942841833e+000	 2.3801023570e+000	-5.2570495030e-001
 2.9695509425e+000	 2.4108903335e+000	-4.9469425389e-001
 3.2224327182e+000	 2.1067575505e+000	-2.5442133057e-001
 3.2006677960e+000	 2.1396788683e+000	-5.3958979833e-001
 3.1785440737e+000	 2.1724082424e+000	-8.7690656189e-001
 3.1560640229e+000	 2.2049398820e+000	-1.2625435588e+000
 3.1332302388e+000	 2.2372680373e+000	-1.6926037845e+000
 3.1100454389e+000	 2.2693870027e+000	-1.6221394835e+000
 3.0865124625e+000	 2.3012911200e+000	-1.2994745318e+000
 3.0626342693e+000	 2.3329747818e+000	-1.0298198110e+000
 3.0384139387e+000	 2.3644324345e+000	-8.1681893504e-001
 3.0138546681e+000	 2.3956585816e+000	-6.6407266967e-001
 2.9889597722e+000	 2.4266477866e+000	-5.7513068619e-001
 3.2433576059e+000	 2.1204377944e+000	-2.1103248467e-001
 3.2214513531e+000	 2.1535728869e+000	-4.3205101158e-001
 3.1991839703e+000	 2.1865147894e+000	-7.0642544649e-001
 3.1765579451e+000	 2.2192576734e+000	-1.0302571208e+000
 3.1535758897e+000	 2.2517957518e+000	-1.3995772789e+000
 3.1302405392e+000	 2.2841232819e+000	-1.8103564451e+000
 3.1065547512e+000	 2.3162345688e+000	-1.6099377436e+000
 3.0825215048e+000	 2.3481239687e+000	-1.2765988702e+000
 3.0581438993e+000	 2.3797858918e+000	-1.0016097207e+000
 3.0334251530e+000	 2.4112148061e+000	-7.8871395202e-001
 3.0083686019e+000	 2.4424052398e+000	-6.4160255638e-001
 3.2642824937e+000	 2.1341180382e+000	-1.6455213759e-001
 3.2422349102e+000	 2.1674669055e+000	-3.2276221641e-001
 3.2198238668e+000	 2.2006213364e+000	-5.3551107197e-001
 3.1970518674e+000	 2.2335754649e+000	-7.9882689116e-001
 3.1739215406e+000	 2.2663234664e+000	-1.1086666447e+000
 3.1504356394e+000	 2.2988595611e+000	-1.4609256416e+000
 3.1265970399e+000	 2.3311780176e+000	-1.8514472108e+000
 3.1024087403e+000	 2.3632731556e+000	-1.5095899492e+000
 3.0778738600e+000	 2.3951393492e+000	-1.1723657103e+000
 3.0529956378e+000	 2.4267710307e+000	-8.9906673989e-001
 3.0277774315e+000	 2.4581626929e+000	-6.9352691755e-001
 3.2852073815e+000	 2.1477982820e+000	-1.1566651535e-001
 3.2630184674e+000	 2.1813609242e+000	-2.1241422026e-001
 3.2404637634e+000	 2.2147278835e+000	-3.6485889612e-001
 3.2175457896e+000	 2.2478932563e+000	-5.6895303307e-001
 3.1942671915e+000	 2.2808511809e+000	-8.2057679165e-001
 3.1706307397e+000	 2.3135958404e+000	-1.1155477490e+000
 3.1466393286e+000	 2.3461214665e+000	-1.4496307741e+000
 3.1222959759e+000	 2.3784223425e+000	-1.7282778525e+000
 3.0976038206e+000	 2.4104928066e+000	-1.3285502059e+000
 3.0725661227e+000	 2.4423272552e+000	-9.9457325542e-001
 3.0471862612e+000	 2.4739201461e+000	-7.3032535476e-001
 3.3061322693e+000	 2.1614785259e+000	-6.5063433778e-002
 3.2838020245e+000	 2.1952549428e+000	-1.0169973390e-001
 3.2611036600e+000	 2.2288344305e+000	-1.9516658660e-001
 3.2380397118e+000	 2.2622110478e+000	-3.4133821897e-001
 3.2146128424e+000	 2.2953788954e+000	-5.3601543080e-001
 3.1908258399e+000	 2.3283321196e+000	-7.7493553659e-001
 3.1666816174e+000	 2.3610649153e+000	-1.0537824385e+000
 3.1421832114e+000	 2.3935715294e+000	-1.3681968041e+000
 3.1173337812e+000	 2.4258462639e+000	-1.4696304011e+000
 3.0921366076e+000	 2.4578834798e+000	-1.0746798649e+000
 3.0665950909e+000	 2.4896775993e+000	-7.5142384158e-001
 3.3270571571e+000	 2.1751587697e+000	-1.3432248459e-002
 3.3045855816e+000	 2.2091489614e+000	 8.6866883886e-003
 3.2817435566e+000	 2.2429409775e+000	-2.7133951420e-002
 3.2585336340e+000	 2.2765288392e+000	-1.1668755148e-001
 3.2349584933e+000	 2.3099066099e+000	-2.5569298601e-001
 3.2110209402e+000	 2.3430683989e+000	-4.3980476184e-001
 3.1867239061e+000	 2.3760083641e+000	-6.6462329336e-001
 3.1620704469e+000	 2.4087207162e+000	-9.2570528366e-001
 3.1370637419e+000	 2.4411997213e+000	-1.2185741846e+000
 3.1117070924e+000	 2.4734397043e+000	-1.1388369486e+000
 3.0860039206e+000	 2.5054350524e+000	-7.5691069685e-001
 3.3479820449e+000	 2.1888390135e+000	 3.8536193329e-002
 3.3253691387e+000	 2.2230429801e+000	 1.1804870647e-001
 3.3023834532e+000	 2.2570475246e+000	 1.3853712795e-001
 3.2790275563e+000	 2.2908466307e+000	 1.0429151253e-001
 3.2553041442e+000	 2.3244343245e+000	 1.9677490738e-002
 3.2312160404e+000	 2.3578046781e+000	-1.1087407722e-001
 3.2067661948e+000	 2.3909518130e+000	-2.8287758256e-001
 3.1819576824e+000	 2.4238699031e+000	-4.9180325675e-001
 3.1567937025e+000	 2.4565531787e+000	-7.3308784027e-001
 3.1312775773e+000	 2.4889959289e+000	-1.0021453032e+000
 3.1054127503e+000	 2.5211925056e+000	-7.5349782170e-001
 2.9113244534e+000	 2.3636179740e+000	-1.7549820481e-001
 2.8867526112e+000	 2.3935662434e+000	-2.5092218122e-001
 2.8618606541e+000	 2.4232733227e+000	-3.1396390238e-001
 2.8366521436e+000	 2.4527341104e+000	-3.6907245706e-001
 2.8111307490e+000	 2.4819435755e+000	-4.2069756386e-001
 2.7853002459e+000	 2.5108967602e+000	-4.5913340460e-001
 2.7591645138e+000	 2.5395887828e+000	-4.7851355305e-001
 2.7327275349e+000	 2.5680148403e+000	-5.0232665288e-001
 2.7059933915e+000	 2.5961702111e+000	-5.3025367331e-001
 2.6789662642e+000	 2.6240502578e+000	-5.6200123160e-001
 2.6516504295e+000	 2.6516504295e+000	-5.9730329534e-001
 2.9307332831e+000	 2.3793754271e+000	-2.9428305065e-001
 2.9059976286e+000	 2.4095233517e+000	-3.4838832729e-001
 2.8809397251e+000	 2.4394284782e+000	-3.9491360724e-001
 2.8555631579e+000	 2.4690856712e+000	-4.3832970916e-001
 2.8298716207e+000	 2.4984898660e+000	-4.8310326463e-001
 2.8038689142e+000	 2.5276360719e+000	-5.0349236147e-001
 2.7775589439e+000	 2.5565193747e+000	-5.3118364988e-001
 2.7509457185e+000	 2.5851349392e+000	-5.6739905873e-001
 2.7240333475e+000	 2.6134780125e+000	-6.1168858757e-001
 2.6968260392e+000	 2.6415439262e+000	-6.6362500917e-001
 2.6693280990e+000	 2.6693280990e+000	-7.2280573900e-001
 2.9501421128e+000	 2.3951328803e+000	-4.0088088740e-001
 2.9252426460e+000	 2.4254804600e+000	-4.3114389933e-001
 2.9000187961e+000	 2.4555836337e+000	-4.5859034259e-001
 2.8744741721e+000	 2.4854372319e+000	-4.8771535143e-001
 2.8486124923e+000	 2.5150361565e+000	-5.0940477233e-001
 2.8224375825e+000	 2.5443753837e+000	-5.3035172782e-001
 2.7959533740e+000	 2.5734499666e+000	-5.6445484718e-001
 2.7691639021e+000	 2.6022550381e+000	-6.1111573144e-001
 2.7420733034e+000	 2.6307858139e+000	-6.6975381019e-001
 2.7146858143e+000	 2.6590375946e+000	-7.3980846327e-001
 2.6870057685e+000	 2.6870057685e+000	-8.2074105765e-001
 2.9695509425e+000	 2.4108903335e+000	-4.9469425389e-001
 2.9444876634e+000	 2.4414375683e+000	-4.9861619904e-001
 2.9190978672e+000	 2.4717387892e+000	-5.0444737166e-001
 2.8933851864e+000	 2.5017887926e+000	-5.1533132334e-001
 2.8673533640e+000	 2.5315824470e+000	-5.1873307579e-001
 2.8410062508e+000	 2.5611146954e+000	-5.4013330640e-001
 2.8143478041e+000	 2.5903805584e+000	-5.7879382706e-001
 2.7873820856e+000	 2.6193751371e+000	-6.3398897983e-001
 2.7601132593e+000	 2.6480936153e+000	-7.0500799900e-001
 2.7325455894e+000	 2.6765312630e+000	-7.9115729772e-001
 2.7046834380e+000	 2.7046834380e+000	-8.9176267232e-001
 2.9889597722e+000	 2.4266477866e+000	-5.7513068619e-001
 2.9637326808e+000	 2.4573946766e+000	-5.5023660020e-001
 2.9381769382e+000	 2.4878939447e+000	-5.3194107729e-001
 2.9122962007e+000	 2.5181403534e+000	-5.1523065995e-001
 2.8860942356e+000	 2.5481287375e+000	-5.1315975009e-001
 2.8595749191e+000	 2.5778540071e+000	-5.3325900233e-001
 2.8327422342e+000	 2.6073111503e+000	-5.7466631651e-001
 2.8056002692e+000	 2.6364952360e+000	-6.3652907498e-001
 2.7781532153e+000	 2.6654014167e+000	-7.1800666696e-001
 2.7504053645e+000	 2.6940249314e+000	-8.1827294026e-001
 2.7223611076e+000	 2.7223611076e+000	-9.3651857334e-001
 3.0083686019e+000	 2.4424052398e+000	-6.4160255638e-001
 2.9829776982e+000	 2.4733517849e+000	-5.8544041736e-001
 2.9572560092e+000	 2.5040491002e+000	-5.3874001415e-001
 2.9312072150e+000	 2.5344919141e+000	-5.0226461315e-001
 2.9048351073e+000	 2.5646750280e+000	-4.9306472253e-001
 2.8781435874e+000	 2.5945933189e+000	-5.1015081980e-001
 2.8511366643e+000	 2.6242417422e+000	-5.5253711820e-001
 2.8238184528e+000	 2.6536153349e+000	-6.1924431601e-001
 2.7961931712e+000	 2.6827092181e+000	-7.0930228361e-001
 2.7682651396e+000	 2.7115185997e+000	-8.2175268055e-001
 2.7400387771e+000	 2.7400387771e+000	-9.5565149545e-001
 3.0277774315e+000	 2.4581626929e+000	-6.9352691755e-001
 3.0022227156e+000	 2.4893088932e+000	-6.0366677950e-001
 2.9763350802e+000	 2.5202042556e+000	-5.2617515773e-001
 2.9501182293e+000	 2.5508434748e+000	-4.7677378294e-001
 2.9235759790e+000	 2.5812213185e+000	-4.5882898296e-001
 2.8967122557e+000	 2.6113326306e+000	-4.7123085891e-001
 2.8695310944e+000	 2.6411723341e+000	-5.1287014008e-001
 2.8420366363e+000	 2.6707354339e+000	-5.8264109324e-001
 2.8142331272e+000	 2.7000170196e+000	-6.7944437263e-001
 2.7861249147e+000	 2.7290122681e+000	-8.0218980277e-001
 2.7577164466e+000	 2.7577164466e+000	-9.4979908629e-001
 3.0471862612e+000	 2.4739201461e+000	-7.3032535476e-001
 3.0214677330e+000	 2.5052660015e+000	-6.0360682743e-001
 2.9954141513e+000	 2.5363594111e+000	-5.0294993750e-001
 2.9690292436e+000	 2.5671950356e+000	-4.3910071026e-001
 2.9423168506e+000	 2.5977676090e+000	-4.1083454993e-001
 2.9152809240e+000	 2.6280719423e+000	-4.1692131260e-001
 2.8879255245e+000	 2.6581029260e+000	-4.5612842394e-001
 2.8602548199e+000	 2.6878555328e+000	-5.2722394902e-001
 2.8322730831e+000	 2.7173248210e+000	-6.2897960565e-001
 2.8039846898e+000	 2.7465059365e+000	-7.6017371315e-001
 2.7753941161e+000	 2.7753941161e+000	-9.1959406842e-001
 3.0665950909e+000	 2.4896775993e+000	-7.5142384158e-001
 3.0407127505e+000	 2.5212231098e+000	-5.9014918029e-001
 3.0144932223e+000	 2.5525145666e+000	-4.6937087513e-001
 2.9879402579e+000	 2.5835465963e+000	-3.8958981556e-001
 2.9610577223e+000	 2.6143138995e+000	-3.4946443816e-001
 2.9338495923e+000	 2.6448112541e+000	-3.4764446371e-001
 2.9063199545e+000	 2.6750335179e+000	-3.8277417274e-001
 2.8784730034e+000	 2.7049756317e+000	-4.5349563617e-001
 2.8503130390e+000	 2.7346326224e+000	-5.5845189250e-001
 2.8218444649e+000	 2.7639996049e+000	-6.9629006274e-001
 2.7930717857e+000	 2.7930717857e+000	-8.6566439515e-001
 3.0860039206e+000	 2.5054350524e+000	-7.5691069685e-001
 3.0599577679e+000	 2.5371802180e+000	-5.6804053539e-001
 3.0335722933e+000	 2.5686697221e+000	-4.2574714577e-001
 3.0068512722e+000	 2.5998981570e+000	-3.2858733975e-001
 2.9797985939e+000	 2.6308601900e+000	-2.7510262716e-001
 2.9524182606e+000	 2.6615505658e+000	-2.6382268216e-001
 2.9247143846e+000	 2.6919641097e+000	-2.9326877704e-001
 2.8966911870e+000	 2.7220957307e+000	-3.6195717432e-001
 2.8683529950e+000	 2.7519404238e+000	-4.6840246805e-001
 2.8397042400e+000	 2.7814932733e+000	-6.1112086550e-001
 2.8107494552e+000	 2.8107494552e+000	-7.8863340052e-001
 3.1054127503e+000	 2.5211925056e+000	-7.5349782170e-001
 3.0792027853e+000	 2.5531373263e+000	-5.3755705119e-001
 3.0526513643e+000	 2.5848248776e+000	-3.7239049516e-001
 3.0257622864e+000	 2.6162497178e+000	-2.5644128726e-001
 2.9985394656e+000	 2.6474064805e+000	-1.8813403115e-001
 2.9709869289e+000	 2.6782898775e+000	-1.6587842223e-001
 2.9431088147e+000	 2.7088947016e+000	-1.8807284038e-001
 2.9149093706e+000	 2.7392158296e+000	-2.5310790397e-001
 2.8863929509e+000	 2.7692482252e+000	-3.5936997583e-001
 2.8575640151e+000	 2.7989869417e+000	-5.0524461190e-001
 2.8284271247e+000	 2.8284271247e+000	-6.8911994367e-001
 2.6516504295e+000	 2.6516504295e+000	-5.9730329534e-001
 2.6240502578e+000	 2.6789662642e+000	-5.3737325313e-001
 2.5961702111e+000	 2.7059933915e+000	-5.5250474059e-001
 2.5680148403e+000	 2.7327275349e+000	-6.4039961511e-001
 2.5395887828e+000	 2.7591645138e+000	-7.9872529017e-001
 2.5108967602e+000	 2.7853002459e+000	-1.0251183180e+000
 2.4819435755e+000	 2.8111307490e+000	-9.6973893772e-001
 2.4527341104e+000	 2.8366521436e+000	-7.6619557628e-001
 2.4232733227e+000	 2.8618606541e+000	-6.2619203533e-001
 2.3935662434e+000	 2.8867526112e+000	-5.5137354752e-001
 2.3636179740e+000	 2.9113244534e+000	-5.4320773936e-001
 2.6693280990e+000	 2.6693280990e+000	-7.2280573900e-001
 2.6415439262e+000	 2.6968260392e+000	-6.4641462528e-001
 2.6134780125e+000	 2.7240333475e+000	-6.3971362449e-001
 2.5851349392e+000	 2.7509457185e+000	-7.0054303668e-001
 2.5565193747e+000	 2.7775589439e+000	-8.2671454156e-001
 2.5276360719e+000	 2.8038689142e+000	-1.0160146450e+000
 2.4984898660e+000	 2.8298716207e+000	-1.2374113276e+000
 2.4690856712e+000	 2.8555631579e+000	-9.8883954350e-001
 2.4394284782e+000	 2.8809397251e+000	-8.0098684578e-001
 2.4095233517e+000	 2.9059976286e+000	-6.7576790740e-001
 2.3793754271e+000	 2.9307332831e+000	-6.1491922899e-001
 2.6870057685e+000	 2.6870057685e+000	-8.2074105765e-001
 2.6590375946e+000	 2.7146858143e+000	-7.3141282958e-001
 2.6307858139e+000	 2.7420733034e+000	-7.0646467111e-001
 2.6022550381e+000	 2.7691639021e+000	-7.4387314741e-001
 2.5734499666e+000	 2.7959533740e+000	-8.4159200696e-001
 2.5443753837e+000	 2.8224375825e+000	-9.9755549409e-001
 2.5150361565e+000	 2.8486124923e+000	-1.2096816118e+000
 2.4854372319e+000	 2.8744741721e+000	-1.2032711022e+000
 2.4555836337e+000	 2.9000187961e+000	-9.7119802314e-001
 2.4254804600e+000	 2.9252426460e+000	-7.9931992670e-001
 2.3951328803e+000	 2.9501421128e+000	-6.8964138459e-001
 2.7046834380e+000	 2.7046834380e+000	-8.9176267232e-001
 2.6765312630e+000	 2.7325455894e+000	-7.9295775983e-001
 2.6480936153e+000	 2.7601132593e+000	-7.5328258387e-001
 2.6193751371e+000	 2.7873820856e+000	-7.7084782624e-001
 2.5903805584e+000	 2.8143478041e+000	-8.4374713673e-001
 2.5611146954e+000	 2.8410062508e+000	-9.7006031421e-001
 2.5315824470e+000	 2.8673533640e+000	-1.1478564289e+000
 2.5017887926e+000	 2.8933851864e+000	-1.3751968788e+000
 2.4717387892e+000	 2.9190978672e+000	-1.1354471569e+000
 2.4414375683e+000	 2.9444876634e+000	-9.2056883521e-001
 2.4108903335e+000	 2.9695509425e+000	-7.6583056276e-001
 2.7223611076e+000	 2.7223611076e+000	-9.3651857334e-001
 2.6940249314e+000	 2.7504053645e+000	-8.3163560770e-001
 2.6654014167e+000	 2.7781532153e+000	-7.8069012955e-001
 2.6364952360e+000	 2.8056002692e+000	-7.8192481691e-001
 2.6073111503e+000	 2.8327422342e+000	-8.3357108277e-001
 2.5778540071e+000	 2.8595749191e+000	-9.3385212691e-001
 2.5481287375e+000	 2.8860942356e+000	-1.0809859200e+000
 2.5181403534e+000	 2.9122962007e+000	-1.2731881130e+000
 2.4878939447e+000	 2.9381769382e+000	-1.2923652177e+000
 2.4573946766e+000	 2.9637326808e+000	-1.0380652425e+000
 2.4266477866e+000	 2.9889597722e+000	-8.4195652771e-001
 2.7400387771e+000	 2.7400387771e+000	-9.5565149545e-001
 2.7115185997e+000	 2.7682651396e+000	-8.4802898212e-001
 2.6827092181e+000	 2.7961931712e+000	-7.8920820075e-001
 2.6536153349e+000	 2.8238184528e+000	-7.7756173244e-001
 2.6242417422e+000	 2.8511366643e+000	-8.1145664363e-001
 2.5945933189e+000	 2.8781435874e+000	-8.8925741089e-001
 2.5646750280e+000	 2.9048351073e+000	-1.0093287690e+000
 2.5344919141e+000	 2.9312072150e+000	-1.1700384761e+000
 2.5040491002e+000	 2.9572560092e+000	-1.3697599893e+000
 2.4733517849e+000	 2.9829776982e+000	-1.1503707708e+000
 2.4424052398e+000	 3.0083686019e+000	-9.1650201882e-001
 2.7577164466e+000	 2.7577164466e+000	-9.4979908629e-001
 2.7290122681e+000	 2.7861249147e+000	-8.4271702413e-001
 2.7000170196e+000	 2.8142331272e+000	-7.7935587592e-001
 2.6707354339e+000	 2.8420366363e+000	-7.5821605923e-001
 2.6411723341e+000	 2.8695310944e+000	-7.7779821173e-001
 2.6113326306e+000	 2.8967122557e+000	-8.3660599128e-001
 2.5812213185e+000	 2.9235759790e+000	-9.3314879028e-001
 2.5508434748e+000	 2.9501182293e+000	-1.0659443582e+000
 2.5202042556e+000	 2.9763350802e+000	-1.2335213267e+000
 2.4893088932e+000	 3.0022227156e+000	-1.2560577022e+000
 2.4581626929e+000	 3.0277774315e+000	-9.8796233474e-001
 2.7753941161e+000	 2.7753941161e+000	-9.1959406842e-001
 2.7465059365e+000	 2.8039846898e+000	-8.1627551732e-001
 2.7173248210e+000	 2.8322730831e+000	-7.5165047719e-001
 2.6878555328e+000	 2.8602548199e+000	-7.2434516111e-001
 2.6581029260e+000	 2.8879255245e+000	-7.3299172260e-001
 2.6280719423e+000	 2.9152809240e+000	-7.7623093306e-001
 2.5977676090e+000	 2.9423168506e+000	-8.5271476470e-001
 2.5671950356e+000	 2.9690292436e+000	-9.6110887283e-001
 2.5363594111e+000	 2.9954141513e+000	-1.1000949719e+000
 2.5052660015e+000	 3.0214677330e+000	-1.2683731004e+000
 2.4739201461e+000	 3.0471862612e+000	-1.0548449334e+000
 2.7930717857e+000	 2.7930717857e+000	-8.6566439515e-001
 2.7639996049e+000	 2.8218444649e+000	-7.6927699408e-001
 2.7346326224e+000	 2.8503130390e+000	-7.0660762591e-001
 2.7049756317e+000	 2.8784730034e+000	-6.7640628326e-001
 2.6750335179e+000	 2.9063199545e+000	-6.7743460602e-001
 2.6448112541e+000	 2.9338495923e+000	-7.0846843847e-001
 2.6143138995e+000	 2.9610577223e+000	-7.6830028284e-001
 2.5835465963e+000	 2.9879402579e+000	-8.5574164353e-001
 2.5525145666e+000	 3.0144932223e+000	-9.6962525649e-001
 2.5212231098e+000	 3.0407127505e+000	-1.1088071991e+000
 2.4896775993e+000	 3.0665950909e+000	-1.1156690473e+000
 2.8107494552e+000	 2.8107494552e+000	-7.8863340052e-001
 2.7814932733e+000	 2.8397042400e+000	-7.0229083783e-001
 2.7519404238e+000	 2.8683529950e+000	-6.4474129617e-001
 2.7220957307e+000	 2.8966911870e+000	-6.1485655590e-001
 2.6919641097e+000	 2.9247143846e+000	-6.1152573909e-001
 2.6615505658e+000	 2.9524182606e+000	-6.3365774843e-001
 2.6308601900e+000	 2.9797985939e+000	-6.8018359363e-001
 2.5998981570e+000	 3.0068512722e+000	-7.5005859962e-001
 2.5686697221e+000	 3.0335722933e+000	-8.4226449149e-001
 2.5371802180e+000	 3.0599577679e+000	-9.5581135143e-001
 2.5054350524e+000	 3.0860039206e+000	-1.0897394435e+000
 2.8284271247e+000	 2.8284271247e+000	-6.8911994367e-001
 2.7989869417e+000	 2.8575640151e+000	-6.1588338144e-001
 2.7692482252e+000	 2.8863929509e+000	-5.6656386623e-001
 2.7392158296e+000	 2.9149093706e+000	-5.4015299788e-001
 2.7088947016e+000	 2.9431088147e+000	-5.3566540094e-001
 2.6782898775e+000	 2.9709869289e+000	-5.5214104755e-001
 2.6474064805e+000	 2.9985394656e+000	-5.8864745875e-001
 2.6162497178e+000	 3.0257622864e+000	-6.4428177892e-001
 2.5848248776e+000	 3.0526513643e+000	-7.1817271817e-001
 2.5531373263e+000	 3.0792027853e+000	-8.0948235860e-001
 2.5211925056e+000	 3.1054127503e+000	-9.1740782006e-001
 2.3636179740e+000	 2.9113244534e+000	-5.4320773936e-001
 2.3334336833e+000	 2.9355727287e+000	-4.4598598792e-001
 2.3030186050e+000	 2.9594940961e+000	-3.6325168744e-001
 2.2723780342e+000	 2.9830853273e+000	-2.9829902148e-001
 2.2415173246e+000	 3.0063433076e+000	-2.5427389720e-001
 2.2104418857e+000	 3.0292650379e+000	-2.3416934536e-001
 2.1791571792e+000	 3.0518476352e+000	-2.4082134269e-001
 2.1476687162e+000	 3.0740883340e+000	-2.7690506257e-001
 2.1159820543e+000	 3.0959844873e+000	-3.4493155897e-001
 2.0841027938e+000	 3.1175335675e+000	-4.4724488677e-001
 2.0520365752e+000	 3.1387331671e+000	-4.9984979564e-001
 2.3793754271e+000	 2.9307332831e+000	-6.1491922899e-001
 2.3489899079e+000	 2.9551432136e+000	-5.0990777448e-001
 2.3183720624e+000	 2.9792240568e+000	-4.2528352109e-001
 2.2875272211e+000	 3.0029725628e+000	-3.6431535214e-001
 2.2564607735e+000	 3.0263855963e+000	-3.3011613170e-001
 2.2251781649e+000	 3.0494601381e+000	-3.2563813485e-001
 2.1936848937e+000	 3.0721932861e+000	-3.5366891438e-001
 2.1619865077e+000	 3.0945822562e+000	-4.1682760971e-001
 2.1300886013e+000	 3.1166243839e+000	-5.1756170269e-001
 2.0979968124e+000	 3.1383171247e+000	-5.7760179871e-001
 2.0657168190e+000	 3.1596580548e+000	-6.0355770875e-001
 2.3951328803e+000	 2.9501421128e+000	-6.8964138459e-001
 2.3645461324e+000	 2.9747136984e+000	-5.7509475659e-001
 2.3337255197e+000	 2.9989540174e+000	-4.8684611147e-001
 2.3026764080e+000	 3.0228597983e+000	-4.2814085287e-001
 2.2714042223e+000	 3.0464278850e+000	-4.0206056192e-001
 2.2399144442e+000	 3.0696552384e+000	-4.1151845599e-001
 2.2082126082e+000	 3.0925389370e+000	-4.5925529789e-001
 2.1763042991e+000	 3.1150761784e+000	-5.4783576130e-001
 2.1441951483e+000	 3.1372642805e+000	-6.0861335231e-001
 2.1118908310e+000	 3.1591006818e+000	-6.3402314663e-001
 2.0793970629e+000	 3.1805829426e+000	-6.7219322627e-001
 2.4108903335e+000	 2.9695509425e+000	-7.6583056276e-001
 2.3801023570e+000	 2.9942841833e+000	-6.4003189847e-001
 2.3490789771e+000	 3.0186839780e+000	-5.4645454852e-001
 2.3178255949e+000	 3.0427470338e+000	-4.8832224676e-001
 2.2863476711e+000	 3.0664701738e+000	-4.6868703982e-001
 2.2546507234e+000	 3.0898503386e+000	-4.9042477233e-001
 2.2227403228e+000	 3.1128845879e+000	-5.5623103679e-001
 2.1906220906e+000	 3.1355701007e+000	-6.1035535570e-001
 2.1583016954e+000	 3.1579041771e+000	-6.2587858352e-001
 2.1257848497e+000	 3.1798842389e+000	-6.5918261167e-001
 2.0930773067e+000	 3.2015078304e+000	-7.0727166158e-001
 2.4266477866e+000	 2.9889597722e+000	-8.4195652771e-001
 2.3956585816e+000	 3.0138546681e+000	-7.0321672056e-001
 2.3644324345e+000	 3.0384139387e+000	-6.0263560402e-001
 2.3329747818e+000	 3.0626342693e+000	-5.4341704197e-001
 2.3012911200e+000	 3.0865124625e+000	-5.2858528368e-001
 2.2693870027e+000	 3.1100454389e+000	-5.6098047343e-001
 2.2372680373e+000	 3.1332302388e+000	-6.0033388110e-001
 2.2049398820e+000	 3.1560640229e+000	-5.9634137863e-001
 2.1724082424e+000	 3.1785440737e+000	-6.1552574081e-001
 2.1396788683e+000	 3.2006677960e+000	-6.5456594594e-001
 2.1067575505e+000	 3.2224327182e+000	-7.1031224818e-001
 2.4424052398e+000	 3.0083686019e+000	-9.1650201882e-001
 2.4112148061e+000	 3.0334251530e+000	-7.6315889450e-001
 2.3797858918e+000	 3.0581438993e+000	-6.5392735479e-001
 2.3481239687e+000	 3.0825215048e+000	-5.9199318385e-001
 2.3162345688e+000	 3.1065547512e+000	-5.8035455979e-001
 2.2841232819e+000	 3.1302405392e+000	-5.9610068774e-001
 2.2517957518e+000	 3.1535758897e+000	-5.6266713396e-001
 2.2192576734e+000	 3.1765579451e+000	-5.5818767640e-001
 2.1865147894e+000	 3.1991839703e+000	-5.7901256178e-001
 2.1535728869e+000	 3.2214513531e+000	-6.2166370170e-001
 2.1204377944e+000	 3.2433576059e+000	-6.8283801315e-001
 2.4581626929e+000	 3.0277774315e+000	-9.8796233474e-001
 2.4267710307e+000	 3.0529956378e+000	-8.1837985364e-001
 2.3951393492e+000	 3.0778738600e+000	-6.9887882036e-001
 2.3632731556e+000	 3.1024087403e+000	-6.3262872036e-001
 2.3311780176e+000	 3.1265970399e+000	-6.1526426173e-001
 2.2988595611e+000	 3.1504356394e+000	-5.4216061171e-001
 2.2663234664e+000	 3.1739215406e+000	-5.0417477850e-001
 2.2335754649e+000	 3.1970518674e+000	-4.9732539240e-001
 2.2006213364e+000	 3.2198238668e+000	-5.1780238683e-001
 2.1674669055e+000	 3.2422349102e+000	-5.6197107747e-001
 2.1341180382e+000	 3.2642824937e+000	-6.2637565563e-001
 2.4739201461e+000	 3.0471862612e+000	-1.0548449334e+000
 2.4423272552e+000	 3.0725661227e+000	-8.6741241846e-001
 2.4104928066e+000	 3.0976038206e+000	-7.3604961446e-001
 2.3784223425e+000	 3.1222959759e+000	-6.6391148038e-001
 2.3461214665e+000	 3.1466393286e+000	-5.5218718855e-001
 2.3135958404e+000	 3.1706307397e+000	-4.7054603694e-001
 2.2808511809e+000	 3.1942671915e+000	-4.2626266470e-001
 2.2478932563e+000	 3.2175457896e+000	-4.1519200284e-001
 2.2147278835e+000	 3.2404637634e+000	-4.3336398073e-001
 2.1813609242e+000	 3.2630184674e+000	-4.7698777004e-001
 2.1477982820e+000	 3.2852073815e+000	-5.4245542986e-001
 2.4896775993e+000	 3.0665950909e+000	-1.1156690473e+000
 2.4578834798e+000	 3.0921366076e+000	-9.0880043625e-001
 2.4258462639e+000	 3.1173337812e+000	-7.6400960977e-001
 2.3935715294e+000	 3.1421832114e+000	-6.1018480871e-001
 2.3610649153e+000	 3.1666816174e+000	-4.7442495120e-001
 2.3283321196e+000	 3.1908258399e+000	-3.8263870800e-001
 2.2953788954e+000	 3.2146128424e+000	-3.3034363714e-001
 2.2622110478e+000	 3.2380397118e+000	-3.1323111633e-001
 2.2288344305e+000	 3.2611036600e+000	-3.2717136099e-001
 2.1952549428e+000	 3.2838020245e+000	-3.6821783219e-001
 2.1614785259e+000	 3.3061322693e+000	-4.3261103265e-001
 2.5054350524e+000	 3.0860039206e+000	-1.0897394435e+000
 2.4734397043e+000	 3.1117070924e+000	-9.4109843431e-001
 2.4411997213e+000	 3.1370637419e+000	-7.3367639355e-001
 2.4087207162e+000	 3.1620704469e+000	-5.3301191755e-001
 2.3760083641e+000	 3.1867239061e+000	-3.8333627035e-001
 2.3430683989e+000	 3.2110209402e+000	-2.7982796173e-001
 2.3099066099e+000	 3.2349584933e+000	-2.1783731504e-001
 2.2765288392e+000	 3.2585336340e+000	-1.9289228107e-001
 2.2429409775e+000	 3.2817435566e+000	-2.0070363260e-001
 2.2091489614e+000	 3.3045855816e+000	-2.3716953562e-001
 2.1751587697e+000	 3.3270571571e+000	-2.9837949515e-001
 2.5211925056e+000	 3.1054127503e+000	-9.1740782006e-001
 2.4889959289e+000	 3.1312775773e+000	-9.4028266078e-001
 2.4565531787e+000	 3.1567937025e+000	-6.6359707928e-001
 2.4238699031e+000	 3.1819576824e+000	-4.4531935012e-001
 2.3909518130e+000	 3.2067661948e+000	-2.8028799643e-001
 2.3578046781e+000	 3.2312160404e+000	-1.6351048996e-001
 2.3244343245e+000	 3.2553041442e+000	-9.0169880513e-002
 2.2908466307e+000	 3.2790275563e+000	-5.5630799210e-002
 2.2570475246e+000	 3.3023834532e+000	-5.5444829154e-002
 2.2230429801e+000	 3.3253691387e+000	-8.5355239194e-002
 2.1888390135e+000	 3.3479820449e+000	-1.4130107865e-001
 2.0520365752e+000	 3.1387331671e+000	-4.9984979564e-001
 2.0197890756e+000	 3.1595809991e+000	-6.0939933497e-001
 1.9873660057e+000	 3.1800748984e+000	-7.4717973792e-001
 1.9547731064e+000	 3.2002128214e+000	-9.1003578072e-001
 1.9220161459e+000	 3.2199928470e+000	-1.0949590720e+000
 1.8891009162e+000	 3.2394131765e+000	-1.2990893999e+000
 1.8560332301e+000	 3.2584721341e+000	-1.1983789188e+000
 1.8228189179e+000	 3.2771681667e+000	-8.3813952500e-001
 1.7894638242e+000	 3.2954998440e+000	-4.5155325302e-001
 1.7559738049e+000	 3.3134658586e+000	-4.2387041379e-002
 1.7223547240e+000	 3.3310650256e+000	 3.8573079462e-001
 2.0657168190e+000	 3.1596580548e+000	-6.0355770875e-001
 2.0332543361e+000	 3.1806448724e+000	-7.0804139618e-001
 2.0006151124e+000	 3.2012753977e+000	-8.3706588985e-001
 1.9678049271e+000	 3.2215475736e+000	-9.8755249931e-001
 1.9348295869e+000	 3.2414594660e+000	-1.1565766519e+000
 1.9016949223e+000	 3.2610092644e+000	-1.3413690760e+000
 1.8684067849e+000	 3.2801952817e+000	-1.4236081782e+000
 1.8349710440e+000	 3.2990159544e+000	-1.0228442695e+000
 1.8013935830e+000	 3.3174698430e+000	-5.9478722671e-001
 1.7676802970e+000	 3.3355556310e+000	-1.4341010078e-001
 1.7338370888e+000	 3.3532721258e+000	 3.2745532401e-001
 2.0793970629e+000	 3.1805829426e+000	-6.7219322627e-001
 2.0467195966e+000	 3.2017087458e+000	-7.7340699310e-001
 2.0138642191e+000	 3.2224758970e+000	-8.9544064902e-001
 1.9808367478e+000	 3.2428823257e+000	-1.0352908615e+000
 1.9476430278e+000	 3.2629260850e+000	-1.1901158010e+000
 1.9142889284e+000	 3.2826053522e+000	-1.3572361610e+000
 1.8807803398e+000	 3.3019184292e+000	-1.5341356752e+000
 1.8471231701e+000	 3.3208637422e+000	-1.1992879241e+000
 1.8133233418e+000	 3.3394398419e+000	-7.3158734986e-001
 1.7793867890e+000	 3.3576454034e+000	-2.3988853405e-001
 1.7453194536e+000	 3.3754792260e+000	 2.7177337100e-001
 2.0930773067e+000	 3.2015078304e+000	-7.0727166158e-001
 2.0601848571e+000	 3.2227726191e+000	-8.0696273921e-001
 2.0271133258e+000	 3.2436763964e+000	-9.2372020823e-001
 1.9938685685e+000	 3.2642170778e+000	-1.0546149452e+000
 1.9604564688e+000	 3.2843927040e+000	-1.1968868164e+000
 1.9268829345e+000	 3.3042014401e+000	-1.3479455345e+000
 1.8931538947e+000	 3.3236415768e+000	-1.5053709978e+000
 1.8592752962e+000	 3.3427115300e+000	-1.3668249520e+000
 1.8252531007e+000	 3.3614098409e+000	-8.6125539530e-001
 1.7910932810e+000	 3.3797351758e+000	-3.3107122355e-001
 1.7568018184e+000	 3.3976863261e+000	 2.1948911155e-001
 2.1067575505e+000	 3.2224327182e+000	-7.1031224818e-001
 2.0736501176e+000	 3.2438364924e+000	-8.1018026294e-001
 2.0403624325e+000	 3.2648768957e+000	-9.2332688813e-001
 2.0069003892e+000	 3.2855518300e+000	-1.0468960866e+000
 1.9732699098e+000	 3.3058593229e+000	-1.1782084009e+000
 1.9394769406e+000	 3.3257975279e+000	-1.3147616456e+000
 1.9055274495e+000	 3.3453647243e+000	-1.4542310690e+000
 1.8714274223e+000	 3.3645593178e+000	-1.5248217588e+000
 1.8371828595e+000	 3.3833798398e+000	-9.8310628735e-001
 1.8027997731e+000	 3.4018249482e+000	-4.1622142569e-001
 1.7682841833e+000	 3.4198934263e+000	 1.7139111173e-001
 2.1204377944e+000	 3.2433576059e+000	-6.8283801315e-001
 2.0871153781e+000	 3.2649003657e+000	-7.8453604589e-001
 2.0536115392e+000	 3.2860773950e+000	-8.9568893952e-001
 2.0199322099e+000	 3.3068865821e+000	-1.0135126461e+000
 1.9860833507e+000	 3.3273259419e+000	-1.1354073915e+000
 1.9520709467e+000	 3.3473936158e+000	-1.2589582035e+000
 1.9179010044e+000	 3.3670878719e+000	-1.3819348953e+000
 1.8835795485e+000	 3.3864071056e+000	-1.5022915139e+000
 1.8491126183e+000	 3.4053498388e+000	-1.0964676776e+000
 1.8145062651e+000	 3.4239147206e+000	-4.9461630732e-001
 1.7797665481e+000	 3.4421005265e+000	 1.2825283131e-001
 2.1341180382e+000	 3.2642824937e+000	-6.2637565563e-001
 2.1005806386e+000	 3.2859642391e+000	-7.3151126724e-001
 2.0668606459e+000	 3.3072778943e+000	-8.4224035333e-001
 2.0329640306e+000	 3.3282213343e+000	-9.5584978307e-001
 1.9988967917e+000	 3.3487925609e+000	-1.0698184990e+000
 1.9646649528e+000	 3.3689897036e+000	-1.1818178813e+000
 1.9302745593e+000	 3.3888110195e+000	-1.2897115521e+000
 1.8957316746e+000	 3.4082548933e+000	-1.3915546309e+000
 1.8610423772e+000	 3.4273198378e+000	-1.2006795369e+000
 1.8262127571e+000	 3.4460044930e+000	-5.6554649985e-001
 1.7912489129e+000	 3.4643076266e+000	 9.0833107892e-002
 2.1477982820e+000	 3.2852073815e+000	-5.4245542986e-001
 2.1140458991e+000	 3.3070281124e+000	-6.5259165419e-001
 2.0801097526e+000	 3.3284783936e+000	-7.6442067779e-001
 2.0459958514e+000	 3.3495560864e+000	-8.7529923921e-001
 2.0117102327e+000	 3.3702591799e+000	-9.8278405711e-001
 1.9772589590e+000	 3.3905857914e+000	-1.0846320301e+000
 1.9426481142e+000	 3.4105341670e+000	-1.1787998619e+000
 1.9078838007e+000	 3.4301026811e+000	-1.2634431229e+000
 1.8729721360e+000	 3.4492898367e+000	-1.2950937632e+000
 1.8379192492e+000	 3.4680942654e+000	-6.2831567042e-001
 1.8027312778e+000	 3.4865147268e+000	 5.9876622619e-002
 2.1614785259e+000	 3.3061322693e+000	-4.3261103265e-001
 2.1275111596e+000	 3.3280919857e+000	-5.4926733801e-001
 2.0933588593e+000	 3.3496788930e+000	-6.6367484256e-001
 2.0590276721e+000	 3.3708908386e+000	-7.7325913048e-001
 2.0245236737e+000	 3.3917257989e+000	-8.7565378121e-001
 1.9898529651e+000	 3.4121818793e+000	-9.6870040472e-001
 1.9550216690e+000	 3.4322573146e+000	-1.0504480866e+000
 1.9200359268e+000	 3.4519504689e+000	-1.1191522558e+000
 1.8849018948e+000	 3.4712598357e+000	-1.1732729888e+000
 1.8496257412e+000	 3.4901840378e+000	-6.8224010942e-001
 1.8142136426e+000	 3.5087218270e+000	 3.6114348145e-002
 2.1751587697e+000	 3.3270571571e+000	-2.9837949515e-001
 2.1409764201e+000	 3.3491558591e+000	-4.2303271556e-001
 2.1066079660e+000	 3.3708793923e+000	-5.4145298952e-001
 2.0720594928e+000	 3.3922255907e+000	-6.5113374652e-001
 2.0373371146e+000	 3.4131924178e+000	-7.4978453630e-001
 2.0024469712e+000	 3.4337779671e+000	-8.3533089910e-001
 1.9673952239e+000	 3.4539804622e+000	-9.0591363054e-001
 1.9321880529e+000	 3.4737982567e+000	-9.5988745408e-001
 1.8968316537e+000	 3.4932298346e+000	-9.9581911614e-001
 1.8613322332e+000	 3.5122738102e+000	-7.2664833351e-001
 1.8256960074e+000	 3.5309289271e+000	 2.0263979724e-002
 2.1888390135e+000	 3.3479820449e+000	-1.4130107865e-001
 2.1544416806e+000	 3.3702197324e+000	-2.7538631599e-001
 2.1198570727e+000	 3.3920798916e+000	-3.9921030986e-001
 2.0850913135e+000	 3.4135603429e+000	-5.1033335774e-001
 2.0501505556e+000	 3.4346590368e+000	-6.0654011348e-001
 2.0150409773e+000	 3.4553740550e+000	-6.8583929224e-001
 1.9797687788e+000	 3.4757036097e+000	-7.4646275451e-001
 1.9443401791e+000	 3.4956460444e+000	-7.8686398275e-001
 1.9087614125e+000	 3.5151998336e+000	-8.0571596615e-001
 1.8730387253e+000	 3.5343635826e+000	-7.6088070354e-001
 1.8371783722e+000	 3.5531360273e+000	 1.3030350132e-002
 1.7223547240e+000	 3.3310650256e+000	 3.8573079462e-001
 1.6886124501e+000	 3.3482962822e+000	 2.0068673237e-001
 1.6547528541e+000	 3.3651586875e+000	 8.1034894759e-002
 1.6207818052e+000	 3.3816514220e+000	 2.1416151584e-002
 1.5867051686e+000	 3.3977737871e+000	 1.6597211943e-002
 1.5525288020e+000	 3.4135252041e+000	 6.1476027900e-002
 1.5182585531e+000	 3.4289052139e+000	 1.5108681760e-001
 1.4839002560e+000	 3.4439134760e+000	 2.8060470491e-001
 1.4494597290e+000	 3.4585497675e+000	 4.4534997370e-001
 1.4149427715e+000	 3.4728139820e+000	 6.4079193606e-001
 1.3803551609e+000	 3.4867061290e+000	 8.6255241473e-001
 1.7338370888e+000	 3.3532721258e+000	 3.2745532401e-001
 1.6998698665e+000	 3.3706182574e+000	 1.4309897185e-001
 1.6657845398e+000	 3.3875930787e+000	 1.9627761206e-002
 1.6315870172e+000	 3.4041957648e+000	-4.8237508664e-002
 1.5972832030e+000	 3.4204256123e+000	-6.5645393574e-002
 1.5628789940e+000	 3.4362820388e+000	-3.7608507785e-002
 1.5283802767e+000	 3.4517645820e+000	 3.1001384754e-002
 1.4937929244e+000	 3.4668728992e+000	 1.3545788860e-001
 1.4591227939e+000	 3.4816067659e+000	 2.7118410296e-001
 1.4243757233e+000	 3.4959660752e+000	 4.3375635525e-001
 1.3895575286e+000	 3.5099508365e+000	 6.1890754280e-001
 1.7453194536e+000	 3.3754792260e+000	 2.7177337100e-001
 1.7111272828e+000	 3.3929402326e+000	 9.1578074652e-002
 1.6768162255e+000	 3.4100274700e+000	-3.2246481168e-002
 1.6423922293e+000	 3.4267401076e+000	-1.0490208284e-001
 1.6078612375e+000	 3.4430774376e+000	-1.3145500903e-001
 1.5732291861e+000	 3.4590388735e+000	-1.1683083902e-001
 1.5385020004e+000	 3.4746239501e+000	-6.5809656412e-002
 1.5036855927e+000	 3.4898323224e+000	 1.6978349467e-002
 1.4687858588e+000	 3.5046637644e+000	 1.2705688315e-001
 1.4338086751e+000	 3.5191181684e+000	 2.6010714350e-001
 1.3987598963e+000	 3.5331955441e+000	 4.1197102607e-001
 1.7568018184e+000	 3.3976863261e+000	 2.1948911155e-001
 1.7223846991e+000	 3.4152622078e+000	 4.6873838771e-002
 1.6878479112e+000	 3.4324618612e+000	-7.3893370370e-002
 1.6531974413e+000	 3.4492844505e+000	-1.4793937911e-001
 1.6184392720e+000	 3.4657292628e+000	-1.8025062239e-001
 1.5835793781e+000	 3.4817957082e+000	-1.7566801816e-001
 1.5486237241e+000	 3.4974833182e+000	-1.3888228158e-001
 1.5135782611e+000	 3.5127917456e+000	-7.4429644289e-002
 1.4784489236e+000	 3.5277207628e+000	 1.3312020239e-002
 1.4432416269e+000	 3.5422702616e+000	 1.2012666561e-001
 1.4079622641e+000	 3.5564402516e+000	 2.4196313678e-001
 1.7682841833e+000	 3.4198934263e+000	 1.7139111173e-001
 1.7336421155e+000	 3.4375841830e+000	 9.7219980722e-003
 1.6988795969e+000	 3.4548962525e+000	-1.0463094713e-001
 1.6640026533e+000	 3.4718287933e+000	-1.7672213207e-001
 1.6290173064e+000	 3.4883810881e+000	-2.1146055773e-001
 1.5939295701e+000	 3.5045525429e+000	-2.1360483005e-001
 1.5587454478e+000	 3.5203426863e+000	-1.8775858284e-001
 1.5234709295e+000	 3.5357511687e+000	-1.3836631315e-001
 1.4881119885e+000	 3.5507777613e+000	-6.9709629882e-002
 1.4526745787e+000	 3.5654223549e+000	 1.4096084899e-002
 1.4171646318e+000	 3.5796849591e+000	 1.0910460359e-001
 1.7797665481e+000	 3.4421005265e+000	 1.2825283131e-001
 1.7448995318e+000	 3.4599061583e+000	-1.9155324022e-002
 1.7099112826e+000	 3.4773306437e+000	-1.2378935158e-001
 1.6748078654e+000	 3.4943731361e+000	-1.9063365032e-001
 1.6395953409e+000	 3.5110329133e+000	-2.2452217406e-001
 1.6042797621e+000	 3.5273093776e+000	-2.3013354261e-001
 1.5688671715e+000	 3.5432020544e+000	-2.1198657144e-001
 1.5333635979e+000	 3.5587105919e+000	-1.7443622149e-001
 1.4977750533e+000	 3.5738347597e+000	-1.2166996951e-001
 1.4621075305e+000	 3.5885744481e+000	-5.7704598022e-002
 1.4263669996e+000	 3.6029296666e+000	 1.3616596830e-002
 1.7912489129e+000	 3.4643076266e+000	 9.0833107892e-002
 1.7561569481e+000	 3.4822281335e+000	-3.9049178305e-002
 1.7209429682e+000	 3.4997650350e+000	-1.3071043547e-001
 1.6856130774e+000	 3.5169174789e+000	-1.8906747752e-001
 1.6501733753e+000	 3.5336847386e+000	-2.1888157575e-001
 1.6146299541e+000	 3.5500662123e+000	-2.2475366695e-001
 1.5789888952e+000	 3.5660614225e+000	-2.1111998799e-001
 1.5432562662e+000	 3.5816700151e+000	-1.8224813838e-001
 1.5074381182e+000	 3.5968917582e+000	-1.4223357070e-001
 1.4715404823e+000	 3.6117265413e+000	-9.4996507996e-002
 1.4355693673e+000	 3.6261743742e+000	-4.4279285634e-002
 1.8027312778e+000	 3.4865147268e+000	 5.9876622619e-002
 1.7674143645e+000	 3.5045501087e+000	-4.9263370222e-002
 1.7319746539e+000	 3.5221994262e+000	-1.2474738918e-001
 1.6964182894e+000	 3.5394618217e+000	-1.7142706645e-001
 1.6607514098e+000	 3.5563365638e+000	-1.9399333404e-001
 1.6249801461e+000	 3.5728230470e+000	-1.9697172677e-001
 1.5891106189e+000	 3.5889207906e+000	-1.8471812008e-001
 1.5531489346e+000	 3.6046294383e+000	-1.6141490361e-001
 1.5171011831e+000	 3.6199487566e+000	-1.3106759026e-001
 1.4809734342e+000	 3.6348786345e+000	-9.7501859476e-002
 1.4447717350e+000	 3.6494190817e+000	-6.4361032022e-002
 1.8142136426e+000	 3.5087218270e+000	 3.6114348145e-002
 1.7786717808e+000	 3.5268720839e+000	-4.9114056244e-002
 1.7430063396e+000	 3.5446338175e+000	-1.0526438286e-001
 1.7072235015e+000	 3.5620061645e+000	-1.3712546542e-001
 1.6713294442e+000	 3.5789883890e+000	-1.4932021903e-001
 1.6353303381e+000	 3.5955798816e+000	-1.4630103635e-001
 1.5992323426e+000	 3.6117801587e+000	-1.3234562668e-001
 1.5630416030e+000	 3.6275888614e+000	-1.1155329896e-001
 1.5267642479e+000	 3.6430057551e+000	-8.7841687943e-002
 1.4904063860e+000	 3.6580307277e+000	-6.4943922038e-002
 1.4539741028e+000	 3.6726637892e+000	-4.6406229744e-002
 1.8256960074e+000	 3.5309289271e+000	 2.0263979724e-002
 1.7899291972e+000	 3.5491940591e+000	-3.7929355467e-002
 1.7540380253e+000	 3.5670682087e+000	-7.1636221248e-002
 1.7180287135e+000	 3.5845505073e+000	-8.5585016529e-002
 1.6819074787e+000	 3.6016402143e+000	-8.4332941945e-002
 1.6456805302e+000	 3.6183367163e+000	-7.2261487092e-002
 1.6093540662e+000	 3.6346395268e+000	-5.3572369262e-002
 1.5729342714e+000	 3.6505482846e+000	-3.2283924154e-002
 1.5364273128e+000	 3.6660627535e+000	-1.2227947728e-002
 1.4998393378e+000	 3.6811828209e+000	 2.9530127925e-003
 1.4631764705e+000	 3.6959084967e+000	 9.8079220016e-003
 1.8371783722e+000	 3.5531360273e+000	 1.3030350132e-002
 1.8011866135e+000	 3.5715160343e+000	-1.5048975785e-002
 1.7650697110e+000	 3.5895026000e+000	-2.3248011243e-002
 1.7288339256e+000	 3.6070948501e+000	-1.6237065246e-002
 1.6924855132e+000	 3.6242920395e+000	 1.4900930927e-003
 1.6560307222e+000	 3.6410935510e+000	 2.5620658066e-002
 1.6194757899e+000	 3.6574988949e+000	 5.2026750799e-002
 1.5828269397e+000	 3.6735077078e+000	 7.6768922396e-002
 1.5460903777e+000	 3.6891197520e+000	 9.6099197915e-002
 1.5092722896e+000	 3.7043349141e+000	 1.0646366348e-001
 1.4723788383e+000	 3.7191532043e+000	 1.0450460009e-001
 1.3803551609e+000	 3.4867061290e+000	 8.6255241473e-001
 1.3457026502e+000	 3.5002263323e+000	 1.0605826821e-001
 1.3109909654e+000	 3.5133748290e+000	-7.0897068168e-001
 1.2762258024e+000	 3.5261519680e+000	-1.5799636066e+000
 1.2414128249e+000	 3.5385582090e+000	-2.0518692492e+000
 1.2065576614e+000	 3.5505941207e+000	-1.2304272996e+000
 1.1716659033e+000	 3.5622603795e+000	-5.2204804284e-001
 1.1367431019e+000	 3.5735577679e+000	 7.2336157919e-002
 1.1017947664e+000	 3.5844871729e+000	 5.5300353661e-001
 1.0668263616e+000	 3.5950495844e+000	 9.2138122755e-001
 1.0318433056e+000	 3.6052460932e+000	 1.1799824618e+000
 1.3895575286e+000	 3.5099508365e+000	 6.1890754280e-001
 1.3546740012e+000	 3.5235611745e+000	-4.6379159091e-002
 1.3197309052e+000	 3.5367973278e+000	-7.7225403246e-001
 1.2847339744e+000	 3.5496596478e+000	-1.5560741934e+000
 1.2496889104e+000	 3.5621485970e+000	-2.3792297904e+000
 1.2146013792e+000	 3.5742647481e+000	-1.5255174358e+000
 1.1794770093e+000	 3.5860087820e+000	-7.9959578154e-001
 1.1443213892e+000	 3.5973814863e+000	-2.0179235372e-001
 1.1091400648e+000	 3.6083837541e+000	 2.6880494759e-001
 1.0739385374e+000	 3.6190165816e+000	 6.1428418468e-001
 1.0387222610e+000	 3.6292810672e+000	 8.3784459717e-001
 1.3987598963e+000	 3.5331955441e+000	 4.1197102607e-001
 1.3636453522e+000	 3.5468960167e+000	-1.6012598903e-001
 1.3284708449e+000	 3.5602198267e+000	-7.9491412974e-001
 1.2932421464e+000	 3.5731673276e+000	-1.4896796027e+000
 1.2579649959e+000	 3.5857389851e+000	-2.2415570161e+000
 1.2226450969e+000	 3.5979353756e+000	-1.7536773128e+000
 1.1872881153e+000	 3.6097571845e+000	-1.0217356923e+000
 1.1518996766e+000	 3.6212052048e+000	-4.3252138290e-001
 1.1164853633e+000	 3.6322803352e+000	 1.5528728214e-002
 1.0810507131e+000	 3.6429835788e+000	 3.2518125064e-001
 1.0456012164e+000	 3.6533160411e+000	 5.0033948820e-001
 1.4079622641e+000	 3.5564402516e+000	 2.4196313678e-001
 1.3726167032e+000	 3.5702308590e+000	-2.3499903967e-001
 1.3372107847e+000	 3.5836423255e+000	-7.7680518647e-001
 1.3017503184e+000	 3.5966750074e+000	-1.3806717322e+000
 1.2662410814e+000	 3.6093293732e+000	-2.0436605221e+000
 1.2306888146e+000	 3.6216060031e+000	-1.9046258151e+000
 1.1950992213e+000	 3.6335055871e+000	-1.1784667740e+000
 1.1594779639e+000	 3.6450289232e+000	-6.1013565077e-001
 1.1238306617e+000	 3.6561769164e+000	-1.9740095166e-001
 1.0881628888e+000	 3.6669505761e+000	 6.3200323412e-002
 1.0524801718e+000	 3.6773510151e+000	 1.7629382512e-001
 1.4171646318e+000	 3.5796849591e+000	 1.0910460359e-001
 1.3815880542e+000	 3.5935657012e+000	-2.7081367457e-001
 1.3459507245e+000	 3.6070648244e+000	-7.1777896542e-001
 1.3102584905e+000	 3.6201826871e+000	-1.2289390368e+000
 1.2745171669e+000	 3.6329197612e+000	-1.8012840114e+000
 1.2387325324e+000	 3.6452766306e+000	-1.9680764093e+000
 1.2029103274e+000	 3.6572539896e+000	-1.2597816266e+000
 1.1670562512e+000	 3.6688526417e+000	-7.2491250230e-001
 1.1311759602e+000	 3.6800734975e+000	-3.6055157407e-001
 1.0952750646e+000	 3.6909175733e+000	-1.6252138434e-001
 1.0593591271e+000	 3.7013859890e+000	-1.2545542636e-001
 1.4263669996e+000	 3.6029296666e+000	 1.3616596830e-002
 1.3905594052e+000	 3.6169005434e+000	-2.6738384963e-001
 1.3546906642e+000	 3.6304873233e+000	-6.1768485824e-001
 1.3187666625e+000	 3.6436903669e+000	-1.0343666394e+000
 1.2827932524e+000	 3.6565101493e+000	-1.5143486200e+000
 1.2467762501e+000	 3.6689472580e+000	-1.9337373190e+000
 1.2107214334e+000	 3.6810023921e+000	-1.2556666568e+000
 1.1746345386e+000	 3.6926763602e+000	-7.6712214419e-001
 1.1385212586e+000	 3.7039700787e+000	-4.6448254223e-001
 1.1023872403e+000	 3.7148845705e+000	-3.4283764578e-001
 1.0662380825e+000	 3.7254209630e+000	-3.9606135655e-001
 1.4355693673e+000	 3.6261743742e+000	-4.4279285634e-002
 1.3995307562e+000	 3.6402353856e+000	-2.2452215827e-001
 1.3634306040e+000	 3.6539098221e+000	-4.7636996141e-001
 1.3272748345e+000	 3.6671980467e+000	-7.9683643807e-001
 1.2910693379e+000	 3.6801005373e+000	-1.1827713321e+000
 1.2548199679e+000	 3.6926178855e+000	-1.6308657378e+000
 1.2185325394e+000	 3.7047507947e+000	-1.1561022770e+000
 1.1822128259e+000	 3.7165000786e+000	-7.2702787367e-001
 1.1458665570e+000	 3.7278666598e+000	-4.9974543950e-001
 1.1094994161e+000	 3.7388515678e+000	-4.6859350880e-001
 1.0731170379e+000	 3.7494559369e+000	-6.2666743045e-001
 1.4447717350e+000	 3.6494190817e+000	-6.4361032022e-002
 1.4085021072e+000	 3.6635702278e+000	-1.4203987482e-001
 1.3721705438e+000	 3.6773323210e+000	-2.9367914939e-001
 1.3357830065e+000	 3.6907057265e+000	-5.1622720835e-001
 1.2993454234e+000	 3.7036909254e+000	-8.0646511207e-001
 1.2628636856e+000	 3.7162885130e+000	-1.1610120949e+000
 1.2263436454e+000	 3.7284991972e+000	-9.5106309612e-001
 1.1897911133e+000	 3.7403237971e+000	-5.9488629856e-001
 1.1532118555e+000	 3.7517632410e+000	-4.5924922604e-001
 1.1166115918e+000	 3.7628185650e+000	-5.3358818427e-001
 1.0799959932e+000	 3.7734909109e+000	-7.7867390081e-001
 1.4539741028e+000	 3.6726637892e+000	-4.6406229744e-002
 1.4174734582e+000	 3.6869050700e+000	-1.9746996195e-002
 1.3809104835e+000	 3.7007548198e+000	-6.9455144899e-002
 1.3442911785e+000	 3.7142134063e+000	-1.9241470236e-001
 1.3076215089e+000	 3.7272813135e+000	-3.8533903216e-001
 1.2709074034e+000	 3.7399591404e+000	-6.4477641762e-001
 1.2341547515e+000	 3.7522475997e+000	-6.3735274398e-001
 1.1973694006e+000	 3.7641475155e+000	-3.9314303344e-001
 1.1605571539e+000	 3.7756598221e+000	-3.5374007995e-001
 1.1237237676e+000	 3.7867855622e+000	-4.9888180242e-001
 1.0868749486e+000	 3.7975258849e+000	-8.0916931267e-001
 1.4631764705e+000	 3.6959084967e+000	 9.8079220016e-003
 1.4264448092e+000	 3.7102399122e+000	 1.4254771784e-001
 1.3896504233e+000	 3.7241773187e+000	 1.9646141340e-001
 1.3527993506e+000	 3.7377210861e+000	 1.7472825625e-001
 1.3158975944e+000	 3.7508717015e+000	 7.6495897821e-002
 1.2789511211e+000	 3.7636297679e+000	-1.4380643160e-001
 1.2419658575e+000	 3.7759960022e+000	-2.8889151195e-001
 1.2049476880e+000	 3.7879712340e+000	-1.1951346265e-001
 1.1679024524e+000	 3.7995564033e+000	-1.4889246498e-001
 1.1308359433e+000	 3.8107525595e+000	-3.5686102101e-001
 1.0937539040e+000	 3.8215608588e+000	-7.2413517325e-001
 1.4723788383e+000	 3.7191532043e+000	 1.0450460009e-001
 1.4354161602e+000	 3.7335747544e+000	 3.4503670608e-001
 1.3983903631e+000	 3.7475998176e+000	 5.0423190579e-001
 1.3613075226e+000	 3.7612287659e+000	 5.1664713289e-001
 1.3241736799e+000	 3.7744620896e+000	 4.4710472403e-001
 1.2869948389e+000	 3.7873003954e+000	 3.1747506404e-001
 1.2497769635e+000	 3.7997444048e+000	 1.3708073461e-001
 1.2125259753e+000	 3.8117949524e+000	 2.3921522812e-001
 1.1752477508e+000	 3.8234529844e+000	 1.4890756093e-001
 1.1379481191e+000	 3.8347195567e+000	-1.1378048464e-001
 1.1006328594e+000	 3.8455958328e+000	-5.2969128295e-001
 1.0318433056e+000	 3.6052460932e+000	 1.1799824618e+000
 9.9685096773e-001	 3.6150778896e+000	 1.3453378709e+000
 9.6185466627e-001	 3.6245462614e+000	 1.3238792632e+000
 9.2685966671e-001	 3.6336525918e+000	 1.1292217343e+000
 8.9187117966e-001	 3.6423983581e+000	 7.7575233951e-001
 8.5689435901e-001	 3.6507851289e+000	 2.7855762878e-001
 8.2193430012e-001	 3.6588145630e+000	-3.4664853327e-001
 7.8699603810e-001	 3.6664884066e+000	-1.0835966807e+000
 7.5208454618e-001	 3.6738084919e+000	-1.9155328159e+000
 7.1720473409e-001	 3.6807767345e+000	-2.8252886658e+000
 6.8236144655e-001	 3.6873951316e+000	-3.7953509642e+000
 1.0387222610e+000	 3.6292810672e+000	 8.3784459717e-001
 1.0034966409e+000	 3.6391784089e+000	 1.1299653046e+000
 9.6826703071e-001	 3.6487099031e+000	 1.2278979708e+000
 9.3303873116e-001	 3.6578769425e+000	 1.1453252948e+000
 8.9781698753e-001	 3.6666810138e+000	 8.9672691430e-001
 8.6260698807e-001	 3.6751236964e+000	 4.9730548031e-001
 8.2741386212e-001	 3.6832066601e+000	-3.7086989362e-002
 7.9224267836e-001	 3.6909316627e+000	-6.9002229233e-001
 7.5709844316e-001	 3.6983005485e+000	-1.4445685781e+000
 7.2198609898e-001	 3.7053152461e+000	-2.2833620662e+000
 6.8691052287e-001	 3.7119777658e+000	-3.1886777814e+000
 1.0456012164e+000	 3.6533160411e+000	 5.0033948820e-001
 1.0101423140e+000	 3.6632789282e+000	 8.8949562351e-001
 9.7467939516e-001	 3.6728735449e+000	 1.0766824195e+000
 9.3921779561e-001	 3.6821012931e+000	 1.0756762633e+000
 9.0376279540e-001	 3.6909636695e+000	 9.0107567139e-001
 8.6831961714e-001	 3.6994622640e+000	 5.6822586449e-001
 8.3289342413e-001	 3.7075987571e+000	 9.3143614700e-002
 7.9748931862e-001	 3.7153749187e+000	-5.0755744438e-001
 7.6211234014e-001	 3.7227926051e+000	-1.2167408596e+000
 7.2676746388e-001	 3.7298537576e+000	-2.0168205757e+000
 6.9145959918e-001	 3.7365604000e+000	-2.8898331601e+000
 1.0524801718e+000	 3.6773510151e+000	 1.7629382512e-001
 1.0167879871e+000	 3.6873794474e+000	 6.3276242492e-001
 9.8109175960e-001	 3.6970371866e+000	 8.7906886421e-001
 9.4539686005e-001	 3.7063256437e+000	 9.2910940043e-001
 9.0970860326e-001	 3.7152463252e+000	 7.9762782673e-001
 8.7403224620e-001	 3.7238008315e+000	 5.0013850639e-001
 8.3837298613e-001	 3.7319908542e+000	 5.2849673932e-002
 8.0273595887e-001	 3.7398181748e+000	-5.2741280149e-001
 7.6712623712e-001	 3.7472846618e+000	-1.2232810021e+000
 7.3154882878e-001	 3.7543922692e+000	-2.0121297440e+000
 6.9600867549e-001	 3.7611430342e+000	-2.8588156466e+000
 1.0593591271e+000	 3.7013859890e+000	-1.2545542636e-001
 1.0234336602e+000	 3.7114799667e+000	 3.6860241119e-001
 9.8750412404e-001	 3.7212008284e+000	 6.4388948183e-001
 9.5157592450e-001	 3.7305499943e+000	 7.1444819696e-001
 9.1565441113e-001	 3.7395289810e+000	 5.9519412851e-001
 8.7974487526e-001	 3.7481393990e+000	 3.0183746245e-001
 8.4385254813e-001	 3.7563829513e+000	-1.3613263973e-001
 8.0798259913e-001	 3.7642614308e+000	-6.8563047251e-001
 7.7214013409e-001	 3.7717767184e+000	-1.3277189412e+000
 7.3633019367e-001	 3.7789307808e+000	-2.0432935030e+000
 7.0055775180e-001	 3.7857256684e+000	-2.8138340488e+000
 1.0662380825e+000	 3.7254209630e+000	-3.9606135655e-001
 1.0300793333e+000	 3.7355804860e+000	 1.0585528945e-001
 9.9391648849e-001	 3.7453644701e+000	 3.7997250306e-001
 9.5775498894e-001	 3.7547743449e+000	 4.4695808719e-001
 9.2160021899e-001	 3.7638116367e+000	 3.4472042889e-001
 8.8545750432e-001	 3.7724779665e+000	 9.4487086931e-002
 8.4933211013e-001	 3.7807750484e+000	-2.8354514830e-001
 8.1322923938e-001	 3.7887046868e+000	-7.6983420165e-001
 7.7715403107e-001	 3.7962687750e+000	-1.3454692129e+000
 7.4111155856e-001	 3.8034692923e+000	-1.9921467137e+000
 7.0510682811e-001	 3.8103083026e+000	-2.6921465750e+000
 1.0731170379e+000	 3.7494559369e+000	-6.2666743045e-001
 1.0367250065e+000	 3.7596810052e+000	-1.3638007149e-001
 1.0003288529e+000	 3.7695281119e+000	 1.4920735742e-001
 9.6393405339e-001	 3.7789986955e+000	 2.5175650523e-001
 9.2754602686e-001	 3.7880942924e+000	 1.9205199815e-001
 8.9117013338e-001	 3.7968165341e+000	-9.8283196480e-003
 8.5481167213e-001	 3.8051671455e+000	-3.3448930132e-001
 8.1847587964e-001	 3.8131479429e+000	-7.6319391400e-001
 7.8216792804e-001	 3.8207608316e+000	-1.2778382596e+000
 7.4589292346e-001	 3.8280078039e+000	-1.8609262992e+000
 7.0965590442e-001	 3.8348909368e+000	-2.4955443785e+000
 1.0799959932e+000	 3.7734909109e+000	-7.7867390081e-001
 1.0433706796e+000	 3.7837815245e+000	-2.7451249717e-001
 1.0067412174e+000	 3.7936917536e+000	 3.3484192442e-002
 9.7011311783e-001	 3.8032230461e+000	 1.6604331034e-001
 9.3349183472e-001	 3.8123769481e+000	 1.4315352202e-001
 8.9688276244e-001	 3.8211551016e+000	-1.5909942457e-002
 8.6029123413e-001	 3.8295592426e+000	-2.9255966129e-001
 8.2372251989e-001	 3.8375911989e+000	-6.6886991633e-001
 7.8718182501e-001	 3.8452528882e+000	-1.1275502168e+000
 7.5067428835e-001	 3.8525463155e+000	-1.6519185540e+000
 7.1420498073e-001	 3.8594735710e+000	-2.2258744858e+000
 1.0868749486e+000	 3.7975258849e+000	-8.0916931267e-001
 1.0500163527e+000	 3.8078820438e+000	-2.9687535944e-001
 1.0131535818e+000	 3.8178553953e+000	 2.7844906490e-002
 9.7629218228e-001	 3.8274473967e+000	 1.8492523522e-001
 9.3943764258e-001	 3.8366596038e+000	 1.9355244042e-001
 9.0259539150e-001	 3.8454936691e+000	 7.2193019884e-002
 8.6577079613e-001	 3.8539513397e+000	-1.6137965632e-001
 8.2896916014e-001	 3.8620344550e+000	-4.9005770172e-001
 7.9219572198e-001	 3.8697449448e+000	-8.9737072192e-001
 7.5545565324e-001	 3.8770848270e+000	-1.3674575812e+000
 7.1875405704e-001	 3.8840562052e+000	-1.8850380290e+000
 1.0937539040e+000	 3.8215608588e+000	-7.2413517325e-001
 1.0566620258e+000	 3.8319825630e+000	-2.0919175385e-001
 1.0195659463e+000	 3.8420190371e+000	 1.2697495634e-001
 9.8247124672e-001	 3.8516717474e+000	 3.0349942672e-001
 9.4538345045e-001	 3.8609422596e+000	 3.3876048498e-001
 9.0830802055e-001	 3.8698322366e+000	 2.5040953561e-001
 8.7125035813e-001	 3.8783434368e+000	 5.5399327643e-002
 8.3421580039e-001	 3.8864777110e+000	-2.2998684307e-001
 7.9720961895e-001	 3.8942370014e+000	-5.9010560867e-001
 7.6023701813e-001	 3.9016233386e+000	-1.0099237895e+000
 7.2330313334e-001	 3.9086388394e+000	-1.4749885444e+000
 1.1006328594e+000	 3.8455958328e+000	-5.2969128295e-001
 1.0633076989e+000	 3.8560830823e+000	-1.7182217495e-002
 1.0259783107e+000	 3.8661826788e+000	 3.2555643862e-001
 9.8865031116e-001	 3.8758960980e+000	 5.1685374537e-001
 9.5132925831e-001	 3.8852249153e+000	 5.7427416994e-001
 9.1402064961e-001	 3.8941708042e+000	 5.1464742211e-001
 8.7672992013e-001	 3.9027355338e+000	 3.5409882050e-001
 8.3946244064e-001	 3.9109209671e+000	 1.0808007191e-001
 8.0222351592e-001	 3.9187290581e+000	-2.0859965118e-001
 7.6501838302e-001	 3.9261618501e+000	-5.8174244590e-001
 7.2785220965e-001	 3.9332214737e+000	-9.9773033447e-001
 6.8236144655e-001	 3.6873951316e+000	-3.7953509642e+000
 6.4755946190e-001	 3.6936657595e+000	 1.6903957757e+000
 6.1280349065e-001	 3.6995907722e+000	 4.6667207810e+000
 5.7809817425e-001	 3.7051723983e+000	 2.9163247941e+000
 5.4344808385e-001	 3.7104129393e+000	 1.5372094219e+000
 5.0885771918e-001	 3.7153147675e+000	 4.9763416144e-001
 4.7433150743e-001	 3.7198803235e+000	-2.3482964429e-001
 4.3987380232e-001	 3.7241121140e+000	-6.9315143087e-001
 4.0548888310e-001	 3.7280127100e+000	-9.1069800516e-001
 3.7118095373e-001	 3.7315847437e+000	-9.2109433774e-001
 3.3695414212e-001	 3.7348309073e+000	-7.5808876634e-001
 6.8691052287e-001	 3.7119777658e+000	-3.1886777814e+000
 6.5187652498e-001	 3.7182901979e+000	 1.6921951607e+000
 6.1688884725e-001	 3.7242547107e+000	 5.1122469586e+000
 5.8195216208e-001	 3.7298735476e+000	 3.3060519422e+000
 5.4707107108e-001	 3.7351490256e+000	 1.8787450992e+000
 5.1225010397e-001	 3.7400835326e+000	 7.9744257808e-001
 4.7749371748e-001	 3.7446795256e+000	 2.8566181846e-002
 4.4280629434e-001	 3.7489395281e+000	-4.6200595116e-001
 4.0819214232e-001	 3.7528661280e+000	-7.0548185780e-001
 3.7365549343e-001	 3.7564619753e+000	-7.2920452528e-001
 3.3920050307e-001	 3.7597297800e+000	-5.6911339422e-001
 6.9145959918e-001	 3.7365604000e+000	-2.8898331601e+000
 6.5619358806e-001	 3.7429146363e+000	 1.3834885175e+000
 6.2097420386e-001	 3.7489186492e+000	 5.1043656609e+000
 5.8580614991e-001	 3.7545746969e+000	 3.2968541891e+000
 5.5069405831e-001	 3.7598851118e+000	 1.8856313023e+000
 5.1564248877e-001	 3.7648522977e+000	 8.3409973441e-001
 4.8065592754e-001	 3.7694787278e+000	 1.0414716780e-001
 4.4573878635e-001	 3.7737669422e+000	-3.4154729094e-001
 4.1089540154e-001	 3.7777195461e+000	-5.3955340542e-001
 3.7613003312e-001	 3.7813392070e+000	-5.2572911927e-001
 3.4144686401e-001	 3.7846286527e+000	-3.3525878527e-001
 6.9600867549e-001	 3.7611430342e+000	-2.8588156466e+000
 6.6051065114e-001	 3.7675390747e+000	 8.5343344625e-001
 6.2505956047e-001	 3.7735825876e+000	 4.7749435921e+000
 5.8966013774e-001	 3.7792758462e+000	 3.0820811310e+000
 5.5431704553e-001	 3.7846211981e+000	 1.7633046349e+000
 5.1903487357e-001	 3.7896210628e+000	 7.9088997088e-001
 4.8381813759e-001	 3.7942779299e+000	 1.2797195243e-001
 4.4867127837e-001	 3.7985943563e+000	-2.6152812419e-001
 4.1359866076e-001	 3.8025729642e+000	-4.1294504836e-001
 3.7860457281e-001	 3.8062164386e+000	-3.6091119866e-001
 3.4369322496e-001	 3.8095275254e+000	-1.3939688293e-001
 7.0055775180e-001	 3.7857256684e+000	-2.8138340488e+000
 6.6482771422e-001	 3.7921635131e+000	 3.9969140933e-001
 6.2914491707e-001	 3.7982465261e+000	 3.8132839727e+000
 5.9351412557e-001	 3.8039769955e+000	 2.8328400602e+000
 5.5794003276e-001	 3.8093572843e+000	 1.6066786230e+000
 5.2242725836e-001	 3.8143898280e+000	 7.1346299576e-001
 4.8698034763e-001	 3.8190771321e+000	 1.1759302204e-001
 4.5160377038e-001	 3.8234217704e+000	-2.1575005823e-001
 4.1630191998e-001	 3.8274263822e+000	-3.2064848113e-001
 3.8107911250e-001	 3.8310936702e+000	-2.3049168464e-001
 3.4593958591e-001	 3.8344263981e+000	 2.1981212814e-002
 7.0510682811e-001	 3.8103083026e+000	-2.6921465750e+000
 6.6914477730e-001	 3.8167879515e+000	 4.5410054723e-002
 6.3323027367e-001	 3.8229104646e+000	 2.9740338015e+000
 5.9736811339e-001	 3.8286781449e+000	 2.5578202590e+000
 5.6156301998e-001	 3.8340933706e+000	 1.4237124489e+000
 5.2581964315e-001	 3.8391585931e+000	 6.0904482587e-001
 4.9014255768e-001	 3.8438763342e+000	 7.9500598585e-002
 4.5453626240e-001	 3.8482491845e+000	-1.9846086364e-001
 4.1900517920e-001	 3.8522798003e+000	-2.5765123749e-001
 3.8355365219e-001	 3.8559709018e+000	-1.3019922291e-001
 3.4818594685e-001	 3.8593252709e+000	 1.5240481210e-001
 7.0965590442e-001	 3.8348909368e+000	-2.4955443785e+000
 6.7346184038e-001	 3.8414123899e+000	-2.1129749445e-001
 6.3731563028e-001	 3.8475744031e+000	 2.2552102612e+000
 6.0122210122e-001	 3.8533792942e+000	 2.2656761701e+000
 5.6518600721e-001	 3.8588294569e+000	 1.2223381631e+000
 5.2921202794e-001	 3.8639273582e+000	 4.8484209019e-001
 4.9330476773e-001	 3.8686755364e+000	 2.0173293054e-002
 4.5746875441e-001	 3.8730765986e+000	-2.0391211576e-001
 4.2170843842e-001	 3.8771332183e+000	-2.1893682384e-001
 3.8602819188e-001	 3.8808481335e+000	-5.5750577110e-002
 3.5043230780e-001	 3.8842241436e+000	 2.5542298105e-001
 7.1420498073e-001	 3.8594735710e+000	-2.2258744858e+000
 6.7777890346e-001	 3.8660368283e+000	-3.7236665170e-001
 6.4140098688e-001	 3.8722383416e+000	 1.6547893799e+000
 6.0507608904e-001	 3.8780804435e+000	 1.9650285056e+000
 5.6880899443e-001	 3.8835655431e+000	 1.0104615479e+000
 5.3260441274e-001	 3.8886961233e+000	 3.4804264733e-001
 4.9646697778e-001	 3.8934747386e+000	-5.3921524706e-002
 4.6040124642e-001	 3.8979040127e+000	-2.2635907346e-001
 4.2441169764e-001	 3.9019866364e+000	-1.9948484746e-001
 3.8850273157e-001	 3.9057253651e+000	-2.8510072414e-003
 3.5267866874e-001	 3.9091230163e+000	 3.3460391256e-001
 7.1875405704e-001	 3.8840562052e+000	-1.8850380290e+000
 6.8209596653e-001	 3.8906612667e+000	-4.3977983121e-001
 6.4548634348e-001	 3.8969022800e+000	 1.1707073337e+000
 6.0893007687e-001	 3.9027815928e+000	 1.6644653147e+000
 5.7243198165e-001	 3.9083016294e+000	 7.9596294918e-001
 5.3599679753e-001	 3.9134648884e+000	 2.0581617954e-001
 4.9962918782e-001	 3.9182739407e+000	-1.3632737028e-001
 4.6333373843e-001	 3.9227314268e+000	-2.6006056265e-001
 4.2711495685e-001	 3.9268400545e+000	-1.9427113991e-001
 3.9097727126e-001	 3.9306025967e+000	 3.2805366289e-002
 3.5492502969e-001	 3.9340218890e+000	 3.9353432105e-001
 7.2330313334e-001	 3.9086388394e+000	-1.4749885444e+000
 6.8641302961e-001	 3.9152857051e+000	-4.1556496980e-001
 6.4957170008e-001	 3.9215662185e+000	 8.0086169989e-001
 6.1278406469e-001	 3.9274827422e+000	 1.3725430110e+000
 5.7605496887e-001	 3.9330377156e+000	 5.8669807611e-001
 5.3938918232e-001	 3.9382336535e+000	 6.5314764281e-002
 5.0279139787e-001	 3.9430731429e+000	-2.2059830236e-001
 4.6626623045e-001	 3.9475588409e+000	-2.9927886405e-001
 4.2981821607e-001	 3.9516934725e+000	-1.9826787575e-001
 3.9345181095e-001	 3.9554798283e+000	 5.5535212376e-002
 3.5717139063e-001	 3.9589207617e+000	 4.3581886000e-001
 7.2785220965e-001	 3.9332214737e+000	-9.9773033447e-001
 6.9073009268e-001	 3.9399101435e+000	-3.0179410440e-001
 6.5365705668e-001	 3.9462301570e+000	 5.4311266311e-001
 6.1663805252e-001	 3.9521838915e+000	 1.0977873605e+000
 5.7967795609e-001	 3.9577738019e+000	 3.9049877093e-001
 5.4278156711e-001	 3.9630024187e+000	-6.6326575641e-002
 5.0595360791e-001	 3.9678723450e+000	-3.0029859330e-001
 4.6919872246e-001	 3.9723862550e+000	-3.3827960525e-001
 4.3252147529e-001	 3.9765468906e+000	-2.0644368685e-001
 3.9592635063e-001	 3.9803570600e+000	 6.9665652046e-002
 3.5941775158e-001	 3.9838196344e+000	 4.6507956139e-001
 3.3695414212e-001	 3.7348309073e+000	-7.5808876634e-001
 3.0281249933e-001	 3.7377539499e+000	-7.3718311024e-001
 2.6875999901e-001	 3.7403566759e+000	-6.1715784225e-001
 2.3480053674e-001	 3.7426419423e+000	-4.3334424074e-001
 2.0093792957e-001	 3.7446126567e+000	-2.2065778286e-001
 1.6717591555e-001	 3.7462717751e+000	-1.3487128043e-002
 1.3351815331e-001	 3.7476222999e+000	 1.5441156377e-001
 9.9968221788e-002	 3.7486672771e+000	 2.5001490577e-001
 6.6529619936e-002	 3.7494097948e+000	 2.4112709393e-001
 3.3205766524e-002	 3.7498529807e+000	 9.6469214460e-002
 0.0000000000e+000	 3.7500000000e+000	-2.1423697283e-001
 3.3920050307e-001	 3.7597297800e+000	-5.6911339422e-001
 3.0483124933e-001	 3.7626723096e+000	-5.9605442973e-001
 2.7055173233e-001	 3.7652923871e+000	-5.1344476610e-001
 2.3636587365e-001	 3.7675928885e+000	-3.5772549922e-001
 2.0227751577e-001	 3.7695767410e+000	-1.6474239714e-001
 1.6829042165e-001	 3.7712469203e+000	 3.0224846218e-002
 1.3440827433e-001	 3.7726064486e+000	 1.9243467829e-001
 1.0063467660e-001	 3.7736583923e+000	 2.8765711544e-001
 6.6973150735e-002	 3.7744058601e+000	 2.8214856325e-001
 3.3427138301e-002	 3.7748520006e+000	 1.4262805493e-001
 0.0000000000e+000	 3.7750000000e+000	-1.6374507347e-001
 3.4144686401e-001	 3.7846286527e+000	-3.3525878527e-001
 3.0684999932e-001	 3.7875906693e+000	-3.8822810811e-001
 2.7234346566e-001	 3.7902280982e+000	-3.3299880757e-001
 2.3793121056e-001	 3.7925438348e+000	-2.0479444369e-001
 2.0361710197e-001	 3.7945408254e+000	-3.8266149221e-002
 1.6940492775e-001	 3.7962220655e+000	 1.3247650325e-001
 1.3529839535e-001	 3.7975905972e+000	 2.7383604874e-001
 1.0130113141e-001	 3.7986495075e+000	 3.5269913173e-001
 6.7416681534e-002	 3.7994019254e+000	 3.3640999486e-001
 3.3648510077e-002	 3.7998510205e+000	 1.9274547958e-001
 0.0000000000e+000	 3.8000000000e+000	-1.1010844281e-001
 3.4369322496e-001	 3.8095275254e+000	-1.3939688293e-001
 3.0886874932e-001	 3.8125090289e+000	-2.1483848217e-001
 2.7413519899e-001	 3.8151638094e+000	-1.8345101005e-001
 2.3949654747e-001	 3.8174947811e+000	-7.9225162378e-002
 2.0495668816e-001	 3.8195049098e+000	 6.4397607615e-002
 1.7051943386e-001	 3.8211972106e+000	 2.1449258730e-001
 1.3618851637e-001	 3.8225747459e+000	 3.3862081220e-001
 1.0196758622e-001	 3.8236406227e+000	 4.0479962329e-001
 6.7860212333e-002	 3.8243979907e+000	 3.8147480631e-001
 3.3869881854e-002	 3.8248500403e+000	 2.3749433834e-001
 0.0000000000e+000	 3.8250000000e+000	-5.7916240755e-002
 3.4593958591e-001	 3.8344263981e+000	 2.1981212814e-002
 3.1088749931e-001	 3.8374273886e+000	-7.3183328243e-002
 2.7592693231e-001	 3.8400995206e+000	-6.2904937035e-002
 2.4106188438e-001	 3.8424457274e+000	 2.0074295866e-002
 2.0629627436e-001	 3.8444689942e+000	 1.4353804616e-001
 1.7163393996e-001	 3.8461723558e+000	 2.7576159730e-001
 1.3707863739e-001	 3.8475588946e+000	 3.8547928780e-001
 1.0263404103e-001	 3.8486317379e+000	 4.4185360476e-001
 6.8303743132e-002	 3.8493940560e+000	 4.1444595605e-001
 3.4091253630e-002	 3.8498490602e+000	 2.7318914593e-001
 0.0000000000e+000	 3.8500000000e+000	-1.1638428261e-002
 3.4818594685e-001	 3.8593252709e+000	 1.5240481210e-001
 3.1290624931e-001	 3.8623457483e+000	 3.9469582744e-002
 2.7771866564e-001	 3.8650352318e+000	 3.0575435438e-002
 2.4262722129e-001	 3.8673966737e+000	 9.4245034980e-002
 2.0763586056e-001	 3.8694330785e+000	 1.9950303707e-001
 1.7274844606e-001	 3.8711475010e+000	 3.1584025140e-001
 1.3796875842e-001	 3.8725430432e+000	 4.1317950808e-001
 1.0330049584e-001	 3.8736228530e+000	 4.6184326802e-001
 6.8747273931e-002	 3.8743901213e+000	 4.3252300980e-001
 3.4312625407e-002	 3.8748480801e+000	 2.9625041765e-001
 0.0000000000e+000	 3.8750000000e+000	 2.4370387556e-002
 3.5043230780e-001	 3.8842241436e+000	 2.5542298105e-001
 3.1492499930e-001	 3.8872641079e+000	 1.2588152352e-001
 2.7951039896e-001	 3.8899709429e+000	 9.8964449976e-002
 2.4419255820e-001	 3.8923476199e+000	 1.4447573629e-001
 2.0897544675e-001	 3.8943971629e+000	 2.3269726752e-001
 1.7386295217e-001	 3.8961226461e+000	 3.3435130044e-001
 1.3885887944e-001	 3.8975271919e+000	 4.2056472821e-001
 1.0396695066e-001	 3.8986139682e+000	 4.6283518800e-001
 6.9190804730e-002	 3.8993861866e+000	 4.3299904424e-001
 3.4533997183e-002	 3.8998471000e+000	 3.0320127187e-001
 0.0000000000e+000	 3.9000000000e+000	 4.5867256172e-002
 3.5267866874e-001	 3.9091230163e+000	 3.3460391256e-001
 3.1694374929e-001	 3.9121824676e+000	 1.8884188553e-001
 2.8130213229e-001	 3.9149066541e+000	 1.4427354748e-001
 2.4575789511e-001	 3.9172985662e+000	 1.7200114332e-001
 2.1031503295e-001	 3.9193612473e+000	 2.4358043177e-001
 1.7497745827e-001	 3.9210977913e+000	 3.3098142501e-001
 1.3974900046e-001	 3.9225113406e+000	 4.0655103035e-001
 1.0463340547e-001	 3.9236050834e+000	 4.4297763536e-001
 6.9634335529e-002	 3.9243822519e+000	 4.1325766892e-001
 3.4755368960e-002	 3.9248461198e+000	 2.9066416249e-001
 0.0000000000e+000	 3.9250000000e+000	 4.8717327713e-002
 3.5492502969e-001	 3.9340218890e+000	 3.9353432105e-001
 3.1896249929e-001	 3.9371008273e+000	 2.3116728908e-001
 2.8309386561e-001	 3.9398423653e+000	 1.6855009314e-001
 2.4732323202e-001	 3.9422495125e+000	 1.7810060409e-001
 2.1165461914e-001	 3.9443253317e+000	 2.3266549043e-001
 1.7609196437e-001	 3.9460729365e+000	 3.0547921233e-001
 1.4063912148e-001	 3.9474954892e+000	 3.7012501899e-001
 1.0529986028e-001	 3.9485961986e+000	 4.0049799117e-001
 7.0077866328e-002	 3.9493783172e+000	 3.7077016130e-001
 3.4976740737e-002	 3.9498451397e+000	 2.5535773535e-001
 0.0000000000e+000	 3.9500000000e+000	 2.8890432047e-002
 3.5717139063e-001	 3.9589207617e+000	 4.3581886000e-001
 3.2098124928e-001	 3.9620191869e+000	 2.5570072711e-001
 2.8488559894e-001	 3.9647780764e+000	 1.7387624676e-001
 2.4888856893e-001	 3.9672004588e+000	 1.6409666850e-001
 2.1299420534e-001	 3.9692894161e+000	 2.0051699542e-001
 1.7720647047e-001	 3.9710480817e+000	 2.5765320952e-001
 1.4152924250e-001	 3.9724796379e+000	 3.1034160327e-001
 1.0596631509e-001	 3.9735873138e+000	 3.3370025914e-001
 7.0521397127e-002	 3.9743743825e+000	 3.0309270988e-001
 3.5198112513e-002	 3.9748441596e+000	 1.9409380335e-001
 0.0000000000e+000	 3.9750000000e+000	-1.7542213029e-002
 3.5941775158e-001	 3.9838196344e+000	 4.6507956139e-001
 3.2299999927e-001	 3.9869375466e+000	 2.6531074104e-001
 2.8667733226e-001	 3.9897137876e+000	 1.6236787540e-001
 2.5045390584e-001	 3.9921514051e+000	 1.3135373826e-001
 2.1433379153e-001	 3.9942535004e+000	 1.4774947772e-001
 1.7832097657e-001	 3.9960232268e+000	 1.8737004985e-001
 1.4241936352e-001	 3.9974637866e+000	 2.2632186246e-001
 1.0663276990e-001	 3.9985784289e+000	 2.4096267119e-001
 7.0964927926e-002	 3.9993704478e+000	 2.0786376078e-001
 3.5419484290e-002	 3.9998431794e+000	 1.0377443497e-001
 0.0000000000e+000	 4.0000000000e+000	-9.4411170164e-002
 4.0000000000e+000	 0.0000000000e+000	 7.8269042702e-001
 3.9998431794e+000	 3.5419484290e-002	 7.8118505312e-001
 3.9993704478e+000	 7.0964927926e-002	 7.9462884057e-001
 3.9985784289e+000	 1.0663276990e-001	 8.1700565849e-001
 3.9974637866e+000	 1.4241936352e-001	 8.4251375578e-001
 3.9960232268e+000	 1.7832097657e-001	 8.6557061196e-001
 3.9942535004e+000	 2.1433379153e-001	 8.8081719805e-001
 3.9921514051e+000	 2.5045390584e-001	 8.8312162018e-001
 3.9897137876e+000	 2.8667733226e-001	 8.6758211921e-001
 3.9869375466e+000	 3.2299999927e-001	 8.2952940115e-001
 3.9838196344e+000	 3.5941775158e-001	 7.6452827414e-001
 4.0250000000e+000	 0.0000000000e+000	 8.2032772204e-001
 4.0248421993e+000	 3.5640856066e-002	 8.0398220141e-001
 4.0243665131e+000	 7.1408458726e-002	 8.0263194199e-001
 4.0235695441e+000	 1.0729922471e-001	 8.1053117433e-001
 4.0224479352e+000	 1.4330948454e-001	 8.2215916085e-001
 4.0209983720e+000	 1.7943548268e-001	 8.3222491446e-001
 4.0192175848e+000	 2.1567337773e-001	 8.3567130259e-001
 4.0171023514e+000	 2.5201924275e-001	 8.2767850883e-001
 4.0146494988e+000	 2.8846906558e-001	 8.0366682483e-001
 4.0118559063e+000	 3.2501874926e-001	 7.5929874697e-001
 4.0087185072e+000	 3.6166411252e-001	 6.9048035292e-001
 4.0500000000e+000	 0.0000000000e+000	 8.5051264776e-001
 4.0498412192e+000	 3.5862227843e-002	 8.2153152270e-001
 4.0493625784e+000	 7.1851989525e-002	 8.0743985945e-001
 4.0485606593e+000	 1.0796567952e-001	 8.0276268879e-001
 4.0474320839e+000	 1.4419960556e-001	 8.0226090225e-001
 4.0459735172e+000	 1.8054998878e-001	 8.0093584009e-001
 4.0441816692e+000	 2.1701296393e-001	 7.9403323999e-001
 4.0420532976e+000	 2.5358457966e-001	 7.7704651775e-001
 4.0395852100e+000	 2.9026079891e-001	 7.4571935247e-001
 4.0367742659e+000	 3.2703749926e-001	 6.9604754987e-001
 4.0336173799e+000	 3.6391047346e-001	 6.2428015869e-001
 4.0750000000e+000	 0.0000000000e+000	 8.7415100139e-001
 4.0748402391e+000	 3.6083599620e-002	 8.3458075455e-001
 4.0743586437e+000	 7.2295520325e-002	 8.0964174219e-001
 4.0735517745e+000	 1.0863213434e-001	 7.9413030601e-001
 4.0724162326e+000	 1.4508972659e-001	 7.8308965602e-001
 4.0709486623e+000	 1.8166449488e-001	 7.7181432964e-001
 4.0691457536e+000	 2.1835255012e-001	 7.5585398636e-001
 4.0670042439e+000	 2.5514991657e-001	 7.3101650865e-001
 4.0645209211e+000	 2.9205253223e-001	 6.9337038121e-001
 4.0616926256e+000	 3.2905624925e-001	 6.3924632143e-001
 4.0585162526e+000	 3.6615683441e-001	 5.6523813587e-001
 4.1000000000e+000	 0.0000000000e+000	 8.9212648756e-001
 4.0998392589e+000	 3.6304971397e-002	 8.4385763911e-001
 4.0993547090e+000	 7.2739051125e-002	 8.0980882431e-001
 4.0985428897e+000	 1.0929858915e-001	 7.8504827736e-001
 4.0974003812e+000	 1.4597984761e-001	 7.6490228901e-001
 4.0959238075e+000	 1.8277900099e-001	 7.4495953843e-001
 4.0941098380e+000	 2.1969213632e-001	 7.2107473525e-001
 4.0919551902e+000	 2.5671525349e-001	 6.8937154176e-001
 4.0894566323e+000	 2.9384426556e-001	 6.4624474693e-001
 4.0866109853e+000	 3.3107499925e-001	 5.8836166456e-001
 4.0834151253e+000	 3.6840319536e-001	 5.1266272994e-001
 4.1250000000e+000	 0.0000000000e+000	 9.0530138774e-001
 4.1248382788e+000	 3.6526343175e-002	 8.5007052897e-001
 4.1243507743e+000	 7.3182581926e-002	 8.0849496763e-001
 4.1235340048e+000	 1.0996504396e-001	 7.7591548184e-001
 4.1223845299e+000	 1.4686996863e-001	 7.4794227728e-001
 4.1208989527e+000	 1.8389350709e-001	 7.2045919340e-001
 4.1190739223e+000	 2.2103172252e-001	 6.8962719407e-001
 4.1169061365e+000	 2.5828059040e-001	 6.5188711224e-001
 4.1143923435e+000	 2.9563599889e-001	 6.0396161941e-001
 4.1115293449e+000	 3.3309374924e-001	 5.4285639195e-001
 4.1083139980e+000	 3.7064955631e-001	 4.6586044798e-001
 4.1500000000e+000	 0.0000000000e+000	 9.1451720555e-001
 4.1498372987e+000	 3.6747714952e-002	 8.5390897128e-001
 4.1493468396e+000	 7.3626112727e-002	 8.0623718492e-001
 4.1485251200e+000	 1.1063149878e-001	 7.6711588908e-001
 4.1473686786e+000	 1.4776008966e-001	 7.3244010953e-001
 4.1458740978e+000	 1.8500801320e-001	 6.9838993739e-001
 4.1440380067e+000	 2.2237130872e-001	 6.6143386981e-001
 4.1418570828e+000	 2.5984592731e-001	 6.1833137802e-001
 4.1393280547e+000	 2.9742773222e-001	 5.6613467299e-001
 4.1364477046e+000	 3.3511249924e-001	 5.0218964023e-001
 4.1332128707e+000	 3.7289591725e-001	 4.2413591703e-001
 4.1750000000e+000	 0.0000000000e+000	 9.2059528882e-001
 4.1748363185e+000	 3.6969086730e-002	 8.5604427070e-001
 4.1743429049e+000	 7.4069643528e-002	 8.0355614444e-001
 4.1735162352e+000	 1.1129795359e-001	 7.5901900577e-001
 4.1723528272e+000	 1.4865021068e-001	 7.1861367584e-001
 4.1708492430e+000	 1.8612251931e-001	 6.7881766094e-001
 4.1690020911e+000	 2.2371089492e-001	 6.3640834452e-001
 4.1668080290e+000	 2.6141126423e-001	 5.8846537955e-001
 4.1642637658e+000	 2.9921946555e-001	 5.3237225109e-001
 4.1613660643e+000	 3.3713124924e-001	 4.6581698001e-001
 4.1581117435e+000	 3.7514227820e-001	 3.8679194047e-001
 4.2000000000e+000	 0.0000000000e+000	 9.2433742950e-001
 4.1998353384e+000	 3.7190458508e-002	 8.5713003237e-001
 4.1993389702e+000	 7.4513174330e-002	 8.0095665630e-001
 4.1985073504e+000	 1.1196440840e-001	 7.5198030607e-001
 4.1973369759e+000	 1.4954033171e-001	 7.0666864270e-001
 4.1958243882e+000	 1.8723702541e-001	 6.6179782238e-001
 4.1939661755e+000	 2.2505048112e-001	 6.1445554092e-001
 4.1917589753e+000	 2.6297660114e-001	 5.6204325154e-001
 4.1891994770e+000	 3.0101119888e-001	 5.0227752490e-001
 4.1862844239e+000	 3.3914999924e-001	 4.3319052204e-001
 4.1830106162e+000	 3.7738863915e-001	 3.5312955217e-001
 4.2250000000e+000	 0.0000000000e+000	 9.2652644220e-001
 4.2248343583e+000	 3.7411830286e-002	 8.5780268557e-001
 4.2243350355e+000	 7.4956705132e-002	 7.9892814169e-001
 4.2234984656e+000	 1.1263086322e-001	 7.4634164676e-001
 4.2223211246e+000	 1.5043045273e-001	 6.9679881464e-001
 4.2207995333e+000	 1.8835153152e-001	 6.4737575640e-001
 4.2189302598e+000	 2.2639006732e-001	 5.9547197860e-001
 4.2167099216e+000	 2.6454193806e-001	 5.3881242733e-001
 4.2141351882e+000	 3.0280293221e-001	 4.7544864636e-001
 4.2112027836e+000	 3.4116874924e-001	 4.0375901956e-001
 4.2079094889e+000	 3.7963500011e-001	 3.2244806896e-001
 4.2500000000e+000	 0.0000000000e+000	 9.2792672238e-001
 4.2498333782e+000	 3.7633202065e-002	 8.5868198888e-001
 4.2493311008e+000	 7.5400235934e-002	 7.9794508547e-001
 4.2484895807e+000	 1.1329731804e-001	 7.4243166780e-001
 4.2473052732e+000	 1.5132057376e-001	 6.8918648308e-001
 4.2457746785e+000	 1.8946603763e-001	 6.3558697183e-001
 4.2438943442e+000	 2.2772965353e-001	 5.7934602117e-001
 4.2416608679e+000	 2.6610727498e-001	 5.1851383598e-001
 4.2390708994e+000	 3.0459466554e-001	 4.5147889583e-001
 4.2361211433e+000	 3.4318749924e-001	 3.7696796705e-001
 4.2328083616e+000	 3.8188136106e-001	 2.9404514104e-001
 3.9838196344e+000	 3.5941775158e-001	 7.6452827414e-001
 3.9803570600e+000	 3.9592635063e-001	 7.9034892564e-001
 3.9765468906e+000	 4.3252147529e-001	 8.0639590062e-001
 3.9723862550e+000	 4.6919872246e-001	 8.0933518707e-001
 3.9678723450e+000	 5.0595360791e-001	 7.9605256325e-001
 3.9630024187e+000	 5.4278156711e-001	 7.6365079455e-001
 3.9577738019e+000	 5.7967795609e-001	 7.0944602619e-001
 3.9521838915e+000	 6.1663805252e-001	 6.3096336084e-001
 3.9462301570e+000	 6.5365705668e-001	 7.5657036747e-001
 3.9399101435e+000	 6.9073009268e-001	 8.8160989663e-001
 3.9332214737e+000	 7.2785220965e-001	 9.3147628356e-001
 4.0087185072e+000	 3.6166411252e-001	 6.9048035292e-001
 4.0052342916e+000	 3.9840089032e-001	 7.1911975044e-001
 4.0014003087e+000	 4.3522473450e-001	 7.4041965072e-001
 3.9972136691e+000	 4.7213121447e-001	 7.5137584753e-001
 3.9926715472e+000	 5.0911581796e-001	 7.4921196668e-001
 3.9877711838e+000	 5.4617395190e-001	 7.3137629843e-001
 3.9825098882e+000	 5.8330094331e-001	 6.9553779847e-001
 3.9768850408e+000	 6.2049204034e-001	 6.3958124706e-001
 3.9708940955e+000	 6.5774241328e-001	 7.5542232636e-001
 3.9645345819e+000	 6.9504715575e-001	 8.3470127662e-001
 3.9578041079e+000	 7.3240128595e-001	 8.4601941115e-001
 4.0336173799e+000	 3.6391047346e-001	 6.2428015869e-001
 4.0301115232e+000	 4.0087543001e-001	 6.5570816921e-001
 4.0262537268e+000	 4.3792799372e-001	 6.8209854590e-001
 4.0220410832e+000	 4.7506370648e-001	 7.0077950438e-001
 4.0174707494e+000	 5.1227802800e-001	 7.0931531572e-001
 4.0125399489e+000	 5.4956633669e-001	 7.0550277246e-001
 4.0072459744e+000	 5.8692393053e-001	 6.8736679600e-001
 4.0015861901e+000	 6.2434602816e-001	 6.5315517451e-001
 3.9955580340e+000	 6.6182776988e-001	 7.4719949585e-001
 3.9891590203e+000	 6.9936421883e-001	 7.8543994928e-001
 3.9823867421e+000	 7.3695036226e-001	 7.6287445079e-001
 4.0585162526e+000	 3.6615683441e-001	 5.6523813587e-001
 4.0549887548e+000	 4.0334996970e-001	 5.9927867758e-001
 4.0511071448e+000	 4.4063125294e-001	 6.3045127817e-001
 4.0468684973e+000	 4.7799619849e-001	 6.5641927471e-001
 4.0422699515e+000	 5.1544023805e-001	 6.7509046624e-001
 4.0373087140e+000	 5.5295872148e-001	 6.8461321161e-001
 4.0319820607e+000	 5.9054691776e-001	 6.8337164105e-001
 4.0262873394e+000	 6.2820001599e-001	 6.7849603964e-001
 4.0202219725e+000	 6.6591312648e-001	 7.3213589286e-001
 4.0137834587e+000	 7.0368128190e-001	 7.3404187807e-001
 4.0069693763e+000	 7.4149943857e-001	 6.8224056281e-001
 4.0834151253e+000	 3.6840319536e-001	 5.1266272994e-001
 4.0798659865e+000	 4.0582450939e-001	 5.4899531630e-001
 4.0759605629e+000	 4.4333451216e-001	 5.8449760516e-001
 4.0716959114e+000	 4.8092869050e-001	 6.1717083728e-001
 4.0670691537e+000	 5.1860244810e-001	 6.4526930655e-001
 4.0620774791e+000	 5.5635110627e-001	 6.6729608787e-001
 4.0567181470e+000	 5.9416990498e-001	 6.8199785063e-001
 4.0509884888e+000	 6.3205400381e-001	 6.9543697416e-001
 4.0448859109e+000	 6.6999848308e-001	 7.1047518013e-001
 4.0384078971e+000	 7.0799834498e-001	 6.8073400408e-001
 4.0315520105e+000	 7.4604851487e-001	 6.0432918673e-001
 4.1083139980e+000	 3.7064955631e-001	 4.6586044798e-001
 4.1047432181e+000	 4.0829904908e-001	 5.0402168507e-001
 4.1008139810e+000	 4.4603777138e-001	 5.4325831789e-001
 4.0965233255e+000	 4.8386118252e-001	 5.8191235493e-001
 4.0918683558e+000	 5.2176465814e-001	 6.1858763522e-001
 4.0868462442e+000	 5.5974349106e-001	 6.5214518435e-001
 4.0814542332e+000	 5.9779289220e-001	 6.8169762754e-001
 4.0756896381e+000	 6.3590799164e-001	 7.0131227401e-001
 4.0695498494e+000	 6.7408383968e-001	 6.8247037392e-001
 4.0630323355e+000	 7.1231540806e-001	 6.2575391337e-001
 4.0561346447e+000	 7.5059759118e-001	 5.2936366914e-001
 4.1332128707e+000	 3.7289591725e-001	 4.2413591703e-001
 4.1296204497e+000	 4.1077358877e-001	 4.6352095582e-001
 4.1256673990e+000	 4.4874103060e-001	 5.0575520959e-001
 4.1213507395e+000	 4.8679367453e-001	 5.4952439972e-001
 4.1166675580e+000	 5.2492686819e-001	 5.9378504328e-001
 4.1116150094e+000	 5.6313587586e-001	 6.3775943526e-001
 4.1061903195e+000	 6.0141587943e-001	 6.8092965896e-001
 4.1003907874e+000	 6.3976197947e-001	 6.9639936158e-001
 4.0942137879e+000	 6.7816919628e-001	 6.4838356228e-001
 4.0876567739e+000	 7.1663247114e-001	 5.6934951634e-001
 4.0807172789e+000	 7.5514666749e-001	 4.5757890504e-001
 4.1581117435e+000	 3.7514227820e-001	 3.8679194047e-001
 4.1544976813e+000	 4.1324812847e-001	 4.2665588547e-001
 4.1505208171e+000	 4.5144428982e-001	 4.7101104575e-001
 4.1461781536e+000	 4.8972616655e-001	 5.1888988086e-001
 4.1414667601e+000	 5.2808907824e-001	 5.6960480067e-001
 4.1363837745e+000	 5.6652826065e-001	 6.2274277169e-001
 4.1309264058e+000	 6.0503886665e-001	 6.7815892234e-001
 4.1250919367e+000	 6.4361596729e-001	 6.8098321759e-001
 4.1188777264e+000	 6.8225455289e-001	 6.0848563346e-001
 4.1122812123e+000	 7.2094953422e-001	 5.1177873862e-001
 4.1052999131e+000	 7.5969574380e-001	 3.8922099212e-001
 4.1830106162e+000	 3.7738863915e-001	 3.5312955217e-001
 4.1793749130e+000	 4.1572266816e-001	 3.9258882836e-001
 4.1753742352e+000	 4.5414754904e-001	 4.3804953510e-001
 4.1710055677e+000	 4.9265865857e-001	 4.8889397508e-001
 4.1662659623e+000	 5.3125128829e-001	 5.4479374678e-001
 4.1611525396e+000	 5.6992064545e-001	 6.0570397293e-001
 4.1556624920e+000	 6.0866185388e-001	 6.7185649819e-001
 4.1497930861e+000	 6.4746995512e-001	 6.5535615605e-001
 4.1435416649e+000	 6.8633990949e-001	 5.6305601395e-001
 4.1369056507e+000	 7.2526659730e-001	 4.5330922297e-001
 4.1298825474e+000	 7.6424482012e-001	 3.2454689733e-001
 4.2079094889e+000	 3.7963500011e-001	 3.2244806896e-001
 4.2042521446e+000	 4.1819720786e-001	 3.6048174808e-001
 4.2002276532e+000	 4.5685080827e-001	 4.0589530180e-001
 4.1958329818e+000	 4.9559115059e-001	 4.5842405960e-001
 4.1910651645e+000	 5.3441349835e-001	 5.1810218482e-001
 4.1859213047e+000	 5.7331303024e-001	 5.8525652299e-001
 4.1803985783e+000	 6.1228484111e-001	 6.6049938950e-001
 4.1744942354e+000	 6.5132394295e-001	 6.1981760735e-001
 4.1682056034e+000	 6.9042526610e-001	 5.1238241591e-001
 4.1615300891e+000	 7.2958366038e-001	 3.9421804184e-001
 4.1544651816e+000	 7.6879389643e-001	 2.6382413527e-001
 4.2328083616e+000	 3.8188136106e-001	 2.9404514104e-001
 4.2291293762e+000	 4.2067174755e-001	 3.2949622904e-001
 4.2250810713e+000	 4.5955406749e-001	 3.7357385843e-001
 4.2206603959e+000	 4.9852364261e-001	 4.2636964737e-001
 4.2158643666e+000	 5.3757570840e-001	 4.8828377992e-001
 4.2106900698e+000	 5.7670541504e-001	 5.6001847223e-001
 4.2051346646e+000	 6.1590782834e-001	 6.4257034756e-001
 4.1991953847e+000	 6.5517793079e-001	 5.7467390894e-001
 4.1928695419e+000	 6.9451062271e-001	 4.5676059348e-001
 4.1861545275e+000	 7.3390072346e-001	 3.3479141999e-001
 4.1790478158e+000	 7.7334297274e-001	 2.0733045803e-001
 3.9332214737e+000	 7.2785220965e-001	 9.3147628356e-001
 3.9261618501e+000	 7.6501838302e-001	 7.9627674716e-001
 3.9187290581e+000	 8.0222351592e-001	 6.8117362654e-001
 3.9109209671e+000	 8.3946244064e-001	 5.8717959841e-001
 3.9027355338e+000	 8.7672992013e-001	 5.1527286964e-001
 3.8941708042e+000	 9.1402064961e-001	 4.6640177466e-001
 3.8852249153e+000	 9.5132925831e-001	 4.4148961758e-001
 3.8758960980e+000	 9.8865031116e-001	 4.4143974914e-001
 3.8661826788e+000	 1.0259783107e+000	 4.6714086738e-001
 3.8560830823e+000	 1.0633076989e+000	 5.1947253006e-001
 3.8455958328e+000	 1.1006328594e+000	 5.9931086537e-001
 3.9578041079e+000	 7.3240128595e-001	 8.4601941115e-001
 3.9507003617e+000	 7.6979974791e-001	 7.3072136568e-001
 3.9432211147e+000	 8.0723741289e-001	 6.3316891265e-001
 3.9353642231e+000	 8.4470908089e-001	 5.5417784527e-001
 3.9271276309e+000	 8.8220948212e-001	 4.9452879241e-001
 3.9185093717e+000	 9.1973327867e-001	 4.5497212528e-001
 3.9095075710e+000	 9.5727506617e-001	 4.3623311774e-001
 3.9001204486e+000	 9.9482937561e-001	 4.3901735005e-001
 3.8903463206e+000	 1.0323906751e+000	 4.6401634442e-001
 3.8801836015e+000	 1.0699533720e+000	 5.1191341981e-001
 3.8696308067e+000	 1.1075118147e+000	 5.8338975201e-001
 3.9823867421e+000	 7.3695036226e-001	 7.6287445079e-001
 3.9752388733e+000	 7.7458111280e-001	 6.6719714726e-001
 3.9677131713e+000	 8.1225130986e-001	 5.8695609022e-001
 3.9598074792e+000	 8.4995572114e-001	 5.2276888338e-001
 3.9515197280e+000	 8.8768904412e-001	 4.7521722974e-001
 3.9428479392e+000	 9.2544590773e-001	 4.4485214985e-001
 3.9337902267e+000	 9.6322087403e-001	 4.3219946270e-001
 3.9243447992e+000	 1.0010084400e+000	 4.3776551881e-001
 3.9145099623e+000	 1.0388030396e+000	 4.6204317315e-001
 3.9042841208e+000	 1.0765990452e+000	 5.0551798509e-001
 3.8936657807e+000	 1.1143907701e+000	 5.6867463073e-001
 4.0069693763e+000	 7.4149943857e-001	 6.8224056281e-001
 3.9997773848e+000	 7.7936247769e-001	 6.0597759106e-001
 3.9922052279e+000	 8.1726520684e-001	 5.4288228584e-001
 3.9842507352e+000	 8.5520236139e-001	 4.9337270731e-001
 3.9759118251e+000	 8.9316860612e-001	 4.5783023661e-001
 3.9671865068e+000	 9.3115853678e-001	 4.3660510786e-001
 3.9580728824e+000	 9.6916668190e-001	 4.3002221216e-001
 3.9485691498e+000	 1.0071875045e+000	 4.3838716246e-001
 3.9386736040e+000	 1.0452154040e+000	 4.6199260664e-001
 3.9283846401e+000	 1.0832447183e+000	 5.0112477529e-001
 3.9177007546e+000	 1.1212697255e+000	 5.5607024915e-001
 4.0315520105e+000	 7.4604851487e-001	 6.0432918673e-001
 4.0243158964e+000	 7.8414384258e-001	 5.4734755361e-001
 4.0166972845e+000	 8.2227910381e-001	 5.0130507792e-001
 4.0086939913e+000	 8.6044900165e-001	 4.6641887483e-001
 4.0003039222e+000	 8.9864816812e-001	 4.4286855990e-001
 3.9915250743e+000	 9.3687116584e-001	 4.3080209728e-001
 3.9823555382e+000	 9.7511248976e-001	 4.3034192921e-001
 3.9727935004e+000	 1.0133665689e+000	 4.4159137531e-001
 3.9628372458e+000	 1.0516277685e+000	 4.6464128849e-001
 3.9524851593e+000	 1.0898903914e+000	 4.9957695342e-001
 3.9417357286e+000	 1.1281486808e+000	 5.4648521200e-001
 4.0561346447e+000	 7.5059759118e-001	 5.2936366914e-001
 4.0488544080e+000	 7.8892520747e-001	 4.9160290461e-001
 4.0411893411e+000	 8.2729300078e-001	 4.6259218001e-001
 4.0331372473e+000	 8.6569564190e-001	 4.4234621710e-001
 4.0246960193e+000	 9.0412773012e-001	 4.3084137501e-001
 4.0158636418e+000	 9.4258379490e-001	 4.2802181703e-001
 4.0066381939e+000	 9.8105829763e-001	 4.3380596817e-001
 3.9970178510e+000	 1.0195456334e+000	 4.4809325144e-001
 3.9870008875e+000	 1.0580401329e+000	 4.7077108944e-001
 3.9765856786e+000	 1.0965360645e+000	 5.0172215632e-001
 3.9657707025e+000	 1.1350276362e+000	 5.4083186426e-001
 4.0807172789e+000	 7.5514666749e-001	 4.5757890504e-001
 4.0733929195e+000	 7.9370657237e-001	 4.3905019526e-001
 4.0656813977e+000	 8.3230689776e-001	 4.2712113555e-001
 4.0575805033e+000	 8.7094228215e-001	 4.2160255938e-001
 4.0490881164e+000	 9.0960729212e-001	 4.2226603195e-001
 4.0402022093e+000	 9.4829642396e-001	 4.2885033801e-001
 4.0309208496e+000	 9.8700410549e-001	 4.4106826996e-001
 4.0212422016e+000	 1.0257246978e+000	 4.5861370399e-001
 4.0111645293e+000	 1.0644524973e+000	 4.8116894994e-001
 4.0006861979e+000	 1.1031817376e+000	 5.0841235986e-001
 3.9898056765e+000	 1.1419065916e+000	 5.4002617845e-001
 4.1052999131e+000	 7.5969574380e-001	 3.8922099212e-001
 4.0979314311e+000	 7.9848793726e-001	 3.9000633840e-001
 4.0901734544e+000	 8.3732079473e-001	 3.9527902349e-001
 4.0820237594e+000	 8.7618892241e-001	 4.0464445171e-001
 4.0734802135e+000	 9.1508685412e-001	 4.1766781065e-001
 4.0645407769e+000	 9.5400905303e-001	 4.3388088240e-001
 4.0552035053e+000	 9.9294991336e-001	 4.5278916500e-001
 4.0454665523e+000	 1.0319037623e+000	 4.7387929093e-001
 4.0353281710e+000	 1.0708648618e+000	 4.9662672837e-001
 4.0247867171e+000	 1.1098274108e+000	 5.2050374909e-001
 4.0138406504e+000	 1.1487855470e+000	 5.4498764609e-001
 4.1298825474e+000	 7.6424482012e-001	 3.2454689733e-001
 4.1224699427e+000	 8.0326930216e-001	 3.4479830017e-001
 4.1146655110e+000	 8.4233469171e-001	 3.6746217456e-001
 4.1064670154e+000	 8.8143556267e-001	 3.9193690930e-001
 4.0978723105e+000	 9.2056641613e-001	 4.1757968489e-001
 4.0888793444e+000	 9.5972168209e-001	 4.4371361083e-001
 4.0794861610e+000	 9.9889572122e-001	 4.6963518293e-001
 4.0696909029e+000	 1.0380828267e+000	 4.9462204708e-001
 4.0594918128e+000	 1.0772772262e+000	 5.1794105464e-001
 4.0488872364e+000	 1.1164730839e+000	 5.3885659291e-001
 4.0378756244e+000	 1.1556645023e+000	 5.5663917293e-001
 4.1544651816e+000	 7.6879389643e-001	 2.6382413527e-001
 4.1470084542e+000	 8.0805066705e-001	 3.0376280255e-001
 4.1391575676e+000	 8.4734858869e-001	 3.4407589752e-001
 4.1309102715e+000	 8.8668220292e-001	 3.8395316200e-001
 4.1222644076e+000	 9.2604597813e-001	 4.2254209471e-001
 4.1132179119e+000	 9.6543431115e-001	 4.5895541709e-001
 4.1037688168e+000	 1.0048415291e+000	 4.9227886929e-001
 4.0939152535e+000	 1.0442618912e+000	 5.2157932202e-001
 4.0836554545e+000	 1.0836895907e+000	 5.4591318906e-001
 4.0729877557e+000	 1.1231187570e+000	 5.6433512329e-001
 4.0619105984e+000	 1.1625434577e+000	 5.7590697793e-001
 4.1790478158e+000	 7.7334297274e-001	 2.0733045803e-001
 4.1715469658e+000	 8.1283203195e-001	 2.6724603643e-001
 4.1636496242e+000	 8.5236248567e-001	 3.2553421509e-001
 4.1553535275e+000	 8.9192884318e-001	 3.8117441278e-001
 4.1466565047e+000	 9.3152554013e-001	 4.3310272679e-001
 4.1375564794e+000	 9.7114694021e-001	 4.8021973009e-001
 4.1280514725e+000	 1.0107873370e+000	 5.2139860855e-001
 4.1181396041e+000	 1.0504409556e+000	 5.5549362385e-001
 4.1078190963e+000	 1.0901019551e+000	 5.8134888614e-001
 4.0970882749e+000	 1.1297644301e+000	 5.9780741868e-001
 4.0859455723e+000	 1.1694224131e+000	 6.0372049583e-001
 3.8455958328e+000	 1.1006328594e+000	 5.9931086537e-001
 3.8347195567e+000	 1.1379481191e+000	 5.6910249735e-001
 3.8234529844e+000	 1.1752477508e+000	 5.3099641578e-001
 3.8117949524e+000	 1.2125259753e+000	 4.8558958108e-001
 3.7997444048e+000	 1.2497769635e+000	 4.3353166485e-001
 3.7873003954e+000	 1.2869948389e+000	 3.6718117257e-001
 3.7744620896e+000	 1.3241736799e+000	 3.0368043517e-001
 3.7612287659e+000	 1.3613075226e+000	 2.4589714299e-001
 3.7475998176e+000	 1.3983903631e+000	 2.1316806314e-001
 3.7335747544e+000	 1.4354161602e+000	 2.6822045800e-001
 3.7191532043e+000	 1.4723788383e+000	 3.3185018972e-001
 3.8696308067e+000	 1.1075118147e+000	 5.8338975201e-001
 3.8586865539e+000	 1.1450602948e+000	 5.4056436314e-001
 3.8473495656e+000	 1.1825930493e+000	 4.8930241231e-001
 3.8356186709e+000	 1.2201042627e+000	 4.3003620313e-001
 3.8234928073e+000	 1.2575880695e+000	 3.6765095291e-001
 3.8109710228e+000	 1.2950385566e+000	 3.1924449073e-001
 3.7980524776e+000	 1.3324497654e+000	 2.7200350638e-001
 3.7847364456e+000	 1.3698156946e+000	 2.2872551564e-001
 3.7710223164e+000	 1.4071303029e+000	 1.9236254352e-001
 3.7569095967e+000	 1.4443875112e+000	 1.6601629017e-001
 3.7423979118e+000	 1.4815812060e+000	 2.0079835928e-001
 3.8936657807e+000	 1.1143907701e+000	 5.6867463073e-001
 3.8826535511e+000	 1.1521724706e+000	 5.1329370651e-001
 3.8712461467e+000	 1.1899383477e+000	 4.4891758388e-001
 3.8594423893e+000	 1.2276825500e+000	 3.7581198171e-001
 3.8472412098e+000	 1.2653991756e+000	 3.1599496786e-001
 3.8346416503e+000	 1.3030822743e+000	 2.8324549115e-001
 3.8216428657e+000	 1.3407258509e+000	 2.4988387928e-001
 3.8082441254e+000	 1.3783238666e+000	 2.1871065726e-001
 3.7944448153e+000	 1.4158702426e+000	 1.9268406178e-001
 3.7802444389e+000	 1.4533588622e+000	 1.7491516507e-001
 3.7656426193e+000	 1.4907835738e+000	 1.6866256150e-001
 3.9177007546e+000	 1.1212697255e+000	 5.5607024915e-001
 3.9066205484e+000	 1.1592846463e+000	 4.8826049735e-001
 3.8951427279e+000	 1.1972836462e+000	 4.1087678641e-001
 3.8832661078e+000	 1.2352608374e+000	 3.2401628075e-001
 3.8709896123e+000	 1.2732102816e+000	 2.7820402457e-001
 3.8583122778e+000	 1.3111259921e+000	 2.5876642637e-001
 3.8452332537e+000	 1.3490019364e+000	 2.3691625342e-001
 3.8317518052e+000	 1.3868320386e+000	 2.1545944224e-001
 3.8178673141e+000	 1.4246101824e+000	 1.9736290560e-001
 3.8035792811e+000	 1.4623302133e+000	 1.8574961177e-001
 3.7888873268e+000	 1.4999859415e+000	 1.8389321885e-001
 3.9417357286e+000	 1.1281486808e+000	 5.4648521200e-001
 3.9305875456e+000	 1.1663968220e+000	 4.6643782285e-001
 3.9190393090e+000	 1.2046289446e+000	 3.7621725378e-001
 3.9070898262e+000	 1.2428391247e+000	 2.7575010349e-001
 3.8947380149e+000	 1.2810213876e+000	 2.5384855626e-001
 3.8819829053e+000	 1.3191697098e+000	 2.4538971446e-001
 3.8688236418e+000	 1.3572780219e+000	 2.3269475941e-001
 3.8552594850e+000	 1.3953402107e+000	 2.1857744367e-001
 3.8412898130e+000	 1.4333501222e+000	 2.0601582303e-001
 3.8269141233e+000	 1.4713015643e+000	 1.9814728871e-001
 3.8121320343e+000	 1.5091883092e+000	 1.9826314667e-001
 3.9657707025e+000	 1.1350276362e+000	 5.4083186426e-001
 3.9545545428e+000	 1.1735089978e+000	 4.4880179307e-001
 3.9429358902e+000	 1.2119742430e+000	 3.4597852572e-001
 3.9309135447e+000	 1.2504174121e+000	 2.3356705554e-001
 3.9184864174e+000	 1.2888324936e+000	 2.4249987047e-001
 3.9056535327e+000	 1.3272134276e+000	 2.4269793396e-001
 3.8924140299e+000	 1.3655541074e+000	 2.3681297616e-001
 3.8787671648e+000	 1.4038483827e+000	 2.2766897275e-001
 3.8647123118e+000	 1.4420900620e+000	 2.1825759241e-001
 3.8502489655e+000	 1.4802729153e+000	 2.1173317942e-001
 3.8353767419e+000	 1.5183906770e+000	 2.1140727534e-001
 3.9898056765e+000	 1.1419065916e+000	 5.4002617845e-001
 3.9785215400e+000	 1.1806211735e+000	 4.3633144987e-001
 3.9668324714e+000	 1.2193195415e+000	 3.2120237838e-001
 3.9547372631e+000	 1.2579956994e+000	 2.2657199224e-001
 3.9422348199e+000	 1.2966435997e+000	 2.4373012282e-001
 3.9293241602e+000	 1.3352571453e+000	 2.5027381911e-001
 3.9160044179e+000	 1.3738301929e+000	 2.4886394752e-001
 3.9022748446e+000	 1.4123565547e+000	 2.4233711682e-001
 3.8881348107e+000	 1.4508300017e+000	 2.3370108168e-001
 3.8735838077e+000	 1.4892442663e+000	 2.2612967311e-001
 3.8586214494e+000	 1.5275930447e+000	 2.2295725990e-001
 4.0138406504e+000	 1.1487855470e+000	 5.4498764609e-001
 4.0024885373e+000	 1.1877333493e+000	 4.3000867913e-001
 3.9907290525e+000	 1.2266648399e+000	 3.0293275738e-001
 3.9785609816e+000	 1.2655739868e+000	 2.3400395758e-001
 3.9659832225e+000	 1.3044547057e+000	 2.5711229156e-001
 3.9529947877e+000	 1.3433008631e+000	 2.6770025512e-001
 3.9395948060e+000	 1.3821062784e+000	 2.6844019826e-001
 3.9257825243e+000	 1.4208647267e+000	 2.6218377600e-001
 3.9115573096e+000	 1.4595699415e+000	 2.5195730558e-001
 3.8969186499e+000	 1.4982156173e+000	 2.4095664235e-001
 3.8818661569e+000	 1.5367954125e+000	 2.3254157813e-001
 4.0378756244e+000	 1.1556645023e+000	 5.5663917293e-001
 4.0264555345e+000	 1.1948455250e+000	 4.3081812613e-001
 4.0146256337e+000	 1.2340101384e+000	 2.9221571324e-001
 4.0023847000e+000	 1.2731522741e+000	 2.5542720363e-001
 3.9897316250e+000	 1.3122658117e+000	 2.8222015309e-001
 3.9766654151e+000	 1.3513445808e+000	 2.9456027372e-001
 3.9631851940e+000	 1.3903823639e+000	 2.9513374956e-001
 3.9492902041e+000	 1.4293728987e+000	 2.8680969849e-001
 3.9349798084e+000	 1.4683098813e+000	 2.7263548083e-001
 3.9202534922e+000	 1.5071869683e+000	 2.5583151796e-001
 3.9051108645e+000	 1.5459977802e+000	 2.3978562509e-001
 4.0619105984e+000	 1.1625434577e+000	 5.7590697793e-001
 4.0504225317e+000	 1.2019577008e+000	 4.3974711387e-001
 4.0385222148e+000	 1.2413554368e+000	 2.9009933908e-001
 4.0262084185e+000	 1.2807305615e+000	 2.9040739060e-001
 4.0134800275e+000	 1.3200769177e+000	 3.1862825839e-001
 4.0003360426e+000	 1.3593882986e+000	 3.3043704884e-001
 3.9867755821e+000	 1.3986584494e+000	 3.2853613388e-001
 3.9727978839e+000	 1.4378810707e+000	 3.1581451471e-001
 3.9584023073e+000	 1.4770498210e+000	 2.9534307928e-001
 3.9435883344e+000	 1.5161583193e+000	 2.7036936124e-001
 3.9283555720e+000	 1.5552001479e+000	 2.4431180433e-001
 4.0859455723e+000	 1.1694224131e+000	 6.0372049583e-001
 4.0743895290e+000	 1.2090698765e+000	 4.5778556435e-001
 4.0624187960e+000	 1.2487007353e+000	 2.9763371057e-001
 4.0500321369e+000	 1.2883088488e+000	 3.3851154540e-001
 4.0372284301e+000	 1.3278880237e+000	 3.6591191018e-001
 4.0240066701e+000	 1.3674320163e+000	 3.7491389235e-001
 4.0103659702e+000	 1.4069345349e+000	 3.6823840934e-001
 3.9963055637e+000	 1.4463892427e+000	 3.4879677011e-001
 3.9818248061e+000	 1.4857897608e+000	 3.1968587927e-001
 3.9669231766e+000	 1.5251296703e+000	 2.8418293369e-001
 3.9516002795e+000	 1.5644025157e+000	 2.4573961588e-001
 3.7191532043e+000	 1.4723788383e+000	 3.3185018972e-001
 3.7043349141e+000	 1.5092722896e+000	 3.3142224723e-001
 3.6891197520e+000	 1.5460903777e+000	 3.2410574828e-001
 3.6735077078e+000	 1.5828269397e+000	 3.0749238022e-001
 3.6574988949e+000	 1.6194757899e+000	 2.7910415364e-001
 3.6410935510e+000	 1.6560307222e+000	 2.3639632507e-001
 3.6242920395e+000	 1.6924855132e+000	 1.7676052266e-001
 3.6070948501e+000	 1.7288339256e+000	 9.7528072019e-002
 3.5895026000e+000	 1.7650697110e+000	-4.0264814443e-003
 3.5715160343e+000	 1.8011866135e+000	-1.3068165781e-001
 3.5531360273e+000	 1.8371783722e+000	-2.8526514043e-001
 3.7423979118e+000	 1.4815812060e+000	 2.0079835928e-001
 3.7274870073e+000	 1.5187052414e+000	 2.0469846781e-001
 3.7121767504e+000	 1.5557534425e+000	 2.0374397983e-001
 3.6964671309e+000	 1.5927196081e+000	 1.9551656629e-001
 3.6803582629e+000	 1.6295975136e+000	 1.7752539242e-001
 3.6638503857e+000	 1.6663809142e+000	 1.4721004066e-001
 3.6469438648e+000	 1.7030635476e+000	 1.0194364175e-001
 3.6296391930e+000	 1.7396391376e+000	 3.9036211043e-002
 3.6119369912e+000	 1.7761013967e+000	-4.4261813614e-002
 3.5938380095e+000	 1.8124440298e+000	-1.5075583635e-001
 3.5753431275e+000	 1.8486607371e+000	-2.8330317517e-001
 3.7656426193e+000	 1.4907835738e+000	 1.6866256150e-001
 3.7506391005e+000	 1.5281381932e+000	 8.3558915255e-002
 3.7352337488e+000	 1.5654165074e+000	 8.6316204720e-002
 3.7194265541e+000	 1.6026122765e+000	 8.7526456074e-002
 3.7032176310e+000	 1.6397192373e+000	 8.0980842794e-002
 3.6866072204e+000	 1.6767311062e+000	 6.4102212157e-002
 3.6695956900e+000	 1.7136415821e+000	 3.4244115750e-002
 3.6521835358e+000	 1.7504443496e+000	-1.1305842686e-002
 3.6343713825e+000	 1.7871330824e+000	-7.5322452539e-002
 3.6161599847e+000	 1.8237014462e+000	-1.6063913888e-001
 3.5975502277e+000	 1.8601431019e+000	-2.7014400708e-001
 3.7888873268e+000	 1.4999859415e+000	 1.8389321885e-001
 3.7737911937e+000	 1.5375711450e+000	 9.3395890846e-002
 3.7582907473e+000	 1.5750795722e+000	 1.4391536198e-002
 3.7423859773e+000	 1.6125049449e+000	-1.6348695140e-002
 3.7260769991e+000	 1.6498409610e+000	-1.0406219317e-002
 3.7093640551e+000	 1.6870812982e+000	-1.2809401981e-002
 3.6922475153e+000	 1.7242196165e+000	-2.6225350988e-002
 3.6747278786e+000	 1.7612495617e+000	-5.3389974378e-002
 3.6568057737e+000	 1.7981647681e+000	-9.7104407735e-002
 3.6384819600e+000	 1.8349588625e+000	-1.6023123354e-001
 3.6197573278e+000	 1.8716254667e+000	-2.4569049730e-001
 3.8121320343e+000	 1.5091883092e+000	 1.9826314667e-001
 3.7969432870e+000	 1.5470040968e+000	 1.0206405365e-001
 3.7813477457e+000	 1.5847426371e+000	 1.7962475036e-002
 3.7653454004e+000	 1.6223976132e+000	-5.0618685702e-002
 3.7489363672e+000	 1.6599626847e+000	-9.6514966785e-002
 3.7321208898e+000	 1.6974314902e+000	-8.3409253233e-002
 3.7148993405e+000	 1.7347976510e+000	-7.9354033292e-002
 3.6972722214e+000	 1.7720547737e+000	-8.7109826008e-002
 3.6792401650e+000	 1.8091964538e+000	-1.0950523149e-001
 3.6608039352e+000	 1.8462162788e+000	-1.4943312586e-001
 3.6419644280e+000	 1.8831078316e+000	-2.1371643472e-001
 3.8353767419e+000	 1.5183906770e+000	 2.1140727534e-001
 3.8200953802e+000	 1.5564370487e+000	 1.0916936544e-001
 3.8044047442e+000	 1.5944057020e+000	 1.9601651618e-002
 3.7883048236e+000	 1.6322902816e+000	-5.3730361735e-002
 3.7717957353e+000	 1.6700844084e+000	-1.0713270968e-001
 3.7548777245e+000	 1.7077816822e+000	-1.3679047721e-001
 3.7375511658e+000	 1.7453756855e+000	-1.2503312522e-001
 3.7198165642e+000	 1.7828599857e+000	-1.1236074309e-001
 3.7016745562e+000	 1.8202281395e+000	-1.1242397214e-001
 3.6831259104e+000	 1.8574736952e+000	-1.2814711823e-001
 3.6641715282e+000	 1.8945901964e+000	-1.7674134246e-001
 3.8586214494e+000	 1.5275930447e+000	 2.2295725990e-001
 3.8432474734e+000	 1.5658700005e+000	 1.1431476647e-001
 3.8274617426e+000	 1.6040687668e+000	 1.8883475228e-002
 3.8112642468e+000	 1.6421829500e+000	-5.9626819571e-002
 3.7946551034e+000	 1.6802061321e+000	-1.1737572480e-001
 3.7776345592e+000	 1.7181318743e+000	-1.5039998578e-001
 3.7602029910e+000	 1.7559537199e+000	-1.5462163286e-001
 3.7423609070e+000	 1.7936651978e+000	-1.2903972336e-001
 3.7241089475e+000	 1.8312598252e+000	-1.0576112897e-001
 3.7054478856e+000	 1.8687311115e+000	-9.6276770827e-002
 3.6863786283e+000	 1.9060725612e+000	-1.3446197319e-001
 3.8818661569e+000	 1.5367954125e+000	 2.3254157813e-001
 3.8663995666e+000	 1.5753029523e+000	 1.1710026595e-001
 3.8505187411e+000	 1.6137318317e+000	 1.5379663461e-002
 3.8342236700e+000	 1.6520756183e+000	-6.8764432075e-002
 3.8175144715e+000	 1.6903278558e+000	-1.3134343483e-001
 3.8003913939e+000	 1.7284820663e+000	-1.6824393703e-001
 3.7828548162e+000	 1.7665317544e+000	-1.7523609300e-001
 3.7649052498e+000	 1.8044704098e+000	-1.4798240595e-001
 3.7465433387e+000	 1.8422915109e+000	-8.9418608807e-002
 3.7277698608e+000	 1.8799885278e+000	-5.7458133101e-002
 3.7085857285e+000	 1.9175549260e+000	-8.7408249894e-002
 3.9051108645e+000	 1.5459977802e+000	 2.3978562509e-001
 3.8895516598e+000	 1.5847359041e+000	 1.1712302924e-001
 3.8735757395e+000	 1.6233948965e+000	 8.6593223291e-003
 3.8571830931e+000	 1.6619682867e+000	-8.1601958244e-002
 3.8403738396e+000	 1.7004495794e+000	-1.4952224520e-001
 3.8231482286e+000	 1.7388322583e+000	-1.9083613977e-001
 3.8055066415e+000	 1.7771097888e+000	-2.0116003590e-001
 3.7874495926e+000	 1.8152756218e+000	-1.7600115496e-001
 3.7689777300e+000	 1.8533231966e+000	-1.1076697455e-001
 3.7500918360e+000	 1.8912459442e+000	-1.7367706487e-002
 3.7307928287e+000	 1.9290372909e+000	-3.6111105300e-002
 3.9283555720e+000	 1.5552001479e+000	 2.4431180433e-001
 3.9127037530e+000	 1.5941688559e+000	 1.1397746205e-001
 3.8966327380e+000	 1.6330579614e+000	-1.7109764659e-003
 3.8801425163e+000	 1.6718609551e+000	-9.8600472609e-002
 3.8632332077e+000	 1.7105713031e+000	-1.7240066480e-001
 3.8459050633e+000	 1.7491824503e+000	-2.1869230114e-001
 3.8281584667e+000	 1.7876878233e+000	-2.3293610633e-001
 3.8099939354e+000	 1.8260808339e+000	-2.1048206718e-001
 3.7914121212e+000	 1.8643548823e+000	-1.4657911971e-001
 3.7724138112e+000	 1.9025033605e+000	-7.1185432885e-002
 3.7529999288e+000	 1.9405196557e+000	 1.3751608116e-003
 3.9516002795e+000	 1.5644025157e+000	 2.4573961588e-001
 3.9358558462e+000	 1.6036018077e+000	 1.0725529155e-001
 3.9196897364e+000	 1.6427210263e+000	-1.6167121000e-002
 3.9031019395e+000	 1.6817536235e+000	-1.2022329713e-001
 3.8860925758e+000	 1.7206930268e+000	-2.0046924414e-001
 3.8686618980e+000	 1.7595326423e+000	-2.5232997072e-001
 3.8508102920e+000	 1.7982658577e+000	-2.7110859918e-001
 3.8325382783e+000	 1.8368860459e+000	-2.5199590455e-001
 3.8138465125e+000	 1.8753865680e+000	-1.9043849240e-001
 3.7947357865e+000	 1.9137607768e+000	-1.3799732148e-001
 3.7752070290e+000	 1.9520020205e+000	-7.8989398984e-002
 3.5531360273e+000	 1.8371783722e+000	-2.8526514043e-001
 3.5343635826e+000	 1.8730387253e+000	-3.0645520311e-001
 3.5151998336e+000	 1.9087614125e+000	-3.1382371326e-001
 3.4956460444e+000	 1.9443401791e+000	-3.1684483507e-001
 3.4757036097e+000	 1.9797687788e+000	-3.1265236755e-001
 3.4553740550e+000	 2.0150409773e+000	-2.9819306533e-001
 3.4346590368e+000	 2.0501505556e+000	-2.7035565277e-001
 3.4135603429e+000	 2.0850913135e+000	-2.2597957084e-001
 3.3920798916e+000	 2.1198570727e+000	-1.6186393242e-001
 3.3702197324e+000	 2.1544416806e+000	-7.4776663429e-002
 3.3479820449e+000	 2.1888390135e+000	 3.8536193329e-002
 3.5753431275e+000	 1.8486607371e+000	-2.8330317517e-001
 3.5564533549e+000	 1.8847452173e+000	-2.9750646804e-001
 3.5371698326e+000	 1.9206911713e+000	-3.0905166292e-001
 3.5174938322e+000	 1.9564923052e+000	-3.1910825735e-001
 3.4974267573e+000	 1.9921423336e+000	-3.2453739857e-001
 3.4769701428e+000	 2.0276349834e+000	-3.2212983297e-001
 3.4561256558e+000	 2.0629639966e+000	-3.0861466651e-001
 3.4348950950e+000	 2.0981231342e+000	-2.8066836327e-001
 3.4132803910e+000	 2.1331061794e+000	-2.3492396020e-001
 3.3912836057e+000	 2.1679069412e+000	-1.6798047518e-001
 3.3689069327e+000	 2.2025192574e+000	-7.6412484278e-002
 3.5975502277e+000	 1.8601431019e+000	-2.7014400708e-001
 3.5785431273e+000	 1.8964517093e+000	-2.8090581382e-001
 3.5591398315e+000	 1.9326209301e+000	-2.9661848313e-001
 3.5393416200e+000	 1.9686444313e+000	-3.1356745842e-001
 3.5191499048e+000	 2.0045158885e+000	-3.2845985610e-001
 3.4985662307e+000	 2.0402289895e+000	-3.3792852916e-001
 3.4775922748e+000	 2.0757774376e+000	-3.3854107425e-001
 3.4562298472e+000	 2.1111549549e+000	-3.2680908536e-001
 3.4344808903e+000	 2.1463552861e+000	-2.9919763154e-001
 3.4123474791e+000	 2.1813722017e+000	-2.5213493518e-001
 3.3898318204e+000	 2.2161995012e+000	-1.8202222639e-001
 3.6197573278e+000	 1.8716254667e+000	-2.4569049730e-001
 3.6006328997e+000	 1.9081582014e+000	-2.5733381710e-001
 3.5811098305e+000	 1.9445506890e+000	-2.7711918626e-001
 3.5611894078e+000	 1.9807965574e+000	-3.0085277353e-001
 3.5408730524e+000	 2.0168894434e+000	-3.2508576178e-001
 3.5201623185e+000	 2.0528229956e+000	-3.4629119841e-001
 3.4990588938e+000	 2.0885908786e+000	-3.6087325249e-001
 3.4775645993e+000	 2.1241867756e+000	-3.6517672696e-001
 3.4556813896e+000	 2.1596043928e+000	-3.5549680282e-001
 3.4334113524e+000	 2.1948374622e+000	-3.2808899116e-001
 3.4107567082e+000	 2.2298797451e+000	-2.7917926816e-001
 3.6419644280e+000	 1.8831078316e+000	-2.1371643472e-001
 3.6227226721e+000	 1.9198646934e+000	-2.2735129368e-001
 3.6030798295e+000	 1.9564804478e+000	-2.5114910630e-001
 3.5830371956e+000	 1.9929486836e+000	-2.8159443476e-001
 3.5625962000e+000	 2.0292629983e+000	-3.1508059928e-001
 3.5417584064e+000	 2.0654170017e+000	-3.4791890265e-001
 3.5205255128e+000	 2.1014043195e+000	-3.7634814088e-001
 3.4988993514e+000	 2.1372185963e+000	-3.9654437734e-001
 3.4768818889e+000	 2.1728534996e+000	-4.0463095687e-001
 3.4544752257e+000	 2.2083027227e+000	-3.9668873519e-001
 3.4316815960e+000	 2.2435599889e+000	-3.6876649808e-001
 3.6641715282e+000	 1.8945901964e+000	-1.7674134246e-001
 3.6448124445e+000	 1.9315711854e+000	-1.9151977333e-001
 3.6250498284e+000	 1.9684102066e+000	-2.1930388911e-001
 3.6048849833e+000	 2.0051008097e+000	-2.5642257411e-001
 3.5843193475e+000	 2.0416365531e+000	-2.9910933055e-001
 3.5633544942e+000	 2.0780110078e+000	-3.4351175099e-001
 3.5419921317e+000	 2.1142177605e+000	-3.8570128580e-001
 3.5202341036e+000	 2.1502504171e+000	-4.2168328282e-001
 3.4980823883e+000	 2.1861026063e+000	-4.4740727490e-001
 3.4755390991e+000	 2.2217679832e+000	-4.5877749024e-001
 3.4526064838e+000	 2.2572402327e+000	-4.5166355940e-001
 3.6863786283e+000	 1.9060725612e+000	-1.3446197319e-001
 3.6669022169e+000	 1.9432776775e+000	-1.5040147829e-001
 3.6470198274e+000	 1.9803399655e+000	-1.8217948302e-001
 3.6267327711e+000	 2.0172529358e+000	-2.2596722652e-001
 3.6060424951e+000	 2.0540101080e+000	-2.7783641162e-001
 3.5849505821e+000	 2.0906050139e+000	-3.3376892845e-001
 3.5634587507e+000	 2.1270312015e+000	-3.8966688232e-001
 3.5415688557e+000	 2.1632822378e+000	-4.4136290229e-001
 3.5192828876e+000	 2.1993517130e+000	-4.8463070580e-001
 3.4966029724e+000	 2.2352332437e+000	-5.1519589356e-001
 3.4735313716e+000	 2.2709204766e+000	-5.2874694790e-001
 3.7085857285e+000	 1.9175549260e+000	-8.7408249894e-002
 3.6889919893e+000	 1.9549841695e+000	-1.0455930255e-001
 3.6689898263e+000	 1.9922697243e+000	-1.4037212979e-001
 3.6485805589e+000	 2.0294050619e+000	-1.9085833280e-001
 3.6277656426e+000	 2.0663836629e+000	-2.5192580767e-001
 3.6065466699e+000	 2.1031990201e+000	-3.1938872358e-001
 3.5849253697e+000	 2.1398446424e+000	-3.8897781459e-001
 3.5629036079e+000	 2.1763140585e+000	-4.5635096068e-001
 3.5404833869e+000	 2.2126008197e+000	-5.1710403302e-001
 3.5176668457e+000	 2.2486985042e+000	-5.6678197708e-001
 3.4944562593e+000	 2.2846007204e+000	-6.0089010610e-001
 3.7307928287e+000	 1.9290372909e+000	-3.6111105300e-002
 3.7110817617e+000	 1.9666906615e+000	-5.4556791844e-002
 3.6909598253e+000	 2.0041994831e+000	-9.4478355839e-002
 3.6704283467e+000	 2.0415571880e+000	-1.5172574240e-001
 3.6494887902e+000	 2.0787572177e+000	-2.2204100767e-001
 3.6281427577e+000	 2.1157930262e+000	-3.0106855520e-001
 3.6063919887e+000	 2.1526580834e+000	-3.8436569497e-001
 3.5842383600e+000	 2.1893458792e+000	-4.6741350062e-001
 3.5616838862e+000	 2.2258499264e+000	-5.4562793898e-001
 3.5387307190e+000	 2.2621637647e+000	-6.1437124499e-001
 3.5153811471e+000	 2.2982809642e+000	-6.6896351411e-001
 3.7529999288e+000	 1.9405196557e+000	 1.3751608116e-003
 3.7331715341e+000	 1.9783971536e+000	-9.5812437773e-004
 3.7129298243e+000	 2.0161292419e+000	-4.5094963883e-002
 3.6922761344e+000	 2.0537093142e+000	-1.0919921612e-001
 3.6712119378e+000	 2.0911307726e+000	-1.8884503850e-001
 3.6497388456e+000	 2.1283870323e+000	-2.7950499807e-001
 3.6278586077e+000	 2.1654715244e+000	-3.7656090155e-001
 3.6055731122e+000	 2.2023776999e+000	-4.7531493218e-001
 3.5828843855e+000	 2.2390990331e+000	-5.7100106722e-001
 3.5597945924e+000	 2.2756290252e+000	-6.5879674851e-001
 3.5363060349e+000	 2.3119612081e+000	-7.3383477735e-001
 3.7752070290e+000	 1.9520020205e+000	-7.8989398984e-002
 3.7552613065e+000	 1.9901036456e+000	 1.6268358183e-002
 3.7348998232e+000	 2.0280590008e+000	 7.1809752482e-003
 3.7141239222e+000	 2.0658614403e+000	-6.3908428744e-002
 3.6929350853e+000	 2.1035043275e+000	-1.5300047847e-001
 3.6713349334e+000	 2.1409810384e+000	-2.5539380777e-001
 3.6493252266e+000	 2.1782849654e+000	-3.6629261452e-001
 3.6269078643e+000	 2.2154095206e+000	-4.8081808089e-001
 3.6040848849e+000	 2.2523481398e+000	-5.9402008244e-001
 3.5808584657e+000	 2.2890942857e+000	-7.0088915801e-001
 3.5572309227e+000	 2.3256414519e+000	-7.9636871101e-001
 3.3479820449e+000	 2.1888390135e+000	 3.8536193329e-002
 3.3253691387e+000	 2.2230429801e+000	 1.1804870647e-001
 3.3023834532e+000	 2.2570475246e+000	 1.3853712795e-001
 3.2790275563e+000	 2.2908466307e+000	 1.0429151253e-001
 3.2553041442e+000	 2.3244343245e+000	 1.9677490738e-002
 3.2312160404e+000	 2.3578046781e+000	-1.1087407722e-001
 3.2067661948e+000	 2.3909518130e+000	-2.8287758256e-001
 3.1819576824e+000	 2.4238699031e+000	-4.9180325675e-001
 3.1567937025e+000	 2.4565531787e+000	-7.3308784027e-001
 3.1312775773e+000	 2.4889959289e+000	-1.0021453032e+000
 3.1054127503e+000	 2.5211925056e+000	-7.5349782170e-001
 3.3689069327e+000	 2.2025192574e+000	-7.6412484278e-002
 3.3461526958e+000	 2.2369369987e+000	 6.2189224571e-003
 3.3230233498e+000	 2.2711540716e+000	 3.6668649522e-002
 3.2995214785e+000	 2.3051644221e+000	 1.9297743320e-002
 3.2756497951e+000	 2.3389620390e+000	-4.1463717016e-002
 3.2514111407e+000	 2.3725409573e+000	-1.4112719377e-001
 3.2268084835e+000	 2.4058952618e+000	-2.7515639185e-001
 3.2018449179e+000	 2.4390190900e+000	-4.3897805914e-001
 3.1765236632e+000	 2.4719066360e+000	-6.2799285747e-001
 3.1508480621e+000	 2.5045521534e+000	-8.3911304825e-001
 3.1248215800e+000	 2.5369499587e+000	-1.0866890123e+000
 3.3898318204e+000	 2.2161995012e+000	-1.8202222639e-001
 3.3669362530e+000	 2.2508310173e+000	-9.8435292315e-002
 3.3436632464e+000	 2.2852606186e+000	-6.0259890972e-002
 3.3200154007e+000	 2.3194822135e+000	-6.3061223890e-002
 3.2959954460e+000	 2.3534897535e+000	-1.0234195626e-001
 3.2716062409e+000	 2.3872772366e+000	-1.7355302325e-001
 3.2468507722e+000	 2.4208387106e+000	-2.7210455539e-001
 3.2217321534e+000	 2.4541682769e+000	-3.9337689468e-001
 3.1962536238e+000	 2.4872600934e+000	-5.3273167204e-001
 3.1704185470e+000	 2.5201083780e+000	-6.9808707909e-001
 3.1442304097e+000	 2.5527074119e+000	-9.0288789513e-001
 3.4107567082e+000	 2.2298797451e+000	-2.7917926816e-001
 3.3877198101e+000	 2.2647250359e+000	-1.9679195748e-001
 3.3643031429e+000	 2.2993671657e+000	-1.5311654773e-001
 3.3405093230e+000	 2.3338000050e+000	-1.4364171567e-001
 3.3163410969e+000	 2.3680174680e+000	-1.6380005260e-001
 3.2918013412e+000	 2.4020135158e+000	-2.0897910692e-001
 3.2668930610e+000	 2.4357821594e+000	-2.7453253797e-001
 3.2416193890e+000	 2.4693174638e+000	-3.5579135193e-001
 3.2159835844e+000	 2.5026135508e+000	-4.4938743362e-001
 3.1899890318e+000	 2.5356646025e+000	-5.7862565900e-001
 3.1636392394e+000	 2.5684648651e+000	-7.3791842985e-001
 3.4316815960e+000	 2.2435599889e+000	-3.6876649808e-001
 3.4085033672e+000	 2.2786190546e+000	-2.8972636023e-001
 3.3849430395e+000	 2.3134737127e+000	-2.4276729429e-001
 3.3610032452e+000	 2.3481177964e+000	-2.2329866705e-001
 3.3366867478e+000	 2.3825451826e+000	-2.2668016635e-001
 3.3119964414e+000	 2.4167497950e+000	-2.4823308396e-001
 3.2869353497e+000	 2.4507256083e+000	-2.8325170204e-001
 3.2615066245e+000	 2.4844666507e+000	-3.2701475320e-001
 3.2357135451e+000	 2.5179670081e+000	-3.8835693444e-001
 3.2095595167e+000	 2.5512208271e+000	-4.8058527544e-001
 3.1830480690e+000	 2.5842223182e+000	-5.9648389883e-001
 3.4526064838e+000	 2.2572402327e+000	-4.5166355940e-001
 3.4292869243e+000	 2.2925130732e+000	-3.7811113811e-001
 3.4055829361e+000	 2.3275802597e+000	-3.3007608655e-001
 3.3814971674e+000	 2.3624355879e+000	-3.0288566370e-001
 3.3570323987e+000	 2.3970728971e+000	-2.9182381273e-001
 3.3321915417e+000	 2.4314860743e+000	-2.9214268844e-001
 3.3069776384e+000	 2.4656690571e+000	-2.9907428051e-001
 3.2813938600e+000	 2.4996158376e+000	-3.0784210203e-001
 3.2554435057e+000	 2.5333204655e+000	-3.4660031923e-001
 3.2291300016e+000	 2.5667770517e+000	-4.0382582301e-001
 3.2024568987e+000	 2.5999797714e+000	-4.7840821491e-001
 3.4735313716e+000	 2.2709204766e+000	-5.2874694790e-001
 3.4500704814e+000	 2.3064070918e+000	-4.6281635883e-001
 3.4262228327e+000	 2.3416868067e+000	-4.1590492359e-001
 3.4019910896e+000	 2.3767533793e+000	-3.8325498256e-001
 3.3773780496e+000	 2.4116006116e+000	-3.6007188129e-001
 3.3523866420e+000	 2.4462223535e+000	-3.4153574652e-001
 3.3270199271e+000	 2.4806125059e+000	-3.2281335055e-001
 3.3012810955e+000	 2.5147650245e+000	-3.1171780676e-001
 3.2751734664e+000	 2.5486739229e+000	-3.2401454814e-001
 3.2487004864e+000	 2.5823332762e+000	-3.4821050078e-001
 3.2218657284e+000	 2.6157372245e+000	-3.8351948230e-001
 3.4944562593e+000	 2.2846007204e+000	-6.0089010610e-001
 3.4708540386e+000	 2.3203011104e+000	-5.4470959724e-001
 3.4468627293e+000	 2.3557933538e+000	-5.0111390620e-001
 3.4224850119e+000	 2.3910711707e+000	-4.6525763104e-001
 3.3977237005e+000	 2.4261283262e+000	-4.3226465463e-001
 3.3725817422e+000	 2.4609586328e+000	-3.9724017365e-001
 3.3470622158e+000	 2.4955559548e+000	-3.5528280829e-001
 3.3211683310e+000	 2.5299142114e+000	-3.3303826765e-001
 3.2949034270e+000	 2.5640273802e+000	-3.2049895876e-001
 3.2682709713e+000	 2.5978895008e+000	-3.1360571337e-001
 3.2412745581e+000	 2.6314946777e+000	-3.1164987112e-001
 3.5153811471e+000	 2.2982809642e+000	-6.6896351411e-001
 3.4916375957e+000	 2.3341951291e+000	-6.2465600945e-001
 3.4675026259e+000	 2.3698999008e+000	-5.8656129343e-001
 3.4429789341e+000	 2.4053889622e+000	-5.4974338477e-001
 3.4180693514e+000	 2.4406560407e+000	-5.0924182645e-001
 3.3927768425e+000	 2.4756949120e+000	-4.6008397196e-001
 3.3671045045e+000	 2.5104994036e+000	-4.0712484191e-001
 3.3410555665e+000	 2.5450633983e+000	-3.7149021709e-001
 3.3146333876e+000	 2.5793808376e+000	-3.3595519529e-001
 3.2878414561e+000	 2.6134457253e+000	-2.9988097556e-001
 3.2606833878e+000	 2.6472521309e+000	-2.6263549636e-001
 3.5363060349e+000	 2.3119612081e+000	-7.3383477735e-001
 3.5124211528e+000	 2.3480891477e+000	-7.0351840446e-001
 3.4881425224e+000	 2.3840064478e+000	-6.7310355705e-001
 3.4634728563e+000	 2.4197067536e+000	-6.3756082407e-001
 3.4384150023e+000	 2.4551837552e+000	-5.9184251904e-001
 3.4129719427e+000	 2.4904311912e+000	-5.3089522763e-001
 3.3871467933e+000	 2.5254428524e+000	-4.7763944403e-001
 3.3609428020e+000	 2.5602125852e+000	-4.2700763538e-001
 3.3343633483e+000	 2.5947342950e+000	-3.7028714034e-001
 3.3074119410e+000	 2.6290019499e+000	-3.0690882025e-001
 3.2800922175e+000	 2.6630095840e+000	-2.3631630119e-001
 3.5572309227e+000	 2.3256414519e+000	-7.9636871101e-001
 3.5332047099e+000	 2.3619831663e+000	-7.8215731316e-001
 3.5087824190e+000	 2.3981129948e+000	-7.6159543412e-001
 3.4839667785e+000	 2.4340245451e+000	-7.2955736912e-001
 3.4587606532e+000	 2.4697114697e+000	-6.8090530000e-001
 3.4331670430e+000	 2.5051674705e+000	-6.1566199942e-001
 3.4071890820e+000	 2.5403863013e+000	-5.6344033770e-001
 3.3808300376e+000	 2.5753617721e+000	-4.9952594832e-001
 3.3540933089e+000	 2.6100877523e+000	-4.2340084906e-001
 3.3269824258e+000	 2.6445581744e+000	-3.3456470971e-001
 3.2995010472e+000	 2.6787670372e+000	-2.3253594438e-001
 3.1054127503e+000	 2.5211925056e+000	-7.5349782170e-001
 3.0792027853e+000	 2.5531373263e+000	-5.3755705119e-001
 3.0526513643e+000	 2.5848248776e+000	-3.7239049516e-001
 3.0257622864e+000	 2.6162497178e+000	-2.5644128726e-001
 2.9985394656e+000	 2.6474064805e+000	-1.8813403115e-001
 2.9709869289e+000	 2.6782898775e+000	-1.6587842223e-001
 2.9431088147e+000	 2.7088947016e+000	-1.8807284038e-001
 2.9149093706e+000	 2.7392158296e+000	-2.5310790397e-001
 2.8863929509e+000	 2.7692482252e+000	-3.5936997583e-001
 2.8575640151e+000	 2.7989869417e+000	-5.0524461190e-001
 2.8284271247e+000	 2.8284271247e+000	-6.8911994367e-001
 3.1248215800e+000	 2.5369499587e+000	-1.0866890123e+000
 3.0984478027e+000	 2.5690944346e+000	-8.2139562856e-001
 3.0717304354e+000	 2.6009800331e+000	-6.1127075328e-001
 3.0446733007e+000	 2.6326012785e+000	-4.5470257864e-001
 3.0172803372e+000	 2.6639527710e+000	-3.5005745414e-001
 2.9895555972e+000	 2.6950291893e+000	-2.9568360321e-001
 2.9615032448e+000	 2.7258252935e+000	-2.8991481402e-001
 2.9331275541e+000	 2.7563359285e+000	-3.3107409490e-001
 2.9044329069e+000	 2.7865560266e+000	-4.1747728443e-001
 2.8754237902e+000	 2.8164806100e+000	-5.4743660710e-001
 2.8461047943e+000	 2.8461047943e+000	-7.1926416500e-001
 3.1442304097e+000	 2.5527074119e+000	-9.0288789513e-001
 3.1176928201e+000	 2.5850515429e+000	-1.1003143623e+000
 3.0908095064e+000	 2.6171351885e+000	-8.4499960569e-001
 3.0635843150e+000	 2.6489528392e+000	-6.4752660887e-001
 3.0360212089e+000	 2.6804990615e+000	-5.0620293655e-001
 3.0081242655e+000	 2.7117685010e+000	-4.1931485742e-001
 2.9798976749e+000	 2.7427558854e+000	-3.8513113440e-001
 2.9513457377e+000	 2.7734560275e+000	-4.0190678226e-001
 2.9224728628e+000	 2.8038638280e+000	-4.6788678296e-001
 2.8932835653e+000	 2.8339742784e+000	-5.8130974902e-001
 2.8637824638e+000	 2.8637824638e+000	-7.4041152542e-001
 3.1636392394e+000	 2.5684648651e+000	-7.3791842985e-001
 3.1369378375e+000	 2.6010086512e+000	-1.0798517431e+000
 3.1098885774e+000	 2.6332903440e+000	-1.0738233316e+000
 3.0824953293e+000	 2.6653044000e+000	-8.3517423158e-001
 3.0547620806e+000	 2.6970453520e+000	-6.5684656055e-001
 3.0266929338e+000	 2.7285078127e+000	-5.3706413946e-001
 2.9982921050e+000	 2.7596864773e+000	-4.7403026168e-001
 2.9695639212e+000	 2.7905761264e+000	-4.6593155397e-001
 2.9405128187e+000	 2.8211716294e+000	-5.1094179796e-001
 2.9111433403e+000	 2.8514679468e+000	-6.0722570214e-001
 2.8814601333e+000	 2.8814601333e+000	-7.5294261469e-001
 3.1830480690e+000	 2.5842223182e+000	-5.9648389883e-001
 3.1561828549e+000	 2.6169657595e+000	-8.9691359777e-001
 3.1289676484e+000	 2.6494454995e+000	-1.2076287899e+000
 3.1014063436e+000	 2.6816559607e+000	-1.0179101035e+000
 3.0735029522e+000	 2.7135916425e+000	-8.0226795185e-001
 3.0452616021e+000	 2.7452471245e+000	-6.4922666707e-001
 3.0166865351e+000	 2.7766170692e+000	-5.5692361818e-001
 2.9877821048e+000	 2.8076962253e+000	-5.2347663864e-001
 2.9585527747e+000	 2.8384794308e+000	-5.4698795486e-001
 2.9290031154e+000	 2.8689616152e+000	-6.2554806778e-001
 2.8991378028e+000	 2.8991378028e+000	-7.5723957741e-001
 3.2024568987e+000	 2.5999797714e+000	-4.7840821491e-001
 3.1754278723e+000	 2.6329228678e+000	-7.3700615264e-001
 3.1480467195e+000	 2.6656006550e+000	-1.0091448854e+000
 3.1203173579e+000	 2.6980075215e+000	-1.1960025693e+000
 3.0922438239e+000	 2.7301379330e+000	-9.4275017231e-001
 3.0638302704e+000	 2.7619864362e+000	-7.5610082228e-001
 3.0350809652e+000	 2.7935476611e+000	-6.3412549868e-001
 3.0060002884e+000	 2.8248163243e+000	-5.7487282557e-001
 2.9765927306e+000	 2.8557872322e+000	-5.7637310831e-001
 2.9468628905e+000	 2.8864552836e+000	-6.3664232544e-001
 2.9168154724e+000	 2.9168154724e+000	-7.5368606586e-001
 3.2218657284e+000	 2.6157372245e+000	-3.8351948230e-001
 3.1946728897e+000	 2.6488799761e+000	-5.9996584267e-001
 3.1671257905e+000	 2.6817558105e+000	-8.3316098162e-001
 3.1392283722e+000	 2.7143590822e+000	-1.0821517462e+000
 3.1109846955e+000	 2.7466842236e+000	-1.0785796164e+000
 3.0823989387e+000	 2.7787257480e+000	-8.5798805608e-001
 3.0534753953e+000	 2.8104782529e+000	-7.0595298381e-001
 3.0242184719e+000	 2.8419364232e+000	-6.2045338763e-001
 2.9946326866e+000	 2.8730950336e+000	-5.9944727503e-001
 2.9647226656e+000	 2.9039489520e+000	-6.4087577621e-001
 2.9344931419e+000	 2.9344931419e+000	-7.4266719465e-001
 3.2412745581e+000	 2.6314946777e+000	-3.1164987112e-001
 3.2139179071e+000	 2.6648370844e+000	-4.8563298917e-001
 3.1862048615e+000	 2.6979109660e+000	-6.7952633974e-001
 3.1581393865e+000	 2.7307106429e+000	-8.9234970899e-001
 3.1297255672e+000	 2.7632305141e+000	-1.1231149361e+000
 3.1009676070e+000	 2.7954650597e+000	-9.5519279657e-001
 3.0718698253e+000	 2.8274088448e+000	-7.7272585671e-001
 3.0424366555e+000	 2.8590565222e+000	-6.6055400685e-001
 3.0126726425e+000	 2.8904028350e+000	-6.1656256907e-001
 2.9825824407e+000	 2.9214426203e+000	-6.3861748827e-001
 2.9521708114e+000	 2.9521708114e+000	-7.2456949686e-001
 3.2606833878e+000	 2.6472521309e+000	-2.6263549636e-001
 3.2331629245e+000	 2.6807941927e+000	-3.9385168410e-001
 3.2052839325e+000	 2.7140661215e+000	-5.4809379882e-001
 3.1770504007e+000	 2.7470622037e+000	-7.2435453606e-001
 3.1484664388e+000	 2.7797768046e+000	-9.2161543642e-001
 3.1195362753e+000	 2.8122043714e+000	-1.0480223603e+000
 3.0902642554e+000	 2.8443394367e+000	-8.3476652260e-001
 3.0606548391e+000	 2.8761766211e+000	-6.9551270280e-001
 3.0307125985e+000	 2.9077106364e+000	-6.2807313943e-001
 3.0004422158e+000	 2.9389362887e+000	-6.3023824423e-001
 2.9698484810e+000	 2.9698484810e+000	-6.9978088192e-001
 3.2800922175e+000	 2.6630095840e+000	-2.3631630119e-001
 3.2524079419e+000	 2.6967513009e+000	-3.2446967851e-001
 3.2243630036e+000	 2.7302212769e+000	-4.3871966986e-001
 3.1959614150e+000	 2.7634137644e+000	-5.7803184654e-001
 3.1672073105e+000	 2.7963230951e+000	-7.4135744501e-001
 3.1381049436e+000	 2.8289436832e+000	-9.2763492557e-001
 3.1086586855e+000	 2.8612700286e+000	-8.9239993114e-001
 3.0788730226e+000	 2.8932967200e+000	-7.2566976334e-001
 3.0487525544e+000	 2.9250184379e+000	-6.3433510979e-001
 3.0183019909e+000	 2.9564299571e+000	-6.1611049048e-001
 2.9875261505e+000	 2.9875261505e+000	-6.6869059481e-001
 3.2995010472e+000	 2.6787670372e+000	-2.3253594438e-001
 3.2716529593e+000	 2.7127084092e+000	-2.7733827493e-001
 3.2434420746e+000	 2.7463764324e+000	-3.5126363373e-001
 3.2148724293e+000	 2.7797653252e+000	-4.5325043033e-001
 3.1859481822e+000	 2.8128693856e+000	-5.8221958726e-001
 3.1566736119e+000	 2.8456829949e+000	-7.3707613403e-001
 3.1270531156e+000	 2.8782006205e+000	-9.1671082702e-001
 3.0970912062e+000	 2.9104168190e+000	-7.5136767798e-001
 3.0667925103e+000	 2.9423262393e+000	-6.3570652048e-001
 3.0361617660e+000	 2.9739236255e+000	-5.9660828820e-001
 3.0052038200e+000	 3.0052038200e+000	-6.3168917680e-001
 2.8284271247e+000	 2.8284271247e+000	-6.8911994367e-001
 2.7989869417e+000	 2.8575640151e+000	-6.1588338144e-001
 2.7692482252e+000	 2.8863929509e+000	-5.6656386623e-001
 2.7392158296e+000	 2.9149093706e+000	-5.4015299788e-001
 2.7088947016e+000	 2.9431088147e+000	-5.3566540094e-001
 2.6782898775e+000	 2.9709869289e+000	-5.5214104755e-001
 2.6474064805e+000	 2.9985394656e+000	-5.8864745875e-001
 2.6162497178e+000	 3.0257622864e+000	-6.4428177892e-001
 2.5848248776e+000	 3.0526513643e+000	-7.1817271817e-001
 2.5531373263e+000	 3.0792027853e+000	-8.0948235860e-001
 2.5211925056e+000	 3.1054127503e+000	-9.1740782006e-001
 2.8461047943e+000	 2.8461047943e+000	-7.1926416500e-001
 2.8164806100e+000	 2.8754237902e+000	-6.4632176110e-001
 2.7865560266e+000	 2.9044329069e+000	-5.9711927535e-001
 2.7563359285e+000	 2.9331275541e+000	-5.7061994603e-001
 2.7258252935e+000	 2.9615032448e+000	-5.6581151645e-001
 2.6950291893e+000	 2.9895555972e+000	-5.8170860937e-001
 2.6639527710e+000	 3.0172803372e+000	-6.1735497604e-001
 2.6326012785e+000	 3.0446733007e+000	-6.7182561440e-001
 2.6009800331e+000	 3.0717304354e+000	-7.4422875127e-001
 2.5690944346e+000	 3.0984478027e+000	-8.3370768416e-001
 2.5369499587e+000	 3.1248215800e+000	-9.3944247860e-001
 2.8637824638e+000	 2.8637824638e+000	-7.4041152542e-001
 2.8339742784e+000	 2.8932835653e+000	-6.6796773180e-001
 2.8038638280e+000	 2.9224728628e+000	-6.1907760832e-001
 2.7734560275e+000	 2.9513457377e+000	-5.9267547786e-001
 2.7427558854e+000	 2.9798976749e+000	-5.8772167322e-001
 2.7117685010e+000	 3.0081242655e+000	-6.0320496392e-001
 2.6804990615e+000	 3.0360212089e+000	-6.3814485375e-001
 2.6489528392e+000	 3.0635843150e+000	-6.9159374344e-001
 2.6171351885e+000	 3.0908095064e+000	-7.6263895330e-001
 2.5850515429e+000	 3.1176928201e+000	-8.5040460125e-001
 2.5527074119e+000	 3.1442304097e+000	-8.9364370210e-001
 2.8814601333e+000	 2.8814601333e+000	-7.5294261469e-001
 2.8514679468e+000	 2.9111433403e+000	-6.8120409058e-001
 2.8211716294e+000	 2.9405128187e+000	-6.3282354623e-001
 2.7905761264e+000	 2.9695639212e+000	-6.0670583159e-001
 2.7596864773e+000	 2.9982921050e+000	-6.0178333629e-001
 2.7285078127e+000	 3.0266929338e+000	-6.1701846970e-001
 2.6970453520e+000	 3.0547620806e+000	-6.5140600777e-001
 2.6653044000e+000	 3.0824953293e+000	-7.0397530087e-001
 2.6332903440e+000	 3.1098885774e+000	-7.7379233759e-001
 2.6010086512e+000	 3.1369378375e+000	-8.2596196698e-001
 2.5684648651e+000	 3.1636392394e+000	-8.4568504458e-001
 2.8991378028e+000	 2.8991378028e+000	-7.5723957741e-001
 2.8689616152e+000	 2.9290031154e+000	-6.8641520921e-001
 2.8384794308e+000	 2.9585527747e+000	-6.3874336681e-001
 2.8076962253e+000	 2.9877821048e+000	-6.1309886589e-001
 2.7766170692e+000	 3.0166865351e+000	-6.0838561690e-001
 2.7452471245e+000	 3.0452616021e+000	-6.2353915910e-001
 2.7135916425e+000	 3.0735029522e+000	-6.5752905748e-001
 2.6816559607e+000	 3.1014063436e+000	-7.0936115656e-001
 2.6494454995e+000	 3.1289676484e+000	-7.6785581119e-001
 2.6169657595e+000	 3.1561828549e+000	-7.7834598375e-001
 2.5842223182e+000	 3.1830480690e+000	-7.9663969449e-001
 2.9168154724e+000	 2.9168154724e+000	-7.5368606586e-001
 2.8864552836e+000	 2.9468628905e+000	-6.8398698650e-001
 2.8557872322e+000	 2.9765927306e+000	-6.3722489596e-001
 2.8248163243e+000	 3.0060002884e+000	-6.1224401073e-001
 2.7935476611e+000	 3.0350809652e+000	-6.0791922260e-001
 2.7619864362e+000	 3.0638302704e+000	-6.2315868770e-001
 2.7301379330e+000	 3.0922438239e+000	-6.5690627419e-001
 2.6980075215e+000	 3.1203173579e+000	-7.0814386282e-001
 2.6656006550e+000	 3.1480467195e+000	-7.1974154707e-001
 2.6329228678e+000	 3.1754278723e+000	-7.2987171262e-001
 2.5999797714e+000	 3.2024568987e+000	-7.4699734088e-001
 2.9344931419e+000	 2.9344931419e+000	-7.4266719465e-001
 2.9039489520e+000	 2.9647226656e+000	-6.7430680226e-001
 2.8730950336e+000	 2.9946326866e+000	-6.2865746123e-001
 2.8419364232e+000	 3.0242184719e+000	-6.0453222010e-001
 2.8104782529e+000	 3.0534753953e+000	-6.0077640918e-001
 2.7787257480e+000	 3.0823989387e+000	-6.1627028534e-001
 2.7466842236e+000	 3.1109846955e+000	-6.4993153134e-001
 2.7143590822e+000	 3.1392283722e+000	-6.6957611124e-001
 2.6817558105e+000	 3.1671257905e+000	-6.7097251251e-001
 2.6488799761e+000	 3.1946728897e+000	-6.8102859351e-001
 2.6157372245e+000	 3.2218657284e+000	-6.9724940405e-001
 2.9521708114e+000	 2.9521708114e+000	-7.2456949686e-001
 2.9214426203e+000	 2.9825824407e+000	-6.5776347297e-001
 2.8904028350e+000	 3.0126726425e+000	-6.1343184676e-001
 2.8590565222e+000	 3.0424366555e+000	-5.9035592635e-001
 2.8274088448e+000	 3.0718698253e+000	-5.8735093433e-001
 2.7954650597e+000	 3.1009676070e+000	-6.0326870906e-001
 2.7632305141e+000	 3.1297255672e+000	-6.2771502003e-001
 2.7307106429e+000	 3.1581393865e+000	-6.1962870278e-001
 2.6979109660e+000	 3.1862048615e+000	-6.2203736592e-001
 2.6648370844e+000	 3.2139179071e+000	-6.3230771193e-001
 2.6314946777e+000	 3.2412745581e+000	-6.4788898367e-001
 2.9698484810e+000	 2.9698484810e+000	-6.9978088192e-001
 2.9389362887e+000	 3.0004422158e+000	-6.3474720904e-001
 2.9077106364e+000	 3.0307125985e+000	-5.9194024998e-001
 2.8761766211e+000	 3.0606548391e+000	-5.7010899623e-001
 2.8443394367e+000	 3.0902642554e+000	-5.6803801291e-001
 2.8122043714e+000	 3.1195362753e+000	-5.8455019757e-001
 2.7797768046e+000	 3.1484664388e+000	-5.7569169445e-001
 2.7470622037e+000	 3.1770504007e+000	-5.6969204361e-001
 2.7140661215e+000	 3.2052839325e+000	-5.7342633110e-001
 2.6807941927e+000	 3.2331629245e+000	-5.8420174995e-001
 2.6472521309e+000	 3.2606833878e+000	-5.9941080884e-001
 2.9875261505e+000	 2.9875261505e+000	-6.6869059481e-001
 2.9564299571e+000	 3.0183019909e+000	-6.0564957358e-001
 2.9250184379e+000	 3.0487525544e+000	-5.6457623981e-001
 2.8932967200e+000	 3.0788730226e+000	-5.4418668839e-001
 2.8612700286e+000	 3.1086586855e+000	-5.4323427384e-001
 2.8289436832e+000	 3.1381049436e+000	-5.3919147636e-001
 2.7963230951e+000	 3.1672073105e+000	-5.2382973096e-001
 2.7634137644e+000	 3.1959614150e+000	-5.2025498389e-001
 2.7302212769e+000	 3.2243630036e+000	-5.2563115088e-001
 2.6967513009e+000	 3.2524079419e+000	-5.3720493897e-001
 2.6630095840e+000	 3.2800922175e+000	-5.5231118987e-001
 3.0052038200e+000	 3.0052038200e+000	-6.3168917680e-001
 2.9739236255e+000	 3.0361617660e+000	-5.7086344255e-001
 2.9423262393e+000	 3.0667925103e+000	-5.3173471627e-001
 2.9104168190e+000	 3.0970912062e+000	-5.1298561249e-001
 2.8782006205e+000	 3.1270531156e+000	-5.1035029263e-001
 2.8456829949e+000	 3.1566736119e+000	-4.8447022055e-001
 2.8128693856e+000	 3.1859481822e+000	-4.7261610913e-001
 2.7797653252e+000	 3.2148724293e+000	-4.7180782029e-001
 2.7463764324e+000	 3.2434420746e+000	-4.7914504249e-001
 2.7127084092e+000	 3.2716529593e+000	-4.9181301419e-001
 2.6787670372e+000	 3.2995010472e+000	-5.0708797178e-001
 2.5211925056e+000	 3.1054127503e+000	-9.1740782006e-001
 2.4889959289e+000	 3.1312775773e+000	-9.4028266078e-001
 2.4565531787e+000	 3.1567937025e+000	-6.6359707928e-001
 2.4238699031e+000	 3.1819576824e+000	-4.4531935012e-001
 2.3909518130e+000	 3.2067661948e+000	-2.8028799643e-001
 2.3578046781e+000	 3.2312160404e+000	-1.6351048996e-001
 2.3244343245e+000	 3.2553041442e+000	-9.0169880513e-002
 2.2908466307e+000	 3.2790275563e+000	-5.5630799210e-002
 2.2570475246e+000	 3.3023834532e+000	-5.5444829154e-002
 2.2230429801e+000	 3.3253691387e+000	-8.5355239194e-002
 2.1888390135e+000	 3.3479820449e+000	-1.4130107865e-001
 2.5369499587e+000	 3.1248215800e+000	-9.3944247860e-001
 2.5045521534e+000	 3.1508480621e+000	-1.0329787654e+000
 2.4719066360e+000	 3.1765236632e+000	-8.1193593098e-001
 2.4390190900e+000	 3.2018449179e+000	-5.9066238355e-001
 2.4058952618e+000	 3.2268084835e+000	-4.2150154472e-001
 2.3725409573e+000	 3.2514111407e+000	-2.9938575697e-001
 2.3389620390e+000	 3.2756497951e+000	-2.1942933781e-001
 2.3051644221e+000	 3.2995214785e+000	-1.7693465417e-001
 2.2711540716e+000	 3.3230233498e+000	-1.6739754823e-001
 2.2369369987e+000	 3.3461526958e+000	-1.8651211040e-001
 2.2025192574e+000	 3.3689069327e+000	-2.3017479728e-001
 2.5527074119e+000	 3.1442304097e+000	-8.9364370210e-001
 2.5201083780e+000	 3.1704185470e+000	-9.7768681103e-001
 2.4872600934e+000	 3.1962536238e+000	-9.3944689167e-001
 2.4541682769e+000	 3.2217321534e+000	-7.1562802281e-001
 2.4208387106e+000	 3.2468507722e+000	-5.4271669157e-001
 2.3872772366e+000	 3.2716062409e+000	-4.1556896587e-001
 2.3534897535e+000	 3.2959954460e+000	-3.2922941409e-001
 2.3194822135e+000	 3.3200154007e+000	-2.7893725150e-001
 2.2852606186e+000	 3.3436632464e+000	-2.6013182179e-001
 2.2508310173e+000	 3.3669362530e+000	-2.6845740946e-001
 2.2161995012e+000	 3.3898318204e+000	-2.9976738108e-001
 2.5684648651e+000	 3.1636392394e+000	-8.4568504458e-001
 2.5356646025e+000	 3.1899890318e+000	-9.2123559333e-001
 2.5026135508e+000	 3.2159835844e+000	-1.0193904248e+000
 2.4693174638e+000	 3.2416193890e+000	-8.2180909465e-001
 2.4357821594e+000	 3.2668930610e+000	-6.4552189645e-001
 2.4020135158e+000	 3.2918013412e+000	-5.1364317838e-001
 2.3680174680e+000	 3.3163410969e+000	-4.2114674145e-001
 2.3338000050e+000	 3.3405093230e+000	-3.6320776145e-001
 2.2993671657e+000	 3.3643031429e+000	-3.3520832678e-001
 2.2647250359e+000	 3.3877198101e+000	-3.3274229056e-001
 2.2298797451e+000	 3.4107567082e+000	-3.5161943514e-001
 2.5842223182e+000	 3.1830480690e+000	-7.9663969449e-001
 2.5512208271e+000	 3.2095595167e+000	-8.6411120691e-001
 2.5179670081e+000	 3.2357135451e+000	-9.5354621228e-001
 2.4844666507e+000	 3.2615066245e+000	-9.1080063169e-001
 2.4507256083e+000	 3.2869353497e+000	-7.3150794694e-001
 2.4167497950e+000	 3.3119964414e+000	-5.9519390688e-001
 2.3825451826e+000	 3.3366867478e+000	-4.9676052527e-001
 2.3481177964e+000	 3.3610032452e+000	-4.3131805027e-001
 2.3134737127e+000	 3.3849430395e+000	-3.9419055896e-001
 2.2786190546e+000	 3.4085033672e+000	-3.8092084945e-001
 2.2435599889e+000	 3.4316815960e+000	-3.8727462871e-001
 2.5999797714e+000	 3.2024568987e+000	-7.4699734088e-001
 2.5667770517e+000	 3.2291300016e+000	-8.0680164905e-001
 2.5333204655e+000	 3.2554435057e+000	-8.8790174206e-001
 2.4996158376e+000	 3.2813938600e+000	-9.8419980550e-001
 2.4656690571e+000	 3.3069776384e+000	-8.0226788818e-001
 2.4314860743e+000	 3.3321915417e+000	-6.6180904007e-001
 2.3970728971e+000	 3.3570323987e+000	-5.5765246624e-001
 2.3624355879e+000	 3.3814971674e+000	-4.8484259855e-001
 2.3275802597e+000	 3.4055829361e+000	-4.3864474743e-001
 2.2925130732e+000	 3.4292869243e+000	-4.1455003424e-001
 2.2572402327e+000	 3.4526064838e+000	-4.0827960237e-001
 2.6157372245e+000	 3.2218657284e+000	-6.9724940405e-001
 2.5823332762e+000	 3.2487004864e+000	-7.4979676235e-001
 2.5486739229e+000	 3.2751734664e+000	-8.2294490880e-001
 2.5147650245e+000	 3.3012810955e+000	-9.1411205086e-001
 2.4806125059e+000	 3.3270199271e+000	-8.5939695491e-001
 2.4462223535e+000	 3.3523866420e+000	-7.1507877145e-001
 2.4116006116e+000	 3.3773780496e+000	-6.0540668515e-001
 2.3767533793e+000	 3.4019910896e+000	-5.2535842241e-001
 2.3416868067e+000	 3.4262228327e+000	-4.7013977232e-001
 2.3064070918e+000	 3.4500704814e+000	-4.3518955952e-001
 2.2709204766e+000	 3.4735313716e+000	-4.1618387852e-001
 2.6314946777e+000	 3.2412745581e+000	-6.4788898367e-001
 2.5978895008e+000	 3.2682709713e+000	-6.9358817950e-001
 2.5640273802e+000	 3.2949034270e+000	-7.5916550828e-001
 2.5299142114e+000	 3.3211683310e+000	-8.4199930349e-001
 2.4955559548e+000	 3.3470622158e+000	-9.0449250584e-001
 2.4609586328e+000	 3.3725817422e+000	-7.5659553029e-001
 2.4261283262e+000	 3.3977237005e+000	-6.4160965048e-001
 2.3910711707e+000	 3.4224850119e+000	-5.5444499765e-001
 2.3557933538e+000	 3.4468627293e+000	-4.9024708543e-001
 2.3203011104e+000	 3.4708540386e+000	-4.4440182350e-001
 2.2846007204e+000	 3.4944562593e+000	-4.1253977512e-001
 2.6472521309e+000	 3.2606833878e+000	-5.9941080884e-001
 2.6134457253e+000	 3.2878414561e+000	-6.3866927002e-001
 2.5793808376e+000	 3.3146333876e+000	-6.9705518081e-001
 2.5450633983e+000	 3.3410555665e+000	-7.7190613905e-001
 2.5104994036e+000	 3.3671045045e+000	-8.6064522552e-001
 2.4756949120e+000	 3.3927768425e+000	-7.8795391509e-001
 2.4406560407e+000	 3.4180693514e+000	-6.6785010852e-001
 2.4053889622e+000	 3.4429789341e+000	-5.7368418650e-001
 2.3698999008e+000	 3.4675026259e+000	-5.0054063368e-001
 2.3341951291e+000	 3.4916375957e+000	-4.4375182820e-001
 2.2982809642e+000	 3.5153811471e+000	-3.9890232247e-001
 2.6630095840e+000	 3.2800922175e+000	-5.5231118987e-001
 2.6290019499e+000	 3.3074119410e+000	-5.8553508879e-001
 2.5947342950e+000	 3.3343633483e+000	-6.3710735667e-001
 2.5602125852e+000	 3.3609428020e+000	-7.0432399099e-001
 2.5254428524e+000	 3.3871467933e+000	-7.8456930806e-001
 2.4904311912e+000	 3.4129719427e+000	-8.1075062942e-001
 2.4551837552e+000	 3.4384150023e+000	-6.8571901594e-001
 2.4197067536e+000	 3.4634728563e+000	-5.8466016704e-001
 2.3840064478e+000	 3.4881425224e+000	-5.0259678528e-001
 2.3480891477e+000	 3.5124211528e+000	-4.3480710233e-001
 2.3119612081e+000	 3.5363060349e+000	-3.7682918297e-001
 2.6787670372e+000	 3.2995010472e+000	-5.0708797178e-001
 2.6445581744e+000	 3.3269824258e+000	-5.3468232660e-001
 2.6100877523e+000	 3.3540933089e+000	-5.7981720343e-001
 2.5753617721e+000	 3.3808300376e+000	-6.3974613184e-001
 2.5403863013e+000	 3.4071890820e+000	-7.1181384707e-001
 2.5051674705e+000	 3.4331670430e+000	-7.9346064459e-001
 2.4697114697e+000	 3.4587606532e+000	-6.9680947484e-001
 2.4340245451e+000	 3.4839667785e+000	-5.8895936509e-001
 2.3981129948e+000	 3.5087824190e+000	-4.9799425855e-001
 2.3619831663e+000	 3.5332047099e+000	-4.1913762707e-001
 2.3256414519e+000	 3.5572309227e+000	-3.4788057368e-001
 2.1888390135e+000	 3.3479820449e+000	-1.4130107865e-001
 2.1544416806e+000	 3.3702197324e+000	-2.7538631599e-001
 2.1198570727e+000	 3.3920798916e+000	-3.9921030986e-001
 2.0850913135e+000	 3.4135603429e+000	-5.1033335774e-001
 2.0501505556e+000	 3.4346590368e+000	-6.0654011348e-001
 2.0150409773e+000	 3.4553740550e+000	-6.8583929224e-001
 1.9797687788e+000	 3.4757036097e+000	-7.4646275451e-001
 1.9443401791e+000	 3.4956460444e+000	-7.8686398275e-001
 1.9087614125e+000	 3.5151998336e+000	-8.0571596615e-001
 1.8730387253e+000	 3.5343635826e+000	-7.6088070354e-001
 1.8371783722e+000	 3.5531360273e+000	 1.3030350132e-002
 2.2025192574e+000	 3.3689069327e+000	-2.3017479728e-001
 2.1679069412e+000	 3.3912836057e+000	-3.6746486911e-001
 2.1331061794e+000	 3.4132803910e+000	-4.9195207862e-001
 2.0981231342e+000	 3.4348950950e+000	-6.0113994681e-001
 2.0629639966e+000	 3.4561256558e+000	-6.9276415760e-001
 2.0276349834e+000	 3.4769701428e+000	-7.6479223187e-001
 1.9921423336e+000	 3.4974267573e+000	-8.1542256413e-001
 1.9564923052e+000	 3.5174938322e+000	-8.4308283568e-001
 1.9206911713e+000	 3.5371698326e+000	-8.4642782029e-001
 1.8847452173e+000	 3.5564533549e+000	-8.2433659966e-001
 1.8486607371e+000	 3.5753431275e+000	-2.3009167656e-001
 2.2161995012e+000	 3.3898318204e+000	-2.9976738108e-001
 2.1813722017e+000	 3.4123474791e+000	-4.3930739478e-001
 2.1463552861e+000	 3.4344808903e+000	-5.6343863787e-001
 2.1111549549e+000	 3.4562298472e+000	-6.6960807763e-001
 2.0757774376e+000	 3.4775922748e+000	-7.5550276836e-001
 2.0402289895e+000	 3.4985662307e+000	-8.1904949319e-001
 2.0045158885e+000	 3.5191499048e+000	-8.5841375163e-001
 1.9686444313e+000	 3.5393416200e+000	-8.7199810745e-001
 1.9326209301e+000	 3.5591398315e+000	-8.5843991313e-001
 1.8964517093e+000	 3.5785431273e+000	-8.1660842860e-001
 1.8601431019e+000	 3.5975502277e+000	-4.3998454636e-001
 2.2298797451e+000	 3.4107567082e+000	-3.5161943514e-001
 2.1948374622e+000	 3.4334113524e+000	-4.9245780766e-001
 2.1596043928e+000	 3.4556813896e+000	-6.1521596032e-001
 2.1241867756e+000	 3.4775645993e+000	-7.1728452974e-001
 2.0885908786e+000	 3.4990588938e+000	-7.9630228259e-001
 2.0528229956e+000	 3.5201623185e+000	-8.5015572360e-001
 2.0168894434e+000	 3.5408730524e+000	-8.7697803238e-001
 1.9807965574e+000	 3.5611894078e+000	-8.7514734417e-001
 1.9445506890e+000	 3.5811098305e+000	-8.4328439082e-001
 1.9081582014e+000	 3.6006328997e+000	-7.8024952064e-001
 1.8716254667e+000	 3.6197573278e+000	-6.1640740132e-001
 2.2435599889e+000	 3.4316815960e+000	-3.8727462871e-001
 2.2083027227e+000	 3.4544752257e+000	-5.2846284612e-001
 2.1728534996e+000	 3.4768818889e+000	-6.4883260748e-001
 2.1372185963e+000	 3.4988993514e+000	-7.4571844223e-001
 2.1014043195e+000	 3.5205255128e+000	-8.1671117307e-001
 2.0654170017e+000	 3.5417584064e+000	-8.5965748862e-001
 2.0292629983e+000	 3.5625962000e+000	-8.7265882797e-001
 1.9929486836e+000	 3.5830371956e+000	-8.5406959215e-001
 1.9564804478e+000	 3.6030798295e+000	-8.0249469975e-001
 1.9198646934e+000	 3.6227226721e+000	-7.1678650540e-001
 1.8831078316e+000	 3.6419644280e+000	-5.9604110176e-001
 2.2572402327e+000	 3.4526064838e+000	-4.0827960237e-001
 2.2217679832e+000	 3.4755390991e+000	-5.4887198674e-001
 2.1861026063e+000	 3.4980823883e+000	-6.6583965127e-001
 2.1502504171e+000	 3.5202341036e+000	-7.5646124224e-001
 2.1142177605e+000	 3.5419921317e+000	-8.1827998379e-001
 2.0780110078e+000	 3.5633544942e+000	-8.4910321383e-001
 2.0416365531e+000	 3.5843193475e+000	-8.4700121447e-001
 2.0051008097e+000	 3.6048849833e+000	-8.1030535246e-001
 1.9684102066e+000	 3.6250498284e+000	-7.3760554714e-001
 1.9315711854e+000	 3.6448124445e+000	-6.2774708532e-001
 1.8945901964e+000	 3.6641715282e+000	-4.7982680398e-001
 2.2709204766e+000	 3.4735313716e+000	-4.1618387852e-001
 2.2352332437e+000	 3.4966029724e+000	-5.5523736177e-001
 2.1993517130e+000	 3.5192828876e+000	-6.6779059836e-001
 2.1632822378e+000	 3.5415688557e+000	-7.5106657602e-001
 2.1270312015e+000	 3.5634587507e+000	-8.0256126760e-001
 2.0906050139e+000	 3.5849505821e+000	-8.2004312878e-001
 2.0540101080e+000	 3.6060424951e+000	-8.0155187264e-001
 2.0172529358e+000	 3.6267327711e+000	-7.4539653709e-001
 1.9803399655e+000	 3.6470198274e+000	-6.5015286306e-001
 1.9432776775e+000	 3.6669022169e+000	-5.1466000332e-001
 1.9060725612e+000	 3.6863786283e+000	-3.3801658340e-001
 2.2846007204e+000	 3.4944562593e+000	-4.1253977512e-001
 2.2486985042e+000	 3.5176668457e+000	-5.4911367967e-001
 2.2126008197e+000	 3.5404833869e+000	-6.5624131732e-001
 2.1763140585e+000	 3.5629036079e+000	-7.3109024250e-001
 2.1398446424e+000	 3.5849253697e+000	-7.7110952603e-001
 2.1031990201e+000	 3.6065466699e+000	-7.7402921301e-001
 2.0663836629e+000	 3.6277656426e+000	-7.3785903987e-001
 2.0294050619e+000	 3.6485805589e+000	-6.6088642676e-001
 1.9922697243e+000	 3.6689898263e+000	-5.4167376385e-001
 1.9549841695e+000	 3.6889919893e+000	-3.7905501168e-001
 1.9175549260e+000	 3.7085857285e+000	-1.7213163773e-001
 2.2982809642e+000	 3.5153811471e+000	-3.9890232247e-001
 2.2621637647e+000	 3.5387307190e+000	-5.3205814843e-001
 2.2258499264e+000	 3.5616838862e+000	-6.3274996828e-001
 2.1893458792e+000	 3.5842383600e+000	-6.9809012923e-001
 2.1526580834e+000	 3.6063919887e+000	-7.2548115131e-001
 2.1157930262e+000	 3.6281427577e+000	-7.1261514398e-001
 2.0787572177e+000	 3.6494887902e+000	-6.5747246384e-001
 2.0415571880e+000	 3.6704283467e+000	-5.5831963012e-001
 2.0041994831e+000	 3.6909598253e+000	-4.1370651676e-001
 1.9666906615e+000	 3.7110817617e+000	-2.2246284199e-001
 1.9290372909e+000	 3.7307928287e+000	 1.6306022166e-002
 2.3119612081e+000	 3.5363060349e+000	-3.7682918297e-001
 2.2756290252e+000	 3.5597945924e+000	-5.0563040159e-001
 2.2390990331e+000	 3.5828843855e+000	-5.9887693516e-001
 2.2023776999e+000	 3.6055731122e+000	-6.5362615059e-001
 2.1654715244e+000	 3.6278586077e+000	-6.6723437043e-001
 2.1283870323e+000	 3.6497388456e+000	-6.3735624678e-001
 2.0911307726e+000	 3.6712119378e+000	-5.6194335785e-001
 2.0537093142e+000	 3.6922761344e+000	-4.3924204450e-001
 2.0161292419e+000	 3.7129298243e+000	-2.6779050596e-001
 1.9783971536e+000	 3.7331715341e+000	-4.6415176154e-002
 1.9405196557e+000	 3.7529999288e+000	 1.9912069374e-001
 2.3256414519e+000	 3.5572309227e+000	-3.4788057368e-001
 2.2890942857e+000	 3.5808584657e+000	-4.7139242691e-001
 2.2523481398e+000	 3.6040848849e+000	-5.5618476027e-001
 2.2154095206e+000	 3.6269078643e+000	-5.9926018814e-001
 2.1782849654e+000	 3.6493252266e+000	-5.9792919117e-001
 2.1409810384e+000	 3.6713349334e+000	-5.4980944574e-001
 2.1035043275e+000	 3.6929350853e+000	-4.5282435772e-001
 2.0658614403e+000	 3.7141239222e+000	-3.0520081799e-001
 2.0280590008e+000	 3.7348998232e+000	-1.0546619964e-001
 1.9901036456e+000	 3.7552613065e+000	 1.0183057373e-001
 1.9520020205e+000	 3.7752070290e+000	 2.0969176043e-001
 1.8371783722e+000	 3.5531360273e+000	 1.3030350132e-002
 1.8011866135e+000	 3.5715160343e+000	-1.5048975785e-002
 1.7650697110e+000	 3.5895026000e+000	-2.3248011243e-002
 1.7288339256e+000	 3.6070948501e+000	-1.6237065246e-002
 1.6924855132e+000	 3.6242920395e+000	 1.4900930927e-003
 1.6560307222e+000	 3.6410935510e+000	 2.5620658066e-002
 1.6194757899e+000	 3.6574988949e+000	 5.2026750799e-002
 1.5828269397e+000	 3.6735077078e+000	 7.6768922396e-002
 1.5460903777e+000	 3.6891197520e+000	 9.6099197915e-002
 1.5092722896e+000	 3.7043349141e+000	 1.0646366348e-001
 1.4723788383e+000	 3.7191532043e+000	 1.0450460009e-001
 1.8486607371e+000	 3.5753431275e+000	-2.3009167656e-001
 1.8124440298e+000	 3.5938380095e+000	-2.2753523789e-001
 1.7761013967e+000	 3.6119369912e+000	-2.1296263304e-001
 1.7396391376e+000	 3.6296391930e+000	-1.9073669895e-001
 1.7030635476e+000	 3.6469438648e+000	-1.6503767996e-001
 1.6663809142e+000	 3.6638503857e+000	-1.3985916205e-001
 1.6295975136e+000	 3.6803582629e+000	-1.1900447300e-001
 1.5927196081e+000	 3.6964671309e+000	-1.0608354809e-001
 1.5557534425e+000	 3.7121767504e+000	-1.0451025940e-001
 1.5187052414e+000	 3.7274870073e+000	-1.1750020582e-001
 1.4815812060e+000	 3.7423979118e+000	-1.4806895959e-001
 1.8601431019e+000	 3.5975502277e+000	-4.3998454636e-001
 1.8237014462e+000	 3.6161599847e+000	-3.9909071836e-001
 1.7871330824e+000	 3.6343713825e+000	-3.5402258246e-001
 1.7504443496e+000	 3.6521835358e+000	-3.0884018928e-001
 1.7136415821e+000	 3.6695956900e+000	-2.6741488504e-001
 1.6767311062e+000	 3.6866072204e+000	-2.3342559962e-001
 1.6397192373e+000	 3.7032176310e+000	-2.1035560661e-001
 1.6026122765e+000	 3.7194265541e+000	-2.0148975407e-001
 1.5654165074e+000	 3.7352337488e+000	-2.0991216381e-001
 1.5281381932e+000	 3.7506391005e+000	-2.4370464083e-001
 1.4907835738e+000	 3.7656426193e+000	-4.1999777265e-001
 1.8716254667e+000	 3.6197573278e+000	-6.1640740132e-001
 1.8349588625e+000	 3.6384819600e+000	-5.2960216259e-001
 1.7981647681e+000	 3.6568057737e+000	-4.4644373909e-001
 1.7612495617e+000	 3.6747278786e+000	-3.7069402014e-001
 1.7242196165e+000	 3.6922475153e+000	-3.0592001915e-001
 1.6870812982e+000	 3.7093640551e+000	-2.5549051160e-001
 1.6498409610e+000	 3.7260769991e+000	-2.2257315120e-001
 1.6125049449e+000	 3.7423859773e+000	-2.1013206231e-001
 1.5750795722e+000	 3.7582907473e+000	-2.9481782517e-001
 1.5375711450e+000	 3.7737911937e+000	-4.7622873981e-001
 1.4999859415e+000	 3.7888873268e+000	-6.8697466180e-001
 1.8831078316e+000	 3.6419644280e+000	-5.9604110176e-001
 1.8462162788e+000	 3.6608039352e+000	-6.1895399705e-001
 1.8091964538e+000	 3.6792401650e+000	-4.9023639745e-001
 1.7720547737e+000	 3.6972722214e+000	-3.7643579720e-001
 1.7347976510e+000	 3.7148993405e+000	-2.8081938250e-001
 1.6974314902e+000	 3.7321208898e+000	-2.0645021581e-001
 1.6599626847e+000	 3.7489363672e+000	-1.5618470449e-001
 1.6223976132e+000	 3.7653454004e+000	-2.7956684224e-001
 1.5847426371e+000	 3.7813477457e+000	-4.5055175521e-001
 1.5470040968e+000	 3.7969432870e+000	-6.5663478799e-001
 1.5091883092e+000	 3.8121320343e+000	-8.9500879539e-001
 1.8945901964e+000	 3.6641715282e+000	-4.7982680398e-001
 1.8574736952e+000	 3.6831259104e+000	-6.6702839963e-001
 1.8202281395e+000	 3.7016745562e+000	-4.8540543625e-001
 1.7828599857e+000	 3.7198165642e+000	-3.2619451693e-001
 1.7453756855e+000	 3.7375511658e+000	-1.9236744809e-001
 1.7077816822e+000	 3.7548777245e+000	-1.3312992655e-001
 1.6700844084e+000	 3.7717957353e+000	-2.3212947394e-001
 1.6322902816e+000	 3.7883048236e+000	-3.7610152571e-001
 1.5944057020e+000	 3.8044047442e+000	-5.6176599792e-001
 1.5564370487e+000	 3.8200953802e+000	-7.8586867890e-001
 1.5183906770e+000	 3.8353767419e+000	-1.0451855580e+000
 1.9060725612e+000	 3.6863786283e+000	-3.3801658340e-001
 1.8687311115e+000	 3.7054478856e+000	-6.7370536730e-001
 1.8312598252e+000	 3.7241089475e+000	-4.3195048155e-001
 1.7936651978e+000	 3.7423609070e+000	-2.2009082593e-001
 1.7559537199e+000	 3.7602029910e+000	-1.4108155957e-001
 1.7181318743e+000	 3.7776345592e+000	-1.8759300841e-001
 1.6802061321e+000	 3.7946551034e+000	-2.8693238428e-001
 1.6421829500e+000	 3.8112642468e+000	-4.3538134309e-001
 1.6040687668e+000	 3.8274617426e+000	-6.2924341988e-001
 1.5658700005e+000	 3.8432474734e+000	-8.6484892599e-001
 1.5275930447e+000	 3.8586214494e+000	-1.1385597225e+000
 1.9175549260e+000	 3.7085857285e+000	-1.7213163773e-001
 1.8799885278e+000	 3.7277698608e+000	-5.4663117177e-001
 1.8422915109e+000	 3.7465433387e+000	-3.2986606400e-001
 1.8044704098e+000	 3.7649052498e+000	-2.0737277296e-001
 1.7665317544e+000	 3.7828548162e+000	-1.8194973351e-001
 1.7284820663e+000	 3.8003913939e+000	-2.1801566652e-001
 1.6903278558e+000	 3.8175144715e+000	-3.1142120924e-001
 1.6520756183e+000	 3.8342236700e+000	-4.5803385995e-001
 1.6137318317e+000	 3.8505187411e+000	-6.5374344817e-001
 1.5753029523e+000	 3.8663995666e+000	-8.9446748242e-001
 1.5367954125e+000	 3.8818661569e+000	-1.1761563664e+000
 1.9290372909e+000	 3.7307928287e+000	 1.6306022166e-002
 1.8912459442e+000	 3.7500918360e+000	-2.7126932274e-001
 1.8533231966e+000	 3.7689777300e+000	-3.6988793204e-001
 1.8152756218e+000	 3.7874495926e+000	-2.5209007469e-001
 1.7771097888e+000	 3.8055066415e+000	-2.0523475331e-001
 1.7388322583e+000	 3.8231482286e+000	-2.2475024787e-001
 1.7004495794e+000	 3.8403738396e+000	-3.0607565087e-001
 1.6619682867e+000	 3.8571830931e+000	-4.4466691277e-001
 1.6233948965e+000	 3.8735757395e+000	-6.3600276800e-001
 1.5847359041e+000	 3.8895516598e+000	-8.7559053150e-001
 1.5459977802e+000	 3.9051108645e+000	-1.1589717559e+000
 1.9405196557e+000	 3.7529999288e+000	 1.9912069374e-001
 1.9025033605e+000	 3.7724138112e+000	-1.8825978955e-001
 1.8643548823e+000	 3.7914121212e+000	-4.3579336478e-001
 1.8260808339e+000	 3.8099939354e+000	-2.8537776283e-001
 1.7876878233e+000	 3.8281584667e+000	-2.1115197849e-001
 1.7491824503e+000	 3.8459050633e+000	-2.0813575154e-001
 1.7105713031e+000	 3.8632332077e+000	-2.7135917333e-001
 1.6718609551e+000	 3.8801425163e+000	-3.9586919259e-001
 1.6330579614e+000	 3.8966327380e+000	-5.7673599551e-001
 1.5941688559e+000	 3.9127037530e+000	-8.0905924916e-001
 1.5552001479e+000	 3.9283555720e+000	-1.0879741981e+000
 1.9520020205e+000	 3.7752070290e+000	 2.0969176043e-001
 1.9137607768e+000	 3.7947357865e+000	-1.1755276736e-001
 1.8753865680e+000	 3.8138465125e+000	-4.8984116361e-001
 1.8368860459e+000	 3.8325382783e+000	-3.0732104459e-001
 1.7982658577e+000	 3.8508102920e+000	-1.9990659976e-001
 1.7595326423e+000	 3.8686618980e+000	-1.6849822123e-001
 1.7206930268e+000	 3.8860925758e+000	-2.0771948045e-001
 1.6817536235e+000	 3.9031019395e+000	-3.1221080818e-001
 1.6427210263e+000	 3.9196897364e+000	-4.7663632688e-001
 1.6036018077e+000	 3.9358558462e+000	-6.9569053942e-001
 1.5644025157e+000	 3.9516002795e+000	-9.6410486322e-001
 1.4723788383e+000	 3.7191532043e+000	 1.0450460009e-001
 1.4354161602e+000	 3.7335747544e+000	 3.4503670608e-001
 1.3983903631e+000	 3.7475998176e+000	 5.0423190579e-001
 1.3613075226e+000	 3.7612287659e+000	 5.1664713289e-001
 1.3241736799e+000	 3.7744620896e+000	 4.4710472403e-001
 1.2869948389e+000	 3.7873003954e+000	 3.1747506404e-001
 1.2497769635e+000	 3.7997444048e+000	 1.3708073461e-001
 1.2125259753e+000	 3.8117949524e+000	 2.3921522812e-001
 1.1752477508e+000	 3.8234529844e+000	 1.4890756093e-001
 1.1379481191e+000	 3.8347195567e+000	-1.1378048464e-001
 1.1006328594e+000	 3.8455958328e+000	-5.2969128295e-001
 1.4815812060e+000	 3.7423979118e+000	-1.4806895959e-001
 1.4443875112e+000	 3.7569095967e+000	 1.2240850845e-001
 1.4071303029e+000	 3.7710223164e+000	 2.6302621819e-001
 1.3698156946e+000	 3.7847364456e+000	 3.3538318505e-001
 1.3324497654e+000	 3.7980524776e+000	 3.4591910730e-001
 1.2950385566e+000	 3.8109710228e+000	 3.0101521657e-001
 1.2575880695e+000	 3.8234928073e+000	 2.0698756506e-001
 1.2201042627e+000	 3.8356186709e+000	 2.0066362671e-001
 1.1825930493e+000	 3.8473495656e+000	 5.9833555102e-002
 1.1450602948e+000	 3.8586865539e+000	-2.4504150101e-001
 1.1075118147e+000	 3.8696308067e+000	-6.9557461334e-001
 1.4907835738e+000	 3.7656426193e+000	-4.1999777265e-001
 1.4533588622e+000	 3.7802444389e+000	-1.5391743193e-001
 1.4158702426e+000	 3.7944448153e+000	 4.3630571174e-002
 1.3783238666e+000	 3.8082441254e+000	 1.7860346162e-001
 1.3407258509e+000	 3.8216428657e+000	 2.5690887730e-001
 1.3030822743e+000	 3.8346416503e+000	 2.8439842111e-001
 1.2653991756e+000	 3.8472412098e+000	 2.6686141778e-001
 1.2276825500e+000	 3.8594423893e+000	 2.1241108922e-001
 1.1899383477e+000	 3.8712461467e+000	 1.5745557103e-002
 1.1521724706e+000	 3.8826535511e+000	-3.3636526123e-001
 1.1143907701e+000	 3.8936657807e+000	-8.2631097243e-001
 1.4999859415e+000	 3.7888873268e+000	-6.8697466180e-001
 1.4623302133e+000	 3.8035792811e+000	-3.8217639543e-001
 1.4246101824e+000	 3.8178673141e+000	-1.3973177240e-001
 1.3868320386e+000	 3.8317518052e+000	 4.5788444473e-002
 1.3490019364e+000	 3.8452332537e+000	 1.7976581621e-001
 1.3111259921e+000	 3.8583122778e+000	 2.6752825497e-001
 1.2732102816e+000	 3.8709896123e+000	 3.1434424587e-001
 1.2352608374e+000	 3.8832661078e+000	 2.6836186263e-001
 1.1972836462e+000	 3.8951427279e+000	 1.0925006817e-002
 1.1592846463e+000	 3.9066205484e+000	-3.9308965131e-001
 1.1212697255e+000	 3.9177007546e+000	-9.2685431962e-001
 1.5091883092e+000	 3.8121320343e+000	-8.9500879539e-001
 1.4713015643e+000	 3.8269141233e+000	-5.6328132141e-001
 1.4333501222e+000	 3.8412898130e+000	-2.8776898165e-001
 1.3953402107e+000	 3.8552594850e+000	-6.3564596491e-002
 1.3572780219e+000	 3.8688236418e+000	 1.1419320840e-001
 1.3191697098e+000	 3.8819829053e+000	 2.5031449983e-001
 1.2810213876e+000	 3.8947380149e+000	 3.4955271911e-001
 1.2428391247e+000	 3.9070898262e+000	 3.6241577623e-001
 1.2046289446e+000	 3.9190393090e+000	 3.9643606957e-002
 1.1663968220e+000	 3.9305875456e+000	-4.2056761639e-001
 1.1281486808e+000	 3.9417357286e+000	-1.0021789955e+000
 1.5183906770e+000	 3.8353767419e+000	-1.0451855580e+000
 1.4802729153e+000	 3.8502489655e+000	-6.9811866319e-001
 1.4420900620e+000	 3.8647123118e+000	-4.0116783484e-001
 1.4038483827e+000	 3.8787671648e+000	-1.4994211213e-001
 1.3655541074e+000	 3.8924140299e+000	 5.9905491895e-002
 1.3272134276e+000	 3.9056535327e+000	 2.3267295373e-001
 1.2888324936e+000	 3.9184864174e+000	 3.7260437701e-001
 1.2504174121e+000	 3.9309135447e+000	 4.8388531047e-001
 1.2119742430e+000	 3.9429358902e+000	 9.6163618125e-002
 1.1735089978e+000	 3.9545545428e+000	-4.2416670440e-001
 1.1350276362e+000	 3.9657707025e+000	-1.0572791043e+000
 1.5275930447e+000	 3.8586214494e+000	-1.1385597225e+000
 1.4892442663e+000	 3.8735838077e+000	-7.8754918578e-001
 1.4508300017e+000	 3.8881348107e+000	-4.8059436367e-001
 1.4123565547e+000	 3.9022748446e+000	-2.1381476438e-001
 1.3738301929e+000	 3.9160044179e+000	 1.6627922399e-002
 1.3352571453e+000	 3.9293241602e+000	 2.1452524984e-001
 1.2966435997e+000	 3.9422348199e+000	 3.8361760264e-001
 1.2579956994e+000	 3.9547372631e+000	 5.2758995551e-001
 1.2193195415e+000	 3.9668324714e+000	 1.7473814322e-001
 1.1806211735e+000	 3.9785215400e+000	-4.0926862619e-001
 1.1419065916e+000	 3.9898056765e+000	-1.0971679186e+000
 1.5367954125e+000	 3.8818661569e+000	-1.1761563664e+000
 1.4982156173e+000	 3.8969186499e+000	-8.3240873506e-001
 1.4595699415e+000	 3.9115573096e+000	-5.2669447445e-001
 1.4208647267e+000	 3.9257825243e+000	-2.5563789896e-001
 1.3821062784e+000	 3.9395948060e+000	-1.5903750576e-002
 1.3433008631e+000	 3.9529947877e+000	 1.9579868178e-001
 1.3044547057e+000	 3.9659832225e+000	 3.8271159740e-001
 1.2655739868e+000	 3.9785609816e+000	 5.4802487841e-001
 1.2266648399e+000	 3.9907290525e+000	 2.6961140162e-001
 1.1877333493e+000	 4.0024885373e+000	-3.8126883154e-001
 1.1487855470e+000	 4.0138406504e+000	-1.1268773052e+000
 1.5459977802e+000	 3.9051108645e+000	-1.1589717559e+000
 1.5071869683e+000	 3.9202534922e+000	-8.3350897935e-001
 1.4683098813e+000	 3.9349798084e+000	-5.4009454704e-001
 1.4293728987e+000	 3.9492902041e+000	-2.7585200124e-001
 1.3903823639e+000	 3.9631851940e+000	-3.7943596028e-002
 1.3513445808e+000	 3.9766654151e+000	 1.7642603514e-001
 1.3122658117e+000	 3.9897316250e+000	 3.7000635660e-001
 1.2731522741e+000	 4.0023847000e+000	 5.4549755699e-001
 1.2340101384e+000	 4.0146256337e+000	 3.7501899355e-001
 1.1948455250e+000	 4.0264555345e+000	-3.4557610019e-001
 1.1556645023e+000	 4.0378756244e+000	-1.1514571722e+000
 1.5552001479e+000	 3.9283555720e+000	-1.0879741981e+000
 1.5161583193e+000	 3.9435883344e+000	-7.9163812478e-001
 1.4770498210e+000	 3.9584023073e+000	-5.2140201259e-001
 1.4378810707e+000	 3.9727978839e+000	-2.7488313588e-001
 1.3986584494e+000	 3.9867755821e+000	-4.9735802695e-002
 1.3593882986e+000	 4.0003360426e+000	 1.5634542499e-001
 1.3200769177e+000	 4.0134800275e+000	 3.4562264604e-001
 1.2807305615e+000	 4.0262084185e+000	 5.2031167431e-001
 1.2413554368e+000	 4.0385222148e+000	 4.8518815514e-001
 1.2019577008e+000	 4.0504225317e+000	-3.0761214755e-001
 1.1625434577e+000	 4.0619105984e+000	-1.1759749346e+000
 1.5644025157e+000	 3.9516002795e+000	-9.6410486322e-001
 1.5251296703e+000	 3.9669231766e+000	-7.0756160532e-001
 1.4857897608e+000	 3.9818248061e+000	-4.7120591083e-001
 1.4463892427e+000	 3.9963055637e+000	-2.5314337098e-001
 1.4069345349e+000	 4.0103659702e+000	-5.1514969649e-002
 1.3674320163e+000	 4.0240066701e+000	 1.3550013913e-001
 1.3278880237e+000	 4.0372284301e+000	 3.0968197930e-001
 1.2883088488e+000	 4.0500321369e+000	 4.7276723029e-001
 1.2487007353e+000	 4.0624187960e+000	 5.9433800436e-001
 1.2090698765e+000	 4.0743895290e+000	-2.7281124416e-001
 1.1694224131e+000	 4.0859455723e+000	-1.2055149999e+000
 1.1006328594e+000	 3.8455958328e+000	-5.2969128295e-001
 1.0633076989e+000	 3.8560830823e+000	-1.7182217495e-002
 1.0259783107e+000	 3.8661826788e+000	 3.2555643862e-001
 9.8865031116e-001	 3.8758960980e+000	 5.1685374537e-001
 9.5132925831e-001	 3.8852249153e+000	 5.7427416994e-001
 9.1402064961e-001	 3.8941708042e+000	 5.1464742211e-001
 8.7672992013e-001	 3.9027355338e+000	 3.5409882050e-001
 8.3946244064e-001	 3.9109209671e+000	 1.0808007191e-001
 8.0222351592e-001	 3.9187290581e+000	-2.0859965118e-001
 7.6501838302e-001	 3.9261618501e+000	-5.8174244590e-001
 7.2785220965e-001	 3.9332214737e+000	-9.9773033447e-001
 1.1075118147e+000	 3.8696308067e+000	-6.9557461334e-001
 1.0699533720e+000	 3.8801836015e+000	-1.7654968138e-001
 1.0323906751e+000	 3.8903463206e+000	 1.8593595584e-001
 9.9482937561e-001	 3.9001204486e+000	 4.0926039177e-001
 9.5727506617e-001	 3.9095075710e+000	 5.1002603291e-001
 9.1973327867e-001	 3.9185093717e+000	 5.0409124641e-001
 8.8220948212e-001	 3.9271276309e+000	 4.0660251908e-001
 8.4470908089e-001	 3.9353642231e+000	 2.3202700616e-001
 8.0723741289e-001	 3.9432211147e+000	-5.8146479096e-003
 7.6979974791e-001	 3.9507003617e+000	-2.9371533132e-001
 7.3240128595e-001	 3.9578041079e+000	-6.1904843949e-001
 1.1143907701e+000	 3.8936657807e+000	-8.2631097243e-001
 1.0765990452e+000	 3.9042841208e+000	-3.0734428076e-001
 1.0388030396e+000	 3.9145099623e+000	 6.8474468478e-002
 1.0010084400e+000	 3.9243447992e+000	 3.1756722876e-001
 9.6322087403e-001	 3.9337902267e+000	 4.5556894091e-001
 9.2544590773e-001	 3.9428479392e+000	 4.9736101112e-001
 8.8768904412e-001	 3.9515197280e+000	 4.5710528063e-001
 8.4995572114e-001	 3.9598074792e+000	 3.4827836210e-001
 8.1225130986e-001	 3.9677131713e+000	 1.8370622125e-001
 7.7458111280e-001	 3.9752388733e+000	-2.4401113703e-002
 7.3695036226e-001	 3.9823867421e+000	-2.6441482832e-001
 1.1212697255e+000	 3.9177007546e+000	-9.2685431962e-001
 1.0832447183e+000	 3.9283846401e+000	-4.1409555056e-001
 1.0452154040e+000	 3.9386736040e+000	-3.0928765177e-002
 1.0071875045e+000	 3.9485691498e+000	 2.3810641744e-001
 9.6916668190e-001	 3.9580728824e+000	 4.0767180783e-001
 9.3115853678e-001	 3.9671865068e+000	 4.9166597289e-001
 8.9316860612e-001	 3.9759118251e+000	 5.0326003465e-001
 8.5520236139e-001	 3.9842507352e+000	 4.5493381242e-001
 8.1726520684e-001	 3.9922052279e+000	 3.5851218343e-001
 7.7936247769e-001	 3.9997773848e+000	 2.2520154145e-001
 7.4149943857e-001	 4.0069693763e+000	 6.5626236591e-002
 1.1281486808e+000	 3.9417357286e+000	-1.0021789955e+000
 1.0898903914e+000	 3.9524851593e+000	-5.0135964089e-001
 1.0516277685e+000	 3.9628372458e+000	-1.1640736997e-001
 1.0133665689e+000	 3.9727935004e+000	 1.6717093682e-001
 9.7511248976e-001	 3.9823555382e+000	 3.6305803832e-001
 9.3687116584e-001	 3.9915250743e+000	 4.8416352683e-001
 8.9864816812e-001	 4.0003039222e+000	 5.4266147448e-001
 8.6044900165e-001	 4.0086939913e+000	 5.5002839959e-001
 8.2227910381e-001	 4.0166972845e+000	 5.1708142489e-001
 7.8414384258e-001	 4.0243158964e+000	 4.5401650335e-001
 7.4604851487e-001	 4.0315520105e+000	 3.7044659207e-001
 1.1350276362e+000	 3.9657707025e+000	-1.0572791043e+000
 1.0965360645e+000	 3.9765856786e+000	-5.7371851048e-001
 1.0580401329e+000	 3.9870008875e+000	-1.9212685739e-001
 1.0195456334e+000	 3.9970178510e+000	 1.0101577110e-001
 9.8105829763e-001	 4.0066381939e+000	 3.1840690689e-001
 9.4258379490e-001	 4.0158636418e+000	 4.7196077812e-001
 9.0412773012e-001	 4.0246960193e+000	 5.7284782201e-001
 8.6569564190e-001	 4.0331372473e+000	 6.3153449436e-001
 8.2729300078e-001	 4.0411893411e+000	 6.5782324379e-001
 7.8892520747e-001	 4.0488544080e+000	 6.6089252331e-001
 7.5059759118e-001	 4.0561346447e+000	 6.4933671665e-001
 1.1419065916e+000	 3.9898056765e+000	-1.0971679186e+000
 1.1031817376e+000	 4.0006861979e+000	-6.3577914934e-001
 1.0644524973e+000	 4.0111645293e+000	-2.6228366516e-001
 1.0257246978e+000	 4.0212422016e+000	 3.5859054143e-002
 9.8700410549e-001	 4.0309208496e+000	 2.7035488712e-001
 9.4829642396e-001	 4.0402022093e+000	 4.5211605668e-001
 9.0960729212e-001	 4.0490881164e+000	 5.9130252869e-001
 8.7094228215e-001	 4.0575805033e+000	 6.9736368348e-001
 8.3230689776e-001	 4.0656813977e+000	 7.7908012510e-001
 7.9370657237e-001	 4.0733929195e+000	 8.4460549740e-001
 7.5514666749e-001	 4.0807172789e+000	 9.0150818115e-001
 1.1487855470e+000	 4.0138406504e+000	-1.1268773052e+000
 1.1098274108e+000	 4.0247867171e+000	-6.9217282932e-001
 1.0708648618e+000	 4.0353281710e+000	-3.3110423126e-001
 1.0319037623e+000	 4.0454665523e+000	-3.2116827227e-002
 9.9294991336e-001	 4.0552035053e+000	 2.1549693310e-001
 9.5400905303e-001	 4.0645407769e+000	 4.2164037759e-001
 9.1508685412e-001	 4.0734802135e+000	 5.9545591532e-001
 8.7618892241e-001	 4.0820237594e+000	 7.4536858954e-001
 8.3732079473e-001	 4.0901734544e+000	 8.7912974102e-001
 7.9848793726e-001	 4.0979314311e+000	 1.0038606477e+000
 7.5969574380e-001	 4.1052999131e+000	 1.1260960111e+000
 1.1556645023e+000	 4.0378756244e+000	-1.1514571722e+000
 1.1164730839e+000	 4.0488872364e+000	-7.4755438142e-001
 1.0772772262e+000	 4.0594918128e+000	-4.0284410110e-001
 1.0380828267e+000	 4.0696909029e+000	-1.0676416934e-001
 9.9889572122e-001	 4.0794861610e+000	 1.5038771518e-001
 9.5972168209e-001	 4.0888793444e+000	 3.7749884921e-001
 9.2056641613e-001	 4.0978723105e+000	 5.8268675332e-001
 8.8143556267e-001	 4.1064670154e+000	 7.7334462587e-001
 8.4233469171e-001	 4.1146655110e+000	 9.5618687994e-001
 8.0326930216e-001	 4.1224699427e+000	 1.1372946256e+000
 7.6424482012e-001	 4.1298825474e+000	 1.3221609651e+000
 1.1625434577e+000	 4.0619105984e+000	-1.1759749346e+000
 1.1231187570e+000	 4.0729877557e+000	-8.0660149880e-001
 1.0836895907e+000	 4.0836554545e+000	-4.8178706631e-001
 1.0442618912e+000	 4.0939152535e+000	-1.9196892556e-001
 1.0048415291e+000	 4.1037688168e+000	 7.1542811752e-002
 9.6543431115e-001	 4.1132179119e+000	 3.1661203140e-001
 9.2604597813e-001	 4.1222644076e+000	 5.5032378989e-001
 8.8668220292e-001	 4.1309102715e+000	 7.7903168917e-001
 8.4734858869e-001	 4.1391575676e+000	 1.0084053069e+000
 8.0805066705e-001	 4.1470084542e+000	 1.2434775407e+000
 7.6879389643e-001	 4.1544651816e+000	 1.4886917317e+000
 1.1694224131e+000	 4.0859455723e+000	-1.2055149999e+000
 1.1297644301e+000	 4.0970882749e+000	-8.7401406433e-001
 1.0901019551e+000	 4.1078190963e+000	-5.7224433404e-001
 1.0504409556e+000	 4.1181396041e+000	-2.9164971633e-001
 1.0107873370e+000	 4.1280514725e+000	-2.4560140969e-002
 9.7114694021e-001	 4.1375564794e+000	 2.3585724577e-001
 9.3152554013e-001	 4.1466565047e+000	 4.9564721926e-001
 8.9192884318e-001	 4.1553535275e+000	 7.6011579227e-001
 8.5236248567e-001	 4.1636496242e+000	 1.0338795583e+000
 8.1283203195e-001	 4.1715469658e+000	 1.3209149180e+000
 7.7334297274e-001	 4.1790478158e+000	 1.6246070494e+000
 7.2785220965e-001	 3.9332214737e+000	-9.9773033447e-001
 6.9073009268e-001	 3.9399101435e+000	-3.0179410440e-001
 6.5365705668e-001	 3.9462301570e+000	 5.4311266311e-001
 6.1663805252e-001	 3.9521838915e+000	 1.0977873605e+000
 5.7967795609e-001	 3.9577738019e+000	 3.9049877093e-001
 5.4278156711e-001	 3.9630024187e+000	-6.6326575641e-002
 5.0595360791e-001	 3.9678723450e+000	-3.0029859330e-001
 4.6919872246e-001	 3.9723862550e+000	-3.3827960525e-001
 4.3252147529e-001	 3.9765468906e+000	-2.0644368685e-001
 3.9592635063e-001	 3.9803570600e+000	 6.9665652046e-002
 3.5941775158e-001	 3.9838196344e+000	 4.6507956139e-001
 7.3240128595e-001	 3.9578041079e+000	-6.1904843949e-001
 6.9504715575e-001	 3.9645345819e+000	-2.1626961638e-001
 6.5774241328e-001	 3.9708940955e+000	 3.2219965679e-001
 6.2049204034e-001	 3.9768850408e+000	 8.1311413987e-001
 5.8330094331e-001	 3.9825098882e+000	 2.1233843594e-001
 5.4617395190e-001	 3.9877711838e+000	-1.5650192191e-001
 5.0911581796e-001	 3.9926715472e+000	-3.1928039144e-001
 4.7213121447e-001	 3.9972136691e+000	-3.0113220734e-001
 4.3522473450e-001	 4.0014003087e+000	-1.2651649433e-001
 3.9840089032e-001	 4.0052342916e+000	 1.8072338020e-001
 3.6166411252e-001	 4.0087185072e+000	 5.9730133302e-001
 7.3695036226e-001	 3.9823867421e+000	-2.6441482832e-001
 6.9936421883e-001	 3.9891590203e+000	-1.2561100038e-001
 6.6182776988e-001	 3.9955580340e+000	 1.3582710409e-001
 6.2434602816e-001	 4.0015861901e+000	 4.9641142919e-001
 5.8692393053e-001	 4.0072459744e+000	 3.7129491309e-003
 5.4956633669e-001	 4.0125399489e+000	-2.7566692766e-001
 5.1227802800e-001	 4.0174707494e+000	-3.6584694820e-001
 4.7506370648e-001	 4.0220410832e+000	-2.9021714952e-001
 4.3792799372e-001	 4.0262537268e+000	-7.1503772855e-002
 4.0087543001e-001	 4.0301115232e+000	 2.6816768367e-001
 3.6391047346e-001	 4.0336173799e+000	 7.0721139559e-001
 7.4149943857e-001	 4.0069693763e+000	 6.5626236591e-002
 7.0368128190e-001	 4.0137834587e+000	-3.0539406354e-002
 6.6591312648e-001	 4.0202219725e+000	-1.6903523304e-002
 6.2820001599e-001	 4.0262873394e+000	 1.0183929605e-001
 5.9054691776e-001	 4.0319820607e+000	-2.2652490535e-001
 5.5295872148e-001	 4.0373087140e+000	-4.1577627705e-001
 5.1544023805e-001	 4.0422699515e+000	-4.3276314591e-001
 4.7799619849e-001	 4.0468684973e+000	-2.9911177967e-001
 4.4063125294e-001	 4.0511071448e+000	-3.5797145813e-002
 4.0334996970e-001	 4.0549887548e+000	 3.3679130539e-001
 3.6615683441e-001	 4.0585162526e+000	 7.9878594628e-001
 7.4604851487e-001	 4.0315520105e+000	 3.7044659207e-001
 7.0799834498e-001	 4.0384078971e+000	 6.8149118428e-002
 6.6999848308e-001	 4.0448859109e+000	-1.3695659761e-001
 6.3205400381e-001	 4.0509884888e+000	-2.4902958787e-001
 5.9416990498e-001	 4.0567181470e+000	-4.6956994697e-001
 5.5635110627e-001	 4.0620774791e+000	-5.6882307923e-001
 5.1860244810e-001	 4.0670691537e+000	-5.1282307965e-001
 4.8092869050e-001	 4.0716959114e+000	-3.2141341656e-001
 4.4333451216e-001	 4.0759605629e+000	-1.3798940081e-002
 4.0582450939e-001	 4.0798659865e+000	 3.9138557398e-001
 3.6840319536e-001	 4.0834151253e+000	 8.7600907486e-001
 7.5059759118e-001	 4.0561346447e+000	 6.4933671665e-001
 7.1231540806e-001	 4.0630323355e+000	 1.6958589900e-001
 6.7408383968e-001	 4.0695498494e+000	-2.2536033966e-001
 6.3590799164e-001	 4.0756896381e+000	-5.3914733253e-001
 5.9779289220e-001	 4.0814542332e+000	-7.1666315626e-001
 5.5974349106e-001	 4.0868462442e+000	-7.2683770390e-001
 5.2176465814e-001	 4.0918683558e+000	-5.9884917196e-001
 4.8386118252e-001	 4.0965233255e+000	-3.5073874471e-001
 4.4603777138e-001	 4.1008139810e+000	 7.8138336479e-005
 4.0829904908e-001	 4.1047432181e+000	 4.3674044652e-001
 3.7064955631e-001	 4.1083139980e+000	 9.4287252451e-001
 7.5514666749e-001	 4.0807172789e+000	 9.0150818115e-001
 7.1663247114e-001	 4.0876567739e+000	 2.7283182028e-001
 6.7816919628e-001	 4.0942137879e+000	-2.8320489578e-001
 6.3976197947e-001	 4.1003907874e+000	-7.6975544491e-001
 6.0141587943e-001	 4.1061903195e+000	-9.5909028446e-001
 5.6313587586e-001	 4.1116150094e+000	-8.8188665904e-001
 5.2492686819e-001	 4.1166675580e+000	-6.8369131969e-001
 4.8679367453e-001	 4.1213507395e+000	-3.8072323105e-001
 4.4874103060e-001	 4.1256673990e+000	 1.1411316929e-002
 4.1077358877e-001	 4.1296204497e+000	 4.7764454993e-001
 3.7289591725e-001	 4.1332128707e+000	 1.0033754613e+000
 7.5969574380e-001	 4.1052999131e+000	 1.1260960111e+000
 7.2094953422e-001	 4.1122812123e+000	 3.7687943605e-001
 6.8225455289e-001	 4.1188777264e+000	-3.1164048370e-001
 6.4361596729e-001	 4.1250919367e+000	-9.4214720186e-001
 6.0503886665e-001	 4.1309264058e+000	-1.1881805131e+000
 5.6652826065e-001	 4.1363837745e+000	-1.0260715089e+000
 5.2808907824e-001	 4.1414667601e+000	-7.6022607131e-001
 4.8972616655e-001	 4.1461781536e+000	-4.0502056261e-001
 4.5144428982e-001	 4.1505208171e+000	 2.5768058075e-002
 4.1324812847e-001	 4.1544976813e+000	 5.1888522077e-001
 3.7514227820e-001	 4.1581117435e+000	 1.0615242518e+000
 7.6424482012e-001	 4.1298825474e+000	 1.3221609651e+000
 7.2526659730e-001	 4.1369056507e+000	 4.8065500262e-001
 6.8633990949e-001	 4.1435416649e+000	-3.1187560472e-001
 6.4746995512e-001	 4.1497930861e+000	-1.0576661093e+000
 6.0866185388e-001	 4.1556624920e+000	-1.3953051612e+000
 5.6992064545e-001	 4.1611525396e+000	-1.1515278308e+000
 5.3125128829e-001	 4.1662659623e+000	-8.2135583380e-001
 4.9265865857e-001	 4.1710055677e+000	-4.1730210420e-001
 4.5414754904e-001	 4.1753742352e+000	 4.8706349667e-002
 4.1572266816e-001	 4.1793749130e+000	 5.6524854364e-001
 3.7738863915e-001	 4.1830106162e+000	 1.1213322493e+000
 7.6879389643e-001	 4.1544651816e+000	 1.4886917317e+000
 7.2958366038e-001	 4.1615300891e+000	 5.8302044030e-001
 6.9042526610e-001	 4.1682056034e+000	-2.8517531936e-001
 6.5132394295e-001	 4.1744942354e+000	-1.1177044163e+000
 6.1228484111e-001	 4.1803985783e+000	-1.5718764390e+000
 5.7331303024e-001	 4.1859213047e+000	-1.2504242084e+000
 5.3441349835e-001	 4.1910651645e+000	-8.6000810755e-001
 4.9559115059e-001	 4.1958329818e+000	-4.1125637546e-001
 4.5685080827e-001	 4.2002276532e+000	 8.5774985427e-002
 4.1819720786e-001	 4.2042521446e+000	 6.2151938821e-001
 3.7963500011e-001	 4.2079094889e+000	 1.1868195862e+000
 7.7334297274e-001	 4.1790478158e+000	 1.6246070494e+000
 7.3390072346e-001	 4.1861545275e+000	 6.8277522563e-001
 6.9451062271e-001	 4.1928695419e+000	-2.3285958387e-001
 6.5517793079e-001	 4.1991953847e+000	-1.1237016812e+000
 6.1590782834e-001	 4.2051346646e+000	-1.7093462450e+000
 5.7670541504e-001	 4.2106900698e+000	-1.3149612615e+000
 5.3757570840e-001	 4.2158643666e+000	-8.6913474834e-001
 4.9852364261e-001	 4.2206603959e+000	-3.8058854627e-001
 4.5955406749e-001	 4.2250810713e+000	 1.4251383532e-001
 4.2067174755e-001	 4.2291293762e+000	 6.9248144499e-001
 3.8188136106e-001	 4.2328083616e+000	 1.2620129756e+000
 3.5941775158e-001	 3.9838196344e+000	 4.6507956139e-001
 3.2299999927e-001	 3.9869375466e+000	 2.6531074104e-001
 2.8667733226e-001	 3.9897137876e+000	 1.6236787540e-001
 2.5045390584e-001	 3.9921514051e+000	 1.3135373826e-001
 2.1433379153e-001	 3.9942535004e+000	 1.4774947772e-001
 1.7832097657e-001	 3.9960232268e+000	 1.8737004985e-001
 1.4241936352e-001	 3.9974637866e+000	 2.2632186246e-001
 1.0663276990e-001	 3.9985784289e+000	 2.4096267119e-001
 7.0964927926e-002	 3.9993704478e+000	 2.0786376078e-001
 3.5419484290e-002	 3.9998431794e+000	 1.0377443497e-001
 0.0000000000e+000	 4.0000000000e+000	-9.4411170164e-002
 3.6166411252e-001	 4.0087185072e+000	 5.9730133302e-001
 3.2501874926e-001	 4.0118559063e+000	 3.8291966197e-001
 2.8846906558e-001	 4.0146494988e+000	 2.5768080285e-001
 2.5201924275e-001	 4.0171023514e+000	 1.9849328909e-001
 2.1567337773e-001	 4.0192175848e+000	 1.8261439591e-001
 1.7943548268e-001	 4.0209983720e+000	 1.8760344497e-001
 1.4330948454e-001	 4.0224479352e+000	 1.9127743740e-001
 1.0729922471e-001	 4.0235695441e+000	 1.7166905774e-001
 7.1408458726e-002	 4.0243665131e+000	 1.0698708168e-001
 3.5640856066e-002	 4.0248421993e+000	-2.4420789019e-002
 0.0000000000e+000	 4.0250000000e+000	-2.4410265012e-001
 3.6391047346e-001	 4.0336173799e+000	 7.0721139559e-001
 3.2703749926e-001	 4.0367742659e+000	 4.8407363700e-001
 2.9026079891e-001	 4.0395852100e+000	 3.4242962877e-001
 2.5358457966e-001	 4.0420532976e+000	 2.6100853870e-001
 2.1701296393e-001	 4.0441816692e+000	 2.1885833596e-001
 1.8054998878e-001	 4.0459735172e+000	 1.9529694537e-001
 1.4419960556e-001	 4.0474320839e+000	 1.6986584950e-001
 1.0796567952e-001	 4.0485606593e+000	 1.2228618146e-001
 7.1851989525e-002	 4.0493625784e+000	 3.2417341645e-002
 3.5862227843e-002	 4.0498412192e+000	-1.1978183871e-001
 0.0000000000e+000	 4.0500000000e+000	-3.5428937315e-001
 3.6615683441e-001	 4.0585162526e+000	 7.9878594628e-001
 3.2905624925e-001	 4.0616926256e+000	 5.7184833943e-001
 2.9205253223e-001	 4.0645209211e+000	 4.1878947748e-001
 2.5514991657e-001	 4.0670042439e+000	 3.2017449596e-001
 2.1835255012e-001	 4.0691457536e+000	 2.5685707584e-001
 1.8166449488e-001	 4.0709486623e+000	 2.0992842563e-001
 1.4508972659e-001	 4.0724162326e+000	 1.6066883207e-001
 1.0863213434e-001	 4.0735517745e+000	 9.0501822794e-002
 7.2295520325e-002	 4.0743586437e+000	-1.9049025977e-002
 3.6083599620e-002	 4.0748402391e+000	-1.8640061371e-001
 0.0000000000e+000	 4.0750000000e+000	-4.2994815848e-001
 3.6840319536e-001	 4.0834151253e+000	 8.7600907486e-001
 3.3107499925e-001	 4.0866109853e+000	 6.4933869280e-001
 2.9384426556e-001	 4.0894566323e+000	 4.8896609102e-001
 2.5671525349e-001	 4.0919551902e+000	 3.7730816034e-001
 2.1969213632e-001	 4.0941098380e+000	 2.9703975786e-001
 1.8277900099e-001	 4.0959238075e+000	 2.3104049490e-001
 1.4597984761e-001	 4.0974003812e+000	 1.6234421556e-001
 1.0929858915e-001	 4.0985428897e+000	 7.4091209808e-002
 7.2739051125e-002	 4.0993547090e+000	-5.0516805924e-002
 3.6304971397e-002	 4.0998392589e+000	-2.2825891764e-001
 0.0000000000e+000	 4.1000000000e+000	-4.7593443954e-001
 3.7064955631e-001	 4.1083139980e+000	 9.4287252451e-001
 3.3309374924e-001	 4.1115293449e+000	 7.1965828750e-001
 2.9563599889e-001	 4.1143923435e+000	 5.5519490135e-001
 2.5828059040e-001	 4.1169061365e+000	 4.3376724944e-001
 2.2103172252e-001	 4.1190739223e+000	 3.3988727156e-001
 1.8389350709e-001	 4.1208989527e+000	 2.5823853529e-001
 1.4686996863e-001	 4.1223845299e+000	 1.7362362153e-001
 1.0996504396e-001	 4.1235340048e+000	 7.0914368214e-002
 7.3182581926e-002	 4.1243507743e+000	-6.4994994409e-002
 3.6526343175e-002	 4.1248382788e+000	-2.4923179438e-001
 0.0000000000e+000	 4.1250000000e+000	-4.9698594226e-001
 3.7289591725e-001	 4.1332128707e+000	 1.0033754613e+000
 3.3511249924e-001	 4.1364477046e+000	 7.8593881855e-001
 2.9742773222e-001	 4.1393280547e+000	 6.1974013603e-001
 2.5984592731e-001	 4.1418570828e+000	 4.9094897252e-001
 2.2237130872e-001	 4.1440380067e+000	 3.8593069502e-001
 1.8500801320e-001	 4.1458740978e+000	 2.9118881111e-001
 1.4776008966e-001	 4.1473686786e+000	 1.9331024004e-001
 1.1063149878e-001	 4.1485251200e+000	 7.8913567244e-002
 7.3626112727e-002	 4.1493468396e+000	-6.5399684323e-002
 3.6747714952e-002	 4.1498372987e+000	-2.5309074371e-001
 0.0000000000e+000	 4.1500000000e+000	-4.9772623053e-001
 3.7514227820e-001	 4.1581117435e+000	 1.0615242518e+000
 3.3713124924e-001	 4.1613660643e+000	 8.5132954353e-001
 2.9921946555e-001	 4.1642637658e+000	 6.8489395616e-001
 2.6141126423e-001	 4.1668080290e+000	 5.5028884814e-001
 2.2371089492e-001	 4.1690020911e+000	 4.3574979226e-001
 1.8612251931e-001	 4.1708492430e+000	 3.2961664604e-001
 1.4865021068e-001	 4.1723528272e+000	 2.2027668689e-001
 1.1129795359e-001	 4.1735162352e+000	 9.6110857264e-002
 7.4069643528e-002	 4.1743429049e+000	-5.4556846765e-002
 3.6969086730e-002	 4.1748363185e+000	-2.4350682141e-001
 0.0000000000e+000	 4.1750000000e+000	-4.8266812419e-001
 3.7738863915e-001	 4.1830106162e+000	 1.1213322493e+000
 3.3914999924e-001	 4.1862844239e+000	 9.1899675990e-001
 3.0101119888e-001	 4.1891994770e+000	 7.5297562492e-001
 2.6297660114e-001	 4.1917589753e+000	 6.1325956398e-001
 2.2505048112e-001	 4.1939661755e+000	 4.8997156421e-001
 1.8723702541e-001	 4.1958243882e+000	 3.7330466538e-001
 1.4954033171e-001	 4.1973369759e+000	 2.5346293735e-001
 1.1196440840e-001	 4.1985073504e+000	 1.2060569534e-001
 7.4513174330e-002	 4.1993389702e+000	-3.5205013238e-002
 3.7190458508e-002	 4.1998353384e+000	-2.2405362873e-001
 0.0000000000e+000	 4.2000000000e+000	-4.5621699500e-001
 3.7963500011e-001	 4.2079094889e+000	 1.1868195862e+000
 3.4116874924e-001	 4.2112027836e+000	 9.9212330086e-001
 3.0280293221e-001	 4.2141351882e+000	 8.2633070583e-001
 2.6454193806e-001	 4.2167099216e+000	 6.8136987719e-001
 2.2639006732e-001	 4.2189302598e+000	 5.4926885120e-001
 1.8835153152e-001	 4.2207995333e+000	 4.2209110083e-001
 1.5043045273e-001	 4.2223211246e+000	 2.9187433332e-001
 1.1263086322e-001	 4.2234984656e+000	 1.5057265509e-001
 7.4956705132e-002	 4.2243350355e+000	-9.9978626246e-003
 3.7411830286e-002	 4.2248343583e+000	-1.9821019559e-001
 0.0000000000e+000	 4.2250000000e+000	-4.2267394557e-001
 3.8188136106e-001	 4.2328083616e+000	 1.2620129756e+000
 3.4318749924e-001	 4.2361211433e+000	 1.0739080490e+000
 3.0459466554e-001	 4.2390708994e+000	 9.0733028915e-001
 2.6610727498e-001	 4.2416608679e+000	 7.5616355351e-001
 2.2772965353e-001	 4.2438943442e+000	 6.1435898475e-001
 1.8946603763e-001	 4.2457746785e+000	 4.7586815489e-001
 1.5132057376e-001	 4.2473052732e+000	 3.3457966075e-001
 1.1329731804e-001	 4.2484895807e+000	 1.8425921739e-001
 7.5400235934e-002	 4.2493311008e+000	 1.8493283154e-002
 3.7633202065e-002	 4.2498333782e+000	-1.6936376214e-001
 0.0000000000e+000	 4.2500000000e+000	-3.8623887612e-001
 4.2500000000e+000	 0.0000000000e+000	 9.2792672238e-001
 4.2498333782e+000	 3.7633202065e-002	 8.5868198888e-001
 4.2493311008e+000	 7.5400235934e-002	 7.9794508547e-001
 4.2484895807e+000	 1.1329731804e-001	 7.4243166780e-001
 4.2473052732e+000	 1.5132057376e-001	 6.8918648308e-001
 4.2457746785e+000	 1.8946603763e-001	 6.3558697183e-001
 4.2438943442e+000	 2.2772965353e-001	 5.7934602117e-001
 4.2416608679e+000	 2.6610727498e-001	 5.1851383598e-001
 4.2390708994e+000	 3.0459466554e-001	 4.5147889583e-001
 4.2361211433e+000	 3.4318749924e-001	 3.7696796705e-001
 4.2328083616e+000	 3.8188136106e-001	 2.9404514104e-001
 4.2750000000e+000	 0.0000000000e+000	 7.9925256842e-001
 4.2748323980e+000	 3.7854573843e-002	 7.5916247274e-001
 4.2743271661e+000	 7.5843766737e-002	 7.2507559956e-001
 4.2734806959e+000	 1.1396377285e-001	 6.9392261646e-001
 4.2722894219e+000	 1.5221069479e-001	 6.6297548528e-001
 4.2707498237e+000	 1.9058054374e-001	 6.2985099937e-001
 4.2688584286e+000	 2.2906923973e-001	 5.9251344662e-001
 4.2666118142e+000	 2.6767261190e-001	 5.4927636386e-001
 4.2640066105e+000	 3.0638639888e-001	 4.9880334986e-001
 4.2610395029e+000	 3.4520624924e-001	 4.4010790562e-001
 4.2577072343e+000	 3.8412772201e-001	 3.7255227261e-001
 4.3000000000e+000	 0.0000000000e+000	 6.8712249256e-001
 4.2998314179e+000	 3.8075945621e-002	 6.7571809470e-001
 4.2993232314e+000	 7.6287297539e-002	 6.6766547677e-001
 4.2984718111e+000	 1.1463022767e-001	 6.6011199638e-001
 4.2972735706e+000	 1.5310081581e-001	 6.5055870764e-001
 4.2957249688e+000	 1.9169504985e-001	 6.3686383501e-001
 4.2938225130e+000	 2.3040882593e-001	 6.1724534685e-001
 4.2915627605e+000	 2.6923794881e-001	 5.9028259348e-001
 4.2889423217e+000	 3.0817813221e-001	 5.5491697639e-001
 4.2859578626e+000	 3.4722499924e-001	 5.1045161654e-001
 4.2826061070e+000	 3.8637408296e-001	 4.5654999194e-001
 4.3250000000e+000	 0.0000000000e+000	 5.9197381044e-001
 4.3248304378e+000	 3.8297317399e-002	 6.0866694330e-001
 4.3243192967e+000	 7.6730828340e-002	 6.2591271009e-001
 4.3234629263e+000	 1.1529668248e-001	 6.4107689026e-001
 4.3222577192e+000	 1.5399093684e-001	 6.5189156332e-001
 4.3207001140e+000	 1.9280955596e-001	 6.5645852052e-001
 4.3187865974e+000	 2.3174841213e-001	 6.5325174958e-001
 4.3165137067e+000	 2.7080328573e-001	 6.4111895695e-001
 4.3138780329e+000	 3.0996986554e-001	 6.1928209327e-001
 4.3108762223e+000	 3.4924374924e-001	 5.8733684943e-001
 4.3075049798e+000	 3.8862044392e-001	 5.4525109285e-001
 4.3500000000e+000	 0.0000000000e+000	 5.1423378448e-001
 4.3498294576e+000	 3.8518689177e-002	 5.5831813777e-001
 4.3493153620e+000	 7.7174359142e-002	 6.0000739906e-001
 4.3484540415e+000	 1.1596313730e-001	 6.3688755455e-001
 4.3472418679e+000	 1.5488105786e-001	 6.6692369735e-001
 4.3456752592e+000	 1.9392406206e-001	 6.8846337798e-001
 4.3437506817e+000	 2.3308799833e-001	 7.0023900120e-001
 4.3414646530e+000	 2.7236862265e-001	 7.0136923282e-001
 4.3388137440e+000	 3.1176159887e-001	 6.9135938138e-001
 4.3357945819e+000	 3.5126249924e-001	 6.7010072186e-001
 4.3324038525e+000	 3.9086680487e-001	 6.3786872990e-001
 4.3750000000e+000	 0.0000000000e+000	 4.5431991113e-001
 4.3748284775e+000	 3.8740060954e-002	 5.2497208431e-001
 4.3743114273e+000	 7.7617889943e-002	 5.9013197529e-001
 4.3734451567e+000	 1.1662959211e-001	 6.4760761450e-001
 4.3722260166e+000	 1.5577117889e-001	 6.9559915136e-001
 4.3706504043e+000	 1.9503856817e-001	 7.3270214463e-001
 4.3687147661e+000	 2.3442758453e-001	 7.5790987200e-001
 4.3664155993e+000	 2.7393395956e-001	 7.7061462185e-001
 4.3637494552e+000	 3.1355333220e-001	 7.7060793138e-001
 4.3607129416e+000	 3.5328124924e-001	 7.5807973743e-001
 4.3573027252e+000	 3.9311316582e-001	 7.3361640810e-001
 4.4000000000e+000	 0.0000000000e+000	 5.5852254556e-001
 4.3998274974e+000	 3.8961432732e-002	 5.9639545298e-001
 4.3993074926e+000	 7.8061420743e-002	 6.3069360730e-001
 4.3984362718e+000	 1.1729604692e-001	 6.6131458994e-001
 4.3972101652e+000	 1.5666129991e-001	 6.8817984438e-001
 4.3956255495e+000	 1.9615307428e-001	 7.1123657705e-001
 4.3936788505e+000	 2.3576717073e-001	 7.3045969055e-001
 4.3913665456e+000	 2.7549929647e-001	 7.4585374561e-001
 4.3886851664e+000	 3.1534506553e-001	 7.5745494845e-001
 4.3856313013e+000	 3.5529999924e-001	 7.6533315946e-001
 4.3822015979e+000	 3.9535952677e-001	 7.6959391941e-001
 4.4250000000e+000	 0.0000000000e+000	 6.3896823785e-001
 4.4248265173e+000	 3.9182804509e-002	 6.4767604313e-001
 4.4243035579e+000	 7.8504951544e-002	 6.5467626129e-001
 4.4234273870e+000	 1.1796250174e-001	 6.5997883399e-001
 4.4221943139e+000	 1.5755142094e-001	 6.6361851245e-001
 4.4206006947e+000	 1.9726758038e-001	 6.6565669584e-001
 4.4186429349e+000	 2.3710675693e-001	 6.6618329925e-001
 4.4163174919e+000	 2.7706463339e-001	 6.6531864816e-001
 4.4136208776e+000	 3.1713679886e-001	 6.6321539553e-001
 4.4105496609e+000	 3.5731874924e-001	 6.6006045795e-001
 4.4071004706e+000	 3.9760588772e-001	 6.5607696655e-001
 4.4500000000e+000	 0.0000000000e+000	 6.9604681382e-001
 4.4498255371e+000	 3.9404176286e-002	 6.7843089482e-001
 4.4492996232e+000	 7.8948482344e-002	 6.6095244998e-001
 4.4484185022e+000	 1.1862895655e-001	 6.4373224202e-001
 4.4471784626e+000	 1.5844154196e-001	 6.2691678088e-001
 4.4455758398e+000	 1.9838208649e-001	 6.1068010064e-001
 4.4436070192e+000	 2.3844634313e-001	 5.9522556380e-001
 4.4412684381e+000	 2.7862997030e-001	 5.8078768938e-001
 4.4385565887e+000	 3.1892853219e-001	 5.6763400129e-001
 4.4354680206e+000	 3.5933749924e-001	 5.5606689326e-001
 4.4319993433e+000	 3.9985224867e-001	 5.4642550604e-001
 4.4750000000e+000	 0.0000000000e+000	 7.3013938812e-001
 4.4748245570e+000	 3.9625548063e-002	 6.8900571074e-001
 4.4742956885e+000	 7.9392013143e-002	 6.4983274501e-001
 4.4734096174e+000	 1.1929541136e-001	 6.1285055057e-001
 4.4721626112e+000	 1.5933166298e-001	 5.7831586202e-001
 4.4705509850e+000	 1.9949659259e-001	 5.4651380585e-001
 4.4685711036e+000	 2.3978592933e-001	 5.1775964205e-001
 4.4662193844e+000	 2.8019530721e-001	 4.9240052739e-001
 4.4634922999e+000	 3.2072026552e-001	 4.7081729636e-001
 4.4603863803e+000	 3.6135624923e-001	 4.5342625628e-001
 4.4568982160e+000	 4.0209860962e-001	 4.4068099232e-001
 4.5000000000e+000	 0.0000000000e+000	 7.4161860619e-001
 4.4998235769e+000	 3.9846919840e-002	 6.7973863752e-001
 4.4992917538e+000	 7.9835543943e-002	 6.2162106828e-001
 4.4984007326e+000	 1.1996186617e-001	 5.6760374543e-001
 4.4971467599e+000	 1.6022178400e-001	 5.1805210894e-001
 4.4955261302e+000	 2.0061109869e-001	 4.7336084981e-001
 4.4935351880e+000	 2.4112551553e-001	 4.3395559058e-001
 4.4911703307e+000	 2.8176064413e-001	 4.0029458485e-001
 4.4884280111e+000	 3.2251199884e-001	 3.7287043232e-001
 4.4853047399e+000	 3.6337499923e-001	 3.5221180544e-001
 4.4817970888e+000	 4.0434497057e-001	 3.3888518373e-001
 4.2328083616e+000	 3.8188136106e-001	 2.9404514104e-001
 4.2291293762e+000	 4.2067174755e-001	 3.2949622904e-001
 4.2250810713e+000	 4.5955406749e-001	 3.7357385843e-001
 4.2206603959e+000	 4.9852364261e-001	 4.2636964737e-001
 4.2158643666e+000	 5.3757570840e-001	 4.8828377992e-001
 4.2106900698e+000	 5.7670541504e-001	 5.6001847223e-001
 4.2051346646e+000	 6.1590782834e-001	 6.4257034756e-001
 4.1991953847e+000	 6.5517793079e-001	 5.7467390894e-001
 4.1928695419e+000	 6.9451062271e-001	 4.5676059348e-001
 4.1861545275e+000	 7.3390072346e-001	 3.3479141999e-001
 4.1790478158e+000	 7.7334297274e-001	 2.0733045803e-001
 4.2577072343e+000	 3.8412772201e-001	 3.7255227261e-001
 4.2540066078e+000	 4.2314628725e-001	 4.1883734513e-001
 4.2499344894e+000	 4.6225732672e-001	 4.7105299331e-001
 4.2454878100e+000	 5.0145613463e-001	 5.2955682109e-001
 4.2406635688e+000	 5.4073791845e-001	 5.9502651033e-001
 4.2354588350e+000	 5.8009779984e-001	 6.6845302578e-001
 4.2298707508e+000	 6.1953081557e-001	 7.5113269884e-001
 4.2238965340e+000	 6.5903191862e-001	 6.4528540969e-001
 4.2175334803e+000	 6.9859597932e-001	 5.0766728300e-001
 4.2107789659e+000	 7.3821778655e-001	 3.6819479630e-001
 4.2036304500e+000	 7.7789204906e-001	 2.2541238508e-001
 4.2826061070e+000	 3.8637408296e-001	 4.5654999194e-001
 4.2788838395e+000	 4.2562082694e-001	 5.1096149644e-001
 4.2747879074e+000	 4.6496058594e-001	 5.6851687759e-001
 4.2703152241e+000	 5.0438862665e-001	 6.2984404013e-001
 4.2654627709e+000	 5.4390012851e-001	 6.9590266589e-001
 4.2602276001e+000	 5.8349018464e-001	 7.6797715427e-001
 4.2546068371e+000	 6.2315380280e-001	 8.4766841124e-001
 4.2485976834e+000	 6.6288590645e-001	 7.0346537489e-001
 4.2421974188e+000	 7.0268133592e-001	 5.4980561118e-001
 4.2354034043e+000	 7.4253484963e-001	 3.9649804254e-001
 4.2282130842e+000	 7.8244112537e-001	 2.4206416637e-001
 4.3075049798e+000	 3.8862044392e-001	 5.4525109285e-001
 4.3037610711e+000	 4.2809536664e-001	 6.0497128606e-001
 4.2996413255e+000	 4.6766384517e-001	 6.6495714901e-001
 4.2951426382e+000	 5.0732111866e-001	 7.2611126286e-001
 4.2902619731e+000	 5.4706233856e-001	 7.8967987381e-001
 4.2849963652e+000	 5.8688256944e-001	 8.5724556599e-001
 4.2793429233e+000	 6.2677679003e-001	 9.1961415282e-001
 4.2732988327e+000	 6.6673989428e-001	 7.4959966165e-001
 4.2668613573e+000	 7.0676669253e-001	 5.8357098438e-001
 4.2600278427e+000	 7.4685191271e-001	 4.2010628100e-001
 4.2527957184e+000	 7.8699020168e-001	 2.5770079361e-001
 4.3324038525e+000	 3.9086680487e-001	 6.3786872990e-001
 4.3286383027e+000	 4.3056990634e-001	 6.9997031116e-001
 4.3244947436e+000	 4.7036710439e-001	 7.5936707165e-001
 4.3199700523e+000	 5.1025361068e-001	 8.1724070482e-001
 4.3150611753e+000	 5.5022454861e-001	 8.7512864770e-001
 4.3097651303e+000	 5.9027495423e-001	 9.3491648297e-001
 4.3040790096e+000	 6.3039977725e-001	 9.6502372212e-001
 4.2979999820e+000	 6.7059388211e-001	 7.8407888850e-001
 4.2915252958e+000	 7.1085204914e-001	 6.0936419029e-001
 4.2846522811e+000	 7.5116897579e-001	 4.3943063221e-001
 4.2773783526e+000	 7.9153927800e-001	 2.7274387035e-001
 4.3573027252e+000	 3.9311316582e-001	 7.3361640810e-001
 4.3535155343e+000	 4.3304444603e-001	 7.9506313463e-001
 4.3493481616e+000	 4.7307036361e-001	 8.5074148948e-001
 4.3447974664e+000	 5.1318610270e-001	 9.0211677427e-001
 4.3398603774e+000	 5.5338675867e-001	 9.5102230512e-001
 4.3345338954e+000	 5.9366733903e-001	 9.9965154054e-001
 4.3288150959e+000	 6.3402276448e-001	 9.9548864631e-001
 4.3227011313e+000	 6.7444786994e-001	 8.0729829940e-001
 4.3161892343e+000	 7.1493740575e-001	 6.2759124422e-001
 4.3092767195e+000	 7.5548603887e-001	 4.5488804360e-001
 4.3019609868e+000	 7.9608835431e-001	 2.8762142304e-001
 4.3822015979e+000	 3.9535952677e-001	 7.6959391941e-001
 4.3783927660e+000	 4.3551898573e-001	 8.5864981953e-001
 4.3742015797e+000	 4.7577362284e-001	 9.3807678146e-001
 4.3696248805e+000	 5.1611859472e-001	 9.7962600990e-001
 4.3646595796e+000	 5.5654896872e-001	 1.0161368879e+000
 4.3593026605e+000	 5.9705972383e-001	 1.0501156904e+000
 4.3535511821e+000	 6.3764575171e-001	 1.0113974785e+000
 4.3474022807e+000	 6.7830185777e-001	 8.1965763232e-001
 4.3408531727e+000	 7.1902276235e-001	 6.3866324058e-001
 4.3339011579e+000	 7.5980310196e-001	 4.6690112389e-001
 4.3265436210e+000	 8.0063743062e-001	 3.0276771860e-001
 4.4071004706e+000	 3.9760588772e-001	 6.5607696655e-001
 4.4032699976e+000	 4.3799352542e-001	 7.3040156332e-001
 4.3990549978e+000	 4.7847688206e-001	 8.0284449018e-001
 4.3944522946e+000	 5.1905108674e-001	 8.7333923448e-001
 4.3894587817e+000	 5.5971117877e-001	 9.4185686249e-001
 4.3840714257e+000	 6.0045210862e-001	 1.0084082297e+000
 4.3782872684e+000	 6.4126873894e-001	 9.8704300081e-001
 4.3721034300e+000	 6.8215584560e-001	 8.2156099229e-001
 4.3655171112e+000	 7.2310811896e-001	 6.4299620940e-001
 4.3585255963e+000	 7.6412016504e-001	 4.7589798324e-001
 4.3511262553e+000	 8.0518650693e-001	 3.1862308812e-001
 4.4319993433e+000	 3.9985224867e-001	 5.4642550604e-001
 4.4281472292e+000	 4.4046806511e-001	 6.0778457958e-001
 4.4239084158e+000	 4.8118014128e-001	 6.6757362959e-001
 4.4192797087e+000	 5.2198357876e-001	 7.2578257022e-001
 4.4142579839e+000	 5.6287338882e-001	 7.8244024540e-001
 4.4088401908e+000	 6.0384449342e-001	 8.3761663620e-001
 4.4030233546e+000	 6.4489172617e-001	 7.9629752034e-001
 4.3968045793e+000	 6.8600983343e-001	 6.6214529179e-001
 4.3901810497e+000	 7.2719347556e-001	 5.3981441132e-001
 4.3831500347e+000	 7.6843722812e-001	 4.2940012473e-001
 4.3757088895e+000	 8.0973558324e-001	 3.3108666161e-001
 4.4568982160e+000	 4.0209860962e-001	 4.4068099232e-001
 4.4530244608e+000	 4.4294260481e-001	 4.9082155108e-001
 4.4487618339e+000	 4.8388340051e-001	 5.3969322926e-001
 4.4441071228e+000	 5.2491607077e-001	 5.8734136737e-001
 4.4390571860e+000	 5.6603559887e-001	 6.3385158410e-001
 4.4336089559e+000	 6.0723687822e-001	 6.7935198171e-001
 4.4277594409e+000	 6.4851471339e-001	 6.2286507809e-001
 4.4215057286e+000	 6.8986382126e-001	 4.9916915867e-001
 4.4148449882e+000	 7.3127883217e-001	 3.8759036634e-001
 4.4077744731e+000	 7.7275429120e-001	 2.8833029905e-001
 4.4002915237e+000	 8.1428465955e-001	 2.0168244024e-001
 4.4817970888e+000	 4.0434497057e-001	 3.3888518373e-001
 4.4779016925e+000	 4.4541714450e-001	 3.7953599807e-001
 4.4736152520e+000	 4.8658665973e-001	 4.1920854736e-001
 4.4689345369e+000	 5.2784856279e-001	 4.5800260394e-001
 4.4638563882e+000	 5.6919780892e-001	 4.9605956433e-001
 4.4583777210e+000	 6.1062926301e-001	 5.3356465386e-001
 4.4524955272e+000	 6.5213770062e-001	 4.6642291432e-001
 4.4462068779e+000	 6.9371780909e-001	 3.5402990287e-001
 4.4395089267e+000	 7.3536418877e-001	 2.5402363529e-001
 4.4323989115e+000	 7.7707135428e-001	 1.6671225358e-001
 4.4248741579e+000	 8.1883373586e-001	 9.2498721976e-002
 4.1790478158e+000	 7.7334297274e-001	 2.0733045803e-001
 4.1715469658e+000	 8.1283203195e-001	 2.6724603643e-001
 4.1636496242e+000	 8.5236248567e-001	 3.2553421509e-001
 4.1553535275e+000	 8.9192884318e-001	 3.8117441278e-001
 4.1466565047e+000	 9.3152554013e-001	 4.3310272679e-001
 4.1375564794e+000	 9.7114694021e-001	 4.8021973009e-001
 4.1280514725e+000	 1.0107873370e+000	 5.2139860855e-001
 4.1181396041e+000	 1.0504409556e+000	 5.5549362385e-001
 4.1078190963e+000	 1.0901019551e+000	 5.8134888614e-001
 4.0970882749e+000	 1.1297644301e+000	 5.9780741868e-001
 4.0859455723e+000	 1.1694224131e+000	 6.0372049583e-001
 4.2036304500e+000	 7.7789204906e-001	 2.2541238508e-001
 4.1960854774e+000	 8.1761339685e-001	 2.8162084408e-001
 4.1881416808e+000	 8.5737638264e-001	 3.3551596661e-001
 4.1797967836e+000	 8.9717548344e-001	 3.8587664584e-001
 4.1710486018e+000	 9.3700510214e-001	 4.3143626596e-001
 4.1618950470e+000	 9.7685956928e-001	 4.7089080306e-001
 4.1523341282e+000	 1.0167331448e+000	 5.0290727709e-001
 4.1423639547e+000	 1.0566200201e+000	 5.2613254023e-001
 4.1319827380e+000	 1.0965143196e+000	 5.3920238483e-001
 4.1211887942e+000	 1.1364101032e+000	 5.4075095341e-001
 4.1099805463e+000	 1.1763013684e+000	 5.2942043072e-001
 4.2282130842e+000	 7.8244112537e-001	 2.4206416637e-001
 4.2206239889e+000	 8.2239476175e-001	 2.9494415483e-001
 4.2126337374e+000	 8.6239027962e-001	 3.4484289413e-001
 4.2042400396e+000	 9.0242212370e-001	 3.9033686667e-001
 4.1954406989e+000	 9.4248466414e-001	 4.2995482287e-001
 4.1862336145e+000	 9.8257219834e-001	 4.6218618864e-001
 4.1766167839e+000	 1.0226789527e+000	 4.8548983528e-001
 4.1665883053e+000	 1.0627990845e+000	 4.9830319630e-001
 4.1561463797e+000	 1.1029266840e+000	 4.9905171425e-001
 4.1452893135e+000	 1.1430557764e+000	 4.8615859916e-001
 4.1340155202e+000	 1.1831803238e+000	 4.5805487850e-001
 4.2527957184e+000	 7.8699020168e-001	 2.5770079361e-001
 4.2451625005e+000	 8.2717612664e-001	 3.0769801710e-001
 4.2371257940e+000	 8.6740417660e-001	 3.5406382935e-001
 4.2286832957e+000	 9.0766876395e-001	 3.9517037557e-001
 4.2198327960e+000	 9.4796422615e-001	 4.2933981001e-001
 4.2105721820e+000	 9.8828482740e-001	 4.5485301315e-001
 4.2008994397e+000	 1.0286247606e+000	 4.6995868251e-001
 4.1908126559e+000	 1.0689781490e+000	 4.7288278129e-001
 4.1803100215e+000	 1.1093390485e+000	 4.6183832733e-001
 4.1693898327e+000	 1.1497014495e+000	 4.3503550365e-001
 4.1580504942e+000	 1.1900592792e+000	 3.9069206967e-001
 4.2773783526e+000	 7.9153927800e-001	 2.7274387035e-001
 4.2697010121e+000	 8.3195749154e-001	 3.2037038968e-001
 4.2616178507e+000	 8.7241807358e-001	 3.6373281825e-001
 4.2531265517e+000	 9.1291540421e-001	 4.0099699665e-001
 4.2442248931e+000	 9.5344378815e-001	 4.3027647923e-001
 4.2349107496e+000	 9.9399745647e-001	 4.4964156406e-001
 4.2251820954e+000	 1.0345705684e+000	 4.5712870784e-001
 4.2150370066e+000	 1.0751572134e+000	 4.5075030957e-001
 4.2044736632e+000	 1.1157514129e+000	 4.2850484511e-001
 4.1934903520e+000	 1.1563471226e+000	 3.8838733324e-001
 4.1820854681e+000	 1.1969382346e+000	 3.2840011191e-001
 4.3019609868e+000	 7.9608835431e-001	 2.8762142304e-001
 4.2942395236e+000	 8.3673885643e-001	 3.3345497288e-001
 4.2861099073e+000	 8.7743197055e-001	 3.7440897211e-001
 4.2775698078e+000	 9.1816204446e-001	 4.0844094855e-001
 4.2686169902e+000	 9.5892335015e-001	 4.3345381196e-001
 4.2592493171e+000	 9.9971008553e-001	 4.4730519968e-001
 4.2494647511e+000	 1.0405163763e+000	 4.4781721887e-001
 4.2392613572e+000	 1.0813362778e+000	 4.3278656857e-001
 4.2286373050e+000	 1.1221637773e+000	 3.9999502327e-001
 4.2175908713e+000	 1.1629927957e+000	 3.4722025808e-001
 4.2061204421e+000	 1.2038171899e+000	 2.7224699368e-001
 4.3265436210e+000	 8.0063743062e-001	 3.0276771860e-001
 4.3187780352e+000	 8.4152022133e-001	 3.4745104546e-001
 4.3106019639e+000	 8.8244586753e-001	 3.8665632358e-001
 4.3020130638e+000	 9.2340868472e-001	 4.1813071964e-001
 4.2930090873e+000	 9.6440291215e-001	 4.3956441332e-001
 4.2835878846e+000	 1.0054227146e+000	 4.4860026192e-001
 4.2737474068e+000	 1.0464621842e+000	 4.4284387303e-001
 4.2634857078e+000	 1.0875153423e+000	 4.1987406840e-001
 4.2528009467e+000	 1.1285761418e+000	 3.7725371997e-001
 4.2416913905e+000	 1.1696384688e+000	 3.1254093783e-001
 4.2301554161e+000	 1.2106961453e+000	 2.2330058749e-001
 4.3511262553e+000	 8.0518650693e-001	 3.1862308812e-001
 4.3433165468e+000	 8.4630158622e-001	 3.6286330700e-001
 4.3350940205e+000	 8.8745976450e-001	 4.0104368771e-001
 4.3264563199e+000	 9.2865532497e-001	 4.3069894735e-001
 4.3174011843e+000	 9.6988247415e-001	 4.4930440973e-001
 4.3079264521e+000	 1.0111353436e+000	 4.5428599201e-001
 4.2980300625e+000	 1.0524079920e+000	 4.4303061120e-001
 4.2877100584e+000	 1.0936944067e+000	 4.1289699316e-001
 4.2769645885e+000	 1.1349885062e+000	 3.6122686468e-001
 4.2657919098e+000	 1.1762841420e+000	 2.8535650781e-001
 4.2541903900e+000	 1.2175751007e+000	 1.8262865329e-001
 4.3757088895e+000	 8.0973558324e-001	 3.3108666161e-001
 4.3678550583e+000	 8.5108295112e-001	 3.8020172563e-001
 4.3595860771e+000	 8.9247366148e-001	 4.1814452758e-001
 4.3508995759e+000	 9.3390196523e-001	 4.4678230169e-001
 4.3417932814e+000	 9.7536203615e-001	 4.6337335000e-001
 4.3322650197e+000	 1.0168479727e+000	 4.6512444906e-001
 4.3223127183e+000	 1.0583537999e+000	 4.4920159357e-001
 4.3119344090e+000	 1.0998734712e+000	 4.1274115394e-001
 4.3011282302e+000	 1.1414008707e+000	 3.5286142807e-001
 4.2898924291e+000	 1.1829298151e+000	 2.6667456562e-001
 4.2782253640e+000	 1.2244540561e+000	 1.5129884154e-001
 4.4002915237e+000	 8.1428465955e-001	 2.0168244024e-001
 4.3923935699e+000	 8.5586431601e-001	 2.9369410588e-001
 4.3840781337e+000	 8.9748755845e-001	 3.8151089424e-001
 4.3753428319e+000	 9.3914860548e-001	 4.6477821190e-001
 4.3661853785e+000	 9.8084159815e-001	 4.8247410972e-001
 4.3566035872e+000	 1.0225606018e+000	 4.8188043133e-001
 4.3465953740e+000	 1.0642996077e+000	 4.6218313762e-001
 4.3361587596e+000	 1.1060525356e+000	 4.2029394339e-001
 4.3252918719e+000	 1.1478132351e+000	 3.5310539295e-001
 4.3139929483e+000	 1.1895754882e+000	 2.5750315829e-001
 4.3022603379e+000	 1.2313330114e+000	 1.3037869633e-001
 4.4248741579e+000	 8.1883373586e-001	 9.2498721976e-002
 4.4169320814e+000	 8.6064568090e-001	 1.7933746260e-001
 4.4085701903e+000	 9.0250145542e-001	 2.6006584931e-001
 4.3997860880e+000	 9.4439524573e-001	 3.3428538909e-001
 4.3905774756e+000	 9.8632116015e-001	 4.0168660988e-001
 4.3809421547e+000	 1.0282732308e+000	 4.6204815644e-001
 4.3708780297e+000	 1.0702454156e+000	 4.8280365826e-001
 4.3603831102e+000	 1.1122316001e+000	 4.3644429174e-001
 4.3494555137e+000	 1.1542255995e+000	 3.6290772616e-001
 4.3380934676e+000	 1.1962211613e+000	 2.5885076971e-001
 4.3262953119e+000	 1.2382119668e+000	 1.2093565830e-001
 4.0859455723e+000	 1.1694224131e+000	 6.0372049583e-001
 4.0743895290e+000	 1.2090698765e+000	 4.5778556435e-001
 4.0624187960e+000	 1.2487007353e+000	 2.9763371057e-001
 4.0500321369e+000	 1.2883088488e+000	 3.3851154540e-001
 4.0372284301e+000	 1.3278880237e+000	 3.6591191018e-001
 4.0240066701e+000	 1.3674320163e+000	 3.7491389235e-001
 4.0103659702e+000	 1.4069345349e+000	 3.6823840934e-001
 3.9963055637e+000	 1.4463892427e+000	 3.4879677011e-001
 3.9818248061e+000	 1.4857897608e+000	 3.1968587927e-001
 3.9669231766e+000	 1.5251296703e+000	 2.8418293369e-001
 3.9516002795e+000	 1.5644025157e+000	 2.4573961588e-001
 4.1099805463e+000	 1.1763013684e+000	 5.2942043072e-001
 4.0983565262e+000	 1.2161820523e+000	 3.6547186982e-001
 4.0863153771e+000	 1.2560460337e+000	 2.2642997850e-001
 4.0738558554e+000	 1.2958871362e+000	 2.7242308782e-001
 4.0609768326e+000	 1.3356991298e+000	 2.9938275172e-001
 4.0476772976e+000	 1.3754757340e+000	 3.0994349177e-001
 4.0339563582e+000	 1.4152106204e+000	 3.0693596910e-001
 4.0198132435e+000	 1.4548974148e+000	 2.9338252270e-001
 4.0052473050e+000	 1.4945297006e+000	 2.7249218971e-001
 3.9902580188e+000	 1.5341010213e+000	 2.4765521064e-001
 3.9748449870e+000	 1.5736048834e+000	 2.2243702370e-001
 4.1340155202e+000	 1.1831803238e+000	 4.5805487850e-001
 4.1223235234e+000	 1.2232942280e+000	 2.7818492044e-001
 4.1102119583e+000	 1.2633913321e+000	 1.7243714939e-001
 4.0976795738e+000	 1.3034654235e+000	 2.1522059868e-001
 4.0847252351e+000	 1.3435102358e+000	 2.4078890510e-001
 4.0713479250e+000	 1.3835194518e+000	 2.5188629702e-001
 4.0575467463e+000	 1.4234867059e+000	 2.5145469143e-001
 4.0433209233e+000	 1.4634055868e+000	 2.4262905513e-001
 4.0286698039e+000	 1.5032696403e+000	 2.2873223985e-001
 4.0135928610e+000	 1.5430723723e+000	 2.1326929434e-001
 3.9980896946e+000	 1.5828072511e+000	 1.9992125797e-001
 4.1580504942e+000	 1.1900592792e+000	 3.9069206967e-001
 4.1462905207e+000	 1.2304064038e+000	 1.9702725083e-001
 4.1341085394e+000	 1.2707366306e+000	 1.2785369677e-001
 4.1215032923e+000	 1.3110437108e+000	 1.6653351404e-001
 4.1084736377e+000	 1.3513213418e+000	 1.8974409444e-001
 4.0950185525e+000	 1.3915631695e+000	 2.0034081758e-001
 4.0811371344e+000	 1.4317627914e+000	 2.0137838773e-001
 4.0668286031e+000	 1.4719137588e+000	 1.9610601665e-001
 4.0520923027e+000	 1.5120095801e+000	 1.8796207208e-001
 4.0369277032e+000	 1.5520437233e+000	 1.8056819499e-001
 4.0213344021e+000	 1.5920096189e+000	 1.7772289078e-001
 4.1820854681e+000	 1.1969382346e+000	 3.2840011191e-001
 4.1702575179e+000	 1.2375185795e+000	 1.2310128627e-001
 4.1580051206e+000	 1.2780819290e+000	 9.2325134738e-002
 4.1453270108e+000	 1.3186219982e+000	 1.2599113912e-001
 4.1322220402e+000	 1.3591324478e+000	 1.4586187781e-001
 4.1186891800e+000	 1.3996068873e+000	 1.5490534518e-001
 4.1047275224e+000	 1.4400388769e+000	 1.5629058343e-001
 4.0903362829e+000	 1.4804219308e+000	 1.5338268572e-001
 4.0755148016e+000	 1.5207495199e+000	 1.4973725646e-001
 4.0602625455e+000	 1.5610150743e+000	 1.4909433222e-001
 4.0445791096e+000	 1.6012119866e+000	 1.5537176849e-001
 4.2061204421e+000	 1.2038171899e+000	 2.7224699368e-001
 4.1942245151e+000	 1.2446307552e+000	 5.7509345886e-002
 4.1819017017e+000	 1.2854272275e+000	 6.5496868656e-002
 4.1691507292e+000	 1.3262002855e+000	 9.3222652082e-002
 4.1559704427e+000	 1.3669435539e+000	 1.0875565200e-001
 4.1423598075e+000	 1.4076506050e+000	 1.1517796008e-001
 4.1283179105e+000	 1.4483149624e+000	 1.1577452624e-001
 4.1138439627e+000	 1.4889301028e+000	 1.1402798062e-001
 4.0989373005e+000	 1.5294894596e+000	 1.1361290426e-001
 4.0835973877e+000	 1.5699864253e+000	 1.1838955190e-001
 4.0678238172e+000	 1.6104143544e+000	 1.3239703252e-001
 4.2301554161e+000	 1.2106961453e+000	 2.2330058749e-001
 4.2181915124e+000	 1.2517429310e+000	 1.2521792159e-002
 4.2057982829e+000	 1.2927725259e+000	 4.7014198222e-002
 4.1929744477e+000	 1.3337785729e+000	 6.7857107605e-002
 4.1797188453e+000	 1.3747546599e+000	 7.8038657041e-002
 4.1660304349e+000	 1.4156943227e+000	 8.0756537035e-002
 4.1519082985e+000	 1.4565910479e+000	 7.9413193960e-002
 4.1373516424e+000	 1.4974382748e+000	 7.7610469686e-002
 4.1223597993e+000	 1.5382293994e+000	 7.9143680968e-002
 4.1069322299e+000	 1.5789577763e+000	 8.7995142508e-002
 4.0910685247e+000	 1.6196167221e+000	 1.0832713931e-001
 4.2541903900e+000	 1.2175751007e+000	 1.8262865329e-001
 4.2421585096e+000	 1.2588551067e+000	 1.1217524755e-002
 4.2296948641e+000	 1.3001178244e+000	 3.6522320466e-002
 4.2167981661e+000	 1.3413568602e+000	 4.9523440386e-002
 4.2034672478e+000	 1.3825657659e+000	 5.3323980709e-002
 4.1897010624e+000	 1.4237380405e+000	 5.1238751100e-002
 4.1754986866e+000	 1.4648671334e+000	 4.6789302148e-002
 4.1608593222e+000	 1.5059464469e+000	 4.3698381186e-002
 4.1457822982e+000	 1.5469693392e+000	 4.5883818890e-002
 4.1302670721e+000	 1.5879291273e+000	 5.7451850815e-002
 4.1143132322e+000	 1.6288190898e+000	 8.2689879749e-002
 4.2782253640e+000	 1.2244540561e+000	 1.5129884154e-001
 4.2661255068e+000	 1.2659672825e+000	 1.8452649140e-002
 4.2535914452e+000	 1.3074631228e+000	 3.3666332634e-002
 4.2406218846e+000	 1.3489351476e+000	 3.7850468507e-002
 4.2272156503e+000	 1.3903768719e+000	 3.4224562747e-002
 4.2133716899e+000	 1.4317817582e+000	 2.6222083267e-002
 4.1990890747e+000	 1.4731432189e+000	 1.7485311480e-002
 4.1843670020e+000	 1.5144546189e+000	 1.1859612887e-002
 4.1692047970e+000	 1.5557092789e+000	 1.3387129309e-002
 4.1536019143e+000	 1.5969004783e+000	 2.6299897143e-002
 4.1375579397e+000	 1.6380214576e+000	 5.5012397788e-002
 4.3022603379e+000	 1.2313330114e+000	 1.3037869633e-001
 4.2900925040e+000	 1.2730794582e+000	 3.3888829223e-002
 4.2774880264e+000	 1.3148084213e+000	 3.8091234972e-002
 4.2644456030e+000	 1.3565134349e+000	 3.2466896694e-002
 4.2509640528e+000	 1.3981879779e+000	 2.0353199020e-002
 4.2370423173e+000	 1.4398254760e+000	 5.3038258675e-003
 4.2226794627e+000	 1.4814193044e+000	-8.9165651366e-003
 4.2078746818e+000	 1.5229627909e+000	-1.8338258728e-002
 4.1926272959e+000	 1.5644492187e+000	-1.8792985748e-002
 4.1769367565e+000	 1.6058718293e+000	-5.9210099470e-003
 4.1608026473e+000	 1.6472238253e+000	 2.4821208569e-002
 4.3262953119e+000	 1.2382119668e+000	 1.2093565830e-001
 4.3140595013e+000	 1.2801916340e+000	 5.7187636829e-002
 4.3013846075e+000	 1.3221537197e+000	 4.9441933424e-002
 4.2882693215e+000	 1.3640917223e+000	 3.3001319464e-002
 4.2747124554e+000	 1.4059990840e+000	 1.1322545508e-002
 4.2607129448e+000	 1.4478691937e+000	-1.1918912186e-002
 4.2462698508e+000	 1.4896953899e+000	-3.2834355678e-002
 4.2313823616e+000	 1.5314709629e+000	-4.7327969527e-002
 4.2160497947e+000	 1.5731891585e+000	-5.1103522141e-002
 4.2002715988e+000	 1.6148431803e+000	-3.9671659436e-002
 4.1840473548e+000	 1.6564261930e+000	-8.3577841285e-003
 3.9516002795e+000	 1.5644025157e+000	 2.4573961588e-001
 3.9358558462e+000	 1.6036018077e+000	 1.0725529155e-001
 3.9196897364e+000	 1.6427210263e+000	-1.6167121000e-002
 3.9031019395e+000	 1.6817536235e+000	-1.2022329713e-001
 3.8860925758e+000	 1.7206930268e+000	-2.0046924414e-001
 3.8686618980e+000	 1.7595326423e+000	-2.5232997072e-001
 3.8508102920e+000	 1.7982658577e+000	-2.7110859918e-001
 3.8325382783e+000	 1.8368860459e+000	-2.5199590455e-001
 3.8138465125e+000	 1.8753865680e+000	-1.9043849240e-001
 3.7947357865e+000	 1.9137607768e+000	-1.3799732148e-001
 3.7752070290e+000	 1.9520020205e+000	-7.8989398984e-002
 3.9748449870e+000	 1.5736048834e+000	 2.2243702370e-001
 3.9590079395e+000	 1.6130347595e+000	 1.0331991050e-001
 3.9427467349e+000	 1.6523840911e+000	-3.2534453280e-003
 3.9260613627e+000	 1.6916462918e+000	-9.2870993889e-002
 3.9089519439e+000	 1.7308147505e+000	-1.6097631759e-001
 3.8914187326e+000	 1.7698828343e+000	-2.0287746648e-001
 3.8734621172e+000	 1.8088438922e+000	-2.1375624722e-001
 3.8550826211e+000	 1.8476912579e+000	-1.8867794930e-001
 3.8362809037e+000	 1.8864182537e+000	-1.3564385977e-001
 3.8170577617e+000	 1.9250181932e+000	-9.4749577450e-002
 3.7974141292e+000	 1.9634843853e+000	-4.8430373026e-002
 3.9980896946e+000	 1.5828072511e+000	 1.9992125797e-001
 3.9821600327e+000	 1.6224677113e+000	 9.9135279984e-002
 3.9658037333e+000	 1.6620471560e+000	 8.3784215628e-003
 3.9490207858e+000	 1.7015389602e+000	-6.7827293136e-002
 3.9318113120e+000	 1.7409364742e+000	-1.2481073780e-001
 3.9141755673e+000	 1.7802330263e+000	-1.5776068833e-001
 3.8961139425e+000	 1.8194219267e+000	-1.6173529167e-001
 3.8776269639e+000	 1.8584964700e+000	-1.3167198257e-001
 3.8587152950e+000	 1.8974499394e+000	-9.2386259624e-002
 3.8393797369e+000	 1.9362756095e+000	-6.2850940985e-002
 3.8196212294e+000	 1.9749667502e+000	-2.9002896503e-002
 4.0213344021e+000	 1.5920096189e+000	 1.7772289078e-001
 4.0053121259e+000	 1.6319006631e+000	 9.4213557220e-002
 3.9888607318e+000	 1.6717102208e+000	 1.8221768431e-002
 3.9719802090e+000	 1.7114316286e+000	-4.5618212067e-002
 3.9546706801e+000	 1.7510581979e+000	-9.2518248761e-002
 3.9369324020e+000	 1.7905832183e+000	-1.1754551066e-001
 3.9187657677e+000	 1.8299999611e+000	-1.1563212333e-001
 3.9001713067e+000	 1.8693016820e+000	-8.1585279506e-002
 3.8811496862e+000	 1.9084816251e+000	-6.0566311711e-002
 3.8617017121e+000	 1.9475330258e+000	-4.2201071483e-002
 3.8418283295e+000	 1.9864491150e+000	-2.0605987242e-002
 4.0445791096e+000	 1.6012119866e+000	 1.5537176849e-001
 4.0284642191e+000	 1.6413336149e+000	 8.8066173270e-002
 4.0119177302e+000	 1.6813732857e+000	 2.5769165471e-002
 3.9949396322e+000	 1.7213242970e+000	-2.6770470710e-002
 3.9775300482e+000	 1.7611799216e+000	-6.4645273367e-002
 3.9596892367e+000	 1.8009334104e+000	-8.2798454723e-002
 3.9414175930e+000	 1.8405779956e+000	-7.6033739565e-002
 3.9227156495e+000	 1.8801068940e+000	-4.5210854790e-002
 3.9035840775e+000	 1.9195133107e+000	-4.0085136882e-002
 3.8840236873e+000	 1.9587904422e+000	-3.2700064274e-002
 3.8640354297e+000	 1.9979314798e+000	-2.3139025557e-002
 4.0678238172e+000	 1.6104143544e+000	 1.3239703252e-001
 4.0516163123e+000	 1.6507665667e+000	 8.0203853764e-002
 4.0349747287e+000	 1.6910363506e+000	 3.0512484844e-002
 4.0178990554e+000	 1.7312169653e+000	-1.1811471841e-002
 4.0003894163e+000	 1.7713016452e+000	-4.1738894066e-002
 3.9824460714e+000	 1.8112836024e+000	-5.4086670107e-002
 3.9640694182e+000	 1.8511560300e+000	-4.3527726912e-002
 3.9452599923e+000	 1.8909121061e+000	-2.6187467996e-002
 3.9260184687e+000	 1.9305449964e+000	-3.0844342751e-002
 3.9063456625e+000	 1.9700478585e+000	-3.4248438166e-002
 3.8862425299e+000	 2.0094138446e+000	-3.6501743890e-002
 4.0910685247e+000	 1.6196167221e+000	 1.0832713931e-001
 4.0747684055e+000	 1.6601995186e+000	 7.0136638948e-002
 4.0580317271e+000	 1.7006994154e+000	 3.1942920511e-002
 4.0408584785e+000	 1.7411096337e+000	-1.2692815904e-003
 4.0232487843e+000	 1.7814233689e+000	-2.4346834099e-002
 4.0052029061e+000	 1.8216337944e+000	-3.1977916926e-002
 3.9867212435e+000	 1.8617340645e+000	-1.8702244354e-002
 3.9678043352e+000	 1.9017173181e+000	-1.8469859276e-002
 3.9484528600e+000	 1.9415766821e+000	-3.2746009866e-002
 3.9286676378e+000	 1.9813052748e+000	-4.6747123420e-002
 3.9084496300e+000	 2.0208962095e+000	-6.0594216809e-002
 4.1143132322e+000	 1.6288190898e+000	 8.2689879749e-002
 4.0979204987e+000	 1.6696324704e+000	 5.7373903044e-002
 4.0810887256e+000	 1.7103624803e+000	 2.9551007384e-002
 4.0638179017e+000	 1.7510023021e+000	 4.3273892975e-003
 4.0461081524e+000	 1.7915450926e+000	-1.3017439408e-002
 4.0279597408e+000	 1.8319839864e+000	-1.7040548552e-002
 4.0093730687e+000	 1.8723120989e+000	-2.1460071568e-003
 3.9903486780e+000	 1.9125225301e+000	-2.1962061086e-002
 3.9708872512e+000	 1.9526083678e+000	-4.5692678356e-002
 3.9509896130e+000	 1.9925626912e+000	-7.0097450120e-002
 3.9306567302e+000	 2.0323785743e+000	-9.5316851342e-002
 4.1375579397e+000	 1.6380214576e+000	 5.5012397788e-002
 4.1210725920e+000	 1.6790654222e+000	 4.1424372957e-002
 4.1041457241e+000	 1.7200255451e+000	 2.2826639846e-002
 4.0867773249e+000	 1.7608949704e+000	 4.4492035696e-003
 4.0689675205e+000	 1.8016668163e+000	-8.2996611393e-003
 4.0507165755e+000	 1.8423341784e+000	-9.8434949528e-003
 4.0320248940e+000	 1.8828901334e+000	-5.0286016333e-003
 4.0128930208e+000	 1.9233277422e+000	-3.6568603230e-002
 3.9933216425e+000	 1.9636400535e+000	-6.9587335017e-002
 3.9733115882e+000	 2.0038201075e+000	-1.0420113695e-001
 3.9528638304e+000	 2.0438609391e+000	-1.4057037764e-001
 4.1608026473e+000	 1.6472238253e+000	 2.4821208569e-002
 4.1442246852e+000	 1.6884983740e+000	 2.1796146360e-002
 4.1272027225e+000	 1.7296886100e+000	 1.1259089641e-002
 4.1097367481e+000	 1.7707876388e+000	-1.4337850338e-003
 4.0918268886e+000	 1.8117885400e+000	-1.0743038743e-002
 4.0734734102e+000	 1.8526843704e+000	-1.0956246588e-002
 4.0546767192e+000	 1.8934681678e+000	-2.2406606282e-002
 4.0354373636e+000	 1.9341329542e+000	-6.2194498969e-002
 4.0157560337e+000	 1.9746717392e+000	-1.0433340084e-001
 3.9956335634e+000	 2.0150775238e+000	-1.4896028033e-001
 3.9750709306e+000	 2.0553433039e+000	-1.9625583995e-001
 4.1840473548e+000	 1.6564261930e+000	-8.3577841285e-003
 4.1673767784e+000	 1.6979313258e+000	-2.0032908309e-003
 4.1502597210e+000	 1.7393516748e+000	-5.6629768338e-003
 4.1326961712e+000	 1.7806803072e+000	-1.3852114863e-002
 4.1146862567e+000	 1.8219102636e+000	-2.0897683629e-002
 4.0962302449e+000	 1.8630345624e+000	-2.0948838841e-002
 4.0773285445e+000	 1.9040462023e+000	-5.0850867493e-002
 4.0579817064e+000	 1.9449381662e+000	-9.8745231591e-002
 4.0381904250e+000	 1.9857034249e+000	-1.4983471893e-001
 4.0179555386e+000	 2.0263349401e+000	-2.0427734393e-001
 3.9972780307e+000	 2.0668256687e+000	-2.6227458788e-001
 3.7752070290e+000	 1.9520020205e+000	-7.8989398984e-002
 3.7552613065e+000	 1.9901036456e+000	 1.6268358183e-002
 3.7348998232e+000	 2.0280590008e+000	 7.1809752482e-003
 3.7141239222e+000	 2.0658614403e+000	-6.3908428744e-002
 3.6929350853e+000	 2.1035043275e+000	-1.5300047847e-001
 3.6713349334e+000	 2.1409810384e+000	-2.5539380777e-001
 3.6493252266e+000	 2.1782849654e+000	-3.6629261452e-001
 3.6269078643e+000	 2.2154095206e+000	-4.8081808089e-001
 3.6040848849e+000	 2.2523481398e+000	-5.9402008244e-001
 3.5808584657e+000	 2.2890942857e+000	-7.0088915801e-001
 3.5572309227e+000	 2.3256414519e+000	-7.9636871101e-001
 3.7974141292e+000	 1.9634843853e+000	-4.8430373026e-002
 3.7773510788e+000	 2.0018101376e+000	 2.3879719569e-002
 3.7568698222e+000	 2.0399887596e+000	 1.2317199775e-001
 3.7359717100e+000	 2.0780135664e+000	 1.0819810897e-001
 3.7146582329e+000	 2.1158778823e+000	 1.2327071981e-002
 3.6929310213e+000	 2.1535750445e+000	-9.7985942001e-002
 3.6707918456e+000	 2.1910984063e+000	-2.1780380287e-001
 3.6482426164e+000	 2.2284413413e+000	-3.4210434814e-001
 3.6252853842e+000	 2.2655972465e+000	-4.6579235783e-001
 3.6019223390e+000	 2.3025595462e+000	-5.8371179567e-001
 3.5781558105e+000	 2.3393216957e+000	-6.9065828693e-001
 3.8196212294e+000	 1.9749667502e+000	-2.9002896503e-002
 3.7994408512e+000	 2.0135166297e+000	 2.0425023274e-002
 3.7788398211e+000	 2.0519185184e+000	 9.7117803478e-002
 3.7578194978e+000	 2.0901656925e+000	 2.0043538805e-001
 3.7363813804e+000	 2.1282514372e+000	 1.7718636609e-001
 3.7145271091e+000	 2.1661690506e+000	 5.7998793085e-002
 3.6922584646e+000	 2.2039118473e+000	-7.1691045293e-002
 3.6695773686e+000	 2.2414731620e+000	-2.0671515626e-001
 3.6464858835e+000	 2.2788463532e+000	-3.4183072575e-001
 3.6229862123e+000	 2.3160248067e+000	-4.7173263504e-001
 3.5990806982e+000	 2.3530019396e+000	-5.9106621909e-001
 3.8418283295e+000	 1.9864491150e+000	-2.0605987242e-002
 3.8215306236e+000	 2.0252231217e+000	 6.0087129333e-003
 3.8008098201e+000	 2.0638482773e+000	 6.0182352311e-002
 3.7796672856e+000	 2.1023178186e+000	 1.4125284379e-001
 3.7581045280e+000	 2.1406249920e+000	 2.4848962199e-001
 3.7361231969e+000	 2.1787630567e+000	 2.1191172702e-001
 3.7137250836e+000	 2.2167252883e+000	 7.1378559692e-002
 3.6909121207e+000	 2.2545049827e+000	-7.5335986167e-002
 3.6676863828e+000	 2.2920954599e+000	-2.2283898313e-001
 3.6440500857e+000	 2.3294900672e+000	-3.6567370187e-001
 3.6200055860e+000	 2.3666821834e+000	-4.9833265404e-001
 3.8640354297e+000	 1.9979314798e+000	-2.3139025557e-002
 3.8436203960e+000	 2.0369296137e+000	-1.9265120801e-002
 3.8227798190e+000	 2.0757780361e+000	 1.2473179447e-002
 3.8015150733e+000	 2.1144699447e+000	 7.1391273648e-002
 3.7798276756e+000	 2.1529985469e+000	 1.5673525110e-001
 3.7577192848e+000	 2.1913570628e+000	 2.6768370248e-001
 3.7351917025e+000	 2.2295387292e+000	 2.1073762924e-001
 3.7122468729e+000	 2.2675368034e+000	 5.1347414859e-002
 3.6888868821e+000	 2.3053445666e+000	-1.0952117392e-001
 3.6651139590e+000	 2.3429553277e+000	-2.6625724813e-001
 3.6409304738e+000	 2.3803624272e+000	-4.1319794235e-001
 3.8862425299e+000	 2.0094138446e+000	-3.6501743890e-002
 3.8657101684e+000	 2.0486361058e+000	-5.5292730182e-002
 3.8447498180e+000	 2.0877077949e+000	-4.5902512216e-002
 3.8233628611e+000	 2.1266220709e+000	-9.0386939619e-003
 3.8015508231e+000	 2.1653721018e+000	 5.4520965345e-002
 3.7793153726e+000	 2.2039510689e+000	 1.4393041123e-001
 3.7566583215e+000	 2.2423521702e+000	 2.5827730534e-001
 3.7335816250e+000	 2.2805686241e+000	 1.7264904079e-001
 3.7100873815e+000	 2.3185936733e+000	-2.5815819544e-003
 3.6861778323e+000	 2.3564205882e+000	-1.7420574557e-001
 3.6618553616e+000	 2.3940426711e+000	-3.3640263283e-001
 3.9084496300e+000	 2.0208962095e+000	-6.0594216809e-002
 3.8877999408e+000	 2.0603425978e+000	-1.0197070062e-001
 3.8667198170e+000	 2.0996375537e+000	-1.1483784265e-001
 3.8452106489e+000	 2.1387741970e+000	-9.9926741856e-002
 3.8232739707e+000	 2.1777456566e+000	-5.8039513886e-002
 3.8009114605e+000	 2.2165450750e+000	 9.9526192656e-003
 3.7781249405e+000	 2.2551656112e+000	 1.0311139311e-001
 3.7549163771e+000	 2.2936004448e+000	 2.2043371384e-001
 3.7312878808e+000	 2.3318427800e+000	 9.7275275788e-002
 3.7072417056e+000	 2.3698858487e+000	-9.0241879402e-002
 3.6827802494e+000	 2.4077229149e+000	-2.6868746686e-001
 3.9306567302e+000	 2.0323785743e+000	-9.5316851342e-002
 3.9098897132e+000	 2.0720490898e+000	-1.5919594128e-001
 3.8886898159e+000	 2.1115673126e+000	-1.9422624555e-001
 3.8670584367e+000	 2.1509263231e+000	-2.0116285529e-001
 3.8449971182e+000	 2.1901192115e+000	-1.8083275503e-001
 3.8225075483e+000	 2.2291390811e+000	-1.3413286134e-001
 3.7995915595e+000	 2.2679790521e+000	-6.2027905669e-002
 3.7762511293e+000	 2.3066322655e+000	 3.4451834346e-002
 3.7524883801e+000	 2.3450918867e+000	 1.5421295020e-001
 3.7283055790e+000	 2.3833511092e+000	-1.5088542343e-002
 3.7037051371e+000	 2.4214031587e+000	-2.1079337296e-001
 3.9528638304e+000	 2.0438609391e+000	-1.4057037764e-001
 3.9319794856e+000	 2.0837555818e+000	-2.2686567597e-001
 3.9106598149e+000	 2.1234970714e+000	-2.8396145957e-001
 3.8889062245e+000	 2.1630784492e+000	-3.1263731348e-001
 3.8667202658e+000	 2.2024927664e+000	-3.1374560823e-001
 3.8441036362e+000	 2.2417330872e+000	-2.8820948670e-001
 3.8210581785e+000	 2.2807924931e+000	-2.3702069284e-001
 3.7975858814e+000	 2.3196640863e+000	-1.6123724663e-001
 3.7736888794e+000	 2.3583409934e+000	-6.1980970331e-002
 3.7493694523e+000	 2.3968163697e+000	 5.0531171258e-002
 3.7246300249e+000	 2.4350834026e+000	-1.6346146154e-001
 3.9750709306e+000	 2.0553433039e+000	-1.9625583995e-001
 3.9540692580e+000	 2.0954620739e+000	-3.0487743439e-001
 3.9326298139e+000	 2.1354268302e+000	-3.8393751976e-001
 3.9107540122e+000	 2.1752305753e+000	-4.3424068136e-001
 3.8884434134e+000	 2.2148663212e+000	-4.5666519746e-001
 3.8656997240e+000	 2.2543270933e+000	-4.5216097365e-001
 3.8425247975e+000	 2.2936059341e+000	-4.2174731661e-001
 3.8189206336e+000	 2.3326959070e+000	-3.6651055190e-001
 3.7948893788e+000	 2.3715901001e+000	-2.8760149094e-001
 3.7704333256e+000	 2.4102816302e+000	-1.8623275264e-001
 3.7455549127e+000	 2.4487636464e+000	-1.2743301982e-001
 3.9972780307e+000	 2.0668256687e+000	-2.6227458788e-001
 3.9761590304e+000	 2.1071685659e+000	-3.9312904356e-001
 3.9545998128e+000	 2.1473565890e+000	-4.9404874934e-001
 3.9326018000e+000	 2.1873827014e+000	-5.6586380167e-001
 3.9101665609e+000	 2.2272398761e+000	-6.0947891294e-001
 3.8872958119e+000	 2.2669210994e+000	-6.2587129250e-001
 3.8639914164e+000	 2.3064193751e+000	-6.1608836470e-001
 3.8402553857e+000	 2.3457277277e+000	-5.8124532867e-001
 3.8160898781e+000	 2.3848392068e+000	-5.2252256510e-001
 3.7914971990e+000	 2.4237468907e+000	-4.4116289572e-001
 3.7664798005e+000	 2.4624438902e+000	-3.3846870160e-001
 3.5572309227e+000	 2.3256414519e+000	-7.9636871101e-001
 3.5332047099e+000	 2.3619831663e+000	-7.8215731316e-001
 3.5087824190e+000	 2.3981129948e+000	-7.6159543412e-001
 3.4839667785e+000	 2.4340245451e+000	-7.2955736912e-001
 3.4587606532e+000	 2.4697114697e+000	-6.8090530000e-001
 3.4331670430e+000	 2.5051674705e+000	-6.1566199942e-001
 3.4071890820e+000	 2.5403863013e+000	-5.6344033770e-001
 3.3808300376e+000	 2.5753617721e+000	-4.9952594832e-001
 3.3540933089e+000	 2.6100877523e+000	-4.2340084906e-001
 3.3269824258e+000	 2.6445581744e+000	-3.3456470971e-001
 3.2995010472e+000	 2.6787670372e+000	-2.3253594438e-001
 3.5781558105e+000	 2.3393216957e+000	-6.9065828693e-001
 3.5539882670e+000	 2.3758771849e+000	-6.8659256004e-001
 3.5294223156e+000	 2.4122195419e+000	-6.7496981767e-001
 3.5044607008e+000	 2.4483423365e+000	-6.5050076879e-001
 3.4791063041e+000	 2.4842391843e+000	-6.0788508679e-001
 3.4533621432e+000	 2.5199037497e+000	-5.6428163161e-001
 3.4272313707e+000	 2.5553297501e+000	-5.2275820341e-001
 3.4007172731e+000	 2.5905109590e+000	-4.6803870459e-001
 3.3738232696e+000	 2.6254412097e+000	-3.9957799280e-001
 3.3465529107e+000	 2.6601143990e+000	-3.1684978461e-001
 3.3189098769e+000	 2.6945244904e+000	-2.1934778804e-001
 3.5990806982e+000	 2.3530019396e+000	-5.9106621909e-001
 3.5747718241e+000	 2.3897712035e+000	-5.9785166468e-001
 3.5500622122e+000	 2.4263260889e+000	-5.9587172730e-001
 3.5249546230e+000	 2.4626601279e+000	-5.7967116100e-001
 3.4994519550e+000	 2.4987668988e+000	-5.4378476473e-001
 3.4735572435e+000	 2.5346400289e+000	-5.2567284316e-001
 3.4472736594e+000	 2.5702731989e+000	-4.9475687572e-001
 3.4206045086e+000	 2.6056601459e+000	-4.4915101060e-001
 3.3935532302e+000	 2.6407946671e+000	-3.8828287222e-001
 3.3661233956e+000	 2.6756706236e+000	-3.1160014323e-001
 3.3383187065e+000	 2.7102819435e+000	-2.1857173741e-001
 3.6200055860e+000	 2.3666821834e+000	-4.9833265404e-001
 3.5955553812e+000	 2.4036652222e+000	-5.1669623689e-001
 3.5707021087e+000	 2.4404326359e+000	-5.2508382380e-001
 3.5454485452e+000	 2.4769779194e+000	-5.1787182200e-001
 3.5197976059e+000	 2.5132946133e+000	-5.0468137210e-001
 3.4937523437e+000	 2.5493763082e+000	-4.9984103366e-001
 3.4673159481e+000	 2.5852166478e+000	-4.7944599048e-001
 3.4404917441e+000	 2.6208093328e+000	-4.4287653745e-001
 3.4132831908e+000	 2.6561481244e+000	-3.8953298958e-001
 3.3856938804e+000	 2.6912268481e+000	-3.1883691187e-001
 3.3577275362e+000	 2.7260393967e+000	-2.3023233278e-001
 3.6409304738e+000	 2.3803624272e+000	-4.1319794235e-001
 3.6163389384e+000	 2.4175592408e+000	-4.4388798720e-001
 3.5913420053e+000	 2.4545391829e+000	-4.6338876990e-001
 3.5659424674e+000	 2.4912957108e+000	-4.6590593601e-001
 3.5401432568e+000	 2.5278223278e+000	-4.7974626907e-001
 3.5139474440e+000	 2.5641125874e+000	-4.8679133708e-001
 3.4873582368e+000	 2.6001600966e+000	-4.7683483835e-001
 3.4603789796e+000	 2.6359585197e+000	-4.4922853651e-001
 3.4330131515e+000	 2.6715015818e+000	-4.0334535781e-001
 3.4052643653e+000	 2.7067830727e+000	-3.3858066292e-001
 3.3771363659e+000	 2.7417968498e+000	-2.5435350099e-001
 3.6618553616e+000	 2.3940426711e+000	-3.3640263283e-001
 3.6371224955e+000	 2.4314532594e+000	-3.8018872392e-001
 3.6119819019e+000	 2.4686457300e+000	-4.1156923025e-001
 3.5864363897e+000	 2.5056135023e+000	-4.3110067061e-001
 3.5604889077e+000	 2.5423500424e+000	-4.6768545780e-001
 3.5341425442e+000	 2.5788488667e+000	-4.8652862936e-001
 3.5074005255e+000	 2.6151035454e+000	-4.8693237475e-001
 3.4802662151e+000	 2.6511077066e+000	-4.6821985142e-001
 3.4527431121e+000	 2.6868550392e+000	-4.2973651450e-001
 3.4248348501e+000	 2.7223392972e+000	-3.7085143065e-001
 3.3965451956e+000	 2.7575543030e+000	-2.9095857297e-001
 3.6827802494e+000	 2.4077229149e+000	-2.6868746686e-001
 3.6579060526e+000	 2.4453472780e+000	-3.2636035042e-001
 3.6326217985e+000	 2.4827522770e+000	-3.7040787140e-001
 3.6069303119e+000	 2.5199312937e+000	-4.1880032817e-001
 3.5808345586e+000	 2.5568777569e+000	-4.6849937561e-001
 3.5543376445e+000	 2.5935851459e+000	-4.9905753571e-001
 3.5274428143e+000	 2.6300469942e+000	-5.0974722932e-001
 3.5001534506e+000	 2.6662568934e+000	-4.9986292966e-001
 3.4724730728e+000	 2.7022084965e+000	-4.6872253538e-001
 3.4444053350e+000	 2.7378955218e+000	-4.1566872655e-001
 3.4159540253e+000	 2.7733117562e+000	-3.4007030066e-001
 3.7037051371e+000	 2.4214031587e+000	-2.1079337296e-001
 3.6786896097e+000	 2.4592412967e+000	-2.8316486237e-001
 3.6532616951e+000	 2.4968588240e+000	-3.4068736167e-001
 3.6274242341e+000	 2.5342490851e+000	-4.1946270418e-001
 3.6011802095e+000	 2.5714054714e+000	-4.8218829358e-001
 3.5745327447e+000	 2.6083214251e+000	-5.2438243774e-001
 3.5474851030e+000	 2.6449904431e+000	-5.4528771516e-001
 3.5200406862e+000	 2.6814060803e+000	-5.4416983378e-001
 3.4922030334e+000	 2.7175619539e+000	-5.2031904739e-001
 3.4639758198e+000	 2.7534517463e+000	-4.7305155408e-001
 3.4353628550e+000	 2.7890692093e+000	-4.0171087335e-001
 3.7246300249e+000	 2.4350834026e+000	-1.6346146154e-001
 3.6994731668e+000	 2.4731353153e+000	-2.5136434522e-001
 3.6739015917e+000	 2.5109653711e+000	-3.3631168459e-001
 3.6479181564e+000	 2.5485668766e+000	-4.3308370138e-001
 3.6215258604e+000	 2.5859331860e+000	-5.0875232127e-001
 3.5947278450e+000	 2.6230577044e+000	-5.6250748026e-001
 3.5675273917e+000	 2.6599338919e+000	-5.9356183771e-001
 3.5399279217e+000	 2.6965552672e+000	-6.0115225215e-001
 3.5119329941e+000	 2.7329154113e+000	-5.8454124127e-001
 3.4835463047e+000	 2.7690079709e+000	-5.4301842289e-001
 3.4547716847e+000	 2.8048266625e+000	-4.7590193351e-001
 3.7455549127e+000	 2.4487636464e+000	-1.2743301982e-001
 3.7202567240e+000	 2.4870293339e+000	-2.3172097167e-001
 3.6945414883e+000	 2.5250719181e+000	-3.4868085338e-001
 3.6684120786e+000	 2.5628846680e+000	-4.5965914274e-001
 3.6418715113e+000	 2.6004609005e+000	-5.4819141117e-001
 3.6149229452e+000	 2.6377939836e+000	-6.1343657791e-001
 3.5875696804e+000	 2.6748773408e+000	-6.5457730333e-001
 3.5598151572e+000	 2.7117044541e+000	-6.7082150947e-001
 3.5316629547e+000	 2.7482688687e+000	-6.6140388375e-001
 3.5031167896e+000	 2.7845641955e+000	-6.2558736271e-001
 3.4741805144e+000	 2.8205841157e+000	-5.6266459205e-001
 3.7664798005e+000	 2.4624438902e+000	-3.3846870160e-001
 3.7410402811e+000	 2.5009233526e+000	-2.2609786712e-001
 3.7151813848e+000	 2.5391784651e+000	-3.7408382662e-001
 3.6889060008e+000	 2.5772024595e+000	-4.9918477374e-001
 3.6622171622e+000	 2.6149886150e+000	-6.0050536310e-001
 3.6351180455e+000	 2.6525302629e+000	-6.7717342157e-001
 3.6076119692e+000	 2.6898207896e+000	-7.2834152765e-001
 3.5797023927e+000	 2.7268536410e+000	-7.5318857685e-001
 3.5513929153e+000	 2.7636223260e+000	-7.5092132935e-001
 3.5226872744e+000	 2.8001204200e+000	-7.2077593659e-001
 3.4935893441e+000	 2.8363415688e+000	-6.6201944309e-001
 3.2995010472e+000	 2.6787670372e+000	-2.3253594438e-001
 3.2716529593e+000	 2.7127084092e+000	-2.7733827493e-001
 3.2434420746e+000	 2.7463764324e+000	-3.5126363373e-001
 3.2148724293e+000	 2.7797653252e+000	-4.5325043033e-001
 3.1859481822e+000	 2.8128693856e+000	-5.8221958726e-001
 3.1566736119e+000	 2.8456829949e+000	-7.3707613403e-001
 3.1270531156e+000	 2.8782006205e+000	-9.1671082702e-001
 3.0970912062e+000	 2.9104168190e+000	-7.5136767798e-001
 3.0667925103e+000	 2.9423262393e+000	-6.3570652048e-001
 3.0361617660e+000	 2.9739236255e+000	-5.9660828820e-001
 3.0052038200e+000	 3.0052038200e+000	-6.3168917680e-001
 3.3189098769e+000	 2.6945244904e+000	-2.1934778804e-001
 3.2908979767e+000	 2.7286655175e+000	-2.5548686709e-001
 3.2625211456e+000	 2.7625315879e+000	-3.1829316418e-001
 3.2337834436e+000	 2.7961168859e+000	-4.0672673177e-001
 3.2046890538e+000	 2.8294156761e+000	-5.1973226199e-001
 3.1752422802e+000	 2.8624223067e+000	-6.5624067011e-001
 3.1454475457e+000	 2.8951312124e+000	-8.1517070121e-001
 3.1153093898e+000	 2.9275369179e+000	-8.7361734686e-001
 3.0848324663e+000	 2.9596340407e+000	-7.3131922103e-001
 3.0540215411e+000	 2.9914172939e+000	-6.6399656828e-001
 3.0228814896e+000	 3.0228814896e+000	-6.6927115598e-001
 3.3383187065e+000	 2.7102819435e+000	-2.1857173741e-001
 3.3101429941e+000	 2.7446226258e+000	-2.4681519447e-001
 3.2816002166e+000	 2.7786867434e+000	-2.9928924781e-001
 3.2526944579e+000	 2.8124684466e+000	-3.7497510161e-001
 3.2234299255e+000	 2.8459619666e+000	-4.7284071268e-001
 3.1938109485e+000	 2.8791616184e+000	-5.9184236398e-001
 3.1638419758e+000	 2.9120618043e+000	-7.3092625852e-001
 3.1335275733e+000	 2.9446570169e+000	-8.8903013028e-001
 3.1028724222e+000	 2.9769418421e+000	-8.2297601234e-001
 3.0718813162e+000	 3.0089109623e+000	-7.2849888107e-001
 3.0405591591e+000	 3.0405591591e+000	-7.0504254885e-001
 3.3577275362e+000	 2.7260393967e+000	-2.3023233278e-001
 3.3293880115e+000	 2.7605797341e+000	-2.5133692403e-001
 3.3006792877e+000	 2.7948418989e+000	-2.9425428736e-001
 3.2716054722e+000	 2.8288200074e+000	-3.5798629159e-001
 3.2421707971e+000	 2.8625082571e+000	-4.4152365764e-001
 3.2123796169e+000	 2.8959009301e+000	-5.4384752259e-001
 3.1822364059e+000	 2.9289923962e+000	-6.6393102150e-001
 3.1517457569e+000	 2.9617771158e+000	-8.0074088344e-001
 3.1209123782e+000	 2.9942496435e+000	-9.1103666176e-001
 3.0897410913e+000	 3.0264046307e+000	-7.9046375652e-001
 3.0582368286e+000	 3.0582368286e+000	-7.3934006531e-001
 3.3771363659e+000	 2.7417968498e+000	-2.5435350099e-001
 3.3486330290e+000	 2.7765368424e+000	-2.6906537840e-001
 3.3197583587e+000	 2.8109970544e+000	-3.0319061955e-001
 3.2905164865e+000	 2.8451715681e+000	-3.5575127475e-001
 3.2609116688e+000	 2.8790545476e+000	-4.2576033266e-001
 3.2309482852e+000	 2.9126402419e+000	-5.1222327542e-001
 3.2006308360e+000	 2.9459229881e+000	-6.1413964888e-001
 3.1699639405e+000	 2.9788972147e+000	-7.3050464441e-001
 3.1389523341e+000	 3.0115574449e+000	-8.6031068875e-001
 3.1076008664e+000	 3.0438982991e+000	-8.5024185213e-001
 3.0759144982e+000	 3.0759144982e+000	-7.7250288944e-001
 3.3965451956e+000	 2.7575543030e+000	-2.9095857297e-001
 3.3678780464e+000	 2.7924939507e+000	-3.0001354572e-001
 3.3388374297e+000	 2.8271522099e+000	-3.2610051692e-001
 3.3094275008e+000	 2.8615231289e+000	-3.6826123908e-001
 3.2796525405e+000	 2.8956008381e+000	-4.2553047629e-001
 3.2495169535e+000	 2.9293795536e+000	-4.9693755096e-001
 3.2190252661e+000	 2.9628535800e+000	-5.8150790309e-001
 3.1881821241e+000	 2.9960173137e+000	-6.7826465831e-001
 3.1569922901e+000	 3.0288652463e+000	-7.8623020144e-001
 3.1254606415e+000	 3.0613919675e+000	-9.0442775177e-001
 3.0935921677e+000	 3.0935921677e+000	-8.0487260886e-001
 3.4159540253e+000	 2.7733117562e+000	-3.4007030066e-001
 3.3871230638e+000	 2.8084510590e+000	-3.4419408915e-001
 3.3579165007e+000	 2.8433073654e+000	-3.6298618968e-001
 3.3283385151e+000	 2.8778746896e+000	-3.9550758140e-001
 3.2983934121e+000	 2.9121471286e+000	-4.4081431547e-001
 3.2680856218e+000	 2.9461188654e+000	-4.9795905402e-001
 3.2374196962e+000	 2.9797841718e+000	-5.6599261892e-001
 3.2064003076e+000	 3.0131374126e+000	-6.4396554670e-001
 3.1750322460e+000	 3.0461730477e+000	-7.3092964631e-001
 3.1433204166e+000	 3.0788856359e+000	-8.2593955604e-001
 3.1112698372e+000	 3.1112698372e+000	-8.3679314640e-001
 3.4353628550e+000	 2.7890692093e+000	-4.0171087335e-001
 3.4063680812e+000	 2.8244081673e+000	-4.0161935602e-001
 3.3769955718e+000	 2.8594625209e+000	-4.1384978747e-001
 3.3472495294e+000	 2.8942262503e+000	-4.3748190148e-001
 3.3171342838e+000	 2.9286934191e+000	-4.7159255181e-001
 3.2866542901e+000	 2.9628581771e+000	-5.1525724380e-001
 3.2558141263e+000	 2.9967147637e+000	-5.6755167322e-001
 3.2246184912e+000	 3.0302575116e+000	-6.2755326864e-001
 3.1930722020e+000	 3.0634808491e+000	-6.9434273397e-001
 3.1611801917e+000	 3.0963793042e+000	-7.6700558757e-001
 3.1289475068e+000	 3.1289475068e+000	-8.4205794717e-001
 3.4547716847e+000	 2.8048266625e+000	-4.7590193351e-001
 3.4256130986e+000	 2.8403652756e+000	-4.7230138674e-001
 3.3960746428e+000	 2.8756176763e+000	-4.7869340102e-001
 3.3661605437e+000	 2.9105778111e+000	-4.9417599634e-001
 3.3358751555e+000	 2.9452397096e+000	-5.1784634823e-001
 3.3052229584e+000	 2.9795974888e+000	-5.4880231271e-001
 3.2742085564e+000	 3.0136453556e+000	-5.8614395563e-001
 3.2428366748e+000	 3.0473776105e+000	-6.2897508314e-001
 3.2111121579e+000	 3.0807886506e+000	-6.7640476954e-001
 3.1790399668e+000	 3.1138729726e+000	-7.2754887915e-001
 3.1466251763e+000	 3.1466251763e+000	-7.7014594563e-001
 3.4741805144e+000	 2.8205841157e+000	-5.6266459205e-001
 3.4448581160e+000	 2.8563223839e+000	-5.5625192335e-001
 3.4151537138e+000	 2.8917728318e+000	-5.5751906387e-001
 3.3850715580e+000	 2.9269293718e+000	-5.6558185471e-001
 3.3546160271e+000	 2.9617860002e+000	-5.7955731606e-001
 3.3237916267e+000	 2.9963368006e+000	-5.9856516585e-001
 3.2926029865e+000	 3.0305759475e+000	-6.2172934030e-001
 3.2610548583e+000	 3.0644977094e+000	-6.4817951288e-001
 3.2291521139e+000	 3.0980964520e+000	-6.7705260818e-001
 3.1968997419e+000	 3.1313666410e+000	-7.0431256795e-001
 3.1643028458e+000	 3.1643028458e+000	-7.2264464932e-001
 3.4935893441e+000	 2.8363415688e+000	-6.6201944309e-001
 3.4641031334e+000	 2.8722794922e+000	-6.5348241782e-001
 3.4342327849e+000	 2.9079279873e+000	-6.5032875389e-001
 3.4039825722e+000	 2.9432809326e+000	-6.5169165175e-001
 3.3733568988e+000	 2.9783322907e+000	-6.5670750259e-001
 3.3423602950e+000	 3.0130761123e+000	-6.6451740126e-001
 3.3109974166e+000	 3.0475065394e+000	-6.7426865850e-001
 3.2792730419e+000	 3.0816178084e+000	-6.8511630905e-001
 3.2471920698e+000	 3.1154042534e+000	-6.9622461201e-001
 3.2147595170e+000	 3.1488603094e+000	-6.9745844778e-001
 3.1819805154e+000	 3.1819805154e+000	-6.9909743140e-001
 3.0052038200e+000	 3.0052038200e+000	-6.3168917680e-001
 2.9739236255e+000	 3.0361617660e+000	-5.7086344255e-001
 2.9423262393e+000	 3.0667925103e+000	-5.3173471627e-001
 2.9104168190e+000	 3.0970912062e+000	-5.1298561249e-001
 2.8782006205e+000	 3.1270531156e+000	-5.1035029263e-001
 2.8456829949e+000	 3.1566736119e+000	-4.8447022055e-001
 2.8128693856e+000	 3.1859481822e+000	-4.7261610913e-001
 2.7797653252e+000	 3.2148724293e+000	-4.7180782029e-001
 2.7463764324e+000	 3.2434420746e+000	-4.7914504249e-001
 2.7127084092e+000	 3.2716529593e+000	-4.9181301419e-001
 2.6787670372e+000	 3.2995010472e+000	-5.0708797178e-001
 3.0228814896e+000	 3.0228814896e+000	-6.6927115598e-001
 2.9914172939e+000	 3.0540215411e+000	-5.9687577604e-001
 2.9596340407e+000	 3.0848324663e+000	-5.4849814516e-001
 2.9275369179e+000	 3.1153093898e+000	-5.2275269685e-001
 2.8951312124e+000	 3.1454475457e+000	-4.9137431312e-001
 2.8624223067e+000	 3.1752422802e+000	-4.6625270334e-001
 2.8294156761e+000	 3.2046890538e+000	-4.5691455239e-001
 2.7961168859e+000	 3.2337834436e+000	-4.6026817005e-001
 2.7625315879e+000	 3.2625211456e+000	-4.7330212982e-001
 2.7286655175e+000	 3.2908979767e+000	-4.9309115925e-001
 2.6945244904e+000	 3.3189098769e+000	-5.1680175096e-001
 3.0405591591e+000	 3.0405591591e+000	-7.0504254885e-001
 3.0089109623e+000	 3.0718813162e+000	-6.2069793616e-001
 2.9769418421e+000	 3.1028724222e+000	-5.6264981610e-001
 2.9446570169e+000	 3.1335275733e+000	-5.1943927944e-001
 2.9120618043e+000	 3.1638419758e+000	-4.7397376806e-001
 2.8791616184e+000	 3.1938109485e+000	-4.4927817278e-001
 2.8459619666e+000	 3.2234299255e+000	-4.4207412619e-001
 2.8124684466e+000	 3.2526944579e+000	-4.4915769306e-001
 2.7786867434e+000	 3.2816002166e+000	-4.6740569846e-001
 2.7446226258e+000	 3.3101429941e+000	-4.9378178617e-001
 2.7102819435e+000	 3.3383187065e+000	-5.2534219386e-001
 3.0582368286e+000	 3.0582368286e+000	-7.3934006531e-001
 3.0264046307e+000	 3.0897410913e+000	-6.4267953943e-001
 2.9942496435e+000	 3.1209123782e+000	-5.7455246171e-001
 2.9617771158e+000	 3.1517457569e+000	-5.0574675870e-001
 2.9289923962e+000	 3.1822364059e+000	-4.5861939404e-001
 2.8959009301e+000	 3.2123796169e+000	-4.3403407443e-001
 2.8625082571e+000	 3.2421707971e+000	-4.2859909800e-001
 2.8288200074e+000	 3.2716054722e+000	-4.3899757807e-001
 2.7948418989e+000	 3.3006792877e+000	-4.6199394433e-001
 2.7605797341e+000	 3.3293880115e+000	-4.9444017064e-001
 2.7260393967e+000	 3.3577275362e+000	-5.3328171521e-001
 3.0759144982e+000	 3.0759144982e+000	-7.7250288944e-001
 3.0438982991e+000	 3.1076008664e+000	-6.6317244935e-001
 3.0115574449e+000	 3.1389523341e+000	-5.7170352839e-001
 2.9788972147e+000	 3.1699639405e+000	-4.9482353299e-001
 2.9459229881e+000	 3.2006308360e+000	-4.4578343119e-001
 2.9126402419e+000	 3.2309482852e+000	-4.2100908930e-001
 2.8790545476e+000	 3.2609116688e+000	-4.1699469281e-001
 2.8451715681e+000	 3.2905164865e+000	-4.3030968367e-001
 2.8109970544e+000	 3.3197583587e+000	-4.5760543598e-001
 2.7765368424e+000	 3.3486330290e+000	-4.9562165419e-001
 2.7417968498e+000	 3.3771363659e+000	-5.4119247968e-001
 3.0935921677e+000	 3.0935921677e+000	-8.0487260886e-001
 3.0613919675e+000	 3.1254606415e+000	-6.8214473792e-001
 3.0288652463e+000	 3.1569922901e+000	-5.6794540444e-001
 2.9960173137e+000	 3.1881821241e+000	-4.8712722935e-001
 2.9628535800e+000	 3.2190252661e+000	-4.3593958017e-001
 2.9293795536e+000	 3.2495169535e+000	-4.1069309860e-001
 2.8956008381e+000	 3.2796525405e+000	-4.0776706580e-001
 2.8615231289e+000	 3.3094275008e+000	-4.2361651922e-001
 2.8271522099e+000	 3.3388374297e+000	-4.5477910387e-001
 2.7924939507e+000	 3.3678780464e+000	-4.9788164240e-001
 2.7575543030e+000	 3.3965451956e+000	-5.4964640895e-001
 3.1112698372e+000	 3.1112698372e+000	-8.3679314640e-001
 3.0788856359e+000	 3.1433204166e+000	-6.8821383447e-001
 3.0461730477e+000	 3.1750322460e+000	-5.6804512455e-001
 3.0131374126e+000	 3.2064003076e+000	-4.8311713741e-001
 2.9797841718e+000	 3.2374196962e+000	-4.2956296074e-001
 2.9461188654e+000	 3.2680856218e+000	-4.0357714959e-001
 2.9121471286e+000	 3.2983934121e+000	-4.0142327594e-001
 2.8778746896e+000	 3.3283385151e+000	-4.1944122629e-001
 2.8433073654e+000	 3.3579165007e+000	-4.5405423016e-001
 2.8084510590e+000	 3.3871230638e+000	-5.0177560301e-001
 2.7733117562e+000	 3.4159540253e+000	-5.5921518866e-001
 3.1289475068e+000	 3.1289475068e+000	-8.4205794717e-001
 3.0963793042e+000	 3.1611801917e+000	-6.9869601333e-001
 3.0634808491e+000	 3.1930722020e+000	-5.7244810200e-001
 3.0302575116e+000	 3.2246184912e+000	-4.8325416243e-001
 2.9967147637e+000	 3.2558141263e+000	-4.2713007160e-001
 2.9628581771e+000	 3.2866542901e+000	-4.0015342268e-001
 2.9286934191e+000	 3.3171342838e+000	-3.9847126037e-001
 2.8942262503e+000	 3.3472495294e+000	-4.1830756086e-001
 2.8594625209e+000	 3.3769955718e+000	-4.5597043873e-001
 2.8244081673e+000	 3.4063680812e+000	-5.0785906420e-001
 2.7890692093e+000	 3.4353628550e+000	-5.7047027505e-001
 3.1466251763e+000	 3.1466251763e+000	-7.7014594563e-001
 3.1138729726e+000	 3.1790399668e+000	-7.1402331360e-001
 3.0807886506e+000	 3.2111121579e+000	-5.8160154128e-001
 3.0473776105e+000	 3.2428366748e+000	-4.8800077992e-001
 3.0136453556e+000	 3.2742085564e+000	-4.2911875174e-001
 2.9795974888e+000	 3.3052229584e+000	-4.0091519961e-001
 2.9452397096e+000	 3.3358751555e+000	-3.9941980985e-001
 2.9105778111e+000	 3.3661605437e+000	-4.2073987600e-001
 2.8756176763e+000	 3.3960746428e+000	-4.6106768561e-001
 2.8403652756e+000	 3.4256130986e+000	-5.1668761287e-001
 2.8048266625e+000	 3.4547716847e+000	-5.8398290141e-001
 3.1643028458e+000	 3.1643028458e+000	-7.2264464932e-001
 3.1313666410e+000	 3.1968997419e+000	-7.0820831210e-001
 3.0980964520e+000	 3.2291521139e+000	-5.9595438802e-001
 3.0644977094e+000	 3.2610548583e+000	-4.9782099179e-001
 3.0305759475e+000	 3.2926029865e+000	-4.3600814294e-001
 2.9963368006e+000	 3.3237916267e+000	-4.0635683264e-001
 2.9617860002e+000	 3.3546160271e+000	-4.0477854481e-001
 2.9269293718e+000	 3.3850715580e+000	-4.2726310526e-001
 2.8917728318e+000	 3.4151537138e+000	-4.6988624967e-001
 2.8563223839e+000	 3.4448581160e+000	-5.2881689303e-001
 2.8205841157e+000	 3.4741805144e+000	-6.0032408434e-001
 3.1819805154e+000	 3.1819805154e+000	-6.9909743140e-001
 3.1488603094e+000	 3.2147595170e+000	-6.7388014315e-001
 3.1154042534e+000	 3.2471920698e+000	-6.1595728067e-001
 3.0816178084e+000	 3.2792730419e+000	-5.1318028390e-001
 3.0475065394e+000	 3.3109974166e+000	-4.4827865359e-001
 3.0130761123e+000	 3.3423602950e+000	-4.1697371484e-001
 2.9783322907e+000	 3.3733568988e+000	-4.1505789238e-001
 2.9432809326e+000	 3.4039825722e+000	-4.3840274650e-001
 2.9079279873e+000	 3.4342327849e+000	-4.8296672368e-001
 2.8722794922e+000	 3.4641031334e+000	-5.4480260418e-001
 2.8363415688e+000	 3.4935893441e+000	-6.2006462972e-001
 2.6787670372e+000	 3.2995010472e+000	-5.0708797178e-001
 2.6445581744e+000	 3.3269824258e+000	-5.3468232660e-001
 2.6100877523e+000	 3.3540933089e+000	-5.7981720343e-001
 2.5753617721e+000	 3.3808300376e+000	-6.3974613184e-001
 2.5403863013e+000	 3.4071890820e+000	-7.1181384707e-001
 2.5051674705e+000	 3.4331670430e+000	-7.9346064459e-001
 2.4697114697e+000	 3.4587606532e+000	-6.9680947484e-001
 2.4340245451e+000	 3.4839667785e+000	-5.8895936509e-001
 2.3981129948e+000	 3.5087824190e+000	-4.9799425855e-001
 2.3619831663e+000	 3.5332047099e+000	-4.1913762707e-001
 2.3256414519e+000	 3.5572309227e+000	-3.4788057368e-001
 2.6945244904e+000	 3.3189098769e+000	-5.1680175096e-001
 2.6601143990e+000	 3.3465529107e+000	-5.4761677908e-001
 2.6254412097e+000	 3.3738232696e+000	-5.9333062115e-001
 2.5905109590e+000	 3.4007172731e+000	-6.5113463822e-001
 2.5553297501e+000	 3.4272313707e+000	-7.1831609548e-001
 2.5199037497e+000	 3.4533621432e+000	-7.9226259128e-001
 2.4842391843e+000	 3.4791063041e+000	-7.7853443000e-001
 2.4483423365e+000	 3.5044607008e+000	-6.6135893526e-001
 2.4122195419e+000	 3.5294223156e+000	-5.5698224757e-001
 2.3758771849e+000	 3.5539882670e+000	-4.6056430120e-001
 2.3393216957e+000	 3.5781558105e+000	-3.6754238494e-001
 2.7102819435e+000	 3.3383187065e+000	-5.2534219386e-001
 2.6756706236e+000	 3.3661233956e+000	-5.5937764791e-001
 2.6407946671e+000	 3.3935532302e+000	-6.0566083717e-001
 2.6056601459e+000	 3.4206045086e+000	-6.6132022699e-001
 2.5702731989e+000	 3.4472736594e+000	-7.2358492385e-001
 2.5346400289e+000	 3.4735572435e+000	-7.8978917978e-001
 2.4987668988e+000	 3.4994519550e+000	-8.5050869939e-001
 2.4626601279e+000	 3.5249546230e+000	-7.2381590356e-001
 2.4263260889e+000	 3.5500622122e+000	-6.0577090391e-001
 2.3897712035e+000	 3.5747718241e+000	-4.9146955223e-001
 2.3530019396e+000	 3.5990806982e+000	-3.7629490615e-001
 2.7260393967e+000	 3.3577275362e+000	-5.3328171521e-001
 2.6912268481e+000	 3.3856938804e+000	-5.7054347244e-001
 2.6561481244e+000	 3.4132831908e+000	-6.1739179829e-001
 2.6208093328e+000	 3.4404917441e+000	-6.7089152964e-001
 2.5852166478e+000	 3.4673159481e+000	-7.2821292055e-001
 2.5493763082e+000	 3.4937523437e+000	-7.8663622325e-001
 2.5132946133e+000	 3.5197976059e+000	-8.4355592846e-001
 2.4769779194e+000	 3.5454485452e+000	-7.7803481940e-001
 2.4404326359e+000	 3.5707021087e+000	-6.4606186273e-001
 2.4036652222e+000	 3.5955553812e+000	-5.1355070936e-001
 2.3666821834e+000	 3.6200055860e+000	-3.7582977056e-001
 2.7417968498e+000	 3.3771363659e+000	-5.4119247968e-001
 2.7067830727e+000	 3.4052643653e+000	-5.8169247108e-001
 2.6715015818e+000	 3.4330131515e+000	-6.2910706788e-001
 2.6359585197e+000	 3.4603789796e+000	-6.8043673997e-001
 2.6001600966e+000	 3.4873582368e+000	-7.3279219043e-001
 2.5641125874e+000	 3.5139474440e+000	-7.8339901375e-001
 2.5278223278e+000	 3.5401432568e+000	-8.2960200377e-001
 2.4912957108e+000	 3.5659424674e+000	-8.2571966108e-001
 2.4545391829e+000	 3.5913420053e+000	-6.7955617554e-001
 2.4175592408e+000	 3.6163389384e+000	-5.2850451392e-001
 2.3803624272e+000	 3.6409304738e+000	-3.6783802756e-001
 2.7575543030e+000	 3.3965451956e+000	-5.4964640895e-001
 2.7223392972e+000	 3.4248348501e+000	-5.9340255047e-001
 2.6868550392e+000	 3.4527431121e+000	-6.4138983676e-001
 2.6511077066e+000	 3.4802662151e+000	-6.9054362667e-001
 2.6151035454e+000	 3.5074005255e+000	-7.3791436862e-001
 2.5788488667e+000	 3.5341425442e+000	-7.8067233722e-001
 2.5423500424e+000	 3.5604889077e+000	-8.1611200950e-001
 2.5056135023e+000	 3.5864363897e+000	-8.4165607340e-001
 2.4686457300e+000	 3.6119819019e+000	-7.0795432690e-001
 2.4314532594e+000	 3.6371224955e+000	-5.3802713618e-001
 2.3940426711e+000	 3.6618553616e+000	-3.5401015940e-001
 2.7733117562e+000	 3.4159540253e+000	-5.5921518866e-001
 2.7378955218e+000	 3.4444053350e+000	-6.0625131434e-001
 2.7022084965e+000	 3.4724730728e+000	-6.5482293386e-001
 2.6662568934e+000	 3.5001534506e+000	-7.0179954532e-001
 2.6300469942e+000	 3.5274428143e+000	-7.4417063389e-001
 2.5935851459e+000	 3.5543376445e+000	-7.7905048777e-001
 2.5568777569e+000	 3.5808345586e+000	-8.0368264364e-001
 2.5199312937e+000	 3.6069303119e+000	-8.1544395408e-001
 2.4827522770e+000	 3.6326217985e+000	-7.3295625052e-001
 2.4453472780e+000	 3.6579060526e+000	-5.4381419152e-001
 2.4077229149e+000	 3.6827802494e+000	-3.3603609730e-001
 2.7890692093e+000	 3.4353628550e+000	-5.7047027505e-001
 2.7534517463e+000	 3.4639758198e+000	-6.2081607207e-001
 2.7175619539e+000	 3.4922030334e+000	-6.6998883640e-001
 2.6814060803e+000	 3.5200406862e+000	-7.1479145009e-001
 2.6449904431e+000	 3.5474851030e+000	-7.5215172153e-001
 2.6083214251e+000	 3.5745327447e+000	-7.7912728166e-001
 2.5714054714e+000	 3.6011802095e+000	-7.9291009954e-001
 2.5342490851e+000	 3.6274242341e+000	-7.9083060953e-001
 2.4968588240e+000	 3.6532616951e+000	-7.5626134481e-001
 2.4592412967e+000	 3.6786896097e+000	-5.4756075616e-001
 2.4214031587e+000	 3.7037051371e+000	-3.1560523698e-001
 2.8048266625e+000	 3.4547716847e+000	-5.8398290141e-001
 2.7690079709e+000	 3.4835463047e+000	-6.3767384694e-001
 2.7329154113e+000	 3.5119329941e+000	-6.8746967976e-001
 2.6965552672e+000	 3.5399279217e+000	-7.3010590502e-001
 2.6599338919e+000	 3.5675273917e+000	-7.6244793580e-001
 2.6230577044e+000	 3.5947278450e+000	-7.8149607064e-001
 2.5859331860e+000	 3.6215258604e+000	-7.8439008003e-001
 2.5485668766e+000	 3.6479181564e+000	-7.6841339420e-001
 2.5109653711e+000	 3.6739015917e+000	-7.3099688601e-001
 2.4731353153e+000	 3.6994731668e+000	-5.5096138228e-001
 2.4350834026e+000	 3.7246300249e+000	-2.9440645374e-001
 2.8205841157e+000	 3.4741805144e+000	-6.0032408434e-001
 2.7845641955e+000	 3.5031167896e+000	-6.5740138415e-001
 2.7482688687e+000	 3.5316629547e+000	-7.0784726707e-001
 2.7117044541e+000	 3.5598151572e+000	-7.4832909492e-001
 2.6748773408e+000	 3.5875696804e+000	-7.7564916201e-001
 2.6377939836e+000	 3.6149229452e+000	-7.8674975499e-001
 2.6004609005e+000	 3.6418715113e+000	-7.7871781118e-001
 2.5628846680e+000	 3.6684120786e+000	-7.4878916770e-001
 2.5250719181e+000	 3.6945414883e+000	-6.9435239513e-001
 2.4870293339e+000	 3.7202567240e+000	-5.5571011268e-001
 2.4487636464e+000	 3.7455549127e+000	-2.7412811699e-001
 2.8363415688e+000	 3.4935893441e+000	-6.2006462972e-001
 2.8001204200e+000	 3.5226872744e+000	-6.8057515850e-001
 2.7636223260e+000	 3.5513929153e+000	-7.3170307840e-001
 2.7268536410e+000	 3.5797023927e+000	-7.7004683587e-001
 2.6898207896e+000	 3.6076119692e+000	-7.9234487809e-001
 2.6525302629e+000	 3.6351180455e+000	-7.9548079602e-001
 2.6149886150e+000	 3.6622171622e+000	-7.7648805550e-001
 2.5772024595e+000	 3.6889060008e+000	-7.3255430852e-001
 2.5391784651e+000	 3.7151813848e+000	-6.6102527832e-001
 2.5009233526e+000	 3.7410402811e+000	-5.5940821325e-001
 2.4624438902e+000	 3.7664798005e+000	-3.4729883983e-001
 2.3256414519e+000	 3.5572309227e+000	-3.4788057368e-001
 2.2890942857e+000	 3.5808584657e+000	-4.7139242691e-001
 2.2523481398e+000	 3.6040848849e+000	-5.5618476027e-001
 2.2154095206e+000	 3.6269078643e+000	-5.9926018814e-001
 2.1782849654e+000	 3.6493252266e+000	-5.9792919117e-001
 2.1409810384e+000	 3.6713349334e+000	-5.4980944574e-001
 2.1035043275e+000	 3.6929350853e+000	-4.5282435772e-001
 2.0658614403e+000	 3.7141239222e+000	-3.0520081799e-001
 2.0280590008e+000	 3.7348998232e+000	-1.0546619964e-001
 1.9901036456e+000	 3.7552613065e+000	 1.0183057373e-001
 1.9520020205e+000	 3.7752070290e+000	 2.0969176043e-001
 2.3393216957e+000	 3.5781558105e+000	-3.6754238494e-001
 2.3025595462e+000	 3.6019223390e+000	-4.7636482937e-001
 2.2655972465e+000	 3.6252853842e+000	-5.4620928417e-001
 2.2284413413e+000	 3.6482426164e+000	-5.7392461285e-001
 2.1910984063e+000	 3.6707918456e+000	-5.5667441689e-001
 2.1535750445e+000	 3.6929310213e+000	-4.9193644405e-001
 2.1158778823e+000	 3.7146582329e+000	-3.7750118371e-001
 2.0780135664e+000	 3.7359717100e+000	-2.1146966707e-001
 2.0399887596e+000	 3.7568698222e+000	-5.0284676429e-002
 2.0018101376e+000	 3.7773510788e+000	 2.2841353985e-002
 1.9634843853e+000	 3.7974141292e+000	 1.1136880040e-001
 2.3530019396e+000	 3.5990806982e+000	-3.7629490615e-001
 2.3160248067e+000	 3.6229862123e+000	-4.6786686583e-001
 2.2788463532e+000	 3.6464858835e+000	-5.2009112850e-001
 2.2414731620e+000	 3.6695773686e+000	-5.2966394006e-001
 2.2039118473e+000	 3.6922584646e+000	-4.9360330277e-001
 2.1661690506e+000	 3.7145271091e+000	-4.0924845983e-001
 2.1282514372e+000	 3.7363813804e+000	-2.7425854958e-001
 2.0901656925e+000	 3.7578194978e+000	-1.5042103710e-001
 2.0519185184e+000	 3.7788398211e+000	-1.0817112283e-001
 2.0135166297e+000	 3.7994408512e+000	-5.0566307538e-002
 1.9749667502e+000	 3.8196212294e+000	 2.0612086654e-002
 2.3666821834e+000	 3.6200055860e+000	-3.7582977056e-001
 2.3294900672e+000	 3.6440500857e+000	-4.4761962664e-001
 2.2920954599e+000	 3.6676863828e+000	-4.7958023865e-001
 2.2545049827e+000	 3.6909121207e+000	-4.6825635365e-001
 2.2167252883e+000	 3.7137250836e+000	-4.1052164102e-001
 2.1787630567e+000	 3.7361231969e+000	-3.0357825083e-001
 2.1406249920e+000	 3.7581045280e+000	-2.0844896297e-001
 2.1023178186e+000	 3.7796672856e+000	-1.9298674665e-001
 2.0638482773e+000	 3.8008098201e+000	-1.6236207723e-001
 2.0252231217e+000	 3.8215306236e+000	-1.1832707822e-001
 1.9864491150e+000	 3.8418283295e+000	-6.2555052937e-002
 2.3803624272e+000	 3.6409304738e+000	-3.6783802756e-001
 2.3429553277e+000	 3.6651139590e+000	-4.1734279061e-001
 2.3053445666e+000	 3.6888868821e+000	-4.2642431108e-001
 2.2675368034e+000	 3.7122468729e+000	-3.9147694183e-001
 2.2295387292e+000	 3.7351917025e+000	-3.0923127256e-001
 2.1913570628e+000	 3.7577192848e+000	-2.3445354737e-001
 2.1529985469e+000	 3.7798276756e+000	-2.4147483151e-001
 2.1144699447e+000	 3.8015150733e+000	-2.3366183385e-001
 2.0757780361e+000	 3.8227798190e+000	-2.1274332182e-001
 2.0369296137e+000	 3.8436203960e+000	-1.8036727854e-001
 1.9979314798e+000	 3.8640354297e+000	-1.3810004404e-001
 2.3940426711e+000	 3.6618553616e+000	-3.5401015940e-001
 2.3564205882e+000	 3.6861778323e+000	-3.7875466534e-001
 2.3185936733e+000	 3.7100873815e+000	-3.6236885749e-001
 2.2805686241e+000	 3.7335816250e+000	-3.0109778551e-001
 2.2423521702e+000	 3.7566583215e+000	-2.3872012180e-001
 2.2039510689e+000	 3.7793153726e+000	-2.6371922289e-001
 2.1653721018e+000	 3.8015508231e+000	-2.7433725994e-001
 2.1266220709e+000	 3.8233628611e+000	-2.7228575042e-001
 2.0877077949e+000	 3.8447498180e+000	-2.5919339815e-001
 2.0486361058e+000	 3.8657101684e+000	-2.3660512057e-001
 2.0094138446e+000	 3.8862425299e+000	-2.0598133004e-001
 2.4077229149e+000	 3.6827802494e+000	-3.3603609730e-001
 2.3698858487e+000	 3.7072417056e+000	-3.3357222616e-001
 2.3318427800e+000	 3.7312878808e+000	-2.8915726695e-001
 2.2936004448e+000	 3.7549163771e+000	-2.3171885710e-001
 2.2551656112e+000	 3.7781249405e+000	-2.7000356422e-001
 2.2165450750e+000	 3.8009114605e+000	-2.9447435514e-001
 2.1777456566e+000	 3.8232739707e+000	-3.0683184241e-001
 2.1387741970e+000	 3.8452106489e+000	-3.0869175005e-001
 2.0996375537e+000	 3.8667198170e+000	-3.0158381288e-001
 2.0603425978e+000	 3.8877999408e+000	-2.8695093828e-001
 2.0208962095e+000	 3.9084496300e+000	-2.6614862723e-001
 2.4214031587e+000	 3.7037051371e+000	-3.1560523698e-001
 2.3833511092e+000	 3.7283055790e+000	-2.8351115378e-001
 2.3450918867e+000	 3.7524883801e+000	-2.2408840137e-001
 2.3066322655e+000	 3.7762511293e+000	-2.7079556791e-001
 2.2679790521e+000	 3.7995915595e+000	-3.0435837041e-001
 2.2291390811e+000	 3.8225075483e+000	-3.2647307434e-001
 2.1901192115e+000	 3.8449971182e+000	-3.3874895681e-001
 2.1509263231e+000	 3.8670584367e+000	-3.4270706348e-001
 2.1115673126e+000	 3.8886898159e+000	-3.3977923646e-001
 2.0720490898e+000	 3.9098897132e+000	-3.3130741016e-001
 2.0323785743e+000	 3.9306567302e+000	-3.1854317132e-001
 2.4350834026e+000	 3.7246300249e+000	-2.9440645374e-001
 2.3968163697e+000	 3.7493694523e+000	-2.3028587066e-001
 2.3583409934e+000	 3.7736888794e+000	-2.7673032649e-001
 2.3196640863e+000	 3.7975858814e+000	-3.1445774957e-001
 2.2807924931e+000	 3.8210581785e+000	-3.4149952361e-001
 2.2417330872e+000	 3.8441036362e+000	-3.5946521829e-001
 2.2024927664e+000	 3.8667202658e+000	-3.6987391134e-001
 2.1630784492e+000	 3.8889062245e+000	-3.7415306768e-001
 2.1234970714e+000	 3.9106598149e+000	-3.7363769522e-001
 2.0837555818e+000	 3.9319794856e+000	-3.6956977419e-001
 2.0438609391e+000	 3.9528638304e+000	-3.6309795569e-001
 2.4487636464e+000	 3.7455549127e+000	-2.7412811699e-001
 2.4102816302e+000	 3.7704333256e+000	-2.9859270261e-001
 2.3715901001e+000	 3.7948893788e+000	-3.3540711445e-001
 2.3326959070e+000	 3.8189206336e+000	-3.6238348116e-001
 2.2936059341e+000	 3.8425247975e+000	-3.8113858326e-001
 2.2543270933e+000	 3.8656997240e+000	-3.9319645229e-001
 2.2148663212e+000	 3.8884434134e+000	-3.9998708607e-001
 2.1752305753e+000	 3.9107540122e+000	-4.0284544935e-001
 2.1354268302e+000	 3.9326298139e+000	-4.0301075692e-001
 2.0954620739e+000	 3.9540692580e+000	-4.0162603570e-001
 2.0553433039e+000	 3.9750709306e+000	-3.9973796158e-001
 2.4624438902e+000	 3.7664798005e+000	-3.4729883983e-001
 2.4237468907e+000	 3.7914971990e+000	-3.7798933271e-001
 2.3848392068e+000	 3.8160898781e+000	-3.9976211102e-001
 2.3457277277e+000	 3.8402553857e+000	-4.1424823380e-001
 2.3064193751e+000	 3.8639914164e+000	-4.2298378007e-001
 2.2669210994e+000	 3.8872958119e+000	-4.2740838502e-001
 2.2272398761e+000	 3.9101665609e+000	-4.2886406984e-001
 2.1873827014e+000	 3.9326018000e+000	-4.2859436302e-001
 2.1473565890e+000	 3.9545998128e+000	-4.2774371013e-001
 2.1071685659e+000	 3.9761590304e+000	-4.2735716831e-001
 2.0668256687e+000	 3.9972780307e+000	-4.2838038066e-001
 1.9520020205e+000	 3.7752070290e+000	 2.0969176043e-001
 1.9137607768e+000	 3.7947357865e+000	-1.1755276736e-001
 1.8753865680e+000	 3.8138465125e+000	-4.8984116361e-001
 1.8368860459e+000	 3.8325382783e+000	-3.0732104459e-001
 1.7982658577e+000	 3.8508102920e+000	-1.9990659976e-001
 1.7595326423e+000	 3.8686618980e+000	-1.6849822123e-001
 1.7206930268e+000	 3.8860925758e+000	-2.0771948045e-001
 1.6817536235e+000	 3.9031019395e+000	-3.1221080818e-001
 1.6427210263e+000	 3.9196897364e+000	-4.7663632688e-001
 1.6036018077e+000	 3.9358558462e+000	-6.9569053942e-001
 1.5644025157e+000	 3.9516002795e+000	-9.6410486322e-001
 1.9634843853e+000	 3.7974141292e+000	 1.1136880040e-001
 1.9250181932e+000	 3.8170577617e+000	-1.6769907569e-001
 1.8864182537e+000	 3.8362809037e+000	-4.9149556932e-001
 1.8476912579e+000	 3.8550826211e+000	-4.4385340269e-001
 1.8088438922e+000	 3.8734621172e+000	-2.9772346024e-001
 1.7698828343e+000	 3.8914187326e+000	-2.2748833248e-001
 1.7308147505e+000	 3.9089519439e+000	-2.2787014110e-001
 1.6916462918e+000	 3.9260613627e+000	-2.9360670305e-001
 1.6523840911e+000	 3.9427467349e+000	-4.1945830986e-001
 1.6130347595e+000	 3.9590079395e+000	-6.0021436548e-001
 1.5736048834e+000	 3.9748449870e+000	-8.3069987148e-001
 1.9749667502e+000	 3.8196212294e+000	 2.0612086654e-002
 1.9362756095e+000	 3.8393797369e+000	-2.1351394732e-001
 1.8974499394e+000	 3.8587152950e+000	-4.9207950961e-001
 1.8584964700e+000	 3.8776269639e+000	-5.7132667516e-001
 1.8194219267e+000	 3.8961139425e+000	-3.9000797540e-001
 1.7802330263e+000	 3.9141755673e+000	-2.8447491192e-001
 1.7409364742e+000	 3.9318113120e+000	-2.4954610710e-001
 1.7015389602e+000	 3.9490207858e+000	-2.8005473057e-001
 1.6620471560e+000	 3.9658037333e+000	-3.7085522772e-001
 1.6224677113e+000	 3.9821600327e+000	-5.1682990837e-001
 1.5828072511e+000	 3.9980896946e+000	-7.1289538514e-001
 1.9864491150e+000	 3.8418283295e+000	-6.2555052937e-002
 1.9475330258e+000	 3.8617017121e+000	-2.5492625916e-001
 1.9084816251e+000	 3.8811496862e+000	-4.9147432030e-001
 1.8693016820e+000	 3.9001713067e+000	-6.8976808702e-001
 1.8299999611e+000	 3.9187657677e+000	-4.7674149963e-001
 1.7905832183e+000	 3.9369324020e+000	-3.3939351771e-001
 1.7510581979e+000	 3.9546706801e+000	-2.7263723269e-001
 1.7114316286e+000	 3.9719802090e+000	-2.7139915134e-001
 1.6717102208e+000	 3.9888607318e+000	-3.3062587513e-001
 1.6319006631e+000	 4.0053121259e+000	-4.4529064201e-001
 1.5920096189e+000	 4.0213344021e+000	-6.1039971955e-001
 1.9979314798e+000	 3.8640354297e+000	-1.3810004404e-001
 1.9587904422e+000	 3.8840236873e+000	-2.9185681339e-001
 1.9195133107e+000	 3.9035840775e+000	-4.8955443524e-001
 1.8801068940e+000	 3.9227156495e+000	-7.2951371663e-001
 1.8405779956e+000	 3.9414175930e+000	-5.5790083175e-001
 1.8009334104e+000	 3.9596892367e+000	-3.9217632494e-001
 1.7611799216e+000	 3.9775300482e+000	-2.9703116056e-001
 1.7213242970e+000	 3.9949396322e+000	-2.6748318412e-001
 1.6813732857e+000	 4.0119177302e+000	-2.9856917259e-001
 1.6413336149e+000	 4.0284642191e+000	-3.8535133101e-001
 1.6012119866e+000	 4.0445791096e+000	-5.2292364246e-001
 2.0094138446e+000	 3.8862425299e+000	-2.0598133004e-001
 1.9700478585e+000	 3.9063456625e+000	-3.2421856814e-001
 1.9305449964e+000	 3.9260184687e+000	-4.8618758348e-001
 1.8909121061e+000	 3.9452599923e+000	-6.9035904180e-001
 1.8511560300e+000	 3.9640694182e+000	-6.3345834513e-001
 1.8112836024e+000	 3.9824460714e+000	-4.4275222238e-001
 1.7713016452e+000	 4.0003894163e+000	-3.2261338501e-001
 1.7312169653e+000	 4.0178990554e+000	-2.6814903570e-001
 1.6910363506e+000	 4.0349747287e+000	-2.7448416282e-001
 1.6507665667e+000	 4.0516163123e+000	-3.3676799385e-001
 1.6104143544e+000	 4.0678238172e+000	-4.5018030402e-001
 2.0208962095e+000	 3.9084496300e+000	-2.6614862723e-001
 1.9813052748e+000	 3.9286676378e+000	-3.5191686037e-001
 1.9415766821e+000	 3.9484528600e+000	-4.8123497975e-001
 1.9017173181e+000	 3.9678043352e+000	-6.5272208558e-001
 1.8617340645e+000	 3.9867212435e+000	-7.0338211344e-001
 1.8216337944e+000	 4.0052029061e+000	-4.9104690578e-001
 1.7814233689e+000	 4.0232487843e+000	-3.4926731298e-001
 1.7411096337e+000	 4.0408584785e+000	-2.7323792956e-001
 1.7006994154e+000	 4.0580317271e+000	-2.5817000727e-001
 1.6601995186e+000	 4.0747684055e+000	-2.9929786723e-001
 1.6196167221e+000	 4.0910685247e+000	-3.9188516905e-001
 2.0323785743e+000	 3.9306567302e+000	-3.1854317132e-001
 1.9925626912e+000	 3.9509896130e+000	-3.7484962112e-001
 1.9526083678e+000	 3.9708872512e+000	-4.7455150852e-001
 1.9125225301e+000	 3.9903486780e+000	-6.1641496317e-001
 1.8723120989e+000	 4.0093730687e+000	-7.6763603210e-001
 1.8319839864e+000	 4.0279597408e+000	-5.3698296810e-001
 1.7915450926e+000	 4.0461081524e+000	-3.7687432302e-001
 1.7510023021e+000	 4.0638179017e+000	-2.8259013370e-001
 1.7103624803e+000	 4.0810887256e+000	-2.4942598282e-001
 1.6696324704e+000	 4.0979204987e+000	-2.7269937167e-001
 1.6288190898e+000	 4.1143132322e+000	-3.4775595167e-001
 2.0438609391e+000	 3.9528638304e+000	-3.6309795569e-001
 2.0038201075e+000	 3.9733115882e+000	-3.9290758357e-001
 1.9636400535e+000	 3.9933216425e+000	-4.6598590176e-001
 1.9233277422e+000	 4.0128930208e+000	-5.8124468315e-001
 1.8828901334e+000	 4.0320248940e+000	-7.3748410187e-001
 1.8423341784e+000	 4.0507165755e+000	-5.8047998668e-001
 1.8016668163e+000	 4.0689675205e+000	-4.0531382228e-001
 1.7608949704e+000	 4.0867773249e+000	-2.9604498745e-001
 1.7200255451e+000	 4.1041457241e+000	-2.4805147846e-001
 1.6790654222e+000	 4.1210725920e+000	-2.5673207824e-001
 1.6380214576e+000	 4.1375579397e+000	-3.1751255210e-001
 2.0553433039e+000	 3.9750709306e+000	-3.9973796158e-001
 2.0150775238e+000	 3.9956335634e+000	-4.0597448408e-001
 1.9746717392e+000	 4.0157560337e+000	-4.5538091081e-001
 1.9341329542e+000	 4.0354373636e+000	-5.4701329008e-001
 1.8934681678e+000	 4.0546767192e+000	-6.7981254716e-001
 1.8526843704e+000	 4.0734734102e+000	-6.2145460741e-001
 1.8117885400e+000	 4.0918268886e+000	-4.3446330157e-001
 1.7707876388e+000	 4.1097367481e+000	-3.1344092743e-001
 1.7296886100e+000	 4.1272027225e+000	-2.5384599223e-001
 1.6884983740e+000	 4.1442246852e+000	-2.5115667646e-001
 1.6472238253e+000	 4.1608026473e+000	-3.0087699563e-001
 2.0668256687e+000	 3.9972780307e+000	-4.2838038066e-001
 2.0263349401e+000	 4.0179555386e+000	-4.1392725655e-001
 1.9857034249e+000	 4.0381904250e+000	-4.4257347256e-001
 1.9449381662e+000	 4.0579817064e+000	-5.1351800241e-001
 1.9040462023e+000	 4.0773285445e+000	-6.2584114012e-001
 1.8630345624e+000	 4.0962302449e+000	-6.5982062623e-001
 1.8219102636e+000	 4.1146862567e+000	-4.6419838856e-001
 1.7806803072e+000	 4.1326961712e+000	-3.3461551262e-001
 1.7393516748e+000	 4.1502597210e+000	-2.6660912816e-001
 1.6979313258e+000	 4.1673767784e+000	-2.5573494317e-001
 1.6564261930e+000	 4.1840473548e+000	-2.9757337357e-001
 1.5644025157e+000	 3.9516002795e+000	-9.6410486322e-001
 1.5251296703e+000	 3.9669231766e+000	-7.0756160532e-001
 1.4857897608e+000	 3.9818248061e+000	-4.7120591083e-001
 1.4463892427e+000	 3.9963055637e+000	-2.5314337098e-001
 1.4069345349e+000	 4.0103659702e+000	-5.1514969649e-002
 1.3674320163e+000	 4.0240066701e+000	 1.3550013913e-001
 1.3278880237e+000	 4.0372284301e+000	 3.0968197930e-001
 1.2883088488e+000	 4.0500321369e+000	 4.7276723029e-001
 1.2487007353e+000	 4.0624187960e+000	 5.9433800436e-001
 1.2090698765e+000	 4.0743895290e+000	-2.7281124416e-001
 1.1694224131e+000	 4.0859455723e+000	-1.2055149999e+000
 1.5736048834e+000	 3.9748449870e+000	-8.3069987148e-001
 1.5341010213e+000	 3.9902580188e+000	-5.9471346886e-001
 1.4945297006e+000	 4.0052473050e+000	-3.7904236647e-001
 1.4548974148e+000	 4.0198132435e+000	-1.8166955300e-001
 1.4152106204e+000	 4.0339563582e+000	-6.1509324156e-004
 1.3754757340e+000	 4.0476772976e+000	 1.6606097009e-001
 1.3356991298e+000	 4.0609768326e+000	 3.2025584507e-001
 1.2958871362e+000	 4.0738558554e+000	 4.6382135349e-001
 1.2560460337e+000	 4.0863153771e+000	 5.9856143145e-001
 1.2161820523e+000	 4.0983565262e+000	-1.8725347450e-001
 1.1763013684e+000	 4.1099805463e+000	-1.1886687060e+000
 1.5828072511e+000	 3.9980896946e+000	-7.1289538514e-001
 1.5430723723e+000	 4.0135928610e+000	-4.9652862709e-001
 1.5032696403e+000	 4.0286698039e+000	-3.0060514439e-001
 1.4634055868e+000	 4.0433209233e+000	-1.2298532395e-001
 1.4234867059e+000	 4.0575467463e+000	 3.8431686081e-002
 1.3835194518e+000	 4.0713479250e+000	 1.8570494991e-001
 1.3435102358e+000	 4.0847252351e+000	 3.2084885295e-001
 1.3034654235e+000	 4.0976795738e+000	 4.4583034992e-001
 1.2633913321e+000	 4.1102119583e+000	 5.6256635562e-001
 1.2232942280e+000	 4.1223235234e+000	-8.0247628283e-002
 1.1831803238e+000	 4.1340155202e+000	-1.1401579173e+000
 1.5920096189e+000	 4.0213344021e+000	-6.1039971955e-001
 1.5520437233e+000	 4.0369277032e+000	-4.1274734170e-001
 1.5120095801e+000	 4.0520923027e+000	-2.3566643835e-001
 1.4719137588e+000	 4.0668286031e+000	-7.6894778822e-002
 1.4317627914e+000	 4.0811371344e+000	 6.5789419361e-002
 1.3915631695e+000	 4.0950185525e+000	 1.9456433908e-001
 1.3513213418e+000	 4.1084736377e+000	 3.1156155230e-001
 1.3110437108e+000	 4.1215032923e+000	 4.1886315294e-001
 1.2707366306e+000	 4.1341085394e+000	 5.1849903752e-001
 1.2304064038e+000	 4.1462905207e+000	 4.2120628126e-002
 1.1900592792e+000	 4.1580504942e+000	-1.0659284809e+000
 1.6012119866e+000	 4.0445791096e+000	-5.2292364246e-001
 1.5610150743e+000	 4.0602625455e+000	-3.4311171639e-001
 1.5207495199e+000	 4.0755148016e+000	-1.8399967434e-001
 1.4804219308e+000	 4.0903362829e+000	-4.3202635937e-002
 1.4400388769e+000	 4.1047275224e+000	 8.1622142034e-002
 1.3996068873e+000	 4.1186891800e+000	 1.9277198882e-001
 1.3591324478e+000	 4.1322220402e+000	 2.9249568784e-001
 1.3186219982e+000	 4.1453270108e+000	 3.8299049397e-001
 1.2780819290e+000	 4.1580051206e+000	 4.6639930373e-001
 1.2375185795e+000	 4.1702575179e+000	 1.7376862507e-001
 1.1969382346e+000	 4.1820854681e+000	-9.7192265141e-001
 1.6104143544e+000	 4.0678238172e+000	-4.5018030402e-001
 1.5699864253e+000	 4.0835973877e+000	-2.8736564426e-001
 1.5294894596e+000	 4.0989373005e+000	-1.4537947539e-001
 1.4889301028e+000	 4.1138439627e+000	-2.1714219158e-002
 1.4483149624e+000	 4.1283179105e+000	 8.6093874370e-002
 1.4076506050e+000	 4.1423598075e+000	 1.8046132417e-001
 1.3669435539e+000	 4.1559704427e+000	 2.6375416548e-001
 1.3262002855e+000	 4.1691507292e+000	 3.3828485112e-001
 1.2854272275e+000	 4.1819017017e+000	 4.0630931088e-001
 1.2446307552e+000	 4.1942245151e+000	 3.0861660398e-001
 1.2038171899e+000	 4.2061204421e+000	-8.6407919419e-001
 1.6196167221e+000	 4.0910685247e+000	-3.9188516905e-001
 1.5789577763e+000	 4.1069322299e+000	-2.4525475696e-001
 1.5382293994e+000	 4.1223597993e+000	-1.1958162756e-001
 1.4974382748e+000	 4.1373516424e+000	-1.2235440680e-002
 1.4565910479e+000	 4.1519082985e+000	 7.9368621911e-002
 1.4156943227e+000	 4.1660304349e+000	 1.5776632772e-001
 1.3747546599e+000	 4.1797188453e+000	 2.2544101936e-001
 1.3337785729e+000	 4.1929744477e+000	 2.8482039957e-001
 1.2927725259e+000	 4.2057982829e+000	 3.3827347946e-001
 1.2517429310e+000	 4.2181915124e+000	 3.8810769336e-001
 1.2106961453e+000	 4.2301554161e+000	-7.4833348413e-001
 1.6288190898e+000	 4.1143132322e+000	-3.4775595167e-001
 1.5879291273e+000	 4.1302670721e+000	-2.1652637561e-001
 1.5469693392e+000	 4.1457822982e+000	-1.0638304707e-001
 1.5059464469e+000	 4.1608593222e+000	-1.4572784414e-002
 1.4648671334e+000	 4.1754986866e+000	 6.1610375879e-002
 1.4237380405e+000	 4.1897010624e+000	 1.2482152381e-001
 1.3825657659e+000	 4.2034672478e+000	 1.7766137993e-001
 1.3413568602e+000	 4.2167981661e+000	 2.2267296365e-001
 1.3001178244e+000	 4.2296948641e+000	 2.6233842990e-001
 1.2588551067e+000	 4.2421585096e+000	 2.9907607773e-001
 1.2175751007e+000	 4.2541903900e+000	-6.3061760151e-001
 1.6380214576e+000	 4.1375579397e+000	-3.1751255210e-001
 1.5969004783e+000	 4.1536019143e+000	-2.0092946331e-001
 1.5557092789e+000	 4.1692047970e+000	-1.0556174857e-001
 1.5144546189e+000	 4.1843670020e+000	-2.8533289921e-002
 1.4731432189e+000	 4.1990890747e+000	 3.2983113585e-002
 1.4317817582e+000	 4.2133716899e+000	 8.1761963362e-002
 1.3903768719e+000	 4.2272156503e+000	 1.2052144321e-001
 1.3489351476e+000	 4.2406218846e+000	 1.5191997047e-001
 1.3074631228e+000	 4.2535914452e+000	 1.7855292074e-001
 1.2659672825e+000	 4.2661255068e+000	 2.0294952987e-001
 1.2244540561e+000	 4.2782253640e+000	-5.1686042460e-001
 1.6472238253e+000	 4.1608026473e+000	-3.0087699563e-001
 1.6058718293e+000	 4.1769367565e+000	-1.9821457928e-001
 1.5644492187e+000	 4.1926272959e+000	-1.1689681446e-001
 1.5229627909e+000	 4.2078746818e+000	-5.3924536898e-002
 1.4814193044e+000	 4.2226794627e+000	-6.3492011860e-003
 1.4398254760e+000	 4.2370423173e+000	 2.8723209157e-002
 1.3981879779e+000	 4.2509640528e+000	 5.4128440990e-002
 1.3565134349e+000	 4.2644456030e+000	 7.2640405173e-002
 1.3148084213e+000	 4.2774880264e+000	 8.6967788929e-002
 1.2730794582e+000	 4.2900925040e+000	 9.9750850782e-002
 1.2313330114e+000	 4.3022603379e+000	-4.1298771903e-001
 1.6564261930e+000	 4.1840473548e+000	-2.9757337357e-001
 1.6148431803e+000	 4.2002715988e+000	-2.0813383455e-001
 1.5731891585e+000	 4.2160497947e+000	-1.4016836522e-001
 1.5314709629e+000	 4.2313823616e+000	-9.0554630172e-002
 1.4896953899e+000	 4.2462698508e+000	-5.6222617798e-002
 1.4478691937e+000	 4.2607129448e+000	-3.4158678398e-002
 1.4059990840e+000	 4.2747124554e+000	-2.1409387920e-002
 1.3640917223e+000	 4.2882693215e+000	-1.5085232316e-002
 1.3221537197e+000	 4.3013846075e+000	-1.2364107928e-002
 1.2801916340e+000	 4.3140595013e+000	-1.0494633980e-002
 1.2382119668e+000	 4.3262953119e+000	-3.2492222428e-001
 1.1694224131e+000	 4.0859455723e+000	-1.2055149999e+000
 1.1297644301e+000	 4.0970882749e+000	-8.7401406433e-001
 1.0901019551e+000	 4.1078190963e+000	-5.7224433404e-001
 1.0504409556e+000	 4.1181396041e+000	-2.9164971633e-001
 1.0107873370e+000	 4.1280514725e+000	-2.4560140969e-002
 9.7114694021e-001	 4.1375564794e+000	 2.3585724577e-001
 9.3152554013e-001	 4.1466565047e+000	 4.9564721926e-001
 8.9192884318e-001	 4.1553535275e+000	 7.6011579227e-001
 8.5236248567e-001	 4.1636496242e+000	 1.0338795583e+000
 8.1283203195e-001	 4.1715469658e+000	 1.3209149180e+000
 7.7334297274e-001	 4.1790478158e+000	 1.6246070494e+000
 1.1763013684e+000	 4.1099805463e+000	-1.1886687060e+000
 1.1364101032e+000	 4.1211887942e+000	-9.0831054150e-001
 1.0965143196e+000	 4.1319827380e+000	-6.4502472392e-001
 1.0566200201e+000	 4.1423639547e+000	-3.9125106843e-001
 1.0167331448e+000	 4.1523341282e+000	-1.4032657792e-001
 9.7685956928e-001	 4.1618950470e+000	 1.1356530625e-001
 9.3700510214e-001	 4.1710486018e+000	 3.7544576401e-001
 8.9717548344e-001	 4.1797967836e+000	 6.4959180817e-001
 8.5737638264e-001	 4.1881416808e+000	 9.3958749452e-001
 8.1761339685e-001	 4.1960854774e+000	 1.2483749822e+000
 7.7789204906e-001	 4.2036304500e+000	 1.5783053021e+000
 1.1831803238e+000	 4.1340155202e+000	-1.1401579173e+000
 1.1430557764e+000	 4.1452893135e+000	-9.1361022502e-001
 1.1029266840e+000	 4.1561463797e+000	-6.9123668326e-001
 1.0627990845e+000	 4.1665883053e+000	-4.6648092279e-001
 1.0226789527e+000	 4.1766167839e+000	-2.3369518349e-001
 9.8257219834e-001	 4.1862336145e+000	 1.1912399550e-002
 9.4248466414e-001	 4.1954406989e+000	 2.7433079859e-001
 9.0242212370e-001	 4.2042400396e+000	 5.5679922191e-001
 8.6239027962e-001	 4.2126337374e+000	 8.6186021159e-001
 8.2239476175e-001	 4.2206239889e+000	 1.1914125587e+000
 7.8244112537e-001	 4.2282130842e+000	 1.5467638903e+000
 1.1900592792e+000	 4.1580504942e+000	-1.0659284809e+000
 1.1497014495e+000	 4.1693898327e+000	-8.9548777528e-001
 1.1093390485e+000	 4.1803100215e+000	-7.1608025358e-001
 1.0689781490e+000	 4.1908126559e+000	-5.2216149836e-001
 1.0286247606e+000	 4.2008994397e+000	-3.0910737943e-001
 9.8828482740e-001	 4.2105721820e+000	-7.3159353464e-002
 9.4796422615e-001	 4.2198327960e+000	 1.8863050285e-001
 9.0766876395e-001	 4.2286832957e+000	 4.7845455995e-001
 8.6740417660e-001	 4.2371257940e+000	 7.9780464210e-001
 8.2717612664e-001	 4.2451625005e+000	 1.1475268184e+000
 7.8699020168e-001	 4.2527957184e+000	 1.5278758294e+000
 1.1969382346e+000	 4.1820854681e+000	-9.7192265141e-001
 1.1563471226e+000	 4.1934903520e+000	-8.5951891235e-001
 1.1157514129e+000	 4.2044736632e+000	-7.2476119840e-001
 1.0751572134e+000	 4.2150370066e+000	-5.6312540690e-001
 1.0345705684e+000	 4.2251820954e+000	-3.7101965746e-001
 9.9399745647e-001	 4.2349107496e+000	-1.4572758335e-001
 9.5344378815e-001	 4.2442248931e+000	 1.1464862140e-001
 9.1291540421e-001	 4.2531265517e+000	 4.1124522937e-001
 8.7241807358e-001	 4.2616178507e+000	 7.4449391677e-001
 8.3195749154e-001	 4.2697010121e+000	 1.1141784516e+000
 7.9153927800e-001	 4.2773783526e+000	 1.5194909805e+000
 1.2038171899e+000	 4.2061204421e+000	-8.6407919419e-001
 1.1629927957e+000	 4.2175908713e+000	-8.1128038573e-001
 1.1221637773e+000	 4.2286373050e+000	-7.2249083980e-001
 1.0813362778e+000	 4.2392613572e+000	-5.9421535601e-001
 1.0405163763e+000	 4.2494647511e+000	-4.2390314863e-001
 9.9971008553e-001	 4.2592493171e+000	-2.0988910777e-001
 9.5892335015e-001	 4.2686169902e+000	 4.8665161782e-002
 9.1816204446e-001	 4.2775698078e+000	 3.5183034989e-001
 8.7743197055e-001	 4.2861099073e+000	 6.9896833025e-001
 8.3673885643e-001	 4.2942395236e+000	 1.0887907671e+000
 7.9608835431e-001	 4.3019609868e+000	 1.5194172836e+000
 1.2106961453e+000	 4.2301554161e+000	-7.4833348413e-001
 1.1696384688e+000	 4.2416913905e+000	-7.5634994503e-001
 1.1285761418e+000	 4.2528009467e+000	-7.1448590046e-001
 1.0875153423e+000	 4.2634857078e+000	-6.2028386232e-001
 1.0464621842e+000	 4.2737474068e+000	-4.7224320750e-001
 1.0054227146e+000	 4.2835878846e+000	-2.6975938638e-001
 9.6440291215e-001	 4.2930090873e+000	-1.3062931195e-002
 9.2340868472e-001	 4.3020130638e+000	 2.9684155747e-001
 8.8244586753e-001	 4.3106019639e+000	 6.5823627392e-001
 8.4152022133e-001	 4.3187780352e+000	 1.0687507544e+000
 8.0063743062e-001	 4.3265436210e+000	 1.5254219484e+000
 1.2175751007e+000	 4.2541903900e+000	-6.3061760151e-001
 1.1762841420e+000	 4.2657919098e+000	-7.0030631180e-001
 1.1349885062e+000	 4.2769645885e+000	-7.0596835112e-001
 1.0936944067e+000	 4.2877100584e+000	-6.4619297440e-001
 1.0524079920e+000	 4.2980300625e+000	-5.2053901029e-001
 1.0111353436e+000	 4.3079264521e+000	-3.2947199424e-001
 9.6988247415e-001	 4.3174011843e+000	-7.4301123965e-002
 9.2865532497e-001	 4.3264563199e+000	 2.4288378067e-001
 8.8745976450e-001	 4.3350940205e+000	 6.1927513715e-001
 8.4630158622e-001	 4.3433165468e+000	 1.0514101096e+000
 8.0518650693e-001	 4.3511262553e+000	 1.5352326050e+000
 1.2244540561e+000	 4.2782253640e+000	-5.1686042460e-001
 1.1829298151e+000	 4.2898924291e+000	-6.4872915219e-001
 1.1414008707e+000	 4.3011282302e+000	-7.0216526316e-001
 1.0998734712e+000	 4.3119344090e+000	-6.7681400505e-001
 1.0583537999e+000	 4.3223127183e+000	-5.7330316666e-001
 1.0168479727e+000	 4.3322650197e+000	-3.9317811295e-001
 9.7536203615e-001	 4.3417932814e+000	-1.3883666467e-001
 9.3390196523e-001	 4.3508995759e+000	 1.8653599088e-001
 8.9247366148e-001	 4.3595860771e+000	 5.7903217812e-001
 8.5108295112e-001	 4.3678550583e+000	 1.0340862269e+000
 8.0973558324e-001	 4.3757088895e+000	 1.5486036280e+000
 1.2313330114e+000	 4.3022603379e+000	-4.1298771903e-001
 1.1895754882e+000	 4.3139929483e+000	-6.0719905057e-001
 1.1478132351e+000	 4.3252918719e+000	-7.0830866611e-001
 1.1060525356e+000	 4.3361587596e+000	-7.1702727244e-001
 1.0642996077e+000	 4.3465953740e+000	-6.3506134447e-001
 1.0225606018e+000	 4.3566035872e+000	-4.6504603884e-001
 9.8084159815e-001	 4.3661853785e+000	-2.1047797475e-001
 9.3914860548e-001	 4.3753428319e+000	 1.2502357488e-001
 8.9748755845e-001	 4.3840781337e+000	 5.4868116673e-001
 8.5586431601e-001	 4.3923935699e+000	 1.0327371658e+000
 8.1428465955e-001	 4.4002915237e+000	 1.5692301767e+000
 1.2382119668e+000	 4.3262953119e+000	-3.2492222428e-001
 1.1962211613e+000	 4.3380934676e+000	-5.8129748402e-001
 1.1542255995e+000	 4.3494555137e+000	-7.2963540997e-001
 1.1122316001e+000	 4.3603831102e+000	-7.7172185004e-001
 1.0702454156e+000	 4.3708780297e+000	-7.1035190705e-001
 1.0282732308e+000	 4.3809421547e+000	-5.4061557230e-001
 9.8632116015e-001	 4.3905774756e+000	-2.7688423922e-001
 9.4439524573e-001	 4.3997860880e+000	 6.4775815806e-002
 9.0250145542e-001	 4.4085701903e+000	 4.7557626457e-001
 8.6064568090e-001	 4.4169320814e+000	 9.4692886693e-001
 8.1883373586e-001	 4.4248741579e+000	 1.4704397234e+000
 7.7334297274e-001	 4.1790478158e+000	 1.6246070494e+000
 7.3390072346e-001	 4.1861545275e+000	 6.8277522563e-001
 6.9451062271e-001	 4.1928695419e+000	-2.3285958387e-001
 6.5517793079e-001	 4.1991953847e+000	-1.1237016812e+000
 6.1590782834e-001	 4.2051346646e+000	-1.7093462450e+000
 5.7670541504e-001	 4.2106900698e+000	-1.3149612615e+000
 5.3757570840e-001	 4.2158643666e+000	-8.6913474834e-001
 4.9852364261e-001	 4.2206603959e+000	-3.8058854627e-001
 4.5955406749e-001	 4.2250810713e+000	 1.4251383532e-001
 4.2067174755e-001	 4.2291293762e+000	 6.9248144499e-001
 3.8188136106e-001	 4.2328083616e+000	 1.2620129756e+000
 7.7789204906e-001	 4.2036304500e+000	 1.5783053021e+000
 7.3821778655e-001	 4.2107789659e+000	 5.9678675341e-001
 6.9859597932e-001	 4.2175334803e+000	-3.6129838666e-001
 6.5903191862e-001	 4.2238965340e+000	-1.2973822750e+000
 6.1953081557e-001	 4.2298707508e+000	-2.0272126759e+000
 5.8009779984e-001	 4.2354588350e+000	-1.5660823674e+000
 5.4073791845e-001	 4.2406635688e+000	-1.0644690990e+000
 5.0145613463e-001	 4.2454878100e+000	-5.2957124221e-001
 4.6225732672e-001	 4.2499344894e+000	 3.1959308729e-002
 4.2314628725e-001	 4.2540066078e+000	 6.1392871160e-001
 3.8412772201e-001	 4.2577072343e+000	 1.2105157153e+000
 7.8244112537e-001	 4.2282130842e+000	 1.5467638903e+000
 7.4253484963e-001	 4.2354034043e+000	 5.4595040587e-001
 7.0268133592e-001	 4.2421974188e+000	-4.3403818942e-001
 6.6288590645e-001	 4.2485976834e+000	-1.3946800861e+000
 6.2315380280e-001	 4.2546068371e+000	-2.2712218032e+000
 5.8349018464e-001	 4.2602276001e+000	-1.7572020098e+000
 5.4390012851e-001	 4.2654627709e+000	-1.2138058399e+000
 5.0438862665e-001	 4.2703152241e+000	-6.4668205982e-001
 4.6496058594e-001	 4.2747879074e+000	-6.0945063549e-002
 4.2562082694e-001	 4.2788838395e+000	 5.3873401431e-001
 3.8637408296e-001	 4.2826061070e+000	 1.1480392557e+000
 7.8699020168e-001	 4.2527957184e+000	 1.5278758294e+000
 7.4685191271e-001	 4.2600278427e+000	 5.2818942561e-001
 7.0676669253e-001	 4.2668613573e+000	-4.5312443074e-001
 6.6673989428e-001	 4.2732988327e+000	-1.4176082144e+000
 6.2677679003e-001	 4.2793429233e+000	-2.3671670302e+000
 5.8688256944e-001	 4.2849963652e+000	-1.8807871898e+000
 5.4706233856e-001	 4.2902619731e+000	-1.3102081334e+000
 5.0732111866e-001	 4.2951426382e+000	-7.2558149950e-001
 4.6766384517e-001	 4.2996413255e+000	-1.3045793543e-001
 4.2809536664e-001	 4.3037610711e+000	 4.7204008663e-001
 3.8862044392e-001	 4.3075049798e+000	 1.0791276105e+000
 7.9153927800e-001	 4.2773783526e+000	 1.5194909805e+000
 7.5116897579e-001	 4.2846522811e+000	 5.4138762573e-001
 7.1085204914e-001	 4.2915252958e+000	-4.2063824324e-001
 6.7059388211e-001	 4.2979999820e+000	-1.3682117090e+000
 6.3039977725e-001	 4.3040790096e+000	-2.3033270974e+000
 5.9027495423e-001	 4.3097651303e+000	-1.9293293479e+000
 5.5022454861e-001	 4.3150611753e+000	-1.3467598188e+000
 5.1025361068e-001	 4.3199700523e+000	-7.5994697323e-001
 4.7036710439e-001	 4.3244947436e+000	-1.7085110594e-001
 4.3056990634e-001	 4.3286383027e+000	 4.1898028321e-001
 3.9086680487e-001	 4.3324038525e+000	 1.0083191786e+000
 7.9608835431e-001	 4.3019609868e+000	 1.5194172836e+000
 7.5548603887e-001	 4.3092767195e+000	 5.8339051645e-001
 7.1493740575e-001	 4.3161892343e+000	-3.3869543372e-001
 6.7444786994e-001	 4.3227011313e+000	-1.2485666558e+000
 6.3402276448e-001	 4.3288150959e+000	-2.1483250237e+000
 5.9366733903e-001	 4.3345338954e+000	-1.8953436656e+000
 5.5338675867e-001	 4.3398603774e+000	-1.3165648215e+000
 5.1318610270e-001	 4.3447974664e+000	-7.4347232142e-001
 4.7307036361e-001	 4.3493481616e+000	-1.7640914363e-001
 4.3304444603e-001	 4.3535155343e+000	 3.8467884787e-001
 3.9311316582e-001	 4.3573027252e+000	 9.4014690560e-001
 8.0063743062e-001	 4.3265436210e+000	 1.5254219484e+000
 7.5980310196e-001	 4.3339011579e+000	 6.5200639317e-001
 7.1902276235e-001	 4.3408531727e+000	-2.0944549808e-001
 6.7830185777e-001	 4.3474022807e+000	-1.0607792954e+000
 6.3764575171e-001	 4.3535511821e+000	-1.9042228244e+000
 5.9705972383e-001	 4.3593026605e+000	-1.7713683906e+000
 5.5654896872e-001	 4.3646595796e+000	-1.2127465821e+000
 5.1611859472e-001	 4.3696248805e+000	-6.6986734617e-001
 4.7577362284e-001	 4.3742015797e+000	-1.4142902382e-001
 4.3551898573e-001	 4.3783927660e+000	 3.9350065785e-001
 3.9535952677e-001	 4.3822015979e+000	 9.1482014110e-001
 8.0518650693e-001	 4.3511262553e+000	 1.5352326050e+000
 7.6412016504e-001	 4.3585255963e+000	 7.4500738780e-001
 7.2310811896e-001	 4.3655171112e+000	-3.5070669687e-002
 6.8215584560e-001	 4.3721034300e+000	-8.0698517135e-001
 6.4126873894e-001	 4.3782872684e+000	-1.5574259640e+000
 6.0045210862e-001	 4.3840714257e+000	-1.5077408878e+000
 5.5971117877e-001	 4.3894587817e+000	-9.6134637882e-001
 5.1905108674e-001	 4.3944522946e+000	-4.4277665929e-001
 4.7847688206e-001	 4.3990549978e+000	 5.0397735736e-002
 4.3799352542e-001	 4.4032699976e+000	 5.2053739259e-001
 3.9760588772e-001	 4.4071004706e+000	 9.6994194329e-001
 8.0973558324e-001	 4.3757088895e+000	 1.5486036280e+000
 7.6843722812e-001	 4.3831500347e+000	 8.8083382279e-001
 7.2719347556e-001	 4.3901810497e+000	 2.1416956075e-001
 6.8600983343e-001	 4.3968045793e+000	-4.5399211118e-001
 6.4489172617e-001	 4.4030233546e+000	-1.1261498685e+000
 6.0384449342e-001	 4.4088401908e+000	-1.1855983310e+000
 5.6287338882e-001	 4.4142579839e+000	-6.9048753962e-001
 5.2198357876e-001	 4.4192797087e+000	-2.2626947031e-001
 4.8118014128e-001	 4.4239084158e+000	 2.0982107008e-001
 4.4046806511e-001	 4.4281472292e+000	 6.2047535079e-001
 3.9985224867e-001	 4.4319993433e+000	 1.0083185909e+000
 8.1428465955e-001	 4.4002915237e+000	 1.5692301767e+000
 7.7275429120e-001	 4.4077744731e+000	 9.8905139661e-001
 7.3127883217e-001	 4.4148449882e+000	 4.0370328015e-001
 6.8986382126e-001	 4.4215057286e+000	-1.8889869745e-001
 6.4851471339e-001	 4.4277594409e+000	-7.9073823224e-001
 6.0723687822e-001	 4.4336089559e+000	-9.3158264840e-001
 5.6603559887e-001	 4.4390571860e+000	-4.7754680592e-001
 5.2491607077e-001	 4.4441071228e+000	-5.7451501888e-002
 4.8388340051e-001	 4.4487618339e+000	 3.3179800885e-001
 4.4294260481e-001	 4.4530244608e+000	 6.9321758200e-001
 4.0209860962e-001	 4.4568982160e+000	 1.0297520122e+000
 8.1883373586e-001	 4.4248741579e+000	 1.4704397234e+000
 7.7707135428e-001	 4.4323989115e+000	 9.8416775299e-001
 7.3536418877e-001	 4.4395089267e+000	 4.8645337777e-001
 6.9371780909e-001	 4.4462068779e+000	-2.4270169790e-002
 6.5213770062e-001	 4.4524955272e+000	-5.4947225237e-001
 6.1062926301e-001	 4.4583777210e+000	-7.4540640921e-001
 5.6919780892e-001	 4.4638563882e+000	-3.2233483375e-001
 5.2784856279e-001	 4.4689345369e+000	 6.3768495000e-002
 4.8658665973e-001	 4.4736152520e+000	 4.1632172657e-001
 4.4541714450e-001	 4.4779016925e+000	 7.3865923470e-001
 4.0434497057e-001	 4.4817970888e+000	 1.0340394056e+000
 3.8188136106e-001	 4.2328083616e+000	 1.2620129756e+000
 3.4318749924e-001	 4.2361211433e+000	 1.0739080490e+000
 3.0459466554e-001	 4.2390708994e+000	 9.0733028915e-001
 2.6610727498e-001	 4.2416608679e+000	 7.5616355351e-001
 2.2772965353e-001	 4.2438943442e+000	 6.1435898475e-001
 1.8946603763e-001	 4.2457746785e+000	 4.7586815489e-001
 1.5132057376e-001	 4.2473052732e+000	 3.3457966075e-001
 1.1329731804e-001	 4.2484895807e+000	 1.8425921739e-001
 7.5400235934e-002	 4.2493311008e+000	 1.8493283154e-002
 3.7633202065e-002	 4.2498333782e+000	-1.6936376214e-001
 0.0000000000e+000	 4.2500000000e+000	-3.8623887612e-001
 3.8412772201e-001	 4.2577072343e+000	 1.2105157153e+000
 3.4520624924e-001	 4.2610395029e+000	 1.0601443504e+000
 3.0638639888e-001	 4.2640066105e+000	 9.2587725974e-001
 2.6767261190e-001	 4.2666118142e+000	 8.0329625582e-001
 2.2906923973e-001	 4.2688584286e+000	 6.8802119875e-001
 1.9058054374e-001	 4.2707498237e+000	 5.7564095378e-001
 1.5221069479e-001	 4.2722894219e+000	 4.6164792329e-001
 1.1396377285e-001	 4.2734806959e+000	 3.4137619996e-001
 7.5843766737e-002	 4.2743271661e+000	 2.0994337506e-001
 3.7854573843e-002	 4.2748323980e+000	 6.2196023173e-002
 0.0000000000e+000	 4.2750000000e+000	-1.0734112751e-001
 3.8637408296e-001	 4.2826061070e+000	 1.1480392557e+000
 3.4722499924e-001	 4.2859578626e+000	 1.0268232210e+000
 3.0817813221e-001	 4.2889423217e+000	 9.1631325789e-001
 2.6923794881e-001	 4.2915627605e+000	 8.1381079936e-001
 2.3040882593e-001	 4.2938225130e+000	 7.1662567265e-001
 1.9169504985e-001	 4.2957249688e+000	 6.2200484518e-001
 1.5310081581e-001	 4.2972735706e+000	 5.2706486895e-001
 1.1463022767e-001	 4.2984718111e+000	 4.2872807111e-001
 7.6287297539e-002	 4.2993232314e+000	 3.2366252452e-001
 3.8075945621e-002	 4.2998314179e+000	 2.0822581947e-001
 0.0000000000e+000	 4.3000000000e+000	 7.8412645385e-002
 3.8862044392e-001	 4.3075049798e+000	 1.0791276105e+000
 3.4924374924e-001	 4.3108762223e+000	 9.7778997568e-001
 3.0996986554e-001	 4.3138780329e+000	 8.8178512704e-001
 2.7080328573e-001	 4.3165137067e+000	 7.9015616052e-001
 2.3174841213e-001	 4.3187865974e+000	 7.0192449147e-001
 1.9280955596e-001	 4.3207001140e+000	 6.1601636271e-001
 1.5399093684e-001	 4.3222577192e+000	 5.3119317734e-001
 1.1529668248e-001	 4.3234629263e+000	 4.4598570387e-001
 7.6730828340e-002	 4.3243192967e+000	 3.5863218794e-001
 3.8297317399e-002	 4.3248304378e+000	 2.6702039150e-001
 0.0000000000e+000	 4.3250000000e+000	 1.6863356771e-001
 3.9086680487e-001	 4.3324038525e+000	 1.0083191786e+000
 3.5126249924e-001	 4.3357945819e+000	 9.1689038048e-001
 3.1176159887e-001	 4.3388137440e+000	 8.2544623030e-001
 2.7236862265e-001	 4.3414646530e+000	 7.3479390522e-001
 2.3308799833e-001	 4.3437506817e+000	 6.4568839835e-001
 1.9392406206e-001	 4.3456752592e+000	 5.5875676323e-001
 1.5488105786e-001	 4.3472418679e+000	 4.7442631050e-001
 1.1596313730e-001	 4.3484540415e+000	 3.9285680477e-001
 7.7174359142e-002	 4.3493153620e+000	 3.1387669609e-001
 3.8518689177e-002	 4.3498294576e+000	 2.3692340679e-001
 0.0000000000e+000	 4.3500000000e+000	 1.6098768129e-001
 3.9311316582e-001	 4.3573027252e+000	 9.4014690560e-001
 3.5328124924e-001	 4.3607129416e+000	 8.4797063942e-001
 3.1355333220e-001	 4.3637494552e+000	 7.5045626420e-001
 2.7393395956e-001	 4.3664155993e+000	 6.5019782924e-001
 2.3442758453e-001	 4.3687147661e+000	 5.4970626152e-001
 1.9503856817e-001	 4.3706504043e+000	 4.5133132041e-001
 1.5577117889e-001	 4.3722260166e+000	 3.5718763337e-001
 1.1662959211e-001	 4.3734451567e+000	 2.6908486148e-001
 7.7617889943e-002	 4.3743114273e+000	 1.8846202915e-001
 3.8740060954e-002	 4.3748284775e+000	 1.1632603847e-001
 0.0000000000e+000	 4.3750000000e+000	 5.3194375552e-002
 3.9535952677e-001	 4.3822015979e+000	 9.1482014110e-001
 3.5529999924e-001	 4.3856313013e+000	 8.1889420926e-001
 3.1534506553e-001	 4.3886851664e+000	 7.0386659688e-001
 2.7549929647e-001	 4.3913665456e+000	 5.7372980314e-001
 2.3576717073e-001	 4.3936788505e+000	 4.3240975902e-001
 1.9615307428e-001	 4.3956255495e+000	 2.8377124991e-001
 1.5666129991e-001	 4.3972101652e+000	 1.3162308387e-001
 1.1729604692e-001	 4.3984362718e+000	-2.0277000292e-002
 7.8061420743e-002	 4.3993074926e+000	-1.6821768969e-001
 3.8961432732e-002	 4.3998274974e+000	-3.0852972238e-001
 0.0000000000e+000	 4.4000000000e+000	-4.3758178307e-001
 3.9760588772e-001	 4.4071004706e+000	 9.6994194329e-001
 3.5731874924e-001	 4.4105496609e+000	 8.4773066131e-001
 3.1713679886e-001	 4.4136208776e+000	 7.0172859571e-001
 2.7706463339e-001	 4.4163174919e+000	 5.3651318229e-001
 2.3710675693e-001	 4.4186429349e+000	 3.5658700776e-001
 1.9726758038e-001	 4.4206006947e+000	 1.6638301370e-001
 1.5755142094e-001	 4.4221943139e+000	-2.9730541782e-002
 1.1796250174e-001	 4.4234273870e+000	-2.2744537051e-001
 7.8504951544e-002	 4.4243035579e+000	-4.2250869371e-001
 3.9182804509e-002	 4.4248265173e+000	-6.1071903808e-001
 0.0000000000e+000	 4.4250000000e+000	-7.8792229103e-001
 3.9985224867e-001	 4.4319993433e+000	 1.0083185909e+000
 3.5933749924e-001	 4.4354680206e+000	 8.7538255359e-001
 3.1892853219e-001	 4.4385565887e+000	 7.1397492642e-001
 2.7862997030e-001	 4.4412684381e+000	 5.2925011154e-001
 2.3844634313e-001	 4.4436070192e+000	 3.2627951082e-001
 1.9838208649e-001	 4.4455758398e+000	 1.1005651629e-001
 1.5844154196e-001	 4.4471784626e+000	-1.1449872990e-001
 1.1862895655e-001	 4.4484185022e+000	-3.4253481192e-001
 7.8948482344e-002	 4.4492996232e+000	-5.6926475822e-001
 3.9404176286e-002	 4.4498255371e+000	-7.8996200472e-001
 0.0000000000e+000	 4.4500000000e+000	-9.9995660590e-001
 4.0209860962e-001	 4.4568982160e+000	 1.0297520122e+000
 3.6135624923e-001	 4.4603863803e+000	 9.0146346091e-001
 3.2072026552e-001	 4.4634922999e+000	 7.4003063677e-001
 2.8019530721e-001	 4.4662193844e+000	 5.5117700249e-001
 2.3978592933e-001	 4.4685711036e+000	 3.4053499817e-001
 1.9949659259e-001	 4.4705509850e+000	 1.1365082321e-001
 1.5933166298e-001	 4.4721626112e+000	-1.2401100042e-001
 1.1929541136e-001	 4.4734096174e+000	-3.6706329019e-001
 7.9392013143e-002	 4.4742956885e+000	-6.1019209514e-001
 3.9625548063e-002	 4.4748245570e+000	-8.4815282222e-001
 0.0000000000e+000	 4.4750000000e+000	-1.0757665996e+000
 4.0434497057e-001	 4.4817970888e+000	 1.0340394056e+000
 3.6337499923e-001	 4.4853047399e+000	 9.2558733803e-001
 3.2251199884e-001	 4.4884280111e+000	 7.7932626695e-001
 2.8176064413e-001	 4.4911703307e+000	 6.0154087264e-001
 2.4112551553e-001	 4.4935351880e+000	 3.9841691806e-001
 2.0061109869e-001	 4.4955261302e+000	 1.7604582774e-001
 1.6022178400e-001	 4.4971467599e+000	-5.9570941033e-002
 1.1996186617e-001	 4.4984007326e+000	-3.0251774107e-001
 7.9835543943e-002	 4.4992917538e+000	-5.4696079744e-001
 3.9846919840e-002	 4.4998235769e+000	-7.8714449297e-001
 0.0000000000e+000	 4.5000000000e+000	-1.0173878802e+000
 4.5000000000e+000	 0.0000000000e+000	 7.4161860619e-001
 4.4998235769e+000	 3.9846919840e-002	 6.7973863752e-001
 4.4992917538e+000	 7.9835543943e-002	 6.2162106828e-001
 4.4984007326e+000	 1.1996186617e-001	 5.6760374543e-001
 4.4971467599e+000	 1.6022178400e-001	 5.1805210894e-001
 4.4955261302e+000	 2.0061109869e-001	 4.7336084981e-001
 4.4935351880e+000	 2.4112551553e-001	 4.3395559058e-001
 4.4911703307e+000	 2.8176064413e-001	 4.0029458485e-001
 4.4884280111e+000	 3.2251199884e-001	 3.7287043232e-001
 4.4853047399e+000	 3.6337499923e-001	 3.5221180544e-001
 4.4817970888e+000	 4.0434497057e-001	 3.3888518373e-001
 4.5250000000e+000	 0.0000000000e+000	 6.9756577162e-001
 4.5248225967e+000	 4.0068291616e-002	 6.4339271463e-001
 4.5242878191e+000	 8.0279074742e-002	 5.9293822723e-001
 4.5233918477e+000	 1.2062832098e-001	 5.4647506022e-001
 4.5221309085e+000	 1.6111190503e-001	 5.0430261831e-001
 4.5205012753e+000	 2.0172560480e-001	 4.6674867887e-001
 4.5184992724e+000	 2.4246510172e-001	 4.3417113593e-001
 4.5161212770e+000	 2.8332598104e-001	 4.0695976610e-001
 4.5133637222e+000	 3.2430373217e-001	 3.8553801277e-001
 4.5102230996e+000	 3.6539374923e-001	 3.7036478463e-001
 4.5066959615e+000	 4.0659133152e-001	 3.6193626456e-001
 4.5500000000e+000	 0.0000000000e+000	 6.6004176730e-001
 4.5498216166e+000	 4.0289663393e-002	 6.1285936323e-001
 4.5492838844e+000	 8.0722605541e-002	 5.6934329535e-001
 4.5483829629e+000	 1.2129477580e-001	 5.2970115917e-001
 4.5471150572e+000	 1.6200202605e-001	 4.9416627178e-001
 4.5454764205e+000	 2.0284011090e-001	 4.6299945173e-001
 4.5434633567e+000	 2.4380468792e-001	 4.3649082706e-001
 4.5410722233e+000	 2.8489131795e-001	 4.1496166805e-001
 4.5382994334e+000	 3.2609546550e-001	 3.9876624102e-001
 4.5351414592e+000	 3.6741249922e-001	 3.8829367932e-001
 4.5315948342e+000	 4.0883769246e-001	 3.8396986723e-001
 4.5750000000e+000	 0.0000000000e+000	 6.2892928002e-001
 4.5748206365e+000	 4.0511035169e-002	 5.8804545072e-001
 4.5742799497e+000	 8.1166136340e-002	 5.5076736845e-001
 4.5733740781e+000	 1.2196123061e-001	 5.1723740438e-001
 4.5720992059e+000	 1.6289214707e-001	 4.8762272551e-001
 4.5704515657e+000	 2.0395461700e-001	 4.6211713611e-001
 4.5684274411e+000	 2.4514427412e-001	 4.4094295028e-001
 4.5660231695e+000	 2.8645665486e-001	 4.2435289202e-001
 4.5632351446e+000	 3.2788719882e-001	 4.1263201917e-001
 4.5600598189e+000	 3.6943124922e-001	 4.0609966724e-001
 4.5564937069e+000	 4.1108405341e-001	 4.0511140894e-001
 4.6000000000e+000	 0.0000000000e+000	 6.0411354687e-001
 4.5998196564e+000	 4.0732406946e-002	 5.6885999259e-001
 4.5992760150e+000	 8.1609667139e-002	 5.3714328662e-001
 4.5983651933e+000	 1.2262768542e-001	 5.0904049695e-001
 4.5970833545e+000	 1.6378226809e-001	 4.8465256799e-001
 4.5954267108e+000	 2.0506912311e-001	 4.6410622417e-001
 4.5933915255e+000	 2.4648386031e-001	 4.4755590740e-001
 4.5909741158e+000	 2.8802199177e-001	 4.3518574502e-001
 4.5881708558e+000	 3.2967893215e-001	 4.2721154434e-001
 4.5849781786e+000	 3.7144999921e-001	 4.2388280987e-001
 4.5813925796e+000	 4.1333041436e-001	 4.2548477890e-001
 4.6250000000e+000	 0.0000000000e+000	 5.8548228627e-001
 4.6248186762e+000	 4.0953778723e-002	 5.5521409438e-001
 4.6242720803e+000	 8.2053197938e-002	 5.2840558714e-001
 4.6233563085e+000	 1.2329414023e-001	 5.0506844079e-001
 4.6220675032e+000	 1.6467238911e-001	 4.8523729488e-001
 4.6204018560e+000	 2.0618362921e-001	 4.6897171837e-001
 4.6183556099e+000	 2.4782344651e-001	 4.5635821264e-001
 4.6159250621e+000	 2.8958732868e-001	 4.4751224765e-001
 4.6131065669e+000	 3.3147066547e-001	 4.4258032772e-001
 4.6098965382e+000	 3.7346874920e-001	 4.4174208260e-001
 4.6062914523e+000	 4.1557677530e-001	 4.4521237966e-001
 4.6500000000e+000	 0.0000000000e+000	 5.7292563131e-001
 4.6498176961e+000	 4.1175150499e-002	 5.4702089549e-001
 4.6492681456e+000	 8.2496728737e-002	 5.2449045877e-001
 4.6483474236e+000	 1.2396059504e-001	 5.0528050757e-001
 4.6470516519e+000	 1.6556251013e-001	 4.8935928455e-001
 4.6453770012e+000	 2.0729813531e-001	 4.7671911775e-001
 4.6433196943e+000	 2.4916303270e-001	 4.6737848958e-001
 4.6408760084e+000	 2.9115266559e-001	 4.6138414182e-001
 4.6380422781e+000	 3.3326239880e-001	 4.5881321302e-001
 4.6348148979e+000	 3.7548749920e-001	 4.5977540397e-001
 4.6311903250e+000	 4.1782313625e-001	 4.6441516704e-001
 4.6750000000e+000	 0.0000000000e+000	 5.6633606517e-001
 4.6748167160e+000	 4.1396522276e-002	 5.4419551480e-001
 4.6742642109e+000	 8.2940259537e-002	 5.2533569768e-001
 4.6733385388e+000	 1.2462704985e-001	 5.0963720287e-001
 4.6720358005e+000	 1.6645263115e-001	 4.9700177454e-001
 4.6703521463e+000	 2.0841264141e-001	 4.8735440462e-001
 4.6682837786e+000	 2.5050261890e-001	 4.8064546828e-001
 4.6658269547e+000	 2.9271800250e-001	 4.7685289823e-001
 4.6629779893e+000	 3.3505413212e-001	 4.7598439431e-001
 4.6597332576e+000	 3.7750624919e-001	 4.7807966390e-001
 4.6560891977e+000	 4.2006949719e-001	 4.8321268887e-001
 4.7000000000e+000	 0.0000000000e+000	 5.6560835865e-001
 4.6998157358e+000	 4.1617894052e-002	 5.4665499804e-001
 4.6992602762e+000	 8.3383790336e-002	 5.3088066463e-001
 4.6983296540e+000	 1.2529350466e-001	 5.1810023331e-001
 4.6970199492e+000	 1.6734275217e-001	 5.0814883868e-001
 4.6953272915e+000	 2.0952714752e-001	 5.0088403176e-001
 4.6932478630e+000	 2.5184220510e-001	 4.9618798241e-001
 4.6907779010e+000	 2.9428333941e-001	 4.9396972353e-001
 4.6879137004e+000	 3.3684586545e-001	 4.9416743328e-001
 4.6846516172e+000	 3.7952499918e-001	 4.9675075102e-001
 4.6809880705e+000	 4.2231585814e-001	 5.0172312237e-001
 4.7250000000e+000	 0.0000000000e+000	 5.7063950958e-001
 4.7248147557e+000	 4.1839265829e-002	 5.5431826679e-001
 4.7242563415e+000	 8.3827321135e-002	 5.4106624362e-001
 4.7233207692e+000	 1.2595995947e-001	 5.3063247482e-001
 4.7220040979e+000	 1.6823287319e-001	 5.2278536497e-001
 4.7203024367e+000	 2.1064165362e-001	 5.1731490992e-001
 4.7182119474e+000	 2.5318179129e-001	 5.1403496652e-001
 4.7157288472e+000	 2.9584867632e-001	 5.1278556734e-001
 4.7128494116e+000	 3.3863759877e-001	 5.1343527601e-001
 4.7095699769e+000	 3.8154374918e-001	 5.1588357921e-001
 4.7058869432e+000	 4.2456221908e-001	 5.2006331045e-001
 4.7500000000e+000	 0.0000000000e+000	 5.8132868428e-001
 4.7498137756e+000	 4.2060637605e-002	 5.6710606912e-001
 4.7492524068e+000	 8.4270851934e-002	 5.5583480181e-001
 4.7483118844e+000	 1.2662641428e-001	 5.4719794183e-001
 4.7469882465e+000	 1.6912299422e-001	 5.4089703418e-001
 4.7452775818e+000	 2.1175615972e-001	 5.3665439580e-001
 4.7431760318e+000	 2.5452137749e-001	 5.3421545340e-001
 4.7406797935e+000	 2.9741401323e-001	 5.3335112901e-001
 4.7377851228e+000	 3.4042933210e-001	 5.3386026914e-001
 4.7344883366e+000	 3.8356249917e-001	 5.3557211323e-001
 4.7307858159e+000	 4.2680858003e-001	 5.3834879682e-001
 4.4817970888e+000	 4.0434497057e-001	 3.3888518373e-001
 4.4779016925e+000	 4.4541714450e-001	 3.7953599807e-001
 4.4736152520e+000	 4.8658665973e-001	 4.1920854736e-001
 4.4689345369e+000	 5.2784856279e-001	 4.5800260394e-001
 4.4638563882e+000	 5.6919780892e-001	 4.9605956433e-001
 4.4583777210e+000	 6.1062926301e-001	 5.3356465386e-001
 4.4524955272e+000	 6.5213770062e-001	 4.6642291432e-001
 4.4462068779e+000	 6.9371780909e-001	 3.5402990287e-001
 4.4395089267e+000	 7.3536418877e-001	 2.5402363529e-001
 4.4323989115e+000	 7.7707135428e-001	 1.6671225358e-001
 4.4248741579e+000	 8.1883373586e-001	 9.2498721976e-002
 4.5066959615e+000	 4.0659133152e-001	 3.6193626456e-001
 4.5027789241e+000	 4.4789168419e-001	 3.9694078022e-001
 4.4984686700e+000	 4.8928991895e-001	 4.3108730169e-001
 4.4937619509e+000	 5.3078105481e-001	 4.6445713562e-001
 4.4886555903e+000	 5.7236001898e-001	 4.9717327941e-001
 4.4831464861e+000	 6.1402164781e-001	 5.2940266805e-001
 4.4772316134e+000	 6.5576068785e-001	 4.5644819572e-001
 4.4709080272e+000	 6.9757179692e-001	 3.5623988522e-001
 4.4641728651e+000	 7.3944954538e-001	 2.6805217899e-001
 4.4570233499e+000	 7.8138841736e-001	 1.9222108171e-001
 4.4494567921e+000	 8.2338281217e-001	 1.2917940531e-001
 4.5315948342e+000	 4.0883769246e-001	 3.8396986723e-001
 4.5276561557e+000	 4.5036622388e-001	 4.1352127538e-001
 4.5233220881e+000	 4.9199317817e-001	 4.4232005331e-001
 4.5185893650e+000	 5.3371354682e-001	 4.7042861592e-001
 4.5134547925e+000	 5.7552222903e-001	 4.9795114395e-001
 4.5079152512e+000	 6.1741403260e-001	 5.2503587382e-001
 4.5019676997e+000	 6.5938367507e-001	 4.4872023689e-001
 4.4956091766e+000	 7.0142578475e-001	 3.5995583789e-001
 4.4888368036e+000	 7.4353490198e-001	 2.8281876857e-001
 4.4816477883e+000	 7.8570548043e-001	 2.1767374075e-001
 4.4740394263e+000	 8.2793188848e-001	 1.6498430310e-001
 4.5564937069e+000	 4.1108405341e-001	 4.0511140894e-001
 4.5525333873e+000	 4.5284076358e-001	 4.2941077754e-001
 4.5481755061e+000	 4.9469643739e-001	 4.5304801732e-001
 4.5434167791e+000	 5.3664603884e-001	 4.7606622151e-001
 4.5382539946e+000	 5.7868443908e-001	 4.9855033270e-001
 4.5326840163e+000	 6.2080641740e-001	 5.2062947653e-001
 4.5267037859e+000	 6.6300666230e-001	 4.4315745281e-001
 4.5203103259e+000	 7.0527977258e-001	 3.6508712321e-001
 4.5135007421e+000	 7.4762025859e-001	 2.9822365339e-001
 4.5062722267e+000	 7.9002254351e-001	 2.4296131421e-001
 4.4986220605e+000	 8.3248096479e-001	 1.9979528789e-001
 4.5813925796e+000	 4.1333041436e-001	 4.2548477890e-001
 4.5774106189e+000	 4.5531530327e-001	 4.4474099538e-001
 4.5730289242e+000	 4.9739969661e-001	 4.6341076378e-001
 4.5682441932e+000	 5.3957853085e-001	 4.8151742188e-001
 4.5630531968e+000	 5.8184664912e-001	 4.9912624870e-001
 4.5574527815e+000	 6.2419880219e-001	 5.1634684297e-001
 4.5514398722e+000	 6.6662964952e-001	 4.3967635058e-001
 4.5450114752e+000	 7.0913376041e-001	 3.7154112407e-001
 4.5381646806e+000	 7.5170561519e-001	 3.1416502939e-001
 4.5308966650e+000	 7.9433960659e-001	 2.6797275584e-001
 4.5232046947e+000	 8.3703004110e-001	 2.3349202375e-001
 4.6062914523e+000	 4.1557677530e-001	 4.4521237966e-001
 4.6022878506e+000	 4.5778984296e-001	 4.5964209509e-001
 4.5978823423e+000	 5.0010295583e-001	 4.7354626214e-001
 4.5930716073e+000	 5.4251102287e-001	 4.8692802545e-001
 4.5878523989e+000	 5.8500885917e-001	 4.9983257121e-001
 4.5822215466e+000	 6.2759118699e-001	 5.0709390446e-001
 4.5761759585e+000	 6.7025263675e-001	 4.3819158106e-001
 4.5697126245e+000	 7.1298774823e-001	 3.7922329737e-001
 4.5628286191e+000	 7.5579097179e-001	 3.3053909450e-001
 4.5555211034e+000	 7.9865666967e-001	 2.9259494714e-001
 4.5477873289e+000	 8.4157911741e-001	 2.6595202597e-001
 4.6311903250e+000	 4.1782313625e-001	 4.6441516704e-001
 4.6271650822e+000	 4.6026438265e-001	 4.7424274186e-001
 4.6227357603e+000	 5.0280621505e-001	 4.8359092428e-001
 4.6178990214e+000	 5.4544351488e-001	 4.9244222429e-001
 4.6126516011e+000	 5.8817106922e-001	 5.0082130200e-001
 4.6069903117e+000	 6.3098357178e-001	 4.9859643247e-001
 4.6009120447e+000	 6.7387562397e-001	 4.3861598873e-001
 4.5944137738e+000	 7.1684173606e-001	 3.8803722583e-001
 4.5874925575e+000	 7.5987632840e-001	 3.4724010245e-001
 4.5801455418e+000	 8.0297373275e-001	 3.1671275308e-001
 4.5723699631e+000	 8.4612819372e-001	 2.9705071878e-001
 4.6560891977e+000	 4.2006949719e-001	 4.8321268887e-001
 4.6520423138e+000	 4.6273892234e-001	 4.8867013999e-001
 4.6475891784e+000	 5.0550947427e-001	 4.9367964615e-001
 4.6427264355e+000	 5.4837600689e-001	 4.9820263725e-001
 4.6374508033e+000	 5.9133327927e-001	 5.0224281022e-001
 4.6317590768e+000	 6.3437595657e-001	 4.9267767844e-001
 4.6256481310e+000	 6.7749861120e-001	 4.4086066000e-001
 4.6191149232e+000	 7.2069572389e-001	 3.9788466809e-001
 4.6121564960e+000	 7.6396168500e-001	 3.6416041467e-001
 4.6047699802e+000	 8.0729079583e-001	 3.4020907602e-001
 4.5969525973e+000	 8.5067727003e-001	 3.2666149131e-001
 4.6809880705e+000	 4.2231585814e-001	 5.0172312237e-001
 4.6769195454e+000	 4.6521346202e-001	 5.0305007176e-001
 4.6724425965e+000	 5.0821273349e-001	 5.0394584809e-001
 4.6675538496e+000	 5.5130849891e-001	 5.0435035188e-001
 4.6622500054e+000	 5.9449548931e-001	 5.0424587583e-001
 4.6565278419e+000	 6.3776834136e-001	 4.8925633067e-001
 4.6503842172e+000	 6.8112159842e-001	 4.4483496994e-001
 4.6438160725e+000	 7.2454971171e-001	 4.0866560721e-001
 4.6368204345e+000	 7.6804704160e-001	 3.8119055069e-001
 4.6293944186e+000	 8.1160785890e-001	 3.6296490790e-001
 4.6215352316e+000	 8.5522634634e-001	 3.5465575169e-001
 4.7058869432e+000	 4.2456221908e-001	 5.2006331045e-001
 4.7017967771e+000	 4.6768800171e-001	 5.1750693504e-001
 4.6972960145e+000	 5.1091599270e-001	 5.1452151385e-001
 4.6923812637e+000	 5.5424099092e-001	 5.1102496489e-001
 4.6870492076e+000	 5.9765769936e-001	 5.0697773165e-001
 4.6812966070e+000	 6.4116072615e-001	 4.8824947187e-001
 4.6751203035e+000	 6.8474458564e-001	 4.5044662761e-001
 4.6685172218e+000	 7.2840369954e-001	 4.2027829767e-001
 4.6614843730e+000	 7.7213239820e-001	 3.9821923681e-001
 4.6540188570e+000	 8.1592492198e-001	 3.8485938079e-001
 4.6461178658e+000	 8.5977542265e-001	 3.8090297947e-001
 4.7307858159e+000	 4.2680858003e-001	 5.3834879682e-001
 4.7266740087e+000	 4.7016254140e-001	 5.3216377973e-001
 4.7221494326e+000	 5.1361925192e-001	 5.2553722843e-001
 4.7172086778e+000	 5.5717348293e-001	 5.1836462139e-001
 4.7118484097e+000	 6.0081990940e-001	 5.1058410403e-001
 4.7060653722e+000	 6.4455311094e-001	 4.8957262144e-001
 4.6998563898e+000	 6.8836757286e-001	 4.5760171983e-001
 4.6932183711e+000	 7.3225768736e-001	 4.3261931084e-001
 4.6861483115e+000	 7.7621775480e-001	 4.1513345332e-001
 4.6786432954e+000	 8.2024198506e-001	 4.0576981583e-001
 4.6707005000e+000	 8.6432449896e-001	 4.0527077636e-001
 4.4248741579e+000	 8.1883373586e-001	 9.2498721976e-002
 4.4169320814e+000	 8.6064568090e-001	 1.7933746260e-001
 4.4085701903e+000	 9.0250145542e-001	 2.6006584931e-001
 4.3997860880e+000	 9.4439524573e-001	 3.3428538909e-001
 4.3905774756e+000	 9.8632116015e-001	 4.0168660988e-001
 4.3809421547e+000	 1.0282732308e+000	 4.6204815644e-001
 4.3708780297e+000	 1.0702454156e+000	 4.8280365826e-001
 4.3603831102e+000	 1.1122316001e+000	 4.3644429174e-001
 4.3494555137e+000	 1.1542255995e+000	 3.6290772616e-001
 4.3380934676e+000	 1.1962211613e+000	 2.5885076971e-001
 4.3262953119e+000	 1.2382119668e+000	 1.2093565830e-001
 4.4494567921e+000	 8.2338281217e-001	 1.2917940531e-001
 4.4414705930e+000	 8.6542704580e-001	 2.0866906114e-001
 4.4330622469e+000	 9.0751535240e-001	 2.8058491081e-001
 4.4242293440e+000	 9.4964188598e-001	 3.4462648683e-001
 4.4149695727e+000	 9.9180072215e-001	 4.0058630204e-001
 4.4052807222e+000	 1.0339858599e+000	 4.4834886727e-001
 4.3951606854e+000	 1.0761912235e+000	 4.8788944271e-001
 4.3846074608e+000	 1.1184106645e+000	 5.1927252088e-001
 4.3736191554e+000	 1.1606379640e+000	 5.2958905945e-001
 4.3621939868e+000	 1.2028668344e+000	 4.2570933048e-001
 4.3503302858e+000	 1.2450909222e+000	 2.8725424223e-001
 4.4740394263e+000	 8.2793188848e-001	 1.6498430310e-001
 4.4660091046e+000	 8.7020841069e-001	 2.3778065414e-001
 4.4575543036e+000	 9.1252924937e-001	 3.0153366887e-001
 4.4486726001e+000	 9.5488852624e-001	 3.5604144011e-001
 4.4393616698e+000	 9.9728028415e-001	 4.0119902607e-001
 4.4296192898e+000	 1.0396984889e+000	 4.3699738927e-001
 4.4194433411e+000	 1.0821370313e+000	 4.6352206040e-001
 4.4088318115e+000	 1.1245897290e+000	 4.8095152503e-001
 4.3977827972e+000	 1.1670503284e+000	 4.8955533195e-001
 4.3862945061e+000	 1.2095125075e+000	 4.8969192257e-001
 4.3743652598e+000	 1.2519698775e+000	 4.8408210196e-001
 4.4986220605e+000	 8.3248096479e-001	 1.9979528789e-001
 4.4905476161e+000	 8.7498977558e-001	 2.6652027801e-001
 4.4820463602e+000	 9.1754314634e-001	 3.2272600930e-001
 4.4731158561e+000	 9.6013516649e-001	 3.6830968593e-001
 4.4637537669e+000	 1.0027598461e+000	 4.0326948884e-001
 4.4539578573e+000	 1.0454111180e+000	 4.2770343517e-001
 4.4437259969e+000	 1.0880828392e+000	 4.4180795372e-001
 4.4330561621e+000	 1.1307687934e+000	 4.4587617476e-001
 4.4219464389e+000	 1.1734626929e+000	 4.4029593249e-001
 4.4103950254e+000	 1.2161581807e+000	 4.2554747985e-001
 4.3984002337e+000	 1.2588488329e+000	 4.4140837593e-001
 4.5232046947e+000	 8.3703004110e-001	 2.3349202375e-001
 4.5150861277e+000	 8.7977114048e-001	 2.9473421422e-001
 4.5065384168e+000	 9.2255704332e-001	 3.4397452033e-001
 4.4975591122e+000	 9.6538180674e-001	 3.8120982486e-001
 4.4881458639e+000	 1.0082394081e+000	 4.0654202550e-001
 4.4782964248e+000	 1.0511237471e+000	 4.2017681397e-001
 4.4680086526e+000	 1.0940286471e+000	 4.2242216251e-001
 4.4572805127e+000	 1.1369478578e+000	 4.1368651565e-001
 4.4461100807e+000	 1.1798750573e+000	 3.9447668604e-001
 4.4344955446e+000	 1.2228038538e+000	 3.6539545367e-001
 4.4224352077e+000	 1.2657277883e+000	 3.8963959863e-001
 4.5477873289e+000	 8.4157911741e-001	 2.6595202597e-001
 4.5396246393e+000	 8.8455250537e-001	 3.2226703665e-001
 4.5310304734e+000	 9.2757094029e-001	 3.6509052766e-001
 4.5220023682e+000	 9.7062844700e-001	 3.9451964361e-001
 4.5125379610e+000	 1.0137189701e+000	 4.1076060945e-001
 4.5026349923e+000	 1.0568363761e+000	 4.1412742845e-001
 4.4922913083e+000	 1.0999744549e+000	 4.0504027891e-001
 4.4815048633e+000	 1.1431269223e+000	 3.8402360712e-001
 4.4702737224e+000	 1.1862874218e+000	 3.5170391549e-001
 4.4585960639e+000	 1.2294495269e+000	 3.0880724518e-001
 4.4464701816e+000	 1.2726067437e+000	 3.3619061582e-001
 4.5723699631e+000	 8.4612819372e-001	 2.9705071878e-001
 4.5641631508e+000	 8.8933387026e-001	 3.4896165759e-001
 4.5555225300e+000	 9.3258483726e-001	 3.8588412843e-001
 4.5464456242e+000	 9.7587508725e-001	 4.0801613694e-001
 4.5369300581e+000	 1.0191985321e+000	 4.1566886210e-001
 4.5269735599e+000	 1.0625490052e+000	 4.0926527256e-001
 4.5165739640e+000	 1.1059202628e+000	 3.8933843255e-001
 4.5057292139e+000	 1.1493059867e+000	 3.5652949525e-001
 4.4944373641e+000	 1.1926997862e+000	 3.1158538222e-001
 4.4826965832e+000	 1.2360952000e+000	 2.5535614849e-001
 4.4705051556e+000	 1.2794856990e+000	 2.8108050179e-001
 4.5969525973e+000	 8.5067727003e-001	 3.2666149131e-001
 4.5887016624e+000	 8.9411523516e-001	 3.7465937206e-001
 4.5800145866e+000	 9.3759873424e-001	 4.0616422404e-001
 4.5708888803e+000	 9.8112172750e-001	 4.2147552876e-001
 4.5613221552e+000	 1.0246780942e+000	 4.2101006229e-001
 4.5513121274e+000	 1.0682616342e+000	 4.0530042903e-001
 4.5408566198e+000	 1.1118660707e+000	 3.7499327613e-001
 4.5299535645e+000	 1.1554850512e+000	 3.3084718631e-001
 4.5186010059e+000	 1.1991121506e+000	 2.7373024764e-001
 4.5067971024e+000	 1.2427408731e+000	 2.0461730000e-001
 4.4945401296e+000	 1.2863646544e+000	 2.2433061775e-001
 4.6215352316e+000	 8.5522634634e-001	 3.5465575169e-001
 4.6132401739e+000	 8.9889660005e-001	 3.9919990092e-001
 4.6045066432e+000	 9.4261263121e-001	 4.2573855198e-001
 4.5953321363e+000	 9.8636836776e-001	 4.3467329274e-001
 4.5857142523e+000	 1.0301576562e+000	 4.2652715539e-001
 4.5756506949e+000	 1.0739742633e+000	 4.0194306700e-001
 4.5651392755e+000	 1.1178118785e+000	 3.6168197155e-001
 4.5541779151e+000	 1.1616641156e+000	 3.0662062131e-001
 4.5427646476e+000	 1.2055245151e+000	 2.3774903598e-001
 4.5308976217e+000	 1.2493865463e+000	 1.5616762944e-001
 4.5185751035e+000	 1.2932436098e+000	 1.6596455101e-001
 4.6461178658e+000	 8.5977542265e-001	 3.8090297947e-001
 4.6377786855e+000	 9.0367796494e-001	 4.2242143246e-001
 4.6289986998e+000	 9.4762652819e-001	 4.4441371660e-001
 4.6197753924e+000	 9.9161500801e-001	 4.4738417205e-001
 4.6101063494e+000	 1.0356372182e+000	 4.3196276210e-001
 4.5999892625e+000	 1.0796868924e+000	 3.9890343972e-001
 4.5894219312e+000	 1.1237576864e+000	 3.4908217642e-001
 4.5784022658e+000	 1.1678431801e+000	 2.8349465122e-001
 4.5669282894e+000	 1.2119368795e+000	 2.0325359818e-001
 4.5549981410e+000	 1.2560322194e+000	 1.2370775695e-001
 4.5426100775e+000	 1.3001225651e+000	 1.0600805603e-001
 4.6707005000e+000	 8.6432449896e-001	 4.0527077636e-001
 4.6623171971e+000	 9.0845932984e-001	 4.4416066273e-001
 4.6534907565e+000	 9.5264042516e-001	 4.6199521895e-001
 4.6442186484e+000	 9.9686164827e-001	 4.5938219868e-001
 4.6344984465e+000	 1.0411167802e+000	 4.3705918704e-001
 4.6243278300e+000	 1.0853995214e+000	 3.9589188235e-001
 4.6137045869e+000	 1.1297034943e+000	 3.3687203102e-001
 4.6026266164e+000	 1.1740222445e+000	 2.6111501304e-001
 4.5910919311e+000	 1.2183492440e+000	 1.6985707706e-001
 4.5790986602e+000	 1.2626778925e+000	 8.9947623774e-002
 4.5666450514e+000	 1.3070015205e+000	 4.4488997479e-002
 4.3262953119e+000	 1.2382119668e+000	 1.2093565830e-001
 4.3140595013e+000	 1.2801916340e+000	 5.7187636829e-002
 4.3013846075e+000	 1.3221537197e+000	 4.9441933424e-002
 4.2882693215e+000	 1.3640917223e+000	 3.3001319464e-002
 4.2747124554e+000	 1.4059990840e+000	 1.1322545508e-002
 4.2607129448e+000	 1.4478691937e+000	-1.1918912186e-002
 4.2462698508e+000	 1.4896953899e+000	-3.2834355678e-002
 4.2313823616e+000	 1.5314709629e+000	-4.7327969527e-002
 4.2160497947e+000	 1.5731891585e+000	-5.1103522141e-002
 4.2002715988e+000	 1.6148431803e+000	-3.9671659436e-002
 4.1840473548e+000	 1.6564261930e+000	-8.3577841285e-003
 4.3503302858e+000	 1.2450909222e+000	 2.8725424223e-001
 4.3380264985e+000	 1.2873038097e+000	 2.5831203372e-001
 4.3252811887e+000	 1.3294990181e+000	 2.4162884915e-001
 4.3120930399e+000	 1.3716700096e+000	 2.1416124553e-001
 4.2984608579e+000	 1.4138101900e+000	 1.7945881660e-001
 4.2843835723e+000	 1.4559129115e+000	 1.4129497428e-001
 4.2698602388e+000	 1.4979714754e+000	 1.0366133233e-001
 4.2548900414e+000	 1.5399791349e+000	 7.0761477842e-002
 4.2394722936e+000	 1.5819290983e+000	 4.7004133529e-002
 4.2236064410e+000	 1.6238145313e+000	 3.6995715789e-002
 4.2072920623e+000	 1.6656285608e+000	 4.5532295350e-002
 4.3743652598e+000	 1.2519698775e+000	 4.8408210196e-001
 4.3619934957e+000	 1.2944159855e+000	 4.7367670980e-001
 4.3491777698e+000	 1.3368443166e+000	 4.4695246771e-001
 4.3359167584e+000	 1.3792482970e+000	 4.0731955024e-001
 4.3222092604e+000	 1.4216212960e+000	 3.5842221823e-001
 4.3080541997e+000	 1.4639566292e+000	 3.0413371420e-001
 4.2934506269e+000	 1.5062475609e+000	 2.4855053186e-001
 4.2783977212e+000	 1.5484873069e+000	 1.9598606134e-001
 4.2628947925e+000	 1.5906690380e+000	 1.5096361295e-001
 4.2469412832e+000	 1.6327858823e+000	 1.1820882470e-001
 4.2305367698e+000	 1.6748309285e+000	 1.0264146040e-001
 4.3984002337e+000	 1.2588488329e+000	 4.4140837593e-001
 4.3859604930e+000	 1.3015281612e+000	 5.6061227053e-001
 4.3730743510e+000	 1.3441896150e+000	 6.6494396238e-001
 4.3597404768e+000	 1.3868265843e+000	 6.1199265447e-001
 4.3459576629e+000	 1.4294324020e+000	 5.4771416495e-001
 4.3317248272e+000	 1.4720003470e+000	 4.7608347554e-001
 4.3170410149e+000	 1.5145236464e+000	 4.0130393827e-001
 4.3019054009e+000	 1.5569954790e+000	 3.2780079230e-001
 4.2863172913e+000	 1.5994089778e+000	 2.6021404708e-001
 4.2702761254e+000	 1.6417572333e+000	 2.0339073698e-001
 4.2537814774e+000	 1.6840332963e+000	 1.6237655446e-001
 4.4224352077e+000	 1.2657277883e+000	 3.8963959863e-001
 4.4099274902e+000	 1.3086403370e+000	 4.8125984471e-001
 4.3969709321e+000	 1.3515349135e+000	 5.8506232798e-001
 4.3835641953e+000	 1.3944048717e+000	 7.0083514817e-001
 4.3697060655e+000	 1.4372435081e+000	 7.4683835577e-001
 4.3553954547e+000	 1.4800440647e+000	 6.5663266259e-001
 4.3406314030e+000	 1.5227997319e+000	 5.6139443557e-001
 4.3254130807e+000	 1.5655036510e+000	 4.6566282355e-001
 4.3097397902e+000	 1.6081489176e+000	 3.7419666176e-001
 4.2936109676e+000	 1.6507285843e+000	 2.9196657122e-001
 4.2770261849e+000	 1.6932356640e+000	 2.2414642445e-001
 4.4464701816e+000	 1.2726067437e+000	 3.3619061582e-001
 4.4338944874e+000	 1.3157525127e+000	 4.0027677568e-001
 4.4208675133e+000	 1.3588802119e+000	 4.7698153884e-001
 4.4073879137e+000	 1.4019831590e+000	 5.6606696434e-001
 4.3934544680e+000	 1.4450546141e+000	 6.6722835347e-001
 4.3790660822e+000	 1.4880877825e+000	 7.8009518519e-001
 4.3642217911e+000	 1.5310758174e+000	 7.2829703725e-001
 4.3489207605e+000	 1.5740118230e+000	 6.0903139155e-001
 4.3331622890e+000	 1.6168888573e+000	 4.9235472115e-001
 4.3169458098e+000	 1.6596999353e+000	 3.8336343953e-001
 4.3002708924e+000	 1.7024380317e+000	 2.8736186665e-001
 4.4705051556e+000	 1.2794856990e+000	 2.8108050179e-001
 4.4578614846e+000	 1.3228646884e+000	 3.1768981989e-001
 4.4447640944e+000	 1.3662255104e+000	 3.6736361572e-001
 4.4312116322e+000	 1.4095614464e+000	 4.2983747988e-001
 4.4172028705e+000	 1.4528657201e+000	 5.0477897193e-001
 4.4027367096e+000	 1.4961315002e+000	 5.9178859622e-001
 4.3878121791e+000	 1.5393519029e+000	 6.9040094570e-001
 4.3724284403e+000	 1.5825199950e+000	 7.5736776037e-001
 4.3565847879e+000	 1.6256287971e+000	 6.1413347291e-001
 4.3402806520e+000	 1.6686712863e+000	 4.7701039396e-001
 4.3235155999e+000	 1.7116403995e+000	 3.5143557425e-001
 4.4945401296e+000	 1.2863646544e+000	 2.2433061775e-001
 4.4818284819e+000	 1.3299768642e+000	 2.3352797466e-001
 4.4686606756e+000	 1.3735708088e+000	 2.5624522356e-001
 4.4550353506e+000	 1.4171397337e+000	 2.9219105320e-001
 4.4409512731e+000	 1.4606768261e+000	 3.4100483072e-001
 4.4264073371e+000	 1.5041752179e+000	 4.0225761837e-001
 4.4114025672e+000	 1.5476279884e+000	 4.7545336168e-001
 4.3959361201e+000	 1.5910281670e+000	 5.6003024843e-001
 4.3800072868e+000	 1.6343687369e+000	 6.5536223770e-001
 4.3636154943e+000	 1.6776426373e+000	 5.7233837462e-001
 4.3467603075e+000	 1.7208427672e+000	 4.1578208668e-001
 4.5185751035e+000	 1.2932436098e+000	 1.6596455101e-001
 4.5057954791e+000	 1.3370890399e+000	 1.4782241860e-001
 4.4925572567e+000	 1.3809161073e+000	 1.4366516416e-001
 4.4788590691e+000	 1.4247180211e+000	 1.5317413554e-001
 4.4646996756e+000	 1.4684879322e+000	 1.7596005098e-001
 4.4500779646e+000	 1.5122189357e+000	 2.1156405733e-001
 4.4349929552e+000	 1.5559040739e+000	 2.5945896303e-001
 4.4194437999e+000	 1.5995363390e+000	 3.1905064538e-001
 4.4034297856e+000	 1.6431086766e+000	 3.8967963101e-001
 4.3869503365e+000	 1.6866139883e+000	 4.7062284809e-001
 4.3700050150e+000	 1.7300451349e+000	 4.7981774048e-001
 4.5426100775e+000	 1.3001225651e+000	 1.0600805603e-001
 4.5297624763e+000	 1.3442012157e+000	 6.0606453905e-002
 4.5164538379e+000	 1.3882614057e+000	 2.9664319662e-002
 4.5026827875e+000	 1.4322963084e+000	 1.2835215590e-002
 4.4884480781e+000	 1.4762990382e+000	 9.7007488415e-003
 4.4737485920e+000	 1.5202626534e+000	 1.9771671683e-002
 4.4585833433e+000	 1.5641801594e+000	 4.2489159916e-002
 4.4429514797e+000	 1.6080445111e+000	 7.7226268967e-002
 4.4268522845e+000	 1.6518486164e+000	 1.2328956655e-001
 4.4102851787e+000	 1.6955853393e+000	 1.7992094034e-001
 4.3932497225e+000	 1.7392475027e+000	 2.4629957838e-001
 4.5666450514e+000	 1.3070015205e+000	 4.4488997479e-002
 4.5537294736e+000	 1.3513133914e+000	-2.8084549526e-002
 4.5403504190e+000	 1.3956067041e+000	-8.5714402225e-002
 4.5265065060e+000	 1.4398745957e+000	-1.2877523415e-001
 4.5121964807e+000	 1.4841101442e+000	-1.5771501713e-001
 4.4974192195e+000	 1.5283063712e+000	-1.7305387848e-001
 4.4821737314e+000	 1.5724562449e+000	-1.7538277653e-001
 4.4664591594e+000	 1.6165526831e+000	-1.6536199513e-001
 4.4502747833e+000	 1.6605885562e+000	-1.4371945808e-001
 4.4336200209e+000	 1.7045566903e+000	-1.1124886533e-001
 4.4164944300e+000	 1.7484498704e+000	-6.8807653158e-002
 4.1840473548e+000	 1.6564261930e+000	-8.3577841285e-003
 4.1673767784e+000	 1.6979313258e+000	-2.0032908309e-003
 4.1502597210e+000	 1.7393516748e+000	-5.6629768338e-003
 4.1326961712e+000	 1.7806803072e+000	-1.3852114863e-002
 4.1146862567e+000	 1.8219102636e+000	-2.0897683629e-002
 4.0962302449e+000	 1.8630345624e+000	-2.0948838841e-002
 4.0773285445e+000	 1.9040462023e+000	-5.0850867493e-002
 4.0579817064e+000	 1.9449381662e+000	-9.8745231591e-002
 4.0381904250e+000	 1.9857034249e+000	-1.4983471893e-001
 4.0179555386e+000	 2.0263349401e+000	-2.0427734393e-001
 3.9972780307e+000	 2.0668256687e+000	-2.6227458788e-001
 4.2072920623e+000	 1.6656285608e+000	 4.5532295350e-002
 4.1905288716e+000	 1.7073642776e+000	 3.8964073544e-002
 4.1733167194e+000	 1.7490147397e+000	 2.6015949951e-002
 4.1556555944e+000	 1.7905729755e+000	 1.2276488449e-002
 4.1375456248e+000	 1.8320319873e+000	 3.5216055235e-003
 4.1189870796e+000	 1.8733847544e+000	 5.7038584566e-003
 4.0999803697e+000	 1.9146242367e+000	-3.4921662081e-002
 4.0805260492e+000	 1.9557433782e+000	-7.5586548192e-002
 4.0606248162e+000	 1.9967351106e+000	-1.1437959356e-001
 4.0402775138e+000	 2.0375923565e+000	-1.5154396082e-001
 4.0194851309e+000	 2.0783080336e+000	-1.8737219717e-001
 4.2305367698e+000	 1.6748309285e+000	 1.0264146040e-001
 4.2136809648e+000	 1.7167972294e+000	 8.0786037272e-002
 4.1963737179e+000	 1.7586778046e+000	 5.6115227398e-002
 4.1786150176e+000	 1.8004656439e+000	 3.4323981229e-002
 4.1604049929e+000	 1.8421537110e+000	 2.1293744181e-002
 4.1417439143e+000	 1.8837349464e+000	 1.1400045947e-002
 4.1226321950e+000	 1.9252022712e+000	-3.0616343016e-002
 4.1030703921e+000	 1.9665485903e+000	-6.5462196317e-002
 4.0830592075e+000	 2.0077667963e+000	-9.3409161261e-002
 4.0625994891e+000	 2.0488497728e+000	-1.1478557047e-001
 4.0416922311e+000	 2.0897903984e+000	-1.2997504085e-001
 4.2537814774e+000	 1.6840332963e+000	 1.6237655446e-001
 4.2368330580e+000	 1.7262301812e+000	 1.2286978288e-001
 4.2194307163e+000	 1.7683408694e+000	 8.4043127239e-002
 4.2015744408e+000	 1.8103583123e+000	 5.1700488813e-002
 4.1832643610e+000	 1.8522754347e+000	 3.1831489713e-002
 4.1645007490e+000	 1.8940851384e+000	 4.8159711739e-003
 4.1452840202e+000	 1.9357803056e+000	-3.7831585734e-002
 4.1256147349e+000	 1.9773538023e+000	-6.8241334611e-002
 4.1054935987e+000	 2.0187984819e+000	-8.6764192042e-002
 4.0849214643e+000	 2.0601071891e+000	-9.3813693766e-002
 4.0638993313e+000	 2.1012727632e+000	-8.9864542241e-002
 4.2770261849e+000	 1.6932356640e+000	 2.2414642445e-001
 4.2599851512e+000	 1.7356631330e+000	 1.6462408824e-001
 4.2424877148e+000	 1.7780039343e+000	 1.0920908989e-001
 4.2245338639e+000	 1.8202509806e+000	 6.3816860107e-002
 4.2061237291e+000	 1.8623971584e+000	 3.4547859600e-002
 4.1872575837e+000	 1.9044353304e+000	-1.1868262987e-002
 4.1679358455e+000	 1.9463583401e+000	-5.6464787102e-002
 4.1481590777e+000	 1.9881590143e+000	-8.3794360977e-002
 4.1279279900e+000	 2.0298301676e+000	-9.4287230847e-002
 4.1072434395e+000	 2.0713646055e+000	-8.8442179897e-002
 4.0861064314e+000	 2.1127551280e+000	-6.6825023857e-002
 4.3002708924e+000	 1.7024380317e+000	 2.8736186665e-001
 4.2831372445e+000	 1.7450960848e+000	 2.0545928347e-001
 4.2655447132e+000	 1.7876669991e+000	 1.3102369287e-001
 4.2474932871e+000	 1.8301436490e+000	 7.0084648033e-002
 4.2289830972e+000	 1.8725188821e+000	 2.8856124398e-002
 4.2100144184e+000	 1.9147855224e+000	-3.8576403431e-002
 4.1905876707e+000	 1.9569363745e+000	-8.6414045920e-002
 4.1707034205e+000	 1.9989642264e+000	-1.1199287908e-001
 4.1503623812e+000	 2.0408618533e+000	-1.1582254958e-001
 4.1295654147e+000	 2.0826220218e+000	-9.8487143425e-002
 4.1083135316e+000	 2.1242374928e+000	-6.0643629032e-002
 4.3235155999e+000	 1.7116403995e+000	 3.5143557425e-001
 4.3062893377e+000	 1.7545290366e+000	 2.4478720919e-001
 4.2886017116e+000	 1.7973300640e+000	 1.4889862023e-001
 4.2704527103e+000	 1.8400363174e+000	 6.9916090606e-002
 4.2518424653e+000	 1.8826406057e+000	 4.8349234355e-003
 4.2327712531e+000	 1.9251357145e+000	-7.5232406869e-002
 4.2132394960e+000	 1.9675144090e+000	-1.2757814405e-001
 4.1932477633e+000	 2.0097694384e+000	-1.5270966595e-001
 4.1727967725e+000	 2.0518935390e+000	-1.5121610067e-001
 4.1518873899e+000	 2.0938794381e+000	-1.2376690338e-001
 4.1305206318e+000	 2.1357198577e+000	-7.1110246108e-002
 4.3467603075e+000	 1.7208427672e+000	 4.1578208668e-001
 4.3294414309e+000	 1.7639619884e+000	 2.8202117612e-001
 4.3116587101e+000	 1.8069931288e+000	 1.6224663295e-001
 4.2934121334e+000	 1.8499289858e+000	 6.2724092613e-002
 4.2747018334e+000	 1.8927623294e+000	-3.0949326305e-002
 4.2555280878e+000	 1.9354859065e+000	-1.2176043422e-001
 4.2358913212e+000	 1.9780924434e+000	-1.7985652817e-001
 4.2157921061e+000	 2.0205746504e+000	-2.0581864056e-001
 4.1952311637e+000	 2.0629252247e+000	-2.0031547217e-001
 4.1742093651e+000	 2.1051368545e+000	-1.6410192434e-001
 4.1527277319e+000	 2.1472022225e+000	-9.8017435034e-002
 4.3700050150e+000	 1.7300451349e+000	 4.7981774048e-001
 4.3525935241e+000	 1.7733949402e+000	 3.1657592604e-001
 4.3347157085e+000	 1.8166561937e+000	 1.7048154034e-001
 4.3163715566e+000	 1.8598216541e+000	 4.7922207880e-002
 4.2975612015e+000	 1.9028840531e+000	-7.5346691780e-002
 4.2782849225e+000	 1.9458360985e+000	-1.7808484516e-001
 4.2585431465e+000	 1.9886704779e+000	-2.4314929206e-001
 4.2383364489e+000	 2.0313798625e+000	-2.7119483354e-001
 4.2176655550e+000	 2.0739569104e+000	-2.6296984422e-001
 4.1965313403e+000	 2.1163942708e+000	-2.1931475933e-001
 4.1749348321e+000	 2.1586845873e+000	-1.4116035631e-001
 4.3932497225e+000	 1.7392475027e+000	 2.4629957838e-001
 4.3757456173e+000	 1.7828278921e+000	 3.3609962959e-001
 4.3577727070e+000	 1.8263192586e+000	 1.7301817227e-001
 4.3393309798e+000	 1.8697143225e+000	 2.4924622104e-002
 4.3204205696e+000	 1.9130057768e+000	-1.2830476476e-001
 4.3010417572e+000	 1.9561862905e+000	-2.4413019290e-001
 4.2811949717e+000	 1.9992485124e+000	-3.1735715951e-001
 4.2608807917e+000	 2.0421850745e+000	-3.4871435767e-001
 4.2400999462e+000	 2.0849885961e+000	-3.3902994695e-001
 4.2188533156e+000	 2.1276516871e+000	-2.8922999460e-001
 4.1971419323e+000	 2.1701669521e+000	-2.0033670219e-001
 4.4164944300e+000	 1.7484498704e+000	-6.8807653158e-002
 4.3988977105e+000	 1.7922608439e+000	-2.9702209134e-004
 4.3808297054e+000	 1.8359823234e+000	 8.1358875633e-002
 4.3622904030e+000	 1.8796069909e+000	-1.1534567717e-002
 4.3432799376e+000	 1.9231275005e+000	-1.8977091585e-001
 4.3237985918e+000	 1.9665364825e+000	-3.1982121907e-001
 4.3038467969e+000	 2.0098265468e+000	-4.0238146772e-001
 4.2834251345e+000	 2.0529902865e+000	-4.3825437947e-001
 4.2625343375e+000	 2.0960202818e+000	-4.2834801967e-001
 4.2411752908e+000	 2.1389091034e+000	-3.7367419612e-001
 4.2193490324e+000	 2.1816493170e+000	-2.7534663007e-001
 3.9972780307e+000	 2.0668256687e+000	-2.6227458788e-001
 3.9761590304e+000	 2.1071685659e+000	-3.9312904356e-001
 3.9545998128e+000	 2.1473565890e+000	-4.9404874934e-001
 3.9326018000e+000	 2.1873827014e+000	-5.6586380167e-001
 3.9101665609e+000	 2.2272398761e+000	-6.0947891294e-001
 3.8872958119e+000	 2.2669210994e+000	-6.2587129250e-001
 3.8639914164e+000	 2.3064193751e+000	-6.1608836470e-001
 3.8402553857e+000	 2.3457277277e+000	-5.8124532867e-001
 3.8160898781e+000	 2.3848392068e+000	-5.2252256510e-001
 3.7914971990e+000	 2.4237468907e+000	-4.4116289572e-001
 3.7664798005e+000	 2.4624438902e+000	-3.3846870160e-001
 4.0194851309e+000	 2.0783080336e+000	-1.8737219717e-001
 3.9982488028e+000	 2.1188750579e+000	-3.0583139050e-001
 3.9765698118e+000	 2.1592863478e+000	-3.9879355871e-001
 3.9544495878e+000	 2.1995348275e+000	-4.6707485175e-001
 3.9318897085e+000	 2.2396134310e+000	-5.1156210746e-001
 3.9088918997e+000	 2.2795151055e+000	-5.3321068093e-001
 3.8854580354e+000	 2.3192328160e+000	-5.3304211487e-001
 3.8615901379e+000	 2.3587595484e+000	-5.1214165597e-001
 3.8372903774e+000	 2.3980883135e+000	-4.7165562259e-001
 3.8125610723e+000	 2.4372121512e+000	-4.1278862969e-001
 3.7874046883e+000	 2.4761241341e+000	-3.3680067736e-001
 4.0416922311e+000	 2.0897903984e+000	-1.2997504085e-001
 4.0203385752e+000	 2.1305815500e+000	-2.3481509817e-001
 3.9985398108e+000	 2.1712161067e+000	-3.1853086517e-001
 3.9762973756e+000	 2.2116869537e+000	-3.8192537280e-001
 3.9536128561e+000	 2.2519869858e+000	-4.2586846322e-001
 3.9304879876e+000	 2.2921091116e+000	-4.5129456667e-001
 3.9069246544e+000	 2.3320462570e+000	-4.5920032337e-001
 3.8829248900e+000	 2.3717913691e+000	-4.5064205545e-001
 3.8584908768e+000	 2.4113374202e+000	-4.2673309462e-001
 3.8336249456e+000	 2.4506774117e+000	-3.8864097142e-001
 3.8083295761e+000	 2.4898043779e+000	-3.3758447277e-001
 4.0638993313e+000	 2.1012727632e+000	-8.9864542241e-002
 4.0424283476e+000	 2.1422880420e+000	-1.7987646053e-001
 4.0205098097e+000	 2.1831458655e+000	-2.5307273028e-001
 3.9981451634e+000	 2.2238390798e+000	-3.1024409052e-001
 3.9753360036e+000	 2.2643605407e+000	-3.5224426555e-001
 3.9520840754e+000	 2.3047031177e+000	-3.7998768865e-001
 3.9283912734e+000	 2.3448596980e+000	-3.9444707459e-001
 3.9042596422e+000	 2.3848231898e+000	-3.9665084621e-001
 3.8796913761e+000	 2.4245865269e+000	-3.8768042100e-001
 3.8546888190e+000	 2.4641426722e+000	-3.6866736365e-001
 3.8292544638e+000	 2.5034846217e+000	-3.4484630948e-001
 4.0861064314e+000	 2.1127551280e+000	-6.6825023857e-002
 4.0645181200e+000	 2.1539945340e+000	-1.4081426320e-001
 4.0424798087e+000	 2.1950756243e+000	-2.0223327956e-001
 4.0199929511e+000	 2.2359912059e+000	-2.5186134667e-001
 3.9970591512e+000	 2.2767340956e+000	-2.9053694799e-001
 3.9736801633e+000	 2.3172971239e+000	-3.1915544631e-001
 3.9498578924e+000	 2.3576731389e+000	-3.3866660601e-001
 3.9255943943e+000	 2.3978550105e+000	-3.5007197345e-001
 3.9008918754e+000	 2.4378356336e+000	-3.5442212130e-001
 3.8757526923e+000	 2.4776079327e+000	-3.5281376336e-001
 3.8501793516e+000	 2.5171648656e+000	-3.6592768641e-001
 4.1083135316e+000	 2.1242374928e+000	-6.0643629032e-002
 4.0866078923e+000	 2.1657010260e+000	-1.1742971617e-001
 4.0644498076e+000	 2.2070053831e+000	-1.6582864667e-001
 4.0418407389e+000	 2.2481433320e+000	-2.0660905544e-001
 4.0187822988e+000	 2.2891076504e+000	-2.4059506129e-001
 3.9952762511e+000	 2.3298911300e+000	-2.6866388174e-001
 3.9713245114e+000	 2.3704865799e+000	-2.9174330409e-001
 3.9469291465e+000	 2.4108868312e+000	-3.1080901860e-001
 3.9220923747e+000	 2.4510847403e+000	-3.2688181970e-001
 3.8968165656e+000	 2.4910731932e+000	-3.4102468188e-001
 3.8711042394e+000	 2.5308451094e+000	-3.8867136219e-001
 4.1305206318e+000	 2.1357198577e+000	-7.1110246108e-002
 4.1086976647e+000	 2.1774075181e+000	-1.0952638859e-001
 4.0864198066e+000	 2.2189351420e+000	-1.4367691948e-001
 4.0636885267e+000	 2.2602954581e+000	-1.7432066116e-001
 4.0405054463e+000	 2.3014812053e+000	-2.0226824341e-001
 4.0168723389e+000	 2.3424851361e+000	-2.2837966247e-001
 3.9927911303e+000	 2.3833000209e+000	-2.5356170022e-001
 3.9682638986e+000	 2.4239186519e+000	-2.7876520908e-001
 3.9432928740e+000	 2.4643338470e+000	-3.0498226909e-001
 3.9178804389e+000	 2.5045384537e+000	-3.3830605233e-001
 3.8920291272e+000	 2.5445253532e+000	-4.1304664562e-001
 4.1527277319e+000	 2.1472022225e+000	-9.8017435034e-002
 4.1307874371e+000	 2.1891140101e+000	-1.1691014567e-001
 4.1083898056e+000	 2.2308649008e+000	-1.3559808777e-001
 4.0855363145e+000	 2.2724475842e+000	-1.5483109741e-001
 4.0622285939e+000	 2.3138547601e+000	-1.7540719036e-001
 4.0384684268e+000	 2.3550791422e+000	-1.9817006466e-001
 4.0142577493e+000	 2.3961134619e+000	-2.2400646685e-001
 3.9895986507e+000	 2.4369504726e+000	-2.5384342776e-001
 3.9644933734e+000	 2.4775829537e+000	-2.8864537434e-001
 3.9389443123e+000	 2.5180037142e+000	-3.4899482111e-001
 3.9129540150e+000	 2.5582055971e+000	-4.3902093771e-001
 4.1749348321e+000	 2.1586845873e+000	-1.4116035631e-001
 4.1528772095e+000	 2.2008205021e+000	-1.3938908770e-001
 4.1303598045e+000	 2.2427946596e+000	-1.4141399266e-001
 4.1073841022e+000	 2.2845997104e+000	-1.4797674735e-001
 4.0839517414e+000	 2.3262283150e+000	-1.5986362814e-001
 4.0600645146e+000	 2.3676731483e+000	-1.7790295698e-001
 4.0357243683e+000	 2.4089269028e+000	-2.0296241378e-001
 4.0109334029e+000	 2.4499822933e+000	-2.3594622214e-001
 3.9856938727e+000	 2.4908320604e+000	-2.7779221487e-001
 3.9600081856e+000	 2.5314689747e+000	-3.6282809535e-001
 3.9338789027e+000	 2.5718858409e+000	-4.6655978241e-001
 4.1971419323e+000	 2.1701669521e+000	-2.0033670219e-001
 4.1749669819e+000	 2.2125269942e+000	-1.7677349080e-001
 4.1523298035e+000	 2.2547244184e+000	-1.6094827768e-001
 4.1292318900e+000	 2.2967518365e+000	-1.5359540546e-001
 4.1056748890e+000	 2.3386018699e+000	-1.5549028548e-001
 4.0816606025e+000	 2.3802671544e+000	-1.6744678489e-001
 4.0571909873e+000	 2.4217403438e+000	-1.9031448449e-001
 4.0322681550e+000	 2.4630141140e+000	-2.2497581322e-001
 4.0068943720e+000	 2.5040811671e+000	-2.7661051015e-001
 3.9810720589e+000	 2.5449342352e+000	-3.7974872882e-001
 3.9548037905e+000	 2.5855660847e+000	-4.9562691572e-001
 4.2193490324e+000	 2.1816493170e+000	-2.7534663007e-001
 4.1970567543e+000	 2.2242334862e+000	-2.2887574977e-001
 4.1742998024e+000	 2.2666541773e+000	-1.9402634125e-001
 4.1510796778e+000	 2.3089039626e+000	-1.7152624034e-001
 4.1273980366e+000	 2.3509754247e+000	-1.6214086739e-001
 4.1032566903e+000	 2.3928611605e+000	-1.6667055551e-001
 4.0786576062e+000	 2.4345537848e+000	-1.8594775263e-001
 4.0536029072e+000	 2.4760459347e+000	-2.2083410409e-001
 4.0280948713e+000	 2.5173302738e+000	-2.8981362506e-001
 4.0021359322e+000	 2.5583994957e+000	-3.9969831194e-001
 3.9757286783e+000	 2.5992463286e+000	-5.2618431329e-001
 3.7664798005e+000	 2.4624438902e+000	-3.3846870160e-001
 3.7410402811e+000	 2.5009233526e+000	-2.2609786712e-001
 3.7151813848e+000	 2.5391784651e+000	-3.7408382662e-001
 3.6889060008e+000	 2.5772024595e+000	-4.9918477374e-001
 3.6622171622e+000	 2.6149886150e+000	-6.0050536310e-001
 3.6351180455e+000	 2.6525302629e+000	-6.7717342157e-001
 3.6076119692e+000	 2.6898207896e+000	-7.2834152765e-001
 3.5797023927e+000	 2.7268536410e+000	-7.5318857685e-001
 3.5513929153e+000	 2.7636223260e+000	-7.5092132935e-001
 3.5226872744e+000	 2.8001204200e+000	-7.2077593659e-001
 3.4935893441e+000	 2.8363415688e+000	-6.6201944309e-001
 3.7874046883e+000	 2.4761241341e+000	-3.3680067736e-001
 3.7618238382e+000	 2.5148173712e+000	-1.4009136895e-001
 3.7358212814e+000	 2.5532850122e+000	-1.4740254503e-001
 3.7093999231e+000	 2.5915202509e+000	-2.9623716720e-001
 3.6825628131e+000	 2.6295163296e+000	-4.1975847386e-001
 3.6553131458e+000	 2.6672665421e+000	-5.1710735959e-001
 3.6276542579e+000	 2.7047642384e+000	-5.8745084340e-001
 3.5995896282e+000	 2.7420028279e+000	-6.2998363266e-001
 3.5711228760e+000	 2.7789757834e+000	-6.4392966777e-001
 3.5422577593e+000	 2.8156766446e+000	-6.2854364396e-001
 3.5129981738e+000	 2.8520990220e+000	-5.8311250675e-001
 3.8083295761e+000	 2.4898043779e+000	-3.3758447277e-001
 3.7826073953e+000	 2.5287113898e+000	-1.8322985570e-001
 3.7564611780e+000	 2.5673915592e+000	-1.7827020234e-002
 3.7298938453e+000	 2.6058380424e+000	-1.0237079139e-001
 3.7029084640e+000	 2.6440440441e+000	-2.4882456712e-001
 3.6755082460e+000	 2.6820028213e+000	-3.6759611737e-001
 3.6476965466e+000	 2.7197076873e+000	-4.5786643525e-001
 3.6194768638e+000	 2.7571520148e+000	-5.1884556409e-001
 3.5908528366e+000	 2.7943292408e+000	-5.4977413947e-001
 3.5618282442e+000	 2.8312328691e+000	-5.4992490690e-001
 3.5324070035e+000	 2.8678564751e+000	-5.1860421142e-001
 3.8292544638e+000	 2.5034846217e+000	-3.4484630948e-001
 3.8033909524e+000	 2.5426054084e+000	-2.2856888486e-001
 3.7771010746e+000	 2.5814981062e+000	-8.7646654252e-002
 3.7503877675e+000	 2.6201558338e+000	 7.7158762953e-002
 3.7232541150e+000	 2.6585717586e+000	-8.7753190362e-002
 3.6957033463e+000	 2.6967391006e+000	-2.2867979437e-001
 3.6677388353e+000	 2.7346511361e+000	-3.3961877032e-001
 3.6393640993e+000	 2.7723012017e+000	-4.1979502493e-001
 3.6105827973e+000	 2.8096826981e+000	-4.6846540756e-001
 3.5813987290e+000	 2.8467890937e+000	-4.8492022415e-001
 3.5518158332e+000	 2.8836139283e+000	-4.6848472144e-001
 3.8501793516e+000	 2.5171648656e+000	-3.6592768641e-001
 3.8241745096e+000	 2.5564994271e+000	-2.7606987530e-001
 3.7977409712e+000	 2.5956046532e+000	-1.6011173606e-001
 3.7708816897e+000	 2.6344736253e+000	-1.8862560591e-002
 3.7435997659e+000	 2.6730994731e+000	 6.3407336434e-002
 3.7158984465e+000	 2.7114753798e+000	-1.0039748451e-001
 3.6877811240e+000	 2.7495945849e+000	-2.3273753645e-001
 3.6592513348e+000	 2.7874503886e+000	-3.3285212029e-001
 3.6303127579e+000	 2.8250361555e+000	-4.0001382114e-001
 3.6009692139e+000	 2.8623453183e+000	-4.3353001904e-001
 3.5712246628e+000	 2.8993713815e+000	-4.3274436837e-001
 3.8711042394e+000	 2.5308451094e+000	-3.8867136219e-001
 3.8449580667e+000	 2.5703934457e+000	-3.2569242980e-001
 3.8183808678e+000	 2.6097112003e+000	-2.3517002984e-001
 3.7913756120e+000	 2.6487914167e+000	-1.1796128458e-001
 3.7639454168e+000	 2.6876271877e+000	 2.5040137418e-002
 3.7360935468e+000	 2.7262116591e+000	 1.7212696648e-002
 3.7078234128e+000	 2.7645380338e+000	-1.3725166332e-001
 3.6791385703e+000	 2.8025995755e+000	-2.5803642138e-001
 3.6500427186e+000	 2.8403896129e+000	-3.4442942371e-001
 3.6205396987e+000	 2.8779015428e+000	-3.9575464156e-001
 3.5906334925e+000	 2.9151288346e+000	-4.1137364644e-001
 3.8920291272e+000	 2.5445253532e+000	-4.1304664562e-001
 3.8657416238e+000	 2.5842874643e+000	-3.7739438384e-001
 3.8390207644e+000	 2.6238177473e+000	-3.1276772986e-001
 3.8118695342e+000	 2.6631092081e+000	-2.2007180110e-001
 3.7842910677e+000	 2.7021549022e+000	-1.0024971076e-001
 3.7562886470e+000	 2.7409479383e+000	 4.5719708978e-002
 3.7278657015e+000	 2.7794814826e+000	-5.3189342815e-002
 3.6990258058e+000	 2.8177487624e+000	-1.9536697989e-001
 3.6697726792e+000	 2.8557430702e+000	-3.0172196140e-001
 3.6401101836e+000	 2.8934577674e+000	-3.7159437032e-001
 3.6100423222e+000	 2.9308862878e+000	-4.0436320819e-001
 3.9129540150e+000	 2.5582055971e+000	-4.3902093771e-001
 3.8865251809e+000	 2.5981814829e+000	-4.3113185285e-001
 3.8596606609e+000	 2.6379242943e+000	-3.9284950240e-001
 3.8323634564e+000	 2.6774269996e+000	-3.2512717056e-001
 3.8046367186e+000	 2.7166826167e+000	-2.2895757786e-001
 3.7764837473e+000	 2.7556842175e+000	-1.0537053297e-001
 3.7479079902e+000	 2.7944249314e+000	 1.9421951242e-002
 3.7189130413e+000	 2.8328979493e+000	-1.4486234187e-001
 3.6895026398e+000	 2.8710965276e+000	-2.7190089096e-001
 3.6596806685e+000	 2.9090139919e+000	-3.6104941445e-001
 3.6294511519e+000	 2.9466437410e+000	-4.1170386020e-001
 3.9338789027e+000	 2.5718858409e+000	-4.6655978241e-001
 3.9073087380e+000	 2.6120755016e+000	-4.8685927798e-001
 3.8803005575e+000	 2.6520308414e+000	-4.7535852646e-001
 3.8528573787e+000	 2.6917447910e+000	-4.3305915719e-001
 3.8249823695e+000	 2.7312103313e+000	-3.6100366761e-001
 3.7966788475e+000	 2.7704204968e+000	-2.6027300310e-001
 3.7679502789e+000	 2.8093683802e+000	-1.3198407362e-001
 3.7388002768e+000	 2.8480471362e+000	-1.0654056117e-001
 3.7092326005e+000	 2.8864499850e+000	-2.5497538741e-001
 3.6792511533e+000	 2.9245702165e+000	-3.6411991548e-001
 3.6488599816e+000	 2.9624011941e+000	-4.3338655905e-001
 3.9548037905e+000	 2.5855660847e+000	-4.9562691572e-001
 3.9280922951e+000	 2.6259695202e+000	-5.4452947038e-001
 3.9009404541e+000	 2.6661373884e+000	-5.6023653304e-001
 3.8733513009e+000	 2.7060625825e+000	-5.4379826328e-001
 3.8453280204e+000	 2.7457380458e+000	-4.9630711182e-001
 3.8168739478e+000	 2.7851567760e+000	-4.1889532787e-001
 3.7879925676e+000	 2.8243118291e+000	-3.1273240114e-001
 3.7586875124e+000	 2.8631963231e+000	-1.7902244498e-001
 3.7289625611e+000	 2.9018034423e+000	-2.5095435154e-001
 3.6988216382e+000	 2.9401264410e+000	-3.8080594907e-001
 3.6682688113e+000	 2.9781586473e+000	-4.6940240732e-001
 3.9757286783e+000	 2.5992463286e+000	-5.2618431329e-001
 3.9488758523e+000	 2.6398635388e+000	-6.0409365408e-001
 3.9215803507e+000	 2.6802439354e+000	-6.4742384329e-001
 3.8938452231e+000	 2.7203803739e+000	-6.5727376240e-001
 3.8656736713e+000	 2.7602657603e+000	-6.3478599854e-001
 3.8370690480e+000	 2.7998930552e+000	-5.8114427873e-001
 3.8080348563e+000	 2.8392552779e+000	-4.9757083668e-001
 3.7785747479e+000	 2.8783455100e+000	-3.8532371881e-001
 3.7486925218e+000	 2.9171568997e+000	-2.5984641706e-001
 3.7183921230e+000	 2.9556826656e+000	-4.1110752681e-001
 3.6876776410e+000	 2.9939161004e+000	-5.1974264975e-001
 3.4935893441e+000	 2.8363415688e+000	-6.6201944309e-001
 3.4641031334e+000	 2.8722794922e+000	-6.5348241782e-001
 3.4342327849e+000	 2.9079279873e+000	-6.5032875389e-001
 3.4039825722e+000	 2.9432809326e+000	-6.5169165175e-001
 3.3733568988e+000	 2.9783322907e+000	-6.5670750259e-001
 3.3423602950e+000	 3.0130761123e+000	-6.6451740126e-001
 3.3109974166e+000	 3.0475065394e+000	-6.7426865850e-001
 3.2792730419e+000	 3.0816178084e+000	-6.8511630905e-001
 3.2471920698e+000	 3.1154042534e+000	-6.9622461201e-001
 3.2147595170e+000	 3.1488603094e+000	-6.9745844778e-001
 3.1819805154e+000	 3.1819805154e+000	-6.9909743140e-001
 3.5129981738e+000	 2.8520990220e+000	-5.8311250675e-001
 3.4833481508e+000	 2.8882366005e+000	-5.8194135173e-001
 3.4533118559e+000	 2.9240831428e+000	-5.8462554669e-001
 3.4228935865e+000	 2.9596324933e+000	-5.9026728244e-001
 3.3920977704e+000	 2.9948785812e+000	-5.9797315434e-001
 3.3609289633e+000	 3.0298154240e+000	-6.0685571930e-001
 3.3293918467e+000	 3.0644371313e+000	-6.1603505055e-001
 3.2974912255e+000	 3.0987379073e+000	-6.2464028680e-001
 3.2652320257e+000	 3.1327120548e+000	-6.2895979113e-001
 3.2326192921e+000	 3.1663539778e+000	-6.2480393382e-001
 3.1996581849e+000	 3.1996581849e+000	-6.2424830712e-001
 3.5324070035e+000	 2.8678564751e+000	-5.1860421142e-001
 3.5025931682e+000	 2.9041937088e+000	-5.2466722938e-001
 3.4723909269e+000	 2.9402382983e+000	-5.3306506128e-001
 3.4418046008e+000	 2.9759840540e+000	-5.4286881148e-001
 3.4108386421e+000	 3.0114248717e+000	-5.5315519704e-001
 3.3794976316e+000	 3.0465547358e+000	-5.6300814891e-001
 3.3477862768e+000	 3.0813677232e+000	-5.7152040950e-001
 3.3157094090e+000	 3.1158580062e+000	-5.7779512311e-001
 3.2832719817e+000	 3.1500198562e+000	-5.7403238318e-001
 3.2504790672e+000	 3.1838476462e+000	-5.6879899097e-001
 3.2173358544e+000	 3.2173358544e+000	-5.6587260027e-001
 3.5518158332e+000	 2.8836139283e+000	-4.6848472144e-001
 3.5218381856e+000	 2.9201508170e+000	-4.8165486115e-001
 3.4914699980e+000	 2.9563934538e+000	-4.9564657828e-001
 3.4607156151e+000	 2.9923356148e+000	-5.0949981072e-001
 3.4295795138e+000	 3.0279711622e+000	-5.2226131163e-001
 3.3980662999e+000	 3.0632940475e+000	-5.3298629501e-001
 3.3661807068e+000	 3.0982983150e+000	-5.4074007629e-001
 3.3339275926e+000	 3.1329781052e+000	-5.4251993622e-001
 3.3013119376e+000	 3.1673276576e+000	-5.3561016360e-001
 3.2683388423e+000	 3.2013413146e+000	-5.2910045465e-001
 3.2350135239e+000	 3.2350135239e+000	-5.2362736031e-001
 3.5712246628e+000	 2.8993713815e+000	-4.3274436837e-001
 3.5410832031e+000	 2.9361079253e+000	-4.5289914177e-001
 3.5105490690e+000	 2.9725486093e+000	-4.7236938375e-001
 3.4796266294e+000	 3.0086871755e+000	-4.9016378257e-001
 3.4483203854e+000	 3.0445174527e+000	-5.0529903882e-001
 3.4166349682e+000	 3.0800333592e+000	-5.1680155563e-001
 3.3845751369e+000	 3.1152289069e+000	-5.2370912239e-001
 3.3521457762e+000	 3.1500982041e+000	-5.2047205628e-001
 3.3193518936e+000	 3.1846354590e+000	-5.1334936863e-001
 3.2861986174e+000	 3.2188349829e+000	-5.0536472842e-001
 3.2526911935e+000	 3.2526911935e+000	-4.9716915919e-001
 3.5906334925e+000	 2.9151288346e+000	-4.1137364644e-001
 3.5603282205e+000	 2.9520650336e+000	-4.3839504798e-001
 3.5296281400e+000	 2.9887037647e+000	-4.6323276900e-001
 3.4985376437e+000	 3.0250387362e+000	-4.8486416184e-001
 3.4670612571e+000	 3.0610637432e+000	-5.0227578286e-001
 3.4352036365e+000	 3.0967726710e+000	-5.1446512743e-001
 3.4029695670e+000	 3.1321594988e+000	-5.1921944722e-001
 3.3703639597e+000	 3.1672183030e+000	-5.1446236718e-001
 3.3373918495e+000	 3.2019432604e+000	-5.0690586287e-001
 3.3040583925e+000	 3.2363286513e+000	-4.9724779567e-001
 3.2703688630e+000	 3.2703688630e+000	-4.8615410430e-001
 3.6100423222e+000	 2.9308862878e+000	-4.0436320819e-001
 3.5795732379e+000	 2.9680221419e+000	-4.3813763635e-001
 3.5487072110e+000	 3.0048589202e+000	-4.6823603047e-001
 3.5174486580e+000	 3.0413902970e+000	-4.9360431760e-001
 3.4858021287e+000	 3.0776100337e+000	-5.1319881521e-001
 3.4537723048e+000	 3.1135119827e+000	-5.2598801118e-001
 3.4213639971e+000	 3.1490900907e+000	-5.2832540353e-001
 3.3885821433e+000	 3.1843384020e+000	-5.2414630778e-001
 3.3554318055e+000	 3.2192510618e+000	-5.1593514929e-001
 3.3219181675e+000	 3.2538223197e+000	-5.0440523089e-001
 3.2880465325e+000	 3.2880465325e+000	-4.9023785093e-001
 3.6294511519e+000	 2.9466437410e+000	-4.1170386020e-001
 3.5988182553e+000	 2.9839792502e+000	-4.5212204116e-001
 3.5677862821e+000	 3.0210140757e+000	-4.8737846961e-001
 3.5363596723e+000	 3.0577418577e+000	-5.1638755492e-001
 3.5045430004e+000	 3.0941563242e+000	-5.3807527810e-001
 3.4723409732e+000	 3.1302512944e+000	-5.5086507501e-001
 3.4397584272e+000	 3.1660206826e+000	-5.5302289809e-001
 3.4068003269e+000	 3.2014585009e+000	-5.4917901490e-001
 3.3734717614e+000	 3.2365588632e+000	-5.4009237891e-001
 3.3397779426e+000	 3.2713159881e+000	-5.2649221063e-001
 3.3057242021e+000	 3.3057242021e+000	-5.0907561434e-001
 3.6488599816e+000	 2.9624011941e+000	-4.3338655905e-001
 3.6180632727e+000	 2.9999363585e+000	-4.8034347227e-001
 3.5868653531e+000	 3.0371692312e+000	-5.2065939268e-001
 3.5552706866e+000	 3.0740934184e+000	-5.5321711657e-001
 3.5232838721e+000	 3.1107026147e+000	-5.7691218797e-001
 3.4909096415e+000	 3.1469906062e+000	-5.8951138199e-001
 3.4581528573e+000	 3.1829512745e+000	-5.9296682124e-001
 3.4250185104e+000	 3.2185785998e+000	-5.8921533131e-001
 3.3915117174e+000	 3.2538666646e+000	-5.7903236012e-001
 3.3576377177e+000	 3.2888096565e+000	-5.6316352407e-001
 3.3234018716e+000	 3.3234018716e+000	-5.4232218150e-001
 3.6682688113e+000	 2.9781586473e+000	-4.6940240732e-001
 3.6373082901e+000	 3.0158934668e+000	-5.2279721321e-001
 3.6059444241e+000	 3.0533243867e+000	-5.6807811071e-001
 3.5741817009e+000	 3.0904449792e+000	-6.0409618467e-001
 3.5420247437e+000	 3.1272489052e+000	-6.2962399860e-001
 3.5094783098e+000	 3.1637299179e+000	-6.4332315926e-001
 3.4765472874e+000	 3.1998818664e+000	-6.4781182796e-001
 3.4432366940e+000	 3.2356986988e+000	-6.4390981351e-001
 3.4095516733e+000	 3.2711744660e+000	-6.3240956778e-001
 3.3754974928e+000	 3.3063033249e+000	-6.1407358327e-001
 3.3410795411e+000	 3.3410795411e+000	-5.8963192241e-001
 3.6876776410e+000	 2.9939161004e+000	-5.1974264975e-001
 3.6565533075e+000	 3.0318505751e+000	-5.7947861918e-001
 3.6250234951e+000	 3.0694795422e+000	-6.2963393930e-001
 3.5930927152e+000	 3.1067965399e+000	-6.6902788228e-001
 3.5607656154e+000	 3.1437951957e+000	-6.9630726925e-001
 3.5280469781e+000	 3.1804692296e+000	-7.1195499917e-001
 3.4949417175e+000	 3.2168124582e+000	-7.1721234417e-001
 3.4614548776e+000	 3.2528187977e+000	-7.1291673927e-001
 3.4275916292e+000	 3.2884822674e+000	-6.9987815199e-001
 3.3933572679e+000	 3.3237969933e+000	-6.7887643309e-001
 3.3587572107e+000	 3.3587572106e+000	-6.5065880106e-001
 3.1819805154e+000	 3.1819805154e+000	-6.9909743140e-001
 3.1488603094e+000	 3.2147595170e+000	-6.7388014315e-001
 3.1154042534e+000	 3.2471920698e+000	-6.1595728067e-001
 3.0816178084e+000	 3.2792730419e+000	-5.1318028390e-001
 3.0475065394e+000	 3.3109974166e+000	-4.4827865359e-001
 3.0130761123e+000	 3.3423602950e+000	-4.1697371484e-001
 2.9783322907e+000	 3.3733568988e+000	-4.1505789238e-001
 2.9432809326e+000	 3.4039825722e+000	-4.3840274650e-001
 2.9079279873e+000	 3.4342327849e+000	-4.8296672368e-001
 2.8722794922e+000	 3.4641031334e+000	-5.4480260418e-001
 2.8363415688e+000	 3.4935893441e+000	-6.2006462972e-001
 3.1996581849e+000	 3.1996581849e+000	-6.2424830712e-001
 3.1663539778e+000	 3.2326192921e+000	-6.0112284962e-001
 3.1327120548e+000	 3.2652320257e+000	-5.7252440398e-001
 3.0987379073e+000	 3.2974912255e+000	-4.9210500162e-001
 3.0644371313e+000	 3.3293918467e+000	-4.2962002168e-001
 3.0298154240e+000	 3.3609289633e+000	-3.9962143067e-001
 2.9948785812e+000	 3.3920977704e+000	-3.9782813415e-001
 2.9596324933e+000	 3.4228935865e+000	-4.2004128168e-001
 2.9240831428e+000	 3.4533118559e+000	-4.6215214508e-001
 2.8882366005e+000	 3.4833481508e+000	-5.2014968593e-001
 2.8520990220e+000	 3.5129981738e+000	-5.9012779563e-001
 3.2173358544e+000	 3.2173358544e+000	-5.6587260027e-001
 3.1838476462e+000	 3.2504790672e+000	-5.4498285763e-001
 3.1500198562e+000	 3.2832719817e+000	-5.1794370726e-001
 3.1158580062e+000	 3.3157094090e+000	-4.7299701124e-001
 3.0813677232e+000	 3.3477862768e+000	-4.1354295662e-001
 3.0465547358e+000	 3.3794976316e+000	-3.8544368317e-001
 3.0114248717e+000	 3.4108386421e+000	-3.8434330519e-001
 2.9759840540e+000	 3.4418046008e+000	-4.0597133251e-001
 2.9402382983e+000	 3.4723909269e+000	-4.4615067806e-001
 2.9041937088e+000	 3.5025931682e+000	-5.0080534721e-001
 2.8678564751e+000	 3.5324070035e+000	-5.6596779170e-001
 3.2350135239e+000	 3.2350135239e+000	-5.2362736031e-001
 3.2013413146e+000	 3.2683388423e+000	-5.0511256381e-001
 3.1673276576e+000	 3.3013119376e+000	-4.7978918060e-001
 3.1329781052e+000	 3.3339275926e+000	-4.4855661533e-001
 3.0982983150e+000	 3.3661807068e+000	-4.0059316671e-001
 3.0632940475e+000	 3.3980662999e+000	-3.7498790937e-001
 3.0279711622e+000	 3.4295795138e+000	-3.7515216889e-001
 2.9923356148e+000	 3.4607156151e+000	-3.9674258065e-001
 2.9563934538e+000	 3.4914699980e+000	-4.3551250929e-001
 2.9201508170e+000	 3.5218381856e+000	-4.8731986160e-001
 2.8836139283e+000	 3.5518158332e+000	-5.4813455596e-001
 3.2526911935e+000	 3.2526911935e+000	-4.9716915919e-001
 3.2188349829e+000	 3.2861986174e+000	-4.8116395173e-001
 3.1846354590e+000	 3.3193518936e+000	-4.5770832768e-001
 3.1500982041e+000	 3.3521457762e+000	-4.2773307768e-001
 3.1152289069e+000	 3.3845751369e+000	-3.9131615225e-001
 3.0800333592e+000	 3.4166349682e+000	-3.6880141045e-001
 3.0445174527e+000	 3.4483203854e+000	-3.7080342680e-001
 3.0086871755e+000	 3.4796266294e+000	-3.9290472181e-001
 2.9725486093e+000	 3.5105490690e+000	-4.3078791714e-001
 2.9361079253e+000	 3.5410832031e+000	-4.8024367376e-001
 2.8993713815e+000	 3.5712246628e+000	-5.3717827857e-001
 3.2703688630e+000	 3.2703688630e+000	-4.8615410430e-001
 3.2363286513e+000	 3.3040583925e+000	-4.7278860303e-001
 3.2019432604e+000	 3.3373918495e+000	-4.5134831487e-001
 3.1672183030e+000	 3.3703639597e+000	-4.2279563377e-001
 3.1321594988e+000	 3.4029695670e+000	-3.8806052698e-001
 3.0967726710e+000	 3.4352036365e+000	-3.6743135546e-001
 3.0610637432e+000	 3.4670612571e+000	-3.7184572038e-001
 3.0250387362e+000	 3.4985376437e+000	-3.9500746539e-001
 2.9887037647e+000	 3.5296281400e+000	-4.3252726916e-001
 2.9520650336e+000	 3.5603282205e+000	-4.8012739472e-001
 2.9151288346e+000	 3.5906334925e+000	-5.3364939496e-001
 3.2880465325e+000	 3.2880465325e+000	-4.9023785093e-001
 3.2538223197e+000	 3.3219181675e+000	-4.7963770827e-001
 3.2192510618e+000	 3.3554318055e+000	-4.6035598030e-001
 3.1843384020e+000	 3.3885821433e+000	-4.3338688534e-001
 3.1490900907e+000	 3.4213639971e+000	-3.9969144781e-001
 3.1135119827e+000	 3.4537723048e+000	-3.7142478481e-001
 3.0776100337e+000	 3.4858021287e+000	-3.7882763254e-001
 3.0413902970e+000	 3.5174486580e+000	-4.0360053407e-001
 3.0048589202e+000	 3.5487072110e+000	-4.4128101971e-001
 2.9680221419e+000	 3.5795732379e+000	-4.8752179752e-001
 2.9308862878e+000	 3.6100423222e+000	-5.3809857928e-001
 3.3057242021e+000	 3.3057242021e+000	-5.0907561434e-001
 3.2713159881e+000	 3.3397779426e+000	-5.0136207733e-001
 3.2365588632e+000	 3.3734717614e+000	-4.8437784267e-001
 3.2014585009e+000	 3.4068003269e+000	-4.5914917766e-001
 3.1660206826e+000	 3.4397584272e+000	-4.2666836003e-001
 3.1302512944e+000	 3.4723409732e+000	-3.8789154806e-001
 3.0941563242e+000	 3.5045430004e+000	-3.9229768927e-001
 3.0577418577e+000	 3.5363596723e+000	-4.1923366350e-001
 3.0210140757e+000	 3.5677862821e+000	-4.5759970764e-001
 2.9839792502e+000	 3.5988182553e+000	-5.0297781276e-001
 2.9466437410e+000	 3.6294511519e+000	-5.5107673800e-001
 3.3234018716e+000	 3.3234018716e+000	-5.4232218150e-001
 3.2888096565e+000	 3.3576377177e+000	-5.3761214959e-001
 3.2538666646e+000	 3.3915117174e+000	-5.2306010970e-001
 3.2185785998e+000	 3.4250185104e+000	-4.9972460638e-001
 3.1829512745e+000	 3.4581528573e+000	-4.6862937021e-001
 3.1469906062e+000	 3.4909096415e+000	-4.3076113735e-001
 3.1107026147e+000	 3.5232838721e+000	-4.1280436111e-001
 3.0740934184e+000	 3.5552706866e+000	-4.4245660191e-001
 3.0371692312e+000	 3.5868653531e+000	-4.8203395403e-001
 2.9999363585e+000	 3.6180632727e+000	-5.2704652452e-001
 2.9624011941e+000	 3.6488599816e+000	-5.7313500373e-001
 3.3410795411e+000	 3.3410795411e+000	-5.8963192241e-001
 3.3063033249e+000	 3.3754974928e+000	-5.8803800369e-001
 3.2711744660e+000	 3.4095516733e+000	-5.7604868637e-001
 3.2356986988e+000	 3.4432366940e+000	-5.5475502410e-001
 3.1998818664e+000	 3.4765472874e+000	-5.2521240324e-001
 3.1637299179e+000	 3.5094783098e+000	-4.8843831153e-001
 3.1272489052e+000	 3.5420247437e+000	-4.4541026784e-001
 3.0904449792e+000	 3.5741817009e+000	-4.7381910983e-001
 3.0533243867e+000	 3.6059444241e+000	-5.1513446001e-001
 3.0158934668e+000	 3.6373082901e+000	-5.6027916621e-001
 2.9781586473e+000	 3.6682688113e+000	-6.0482472925e-001
 3.3587572107e+000	 3.3587572106e+000	-6.5065880106e-001
 3.3237969933e+000	 3.3933572679e+000	-6.5228936704e-001
 3.2884822674e+000	 3.4275916292e+000	-6.4298918292e-001
 3.2528187977e+000	 3.4614548776e+000	-6.2388204679e-001
 3.2168124582e+000	 3.4949417175e+000	-5.9605520715e-001
 3.1804692296e+000	 3.5280469781e+000	-5.6055708018e-001
 3.1437951957e+000	 3.5607656154e+000	-5.1839513139e-001
 3.1067965399e+000	 3.5930927152e+000	-5.1387095971e-001
 3.0694795422e+000	 3.6250234951e+000	-5.5745200468e-001
 3.0318505751e+000	 3.6565533075e+000	-6.0322711671e-001
 2.9939161004e+000	 3.6876776410e+000	-6.4669748170e-001
 2.8363415688e+000	 3.4935893441e+000	-6.2006462972e-001
 2.8001204200e+000	 3.5226872744e+000	-6.8057515850e-001
 2.7636223260e+000	 3.5513929153e+000	-7.3170307840e-001
 2.7268536410e+000	 3.5797023927e+000	-7.7004683587e-001
 2.6898207896e+000	 3.6076119692e+000	-7.9234487809e-001
 2.6525302629e+000	 3.6351180455e+000	-7.9548079602e-001
 2.6149886150e+000	 3.6622171622e+000	-7.7648805550e-001
 2.5772024595e+000	 3.6889060008e+000	-7.3255430852e-001
 2.5391784651e+000	 3.7151813848e+000	-6.6102527832e-001
 2.5009233526e+000	 3.7410402811e+000	-5.5940821325e-001
 2.4624438902e+000	 3.7664798005e+000	-3.4729883983e-001
 2.8520990220e+000	 3.5129981738e+000	-5.9012779563e-001
 2.8156766446e+000	 3.5422577593e+000	-6.4463585768e-001
 2.7789757834e+000	 3.5711228760e+000	-6.8839022646e-001
 2.7420028279e+000	 3.5995896282e+000	-7.1791371293e-001
 2.7047642384e+000	 3.6276542579e+000	-7.2987295124e-001
 2.6672665421e+000	 3.6553131458e+000	-7.2108364000e-001
 2.6295163296e+000	 3.6825628131e+000	-6.8851536265e-001
 2.5915202509e+000	 3.7093999231e+000	-6.2929597876e-001
 2.5532850122e+000	 3.7358212814e+000	-5.4071557994e-001
 2.5148173712e+000	 3.7618238382e+000	-4.7954378928e-001
 2.4761241341e+000	 3.7874046883e+000	-3.6641176008e-001
 2.8678564751e+000	 3.5324070035e+000	-5.6596779170e-001
 2.8312328691e+000	 3.5618282442e+000	-6.1446617339e-001
 2.7943292408e+000	 3.5908528366e+000	-6.5080867030e-001
 2.7571520148e+000	 3.6194768638e+000	-6.7144174073e-001
 2.7197076873e+000	 3.6476965466e+000	-6.7295954270e-001
 2.6820028213e+000	 3.6755082460e+000	-6.5210927447e-001
 2.6440440441e+000	 3.7029084640e+000	-6.0579608480e-001
 2.6058380424e+000	 3.7298938453e+000	-5.3108754509e-001
 2.5673915592e+000	 3.7564611780e+000	-4.5466098510e-001
 2.5287113898e+000	 3.7826073953e+000	-4.5139339051e-001
 2.4898043779e+000	 3.8083295761e+000	-3.9377882482e-001
 2.8836139283e+000	 3.5518158332e+000	-5.4813455596e-001
 2.8467890937e+000	 3.5813987290e+000	-5.9062261298e-001
 2.8096826981e+000	 3.6105827973e+000	-6.1952108726e-001
 2.7723012017e+000	 3.6393640993e+000	-6.3119936062e-001
 2.7346511361e+000	 3.6677388353e+000	-6.2217844577e-001
 2.6967391006e+000	 3.6957033463e+000	-5.8913642684e-001
 2.6585717586e+000	 3.7232541150e+000	-5.2891346050e-001
 2.6201558338e+000	 3.7503877675e+000	-4.4011480286e-001
 2.5814981062e+000	 3.7771010746e+000	-4.3995493813e-001
 2.5426054084e+000	 3.8033909524e+000	-4.3064059996e-001
 2.5034846217e+000	 3.8292544638e+000	-4.1308195508e-001
 2.8993713815e+000	 3.5712246628e+000	-5.3717827857e-001
 2.8623453183e+000	 3.6009692139e+000	-5.7366185926e-001
 2.8250361555e+000	 3.6303127579e+000	-5.9509025442e-001
 2.7874503886e+000	 3.6592513348e+000	-5.9775503900e-001
 2.7495945849e+000	 3.6877811240e+000	-5.7810340506e-001
 2.7114753798e+000	 3.7158984465e+000	-5.3274370324e-001
 2.6730994731e+000	 3.7435997659e+000	-4.5845053547e-001
 2.6344736253e+000	 3.7708816897e+000	-4.3889087936e-001
 2.5956046532e+000	 3.7977409712e+000	-4.3275531742e-001
 2.5564994271e+000	 3.8241745096e+000	-4.1720526413e-001
 2.5171648656e+000	 3.8501793516e+000	-3.9316064222e-001
 2.9151288346e+000	 3.5906334925e+000	-5.3364939496e-001
 2.8779015428e+000	 3.6205396987e+000	-5.6414076575e-001
 2.8403896129e+000	 3.6500427186e+000	-5.7807904590e-001
 2.8025995755e+000	 3.6791385703e+000	-5.7167726660e-001
 2.7645380338e+000	 3.7078234128e+000	-5.4130811785e-001
 2.7262116591e+000	 3.7360935468e+000	-4.8350959177e-001
 2.6876271877e+000	 3.7639454168e+000	-4.4697842852e-001
 2.6487914167e+000	 3.7913756120e+000	-4.4528629983e-001
 2.6097112003e+000	 3.8183808678e+000	-4.3297947905e-001
 2.5703934457e+000	 3.8449580667e+000	-4.1100683961e-001
 2.5308451094e+000	 3.8711042394e+000	-3.8029837332e-001
 2.9308862878e+000	 3.6100423222e+000	-5.3809857928e-001
 2.8934577674e+000	 3.6401101836e+000	-5.6261635212e-001
 2.8557430702e+000	 3.6697726792e+000	-5.6905043032e-001
 2.8177487624e+000	 3.6990258058e+000	-5.5353455790e-001
 2.7794814826e+000	 3.7278657015e+000	-5.1236623533e-001
 2.7409479383e+000	 3.7562886470e+000	-4.6297806666e-001
 2.7021549022e+000	 3.7842910677e+000	-4.6701966649e-001
 2.6631092081e+000	 3.8118695342e+000	-4.5921609836e-001
 2.6238177473e+000	 3.8390207644e+000	-4.4054446415e-001
 2.5842874643e+000	 3.8657416238e+000	-4.1196440356e-001
 2.5445253532e+000	 3.8920291272e+000	-3.7441629087e-001
 2.9466437410e+000	 3.6294511519e+000	-5.5107673800e-001
 2.9090139919e+000	 3.6596806685e+000	-5.6964579970e-001
 2.8710965276e+000	 3.6895026398e+000	-5.6856746817e-001
 2.8328979493e+000	 3.7189130413e+000	-5.4389545041e-001
 2.7944249314e+000	 3.7479079902e+000	-4.9185136388e-001
 2.7556842175e+000	 3.7764837473e+000	-4.9672355543e-001
 2.7166826167e+000	 3.8046367186e+000	-4.9471010657e-001
 2.6774269996e+000	 3.8323634564e+000	-4.8059506641e-001
 2.6379242943e+000	 3.8596606609e+000	-4.5536700736e-001
 2.5981814829e+000	 3.8865251809e+000	-4.1999666386e-001
 2.5582055971e+000	 3.9129540150e+000	-3.7543510642e-001
 2.9624011941e+000	 3.6488599816e+000	-5.7313500373e-001
 2.9245702165e+000	 3.6792511533e+000	-5.8578644722e-001
 2.8864499850e+000	 3.7092326005e+000	-5.7719330946e-001
 2.8480471362e+000	 3.7388002768e+000	-5.4332850414e-001
 2.8093683802e+000	 3.7679502789e+000	-5.3314544631e-001
 2.7704204968e+000	 3.7966788475e+000	-5.3823724204e-001
 2.7312103313e+000	 3.8249823695e+000	-5.2996245371e-001
 2.6917447910e+000	 3.8528573787e+000	-5.0933775925e-001
 2.6520308414e+000	 3.8803005575e+000	-4.7736354494e-001
 2.6120755016e+000	 3.9073087380e+000	-4.3502196893e-001
 2.5718858409e+000	 3.9338789027e+000	-3.8327511201e-001
 2.9781586473e+000	 3.6682688113e+000	-6.0482472925e-001
 2.9401264410e+000	 3.6988216382e+000	-6.1159578662e-001
 2.9018034423e+000	 3.7289625611e+000	-5.9549119131e-001
 2.8631963231e+000	 3.7586875124e+000	-5.7500949794e-001
 2.8243118291e+000	 3.7879925676e+000	-5.8855126990e-001
 2.7851567760e+000	 3.8168739478e+000	-5.8742990543e-001
 2.7457380458e+000	 3.8453280204e+000	-5.7268924445e-001
 2.7060625825e+000	 3.8733513009e+000	-5.4535850219e-001
 2.6661373884e+000	 3.9009404541e+000	-5.0645022271e-001
 2.6259695202e+000	 3.9280922951e+000	-4.5695831724e-001
 2.5855660847e+000	 3.9548037905e+000	-3.9785619131e-001
 2.9939161004e+000	 3.6876776410e+000	-6.4669748170e-001
 2.9556826656e+000	 3.7183921230e+000	-6.4763145904e-001
 2.9171568997e+000	 3.7486925218e+000	-6.2402443563e-001
 2.8783455100e+000	 3.7785747479e+000	-6.4438127212e-001
 2.8392552779e+000	 3.8080348563e+000	-6.5175739577e-001
 2.7998930552e+000	 3.8370690480e+000	-6.4421222141e-001
 2.7602657603e+000	 3.8656736713e+000	-6.2280285134e-001
 2.7203803739e+000	 3.8938452231e+000	-5.8857139667e-001
 2.6802439354e+000	 3.9215803507e+000	-5.4254290367e-001
 2.6398635388e+000	 3.9488758523e+000	-4.8572336651e-001
 2.5992463286e+000	 3.9757286783e+000	-4.1909783032e-001
 2.4624438902e+000	 3.7664798005e+000	-3.4729883983e-001
 2.4237468907e+000	 3.7914971990e+000	-3.7798933271e-001
 2.3848392068e+000	 3.8160898781e+000	-3.9976211102e-001
 2.3457277277e+000	 3.8402553857e+000	-4.1424823380e-001
 2.3064193751e+000	 3.8639914164e+000	-4.2298378007e-001
 2.2669210994e+000	 3.8872958119e+000	-4.2740838502e-001
 2.2272398761e+000	 3.9101665609e+000	-4.2886406984e-001
 2.1873827014e+000	 3.9326018000e+000	-4.2859436302e-001
 2.1473565890e+000	 3.9545998128e+000	-4.2774371013e-001
 2.1071685659e+000	 3.9761590304e+000	-4.2735716831e-001
 2.0668256687e+000	 3.9972780307e+000	-4.2838038066e-001
 2.4761241341e+000	 3.7874046883e+000	-3.6641176008e-001
 2.4372121512e+000	 3.8125610723e+000	-3.8178676941e-001
 2.3980883135e+000	 3.8372903774e+000	-3.9077305679e-001
 2.3587595484e+000	 3.8615901379e+000	-3.9499836157e-001
 2.3192328160e+000	 3.8854580354e+000	-3.9599115943e-001
 2.2795151055e+000	 3.9088918997e+000	-3.9517923290e-001
 2.2396134310e+000	 3.9318897085e+000	-3.9388854341e-001
 2.1995348275e+000	 3.9544495878e+000	-3.9334240264e-001
 2.1592863478e+000	 3.9765698118e+000	-3.9466093992e-001
 2.1188750579e+000	 3.9982488028e+000	-3.9886086164e-001
 2.0783080336e+000	 4.0194851309e+000	-4.0685549783e-001
 2.4898043779e+000	 3.8083295761e+000	-3.9377882482e-001
 2.4506774117e+000	 3.8336249456e+000	-3.9342030993e-001
 2.4113374202e+000	 3.8584908768e+000	-3.8920730356e-001
 2.3717913691e+000	 3.8829248900e+000	-3.8276481365e-001
 2.3320462570e+000	 3.9069246544e+000	-3.7561426652e-001
 2.2921091116e+000	 3.9304879876e+000	-3.6917211135e-001
 2.2519869858e+000	 3.9536128561e+000	-3.6474873429e-001
 2.2116869537e+000	 3.9762973756e+000	-3.6354767956e-001
 2.1712161067e+000	 3.9985398108e+000	-3.6666517432e-001
 2.1305815500e+000	 4.0203385752e+000	-3.7508995309e-001
 2.0897903984e+000	 4.0416922311e+000	-3.8970337638e-001
 2.5034846217e+000	 3.8292544638e+000	-4.1308195508e-001
 2.4641426722e+000	 3.8546888190e+000	-4.1247888762e-001
 2.4245865269e+000	 3.8796913761e+000	-3.9466242903e-001
 2.3848231898e+000	 3.9042596422e+000	-3.7715444878e-001
 2.3448596980e+000	 3.9283912734e+000	-3.6146987328e-001
 2.3047031177e+000	 3.9520840754e+000	-3.4901433274e-001
 2.2643605407e+000	 3.9753360036e+000	-3.4108311685e-001
 2.2238390798e+000	 3.9981451634e+000	-3.3886044563e-001
 2.1831458655e+000	 4.0205098097e+000	-3.4341905165e-001
 2.1422880420e+000	 4.0424283476e+000	-3.5572006927e-001
 2.1012727632e+000	 4.0638993313e+000	-3.7661322558e-001
 2.5171648656e+000	 3.8501793516e+000	-3.9316064222e-001
 2.4776079327e+000	 3.8757526923e+000	-4.3855079705e-001
 2.4378356336e+000	 3.9008918754e+000	-4.0673519357e-001
 2.3978550105e+000	 3.9255943943e+000	-3.7777312268e-001
 2.3576731389e+000	 3.9498578924e+000	-3.5317355595e-001
 2.3172971239e+000	 3.9736801633e+000	-3.3433181390e-001
 2.2767340956e+000	 3.9970591512e+000	-3.2252856327e-001
 2.2359912059e+000	 4.0199929511e+000	-3.1892913719e-001
 2.1950756243e+000	 4.0424798087e+000	-3.2458317470e-001
 2.1539945340e+000	 4.0645181200e+000	-3.4042457487e-001
 2.1127551280e+000	 4.0861064314e+000	-3.6727175995e-001
 2.5308451094e+000	 3.8711042394e+000	-3.8029837332e-001
 2.4910731932e+000	 3.8968165656e+000	-4.7122371123e-001
 2.4510847403e+000	 3.9220923747e+000	-4.2502156239e-001
 2.4108868312e+000	 3.9469291465e+000	-3.8422571526e-001
 2.3704865799e+000	 3.9713245114e+000	-3.5033972727e-001
 2.3298911300e+000	 3.9952762511e+000	-3.2474911388e-001
 2.2891076504e+000	 4.0187822988e+000	-3.0872038692e-001
 2.2481433320e+000	 4.0418407389e+000	-3.0340042413e-001
 2.2070053831e+000	 4.0644498076e+000	-3.0981616580e-001
 2.1657010260e+000	 4.0866078923e+000	-3.2887463373e-001
 2.1242374928e+000	 4.1083135316e+000	-3.6136326671e-001
 2.5445253532e+000	 3.8920291272e+000	-3.7441629087e-001
 2.5045384537e+000	 3.9178804389e+000	-4.8944516466e-001
 2.4643338470e+000	 3.9432928740e+000	-4.4911672686e-001
 2.4239186519e+000	 3.9682638986e+000	-3.9611615676e-001
 2.3833000209e+000	 3.9927911303e+000	-3.5258166786e-001
 2.3424851361e+000	 4.0168723389e+000	-3.1988947039e-001
 2.3014812053e+000	 4.0405054463e+000	-2.9929238419e-001
 2.2602954581e+000	 4.0636885267e+000	-2.9191925737e-001
 2.2189351420e+000	 4.0864198066e+000	-2.9877472003e-001
 2.1774075181e+000	 4.1086976647e+000	-3.2073926807e-001
 2.1357198577e+000	 4.1305206318e+000	-3.5856967098e-001
 2.5582055971e+000	 3.9129540150e+000	-3.7543510642e-001
 2.5180037142e+000	 3.9389443123e+000	-4.7335580024e-001
 2.4775829537e+000	 3.9644933734e+000	-4.7861512522e-001
 2.4369504726e+000	 3.9895986507e+000	-4.1304745318e-001
 2.3961134619e+000	 4.0142577493e+000	-3.5951155642e-001
 2.3550791422e+000	 4.0384684268e+000	-3.1937483517e-001
 2.3138547601e+000	 4.0622285939e+000	-2.9387687509e-001
 2.2724475842e+000	 4.0855363145e+000	-2.8412891483e-001
 2.2308649008e+000	 4.1083898056e+000	-2.9111365677e-001
 2.1891140101e+000	 4.1307874371e+000	-3.1568541570e-001
 2.1472022225e+000	 4.1527277319e+000	-3.5857059900e-001
 2.5718858409e+000	 3.9338789027e+000	-3.8327511201e-001
 2.5314689747e+000	 3.9600081856e+000	-4.6365681063e-001
 2.4908320604e+000	 3.9856938727e+000	-5.1311046263e-001
 2.4499822933e+000	 4.0109334029e+000	-4.3462171088e-001
 2.4089269028e+000	 4.0357243683e+000	-3.7074049908e-001
 2.3676731483e+000	 4.0600645146e+000	-3.2282590821e-001
 2.3262283150e+000	 4.0839517414e+000	-2.9210474252e-001
 2.2845997104e+000	 4.1073841022e+000	-2.7967104591e-001
 2.2427946596e+000	 4.1303598045e+000	-2.8648596957e-001
 2.2008205021e+000	 4.1528772095e+000	-3.1337798548e-001
 2.1586845873e+000	 4.1749348321e+000	-3.6104343921e-001
 2.5855660847e+000	 3.9548037905e+000	-3.9785619131e-001
 2.5449342352e+000	 3.9810720589e+000	-4.6027425713e-001
 2.5040811671e+000	 4.0068943720e+000	-5.3431068038e-001
 2.4630141140e+000	 4.0322681550e+000	-4.6044016035e-001
 2.4217403438e+000	 4.0571909873e+000	-3.8587855775e-001
 2.3802671544e+000	 4.0816606025e+000	-3.2986217080e-001
 2.3386018699e+000	 4.1056748890e+000	-2.9360547027e-001
 2.2967518365e+000	 4.1292318900e+000	-2.7818571461e-001
 2.2547244184e+000	 4.1523298035e+000	-2.8454287445e-001
 2.2125269942e+000	 4.1749669819e+000	-3.1347991101e-001
 2.1701669521e+000	 4.1971419323e+000	-3.6566340152e-001
 2.5992463286e+000	 3.9757286783e+000	-4.1909783032e-001
 2.5583994957e+000	 4.0021359322e+000	-4.6313365788e-001
 2.5173302738e+000	 4.0280948713e+000	-5.2063321924e-001
 2.4760459347e+000	 4.0536029072e+000	-4.9010317926e-001
 2.4345537848e+000	 4.0786576062e+000	-4.0453477761e-001
 2.3928611605e+000	 4.1032566903e+000	-3.4010191767e-001
 2.3509754247e+000	 4.1273980366e+000	-2.9800717985e-001
 2.3089039626e+000	 4.1510796778e+000	-2.7931144118e-001
 2.2666541773e+000	 4.1742998024e+000	-2.8493385668e-001
 2.2242334862e+000	 4.1970567543e+000	-3.1565220258e-001
 2.1816493170e+000	 4.2193490324e+000	-3.7210357455e-001
 2.0668256687e+000	 3.9972780307e+000	-4.2838038066e-001
 2.0263349401e+000	 4.0179555386e+000	-4.1392725655e-001
 1.9857034249e+000	 4.0381904250e+000	-4.4257347256e-001
 1.9449381662e+000	 4.0579817064e+000	-5.1351800241e-001
 1.9040462023e+000	 4.0773285445e+000	-6.2584114012e-001
 1.8630345624e+000	 4.0962302449e+000	-6.5982062623e-001
 1.8219102636e+000	 4.1146862567e+000	-4.6419838856e-001
 1.7806803072e+000	 4.1326961712e+000	-3.3461551262e-001
 1.7393516748e+000	 4.1502597210e+000	-2.6660912816e-001
 1.6979313258e+000	 4.1673767784e+000	-2.5573494317e-001
 1.6564261930e+000	 4.1840473548e+000	-2.9757337357e-001
 2.0783080336e+000	 4.0194851309e+000	-4.0685549783e-001
 2.0375923565e+000	 4.0402775138e+000	-3.7870539305e-001
 1.9967351106e+000	 4.0606248162e+000	-3.9149155847e-001
 1.9557433782e+000	 4.0805260492e+000	-4.4455478884e-001
 1.9146242367e+000	 4.0999803697e+000	-5.3711573157e-001
 1.8733847544e+000	 4.1189870796e+000	-6.5295523157e-001
 1.8320319873e+000	 4.1375456248e+000	-4.4542598416e-001
 1.7905729755e+000	 4.1556555944e+000	-3.0190654233e-001
 1.7490147397e+000	 4.1733167194e+000	-2.1802132709e-001
 1.7073642776e+000	 4.1905288716e+000	-1.8941422432e-001
 1.6656285608e+000	 4.2072920623e+000	-2.1175464601e-001
 2.0897903984e+000	 4.0416922311e+000	-3.8970337638e-001
 2.0488497728e+000	 4.0625994891e+000	-3.5045785713e-001
 2.0077667963e+000	 4.0830592075e+000	-3.5004042869e-001
 1.9665485903e+000	 4.1030703921e+000	-3.8793234458e-001
 1.9252022712e+000	 4.1226321950e+000	-4.6349319427e-001
 1.8837349464e+000	 4.1417439143e+000	-5.7596372786e-001
 1.8421537110e+000	 4.1604049929e+000	-4.3870915584e-001
 1.8004656439e+000	 4.1786150176e+000	-2.8432452049e-001
 1.7586778046e+000	 4.1963737179e+000	-1.8765463994e-001
 1.7167972294e+000	 4.2136809648e+000	-1.4442959649e-001
 1.6748309285e+000	 4.2305367698e+000	-1.5040582215e-001
 2.1012727632e+000	 4.0638993313e+000	-3.7661322558e-001
 2.0601071891e+000	 4.0849214643e+000	-3.2883974959e-001
 2.0187984819e+000	 4.1054935987e+000	-3.1784091011e-001
 1.9773538023e+000	 4.1256147349e+000	-3.4323707459e-001
 1.9357803056e+000	 4.1452840202e+000	-4.0452538027e-001
 1.8940851384e+000	 4.1645007490e+000	-5.0108245064e-001
 1.8522754347e+000	 4.1832643610e+000	-4.4372604571e-001
 1.8103583123e+000	 4.2015744408e+000	-2.8151311017e-001
 1.7683408694e+000	 4.2194307163e+000	-1.7511793913e-001
 1.7262301812e+000	 4.2368330580e+000	-1.2035484485e-001
 1.6840332963e+000	 4.2537814774e+000	-1.1306531843e-001
 2.1127551280e+000	 4.0861064314e+000	-3.6727175995e-001
 2.0713646055e+000	 4.1072434395e+000	-3.1350448698e-001
 2.0298301676e+000	 4.1279279900e+000	-2.9451296601e-001
 1.9881590143e+000	 4.1481590777e+000	-3.1005535043e-001
 1.9463583401e+000	 4.1679358455e+000	-3.5976494776e-001
 1.9044353304e+000	 4.1872575837e+000	-4.4315282972e-001
 1.8623971584e+000	 4.2061237291e+000	-4.6015730693e-001
 1.8202509806e+000	 4.2245338639e+000	-2.9311935009e-001
 1.7780039343e+000	 4.2424877148e+000	-1.8002434479e-001
 1.7356631330e+000	 4.2599851512e+000	-1.1676888142e-001
 1.6932356640e+000	 4.2770261849e+000	-9.9277563923e-002
 2.1242374928e+000	 4.1083135316e+000	-3.6136326671e-001
 2.0826220218e+000	 4.1295654147e+000	-3.0410384713e-001
 2.0408618533e+000	 4.1503623812e+000	-2.7967571933e-001
 1.9989642264e+000	 4.1707034205e+000	-2.8797351117e-001
 1.9569363745e+000	 4.1905876707e+000	-3.2876533924e-001
 1.9147855224e+000	 4.2100144184e+000	-4.0169531440e-001
 1.8725188821e+000	 4.2289830972e+000	-4.8768603587e-001
 1.8301436490e+000	 4.2474932871e+000	-3.1879356338e-001
 1.7876669991e+000	 4.2655447132e+000	-2.0199110996e-001
 1.7450960848e+000	 4.2831372445e+000	-1.3325560650e-001
 1.7024380317e+000	 4.3002708924e+000	-1.0859283776e-001
 2.1357198577e+000	 4.1305206318e+000	-3.5856967098e-001
 2.0938794381e+000	 4.1518873899e+000	-3.0028801320e-001
 2.0518935390e+000	 4.1727967725e+000	-2.7294747532e-001
 2.0097694384e+000	 4.1932477633e+000	-2.7657786429e-001
 1.9675144090e+000	 4.2132394960e+000	-3.1108076043e-001
 1.9251357145e+000	 4.2327712531e+000	-3.7623192039e-001
 1.8826406057e+000	 4.2518424653e+000	-4.7168395545e-001
 1.8400363174e+000	 4.2704527103e+000	-3.5818926930e-001
 1.7973300640e+000	 4.2886017116e+000	-2.4063950951e-001
 1.7545290366e+000	 4.3062893377e+000	-1.6940377460e-001
 1.7116403995e+000	 4.3235155999e+000	-1.4056711195e-001
 2.1472022225e+000	 4.1527277319e+000	-3.5857059900e-001
 2.1051368545e+000	 4.1742093651e+000	-3.0170561631e-001
 2.0629252247e+000	 4.1952311637e+000	-2.7394574338e-001
 2.0205746504e+000	 4.2157921061e+000	-2.7545468650e-001
 1.9780924434e+000	 4.2358913212e+000	-3.0626615991e-001
 1.9354859065e+000	 4.2555280878e+000	-3.6628618793e-001
 1.8927623294e+000	 4.2747018334e+000	-4.5529568866e-001
 1.8499289858e+000	 4.2934121334e+000	-4.1096309775e-001
 1.8069931288e+000	 4.3116587101e+000	-2.9559473259e-001
 1.7639619884e+000	 4.3294414309e+000	-2.2480686464e-001
 1.7208427672e+000	 4.3467603075e+000	-1.9476189910e-001
 2.1586845873e+000	 4.1749348321e+000	-3.6104343921e-001
 2.1163942708e+000	 4.1965313403e+000	-3.0800377686e-001
 2.0739569104e+000	 4.2176655550e+000	-2.8228725822e-001
 2.0313798625e+000	 4.2383364489e+000	-2.8419022456e-001
 1.9886704779e+000	 4.2585431465e+000	-3.1387720931e-001
 1.9458360985e+000	 4.2782849225e+000	-3.7138314125e-001
 1.9028840531e+000	 4.2975612015e+000	-4.5661583556e-001
 1.8598216541e+000	 4.3163715566e+000	-4.7677470658e-001
 1.8166561937e+000	 4.3347157085e+000	-3.6648577853e-001
 1.7733949402e+000	 4.3525935241e+000	-2.9906295427e-001
 1.7300451349e+000	 4.3700050150e+000	-2.7074410509e-001
 2.1701669521e+000	 4.1971419323e+000	-3.6566340152e-001
 2.1276516871e+000	 4.2188533156e+000	-3.1882814444e-001
 2.0849885961e+000	 4.2400999462e+000	-2.9758800037e-001
 2.0421850745e+000	 4.2608807917e+000	-3.0237069609e-001
 1.9992485124e+000	 4.2811949717e+000	-3.3347028422e-001
 1.9561862905e+000	 4.3010417572e+000	-3.9104924933e-001
 1.9130057768e+000	 4.3204205696e+000	-4.7514090818e-001
 1.8697143225e+000	 4.3393309798e+000	-5.5528670146e-001
 1.8263192586e+000	 4.3577727070e+000	-4.5294535606e-001
 1.7828278921e+000	 4.3757456173e+000	-3.8936447944e-001
 1.7392475027e+000	 4.3932497225e+000	-3.0092431500e-001
 2.1816493170e+000	 4.2193490324e+000	-3.7210357455e-001
 2.1389091034e+000	 4.2411752908e+000	-3.3382293656e-001
 2.0960202818e+000	 4.2625343375e+000	-3.1946321601e-001
 2.0529902865e+000	 4.2834251345e+000	-3.2958229032e-001
 2.0098265468e+000	 4.3038467969e+000	-3.6460244564e-001
 1.9665364825e+000	 4.3237985918e+000	-4.2481238782e-001
 1.9231275005e+000	 4.3432799376e+000	-5.1036955367e-001
 1.8796069909e+000	 4.3622904030e+000	-6.2130271008e-001
 1.8359823234e+000	 4.3808297054e+000	-5.3629431491e-001
 1.7922608439e+000	 4.3988977105e+000	-4.1584459719e-001
 1.7484498704e+000	 4.4164944300e+000	-3.1614451929e-001
 1.6564261930e+000	 4.1840473548e+000	-2.9757337357e-001
 1.6148431803e+000	 4.2002715988e+000	-2.0813383455e-001
 1.5731891585e+000	 4.2160497947e+000	-1.4016836522e-001
 1.5314709629e+000	 4.2313823616e+000	-9.0554630172e-002
 1.4896953899e+000	 4.2462698508e+000	-5.6222617798e-002
 1.4478691937e+000	 4.2607129448e+000	-3.4158678398e-002
 1.4059990840e+000	 4.2747124554e+000	-2.1409387920e-002
 1.3640917223e+000	 4.2882693215e+000	-1.5085232316e-002
 1.3221537197e+000	 4.3013846075e+000	-1.2364107928e-002
 1.2801916340e+000	 4.3140595013e+000	-1.0494633980e-002
 1.2382119668e+000	 4.3262953119e+000	-3.2492222428e-001
 1.6656285608e+000	 4.2072920623e+000	-2.1175464601e-001
 1.6238145313e+000	 4.2236064410e+000	-1.2095509944e-001
 1.5819290983e+000	 4.2394722936e+000	-5.1760525937e-002
 1.5399791349e+000	 4.2548900414e+000	-1.1344282174e-003
 1.4979714754e+000	 4.2698602388e+000	 3.3908295452e-002
 1.4559129115e+000	 4.2843835723e+000	 5.6297357222e-002
 1.4138101900e+000	 4.2984608579e+000	 6.8903258584e-002
 1.3716700096e+000	 4.3120930399e+000	 7.4533647359e-002
 1.3294990181e+000	 4.3252811887e+000	 7.5929857278e-002
 1.2873038097e+000	 4.3380264985e+000	 7.5763634107e-002
 1.2450909222e+000	 4.3503302858e+000	-4.8447496229e-002
 1.6748309285e+000	 4.2305367698e+000	-1.5040582215e-001
 1.6327858823e+000	 4.2469412832e+000	-6.1479611789e-002
 1.5906690380e+000	 4.2628947925e+000	 5.7152444253e-003
 1.5484873069e+000	 4.2783977212e+000	 5.4131257761e-002
 1.5062475609e+000	 4.2934506269e+000	 8.6670447994e-002
 1.4639566292e+000	 4.3080541997e+000	 1.0618039178e-001
 1.4216212960e+000	 4.3222092604e+000	 1.1545044265e-001
 1.3792482970e+000	 4.3359167584e+000	 1.1720812785e-001
 1.3368443166e+000	 4.3491777698e+000	 1.1411572642e-001
 1.2944159855e+000	 4.3619934957e+000	 1.0876703253e-001
 1.2519698775e+000	 4.3743652598e+000	 1.0368430749e-001
 1.6840332963e+000	 4.2537814774e+000	-1.1306531843e-001
 1.6417572333e+000	 4.2702761254e+000	-2.9208797857e-002
 1.5994089778e+000	 4.2863172913e+000	 3.2794442425e-002
 1.5569954790e+000	 4.3019054009e+000	 7.5814766159e-002
 1.5145236464e+000	 4.3170410149e+000	 1.0267292563e-001
 1.4720003470e+000	 4.3317248272e+000	 1.1613615079e-001
 1.4294324020e+000	 4.3459576629e+000	 1.1891440876e-001
 1.3868265843e+000	 4.3597404768e+000	 1.1365683897e-001
 1.3441896150e+000	 4.3730743510e+000	 1.0294836831e-001
 1.3015281612e+000	 4.3859604930e+000	 1.2032011203e-001
 1.2588488329e+000	 4.3984002337e+000	 1.4381992077e-001
 1.6932356640e+000	 4.2770261849e+000	-9.9277563923e-002
 1.6507285843e+000	 4.2936109676e+000	-2.3651017892e-002
 1.6081489176e+000	 4.3097397902e+000	 3.0004710434e-002
 1.5655036510e+000	 4.3254130807e+000	 6.4479662573e-002
 1.5227997319e+000	 4.3406314030e+000	 8.2515124749e-002
 1.4800440647e+000	 4.3553954547e+000	 8.6799756115e-002
 1.4372435081e+000	 4.3697060655e+000	 7.9965886250e-002
 1.3944048717e+000	 4.3835641953e+000	 9.2038575238e-002
 1.3515349135e+000	 4.3969709321e+000	 1.1745691467e-001
 1.3086403370e+000	 4.4099274902e+000	 1.4157962207e-001
 1.2657277883e+000	 4.4224352077e+000	 1.6562498588e-001
 1.7024380317e+000	 4.3002708924e+000	-1.0859283776e-001
 1.6596999353e+000	 4.3169458098e+000	-4.4321378724e-002
 1.6168888573e+000	 4.3331622890e+000	-2.1339510885e-003
 1.5740118230e+000	 4.3489207605e+000	 2.0680976897e-002
 1.5310758174e+000	 4.3642217911e+000	 2.6787014162e-002
 1.4880877825e+000	 4.3790660822e+000	 3.2563632492e-002
 1.4450546141e+000	 4.3934544680e+000	 6.6248798732e-002
 1.4019831590e+000	 4.4073879137e+000	 9.5461368924e-002
 1.3588802119e+000	 4.4208675133e+000	 1.2140484099e-001
 1.3157525127e+000	 4.4338944874e+000	 1.4521733344e-001
 1.2726067437e+000	 4.4464701816e+000	 1.6797494879e-001
 1.7116403995e+000	 4.3235155999e+000	-1.4056711195e-001
 1.6686712863e+000	 4.3402806520e+000	-9.0741552407e-002
 1.6256287971e+000	 4.3565847879e+000	-6.3108978171e-002
 1.5825199950e+000	 4.3724284403e+000	-5.5034567218e-002
 1.5393519029e+000	 4.3878121791e+000	-1.6712548293e-002
 1.4961315002e+000	 4.4027367096e+000	 2.2974852454e-002
 1.4528657201e+000	 4.4172028705e+000	 5.6540118886e-002
 1.4095614464e+000	 4.4312116322e+000	 8.5110445353e-002
 1.3662255104e+000	 4.4447640944e+000	 1.0974510051e-001
 1.3228646884e+000	 4.4578614846e+000	 1.3143892344e-001
 1.2794856990e+000	 4.4705051556e+000	 1.5112587935e-001
 1.7208427672e+000	 4.3467603075e+000	-1.9476189910e-001
 1.6776426373e+000	 4.3636154943e+000	-1.6243960068e-001
 1.6343687369e+000	 4.3800072868e+000	-1.3461151176e-001
 1.5910281670e+000	 4.3959361201e+000	-8.0344895231e-002
 1.5476279884e+000	 4.4114025672e+000	-3.4733209384e-002
 1.5041752179e+000	 4.4264073371e+000	 3.3510808948e-003
 1.4606768261e+000	 4.4409512731e+000	 3.4961141200e-002
 1.4171397337e+000	 4.4550353506e+000	 6.1079306968e-002
 1.3735708088e+000	 4.4686606756e+000	 8.2620707048e-002
 1.3299768642e+000	 4.4818284819e+000	 1.0043695712e-001
 1.2863646544e+000	 4.4945401296e+000	 1.1531990888e-001
 1.7300451349e+000	 4.3700050150e+000	-2.7074410509e-001
 1.6866139883e+000	 4.3869503365e+000	-2.1525761164e-001
 1.6431086766e+000	 4.4034297856e+000	-1.5443819744e-001
 1.5995363390e+000	 4.4194437999e+000	-1.0336942018e-001
 1.5559040739e+000	 4.4349929552e+000	-6.0991524279e-002
 1.5122189357e+000	 4.4500779646e+000	-2.6322494493e-002
 1.4684879322e+000	 4.4646996756e+000	 1.5455924878e-003
 1.4247180211e+000	 4.4788590691e+000	 2.3450312419e-002
 1.3809161073e+000	 4.4925572567e+000	 4.0162719044e-002
 1.3370890399e+000	 4.5057954791e+000	 5.2391236044e-002
 1.2932436098e+000	 4.5185751035e+000	 6.0785600901e-002
 1.7392475027e+000	 4.3932497225e+000	-3.0092431500e-001
 1.6955853393e+000	 4.4102851787e+000	-2.3464085884e-001
 1.6518486164e+000	 4.4268522845e+000	-1.7896914800e-001
 1.6080445111e+000	 4.4429514797e+000	-1.3291337478e-001
 1.5641801594e+000	 4.4585833433e+000	-9.5559188238e-002
 1.5202626534e+000	 4.4737485920e+000	-6.6069945824e-002
 1.4762990382e+000	 4.4884480781e+000	-4.3682856208e-002
 1.4322963084e+000	 4.5026827875e+000	-2.7705028633e-002
 1.3882614057e+000	 4.5164538379e+000	-1.7509444195e-002
 1.3442012157e+000	 4.5297624763e+000	-1.2530864133e-002
 1.3001225651e+000	 4.5426100775e+000	-1.2261689984e-002
 1.7484498704e+000	 4.4164944300e+000	-3.1614451929e-001
 1.7045566903e+000	 4.4336200209e+000	-2.5710763964e-001
 1.6605885562e+000	 4.4502747833e+000	-2.0837752462e-001
 1.6165526831e+000	 4.4664591594e+000	-1.6910339218e-001
 1.5724562449e+000	 4.4821737314e+000	-1.3851613528e-001
 1.5283063712e+000	 4.4974192195e+000	-1.1592436134e-001
 1.4841101442e+000	 4.5121964807e+000	-1.0071032499e-001
 1.4398745957e+000	 4.5265065060e+000	-9.2325770012e-002
 1.3956067041e+000	 4.5403504190e+000	-9.0287696195e-002
 1.3513133914e+000	 4.5537294736e+000	-9.4174066598e-002
 1.3070015205e+000	 4.5666450514e+000	-1.0361947044e-001
 1.2382119668e+000	 4.3262953119e+000	-3.2492222428e-001
 1.1962211613e+000	 4.3380934676e+000	-5.8129748402e-001
 1.1542255995e+000	 4.3494555137e+000	-7.2963540997e-001
 1.1122316001e+000	 4.3603831102e+000	-7.7172185004e-001
 1.0702454156e+000	 4.3708780297e+000	-7.1035190705e-001
 1.0282732308e+000	 4.3809421547e+000	-5.4061557230e-001
 9.8632116015e-001	 4.3905774756e+000	-2.7688423922e-001
 9.4439524573e-001	 4.3997860880e+000	 6.4775815806e-002
 9.0250145542e-001	 4.4085701903e+000	 4.7557626457e-001
 8.6064568090e-001	 4.4169320814e+000	 9.4692886693e-001
 8.1883373586e-001	 4.4248741579e+000	 1.4704397234e+000
 1.2450909222e+000	 4.3503302858e+000	-4.8447496229e-002
 1.2028668344e+000	 4.3621939868e+000	-3.5474301516e-001
 1.1606379640e+000	 4.3736191554e+000	-5.4686898641e-001
 1.1184106645e+000	 4.3846074608e+000	-6.1166604421e-001
 1.0761912235e+000	 4.3951606854e+000	-5.7323494498e-001
 1.0339858599e+000	 4.4052807222e+000	-4.4293168954e-001
 9.9180072215e-001	 4.4149695727e+000	-2.2947485477e-001
 9.4964188598e-001	 4.4242293440e+000	 5.8626553295e-002
 9.0751535240e-001	 4.4330622469e+000	 4.1306693608e-001
 8.6542704580e-001	 4.4414705930e+000	 8.2573783785e-001
 8.2338281217e-001	 4.4494567921e+000	 1.2887216082e+000
 1.2519698775e+000	 4.3743652598e+000	 1.0368430749e-001
 1.2095125075e+000	 4.3862945061e+000	-1.6296547304e-001
 1.1670503284e+000	 4.3977827972e+000	-3.6127903554e-001
 1.1245897290e+000	 4.4088318115e+000	-4.5488924592e-001
 1.0821370313e+000	 4.4194433411e+000	-4.5246416966e-001
 1.0396984889e+000	 4.4296192898e+000	-3.6245075923e-001
 9.9728028415e-001	 4.4393616698e+000	-1.9308138091e-001
 9.5488852624e-001	 4.4486726001e+000	 4.7619511682e-002
 9.1252924937e-001	 4.4575543036e+000	 3.5182858851e-001
 8.7020841069e-001	 4.4660091046e+000	 7.1191676884e-001
 8.2793188848e-001	 4.4740394263e+000	 1.1204422908e+000
 1.2588488329e+000	 4.3984002337e+000	 1.4381992077e-001
 1.2161581807e+000	 4.4103950254e+000	 1.0553590311e-002
 1.1734626929e+000	 4.4219464389e+000	-2.0760589101e-001
 1.1307687934e+000	 4.4330561621e+000	-3.2634805107e-001
 1.0880828392e+000	 4.4437259969e+000	-3.5385397247e-001
 1.0454111180e+000	 4.4539578573e+000	-2.9808392493e-001
 1.0027598461e+000	 4.4637537669e+000	-1.6678454973e-001
 9.6013516649e-001	 4.4731158561e+000	 3.2503823228e-002
 9.1754314634e-001	 4.4820463602e+000	 2.9243975772e-001
 8.7498977558e-001	 4.4905476161e+000	 6.0587322422e-001
 8.3248096479e-001	 4.4986220605e+000	 9.6583807341e-001
 1.2657277883e+000	 4.4224352077e+000	 1.6562498588e-001
 1.2228038538e+000	 4.4344955446e+000	 1.4535128102e-001
 1.1798750573e+000	 4.4461100807e+000	-8.6687425771e-002
 1.1369478578e+000	 4.4572805127e+000	-2.2462312127e-001
 1.0940286471e+000	 4.4680086526e+000	-2.7615042655e-001
 1.0511237471e+000	 4.4782964248e+000	-2.4874338742e-001
 1.0082394081e+000	 4.4881458639e+000	-1.4966331953e-001
 9.6538180674e-001	 4.4975591122e+000	 1.4033227919e-002
 9.2255704332e-001	 4.5065384168e+000	 2.3548642288e-001
 8.7977114048e-001	 4.5150861277e+000	 5.0802504763e-001
 8.3703004110e-001	 4.5232046947e+000	 8.2515837327e-001
 1.2726067437e+000	 4.4464701816e+000	 1.6797494879e-001
 1.2294495269e+000	 4.4585960639e+000	 2.4316327046e-001
 1.1862874218e+000	 4.4702737224e+000	 3.0510439131e-003
 1.1431269223e+000	 4.4815048633e+000	-1.4830164263e-001
 1.0999744549e+000	 4.4922913083e+000	-2.1810338421e-001
 1.0568363761e+000	 4.5026349923e+000	-2.1334237613e-001
 1.0137189701e+000	 4.5125379610e+000	-1.4079492276e-001
 9.7062844700e-001	 4.5220023682e+000	-7.0340510623e-003
 9.2757094029e-001	 4.5310304734e+000	 1.8156180532e-001
 8.8455250537e-001	 4.5396246393e+000	 4.1880008430e-001
 8.4157911741e-001	 4.5477873289e+000	 6.9866536770e-001
 1.2794856990e+000	 4.4705051556e+000	 1.5112587935e-001
 1.2360952000e+000	 4.4826965832e+000	 3.0571355776e-001
 1.1926997862e+000	 4.4944373641e+000	 6.3175187354e-002
 1.1493059867e+000	 4.5057292139e+000	-9.5977150379e-002
 1.1059202628e+000	 4.5165739640e+000	-1.7846637537e-001
 1.0625490052e+000	 4.5269735599e+000	-1.9079512150e-001
 1.0191985321e+000	 4.5369300581e+000	-1.3925491237e-001
 9.7587508725e-001	 4.5464456242e+000	-2.9935427856e-002
 9.3258483726e-001	 4.5555225300e+000	 1.3126617380e-001
 8.8933387026e-001	 4.5641631508e+000	 3.3863591211e-001
 8.4612819372e-001	 4.5723699631e+000	 5.8663365132e-001
 1.2863646544e+000	 4.4945401296e+000	 1.1531990888e-001
 1.2427408731e+000	 4.5067971024e+000	 3.3471478186e-001
 1.1991121506e+000	 4.5186010059e+000	 9.5241900478e-002
 1.1554850512e+000	 4.5299535645e+000	-6.6249359136e-002
 1.1118660707e+000	 4.5408566198e+000	-1.5599650922e-001
 1.0682616342e+000	 4.5513121274e+000	-1.8001682821e-001
 1.0246780942e+000	 4.5613221552e+000	-1.4411720676e-001
 9.8112172750e-001	 4.5708888803e+000	-5.3904070573e-002
 9.3759873424e-001	 4.5800145866e+000	 8.5206656140e-002
 8.9411523516e-001	 4.5887016624e+000	 2.6797958141e-001
 8.5067727003e-001	 4.5969525973e+000	 4.8934990394e-001
 1.2932436098e+000	 4.5185751035e+000	 6.0785600901e-002
 1.2493865463e+000	 4.5308976217e+000	 3.3186852369e-001
 1.2055245151e+000	 4.5427646476e+000	 1.0079953916e-001
 1.1616641156e+000	 4.5541779151e+000	-5.7723998532e-002
 1.1178118785e+000	 4.5651392755e+000	-1.4945437902e-001
 1.0739742633e+000	 4.5756506949e+000	-1.7992364928e-001
 1.0301576562e+000	 4.5857142523e+000	-1.5445413322e-001
 9.8636836776e-001	 4.5953321363e+000	-7.8169014220e-002
 9.4261263121e-001	 4.6045066432e+000	 4.3997056735e-002
 8.9889660005e-001	 4.6132401739e+000	 2.0728736309e-001
 8.5522634634e-001	 4.6215352316e+000	 4.0711256919e-001
 1.3001225651e+000	 4.5426100775e+000	-1.2261689984e-002
 1.2560322194e+000	 4.5549981410e+000	 2.2970466713e-001
 1.2119368795e+000	 4.5669282894e+000	 8.1388145137e-002
 1.1678431801e+000	 4.5784022658e+000	-6.9012654091e-002
 1.1237576864e+000	 4.5894219312e+000	-1.5760396994e-001
 1.0796868924e+000	 4.5999892625e+000	-1.8943266095e-001
 1.0356372182e+000	 4.6101063494e+000	-1.6933647004e-001
 9.9161500801e-001	 4.6197753924e+000	-1.0195527004e-001
 9.4762652819e-001	 4.6289986998e+000	 8.2576799716e-003
 9.0367796494e-001	 4.6377786855e+000	 1.5702450461e-001
 8.5977542265e-001	 4.6461178658e+000	 3.4023154332e-001
 1.3070015205e+000	 4.5666450514e+000	-1.0361947044e-001
 1.2626778925e+000	 4.5790986602e+000	 1.0886433890e-001
 1.2183492440e+000	 4.5910919311e+000	 3.8539664828e-002
 1.1740222445e+000	 4.6026266164e+000	-9.8732613135e-002
 1.1297034943e+000	 4.6137045869e+000	-1.7921256977e-001
 1.0853995214e+000	 4.6243278300e+000	-2.0746183844e-001
 1.0411167802e+000	 4.6344984465e+000	-1.8783348728e-001
 9.9686164827e-001	 4.6442186484e+000	-1.2448393142e-001
 9.5264042516e-001	 4.6534907565e+000	-2.1384840843e-002
 9.0845932984e-001	 4.6623171971e+000	 1.1766499383e-001
 8.6432449896e-001	 4.6707005000e+000	 2.8902787376e-001
 8.1883373586e-001	 4.4248741579e+000	 1.4704397234e+000
 7.7707135428e-001	 4.4323989115e+000	 9.8416775299e-001
 7.3536418877e-001	 4.4395089267e+000	 4.8645337777e-001
 6.9371780909e-001	 4.4462068779e+000	-2.4270169790e-002
 6.5213770062e-001	 4.4524955272e+000	-5.4947225237e-001
 6.1062926301e-001	 4.4583777210e+000	-7.4540640921e-001
 5.6919780892e-001	 4.4638563882e+000	-3.2233483375e-001
 5.2784856279e-001	 4.4689345369e+000	 6.3768495000e-002
 4.8658665973e-001	 4.4736152520e+000	 4.1632172657e-001
 4.4541714450e-001	 4.4779016925e+000	 7.3865923470e-001
 4.0434497057e-001	 4.4817970888e+000	 1.0340394056e+000
 8.2338281217e-001	 4.4494567921e+000	 1.2887216082e+000
 7.8138841736e-001	 4.4570233499e+000	 8.5663631525e-001
 7.3944954538e-001	 4.4641728651e+000	 4.1444987391e-001
 6.9757179692e-001	 4.4709080272e+000	-3.9399955915e-002
 6.5576068785e-001	 4.4772316134e+000	-5.0637737254e-001
 6.1402164781e-001	 4.4831464861e+000	-7.5098979968e-001
 5.7236001898e-001	 4.4886555903e+000	-3.6174488135e-001
 5.3078105481e-001	 4.4937619509e+000	-7.3815908276e-003
 4.8928991895e-001	 4.4984686700e+000	 3.1534689880e-001
 4.4789168419e-001	 4.5027789241e+000	 6.0960472286e-001
 4.0659133152e-001	 4.5066959615e+000	 8.7848140473e-001
 8.2793188848e-001	 4.4740394263e+000	 1.1204422908e+000
 7.8570548043e-001	 4.4816477883e+000	 7.3920023662e-001
 7.4353490198e-001	 4.4888368036e+000	 3.4916550311e-001
 7.0142578475e-001	 4.4956091766e+000	-5.1215994346e-002
 6.5938367507e-001	 4.5019676997e+000	-4.6339967891e-001
 6.1741403260e-001	 4.5079152512e+000	-7.4265630131e-001
 5.7552222903e-001	 4.5134547925e+000	-3.8674998204e-001
 5.3371354682e-001	 4.5185893650e+000	-6.3631694424e-002
 4.9199317817e-001	 4.5233220881e+000	 2.2977186622e-001
 4.5036622388e-001	 4.5276561557e+000	 4.9645242327e-001
 4.0883769246e-001	 4.5315948342e+000	 7.3932849295e-001
 8.3248096479e-001	 4.4986220605e+000	 9.6583807341e-001
 7.9002254351e-001	 4.5062722267e+000	 6.3207815160e-001
 7.4762025859e-001	 4.5135007421e+000	 2.9080114251e-001
 7.0527977258e-001	 4.5203103259e+000	-5.9535235945e-002
 6.6300666230e-001	 4.5267037859e+000	-4.2037400220e-001
 6.2080641740e-001	 4.5326840163e+000	-7.2150873000e-001
 5.7868443908e-001	 4.5382539946e+000	-3.9838736152e-001
 5.3664603884e-001	 4.5434167791e+000	-1.0595323761e-001
 4.9469643739e-001	 4.5481755061e+000	 1.5869118566e-001
 4.5284076358e-001	 4.5525333873e+000	 3.9836300765e-001
 4.1108405341e-001	 4.5564937069e+000	 6.1580755507e-001
 8.3703004110e-001	 4.5232046947e+000	 8.2515837327e-001
 7.9433960659e-001	 4.5308966650e+000	 5.3550129937e-001
 7.5170561519e-001	 4.5381646806e+000	 2.3956976012e-001
 7.0913376041e-001	 4.5450114752e+000	-6.4163057986e-002
 6.6662964952e-001	 4.5514398722e+000	-3.7712412015e-001
 6.2419880219e-001	 4.5574527815e+000	-6.8863937223e-001
 5.8184664912e-001	 4.5630531968e+000	-3.9768424253e-001
 5.3957853085e-001	 4.5682441932e+000	-1.3530816820e-001
 4.9739969661e-001	 4.5730289242e+000	 1.0120835666e-001
 4.5531530327e-001	 4.5774106189e+000	 3.1450555700e-001
 4.1333041436e-001	 4.5813925796e+000	 5.0715334992e-001
 8.4157911741e-001	 4.5477873289e+000	 6.9866536770e-001
 7.9865666967e-001	 4.5555211034e+000	 4.4971318314e-001
 7.5579097179e-001	 4.5628286191e+000	 1.9569608807e-001
 7.1298774823e-001	 4.5697126245e+000	-6.4893576955e-002
 6.7025263675e-001	 4.5761759585e+000	-3.3346305621e-001
 6.2759118699e-001	 4.5822215466e+000	-6.1133047028e-001
 5.8500885917e-001	 4.5878523989e+000	-3.8565811517e-001
 5.4251102287e-001	 4.5930716073e+000	-1.5264921604e-001
 5.0010295583e-001	 4.5978823423e+000	 5.6435579782e-002
 4.5778984296e-001	 4.6022878506e+000	 2.4405733444e-001
 4.1557677530e-001	 4.6062914523e+000	 4.1260829766e-001
 8.4612819372e-001	 4.5723699631e+000	 5.8663365132e-001
 8.0297373275e-001	 4.5801455418e+000	 3.7496924042e-001
 7.5987632840e-001	 4.5874925575e+000	 1.5941630637e-001
 7.1684173606e-001	 4.5944137738e+000	-6.1509951255e-002
 6.7387562397e-001	 4.6009120447e+000	-2.8919336865e-001
 6.3098357178e-001	 4.6069903117e+000	-5.2492832815e-001
 5.8817106922e-001	 4.6126516011e+000	-3.6331699854e-001
 5.4544351488e-001	 4.6178990214e+000	-1.5892014082e-001
 5.0280621505e-001	 4.6227357603e+000	 2.3493522719e-002
 4.6026438265e-001	 4.6271650822e+000	 1.8620356515e-001
 4.1782313625e-001	 4.6311903250e+000	 3.3142227374e-001
 8.5067727003e-001	 4.5969525973e+000	 4.8934990394e-001
 8.0729079583e-001	 4.6047699802e+000	 3.1153652400e-001
 7.6396168500e-001	 4.6121564960e+000	 1.3097773681e-001
 7.2069572389e-001	 4.6191149232e+000	-5.3784674206e-002
 6.7749861120e-001	 4.6256481310e+000	-2.4410743035e-001
 6.3437595657e-001	 4.6317590768e+000	-4.4125749188e-001
 5.9133327927e-001	 4.6374508033e+000	-3.3165969398e-001
 5.4837600689e-001	 4.6427264355e+000	-1.5505597191e-001
 5.0550947427e-001	 4.6475891784e+000	 1.5110938974e-003
 4.6273892234e-001	 4.6520423138e+000	 1.4013722356e-001
 4.2006949719e-001	 4.6560891977e+000	 2.6285240964e-001
 8.5522634634e-001	 4.6215352316e+000	 4.0711256919e-001
 8.1160785890e-001	 4.6293944186e+000	 2.5969339296e-001
 7.6804704160e-001	 4.6368204345e+000	 1.1063854664e-001
 7.2454971171e-001	 4.6438160725e+000	-4.1479857691e-002
 6.8112159842e-001	 4.6503842172e+000	-1.9798769975e-001
 6.3776834136e-001	 4.6565278419e+000	-3.6012081409e-001
 5.9449548931e-001	 4.6622500054e+000	-2.9167603022e-001
 5.5130849891e-001	 4.6675538496e+000	-1.4198324057e-001
 5.0821273349e-001	 4.6724425965e+000	-1.0374776697e-002
 4.6521346202e-001	 4.6769195454e+000	 1.0505882720e-001
 4.2231585814e-001	 4.6809880705e+000	 2.0616289983e-001
 8.5977542265e-001	 4.6461178658e+000	 3.4023154332e-001
 8.1592492198e-001	 4.6540188570e+000	 2.1972921360e-001
 7.7213239820e-001	 4.6614843730e+000	 9.8667461645e-002
 7.2840369954e-001	 4.6685172218e+000	-2.4347506796e-002
 6.8474458564e-001	 4.6751203035e+000	-1.5060698306e-001
 6.4116072615e-001	 4.6812966070e+000	-2.8131195250e-001
 5.9765769936e-001	 4.6870492076e+000	-2.4434710074e-001
 5.5424099092e-001	 4.6923812637e+000	-1.2062020471e-001
 5.1091599270e-001	 4.6972960145e+000	-1.3019349723e-002
 4.6768800171e-001	 4.7017967771e+000	 8.0176237198e-002
 4.2456221908e-001	 4.7058869432e+000	 1.6062481496e-001
 8.6432449896e-001	 4.6707005000e+000	 2.8902787376e-001
 8.2024198506e-001	 4.6786432954e+000	 1.9194406977e-001
 7.7621775480e-001	 4.6861483115e+000	 9.5343488291e-002
 7.3225768736e-001	 4.6932183711e+000	-2.1297857791e-003
 6.8836757286e-001	 4.6998563898e+000	-1.0172868833e-001
 6.4455311094e-001	 4.7060653722e+000	-2.0461561186e-001
 6.0081990940e-001	 4.7118484097e+000	-1.9064549366e-001
 5.5717348293e-001	 4.7172086778e+000	-9.1877066673e-002
 5.1361925192e-001	 4.7221494326e+000	-7.2702819987e-003
 4.7016254140e-001	 4.7266740087e+000	 6.4704464969e-002
 4.2680858003e-001	 4.7307858159e+000	 1.2551592088e-001
 4.0434497057e-001	 4.4817970888e+000	 1.0340394056e+000
 3.6337499923e-001	 4.4853047399e+000	 9.2558733803e-001
 3.2251199884e-001	 4.4884280111e+000	 7.7932626695e-001
 2.8176064413e-001	 4.4911703307e+000	 6.0154087264e-001
 2.4112551553e-001	 4.4935351880e+000	 3.9841691806e-001
 2.0061109869e-001	 4.4955261302e+000	 1.7604582774e-001
 1.6022178400e-001	 4.4971467599e+000	-5.9570941033e-002
 1.1996186617e-001	 4.4984007326e+000	-3.0251774107e-001
 7.9835543943e-002	 4.4992917538e+000	-5.4696079744e-001
 3.9846919840e-002	 4.4998235769e+000	-7.8714449297e-001
 0.0000000000e+000	 4.5000000000e+000	-1.0173878802e+000
 4.0659133152e-001	 4.5066959615e+000	 8.7848140473e-001
 3.6539374923e-001	 4.5102230996e+000	 8.0938584566e-001
 3.2430373217e-001	 4.5133637222e+000	 7.0477274669e-001
 2.8332598104e-001	 4.5161212770e+000	 5.7048392336e-001
 2.4246510172e-001	 4.5184992724e+000	 4.1226947612e-001
 2.0172560480e-001	 4.5205012753e+000	 2.3579274760e-001
 1.6111190503e-001	 4.5221309085e+000	 4.6635050549e-002
 1.2062832098e-001	 4.5233918477e+000	-1.4969983994e-001
 8.0279074742e-002	 4.5242878191e+000	-3.4778143513e-001
 4.0068291616e-002	 4.5248225967e+000	-5.4224852623e-001
 0.0000000000e+000	 4.5250000000e+000	-7.2780542583e-001
 4.0883769246e-001	 4.5315948342e+000	 7.3932849295e-001
 3.6741249922e-001	 4.5351414592e+000	 7.0396347411e-001
 3.2609546550e-001	 4.5382994334e+000	 6.3537437688e-001
 2.8489131795e-001	 4.5410722233e+000	 5.3896043267e-001
 2.4380468792e-001	 4.5434633567e+000	 4.2003636003e-001
 2.0284011090e-001	 4.5454764205e+000	 2.8383770187e-001
 1.6200202605e-001	 4.5471150572e+000	 1.3552591164e-001
 1.2129477580e-001	 4.5483829629e+000	-1.9806818013e-002
 8.0722605541e-002	 4.5492838844e+000	-1.7713298923e-001
 4.0289663393e-002	 4.5498216166e+000	-3.3148549940e-001
 0.0000000000e+000	 4.5500000000e+000	-4.7795361097e-001
 4.1108405341e-001	 4.5564937069e+000	 6.1580755507e-001
 3.6943124922e-001	 4.5600598189e+000	 6.0871382764e-001
 3.2788719882e-001	 4.5632351446e+000	 5.7069141116e-001
 2.8645665486e-001	 4.5660231695e+000	 5.0669715899e-001
 2.4514427412e-001	 4.5684274411e+000	 4.2161061525e-001
 2.0395461700e-001	 4.5704515657e+000	 3.2023973352e-001
 1.6289214707e-001	 4.5720992059e+000	 2.0732632273e-001
 1.2196123061e-001	 4.5733740781e+000	 8.7551213599e-002
 8.1166136340e-002	 4.5742799497e+000	-3.4460859207e-002
 4.0511035169e-002	 4.5748206365e+000	-1.5413666330e-001
 0.0000000000e+000	 4.5750000000e+000	-2.6695016560e-001
 4.1333041436e-001	 4.5813925796e+000	 5.0715334992e-001
 3.7144999921e-001	 4.5849781786e+000	 5.2303566417e-001
 3.2967893215e-001	 4.5881708558e+000	 5.1028653693e-001
 2.8802199177e-001	 4.5909741158e+000	 4.7342057635e-001
 2.4648386031e-001	 4.5933915255e+000	 4.1688228744e-001
 2.0506912311e-001	 4.5954267108e+000	 3.4505217403e-001
 1.6378226809e-001	 4.5970833545e+000	 2.6225254580e-001
 1.2262768542e-001	 4.5983651933e+000	 1.7275302404e-001
 8.1609667139e-002	 4.5992760150e+000	 8.0775741110e-002
 4.0732406946e-002	 4.5998196564e+000	-9.4997701174e-003
 0.0000000000e+000	 4.6000000000e+000	-9.3931999424e-002
 4.1557677530e-001	 4.6062914523e+000	 4.1260829766e-001
 3.7346874920e-001	 4.6098965382e+000	 4.4633275592e-001
 3.3147066547e-001	 4.6131065669e+000	 4.5372480963e-001
 2.8958732868e-001	 4.6159250621e+000	 4.3885688210e-001
 2.4782344651e-001	 4.6183556099e+000	 4.0573850353e-001
 2.0618362921e-001	 4.6204018560e+000	 3.5832279773e-001
 1.6467238911e-001	 4.6220675032e+000	 3.0051265192e-001
 1.2329414023e-001	 4.6233563085e+000	 2.3616656324e-001
 8.2053197938e-002	 4.6242720803e+000	 1.6910415693e-001
 4.0953778723e-002	 4.6248186762e+000	 1.0311137265e-001
 0.0000000000e+000	 4.6250000000e+000	 4.1945316425e-002
 4.1782313625e-001	 4.6311903250e+000	 3.3142227374e-001
 3.7548749920e-001	 4.6348148979e+000	 3.7801375468e-001
 3.3326239880e-001	 4.6380422781e+000	 4.0057358902e-001
 2.9115266559e-001	 4.6408760084e+000	 4.0273200434e-001
 2.4916303270e-001	 4.6433196943e+000	 3.8806355017e-001
 2.0729813531e-001	 4.6453770012e+000	 3.6009397119e-001
 1.6556251013e-001	 4.6470516519e+000	 3.2230674138e-001
 1.2396059504e-001	 4.6483474236e+000	 2.7814925278e-001
 8.2496728738e-002	 4.6492681456e+000	 2.3103865381e-001
 4.1175150499e-002	 4.6498176961e+000	 1.8436733376e-001
 0.0000000000e+000	 4.6500000000e+000	 1.4150805107e-001
 4.2006949719e-001	 4.6560891977e+000	 2.6285240964e-001
 3.7750624919e-001	 4.6597332576e+000	 3.1749206129e-001
 3.3505413212e-001	 4.6629779893e+000	 3.5040247760e-001
 2.9271800250e-001	 4.6658269547e+000	 3.6477160912e-001
 2.5050261890e-001	 4.6682837786e+000	 3.6373894970e-001
 2.0841264141e-001	 4.6703521463e+000	 3.5040279784e-001
 1.6645263115e-001	 4.6720358005e+000	 3.2782715685e-001
 1.2462704985e-001	 4.6733385388e+000	 2.9904826738e-001
 8.2940259537e-002	 4.6742642109e+000	 2.6708076736e-001
 4.1396522276e-002	 4.6748167160e+000	 2.3492347596e-001
 0.0000000000e+000	 4.6750000000e+000	 2.0556479941e-001
 4.2231585814e-001	 4.6809880705e+000	 2.0616289983e-001
 3.7952499918e-001	 4.6846516172e+000	 2.6418569936e-001
 3.3684586545e-001	 4.6879137004e+000	 3.0278326095e-001
 2.9428333941e-001	 4.6907779010e+000	 3.2470110743e-001
 2.5184220510e-001	 4.6932478630e+000	 3.3264353366e-001
 2.0952714752e-001	 4.6953272915e+000	 3.2928125790e-001
 1.6734275217e-001	 4.6970199492e+000	 3.1725868965e-001
 1.2529350466e-001	 4.6983296540e+000	 2.9920080742e-001
 8.3383790336e-002	 4.6992602762e+000	 2.7771964184e-001
 4.1617894052e-002	 4.6998157358e+000	 2.5542036041e-001
 0.0000000000e+000	 4.7000000000e+000	 2.3490695221e-001
 4.2456221908e-001	 4.7058869432e+000	 1.6062481496e-001
 3.8154374918e-001	 4.7095699769e+000	 2.1751719299e-001
 3.3863759877e-001	 4.7128494116e+000	 2.5728985002e-001
 2.9584867632e-001	 4.7157288472e+000	 2.8224566191e-001
 2.5318179129e-001	 4.7182119474e+000	 2.9465351395e-001
 2.1064165362e-001	 4.7203024367e+000	 2.9675634398e-001
 1.6823287319e-001	 4.7220040979e+000	 2.9077877957e-001
 1.2595995947e-001	 4.7233207692e+000	 2.7893436283e-001
 8.3827321135e-002	 4.7242563415e+000	 2.6343235794e-001
 4.1839265829e-002	 4.7248147557e+000	 2.4648413829e-001
 0.0000000000e+000	 4.7250000000e+000	 2.3030915123e-001
 4.2680858003e-001	 4.7307858159e+000	 1.2551592088e-001
 3.8356249917e-001	 4.7344883366e+000	 1.7691344829e-001
 3.4042933210e-001	 4.7377851228e+000	 2.1349822512e-001
 2.9741401323e-001	 4.7406797935e+000	 2.3713019342e-001
 2.5452137749e-001	 4.7431760318e+000	 2.4964255180e-001
 2.1175615972e-001	 4.7452775818e+000	 2.5285019225e-001
 1.6912299422e-001	 4.7469882465e+000	 2.4855770833e-001
 1.2662641428e-001	 4.7483118844e+000	 2.3856696860e-001
 8.4270851934e-002	 4.7492524068e+000	 2.2468425027e-001
 4.2060637605e-002	 4.7498137756e+000	 2.0872692996e-001
 0.0000000000e+000	 4.7500000000e+000	 1.9252972996e-001
 4.7500000000e+000	 0.0000000000e+000	 5.8132868428e-001
 4.7498137756e+000	 4.2060637605e-002	 5.6710606912e-001
 4.7492524068e+000	 8.4270851934e-002	 5.5583480181e-001
 4.7483118844e+000	 1.2662641428e-001	 5.4719794183e-001
 4.7469882465e+000	 1.6912299422e-001	 5.4089703418e-001
 4.7452775818e+000	 2.1175615972e-001	 5.3665439580e-001
 4.7431760318e+000	 2.5452137749e-001	 5.3421545340e-001
 4.7406797935e+000	 2.9741401323e-001	 5.3335112901e-001
 4.7377851228e+000	 3.4042933210e-001	 5.3386026914e-001
 4.7344883366e+000	 3.8356249917e-001	 5.3557211323e-001
 4.7307858159e+000	 4.2680858003e-001	 5.3834879682e-001
 4.7750000000e+000	 0.0000000000e+000	 5.6759389921e-001
 4.7748127955e+000	 4.2282009382e-002	 5.5329919790e-001
 4.7742484721e+000	 8.4714382733e-002	 5.4207525204e-001
 4.7733029995e+000	 1.2729286910e-001	 5.3357432966e-001
 4.7719723952e+000	 1.7001311524e-001	 5.2746679996e-001
 4.7702527270e+000	 2.1287066582e-001	 5.2344346339e-001
 4.7681401161e+000	 2.5586096368e-001	 5.2121793501e-001
 4.7656307398e+000	 2.9897935014e-001	 5.2052907721e-001
 4.7627208340e+000	 3.4222106542e-001	 5.2114347785e-001
 4.7594066962e+000	 3.8558124916e-001	 5.2285796935e-001
 4.7556846886e+000	 4.2905494097e-001	 5.2550218405e-001
 4.8000000000e+000	 0.0000000000e+000	 5.5280137447e-001
 4.7998118153e+000	 4.2503381158e-002	 5.3865202986e-001
 4.7992445374e+000	 8.5157913532e-002	 5.2768391555e-001
 4.7982941147e+000	 1.2795932391e-001	 5.1951807811e-001
 4.7969565439e+000	 1.7090323626e-001	 5.1379328212e-001
 4.7952278722e+000	 2.1398517192e-001	 5.1016838456e-001
 4.7931042005e+000	 2.5720054988e-001	 5.0832476431e-001
 4.7905816861e+000	 3.0054468705e-001	 5.0796880280e-001
 4.7876565451e+000	 3.4401279874e-001	 5.0883441181e-001
 4.7843250559e+000	 3.8759999915e-001	 5.1068560390e-001
 4.7805835613e+000	 4.3130130191e-001	 5.1331910072e-001
 4.8250000000e+000	 0.0000000000e+000	 5.3695780120e-001
 4.8248108352e+000	 4.2724752935e-002	 5.2318084762e-001
 4.8242406027e+000	 8.5601444331e-002	 5.1268671438e-001
 4.8232852299e+000	 1.2862577872e-001	 5.0506479217e-001
 4.8219406925e+000	 1.7179335728e-001	 4.9992180761e-001
 4.8202030174e+000	 2.1509967803e-001	 4.9688424263e-001
 4.8180682849e+000	 2.5854013607e-001	 4.9560081071e-001
 4.8155326324e+000	 3.0211002396e-001	 4.9574498628e-001
 4.8125922563e+000	 3.4580453207e-001	 4.9701758279e-001
 4.8092434156e+000	 3.8961874915e-001	 4.9914937522e-001
 4.8054824340e+000	 4.3354766286e-001	 5.0190376208e-001
 4.8500000000e+000	 0.0000000000e+000	 5.2006973258e-001
 4.8498098551e+000	 4.2946124712e-002	 5.0690171517e-001
 4.8492366680e+000	 8.6044975130e-002	 4.9710926976e-001
 4.8482763451e+000	 1.2929223353e-001	 4.9024969231e-001
 4.8469248412e+000	 1.7268347830e-001	 4.8589723364e-001
 4.8451781625e+000	 2.1621418413e-001	 4.8364556441e-001
 4.8430323693e+000	 2.5987972227e-001	 4.8311029892e-001
 4.8404835786e+000	 3.0367536087e-001	 4.8393157377e-001
 4.8375279675e+000	 3.4759626540e-001	 4.8577667702e-001
 4.8341617752e+000	 3.9163749914e-001	 4.8834272354e-001
 4.8303813068e+000	 4.3579402381e-001	 4.9135937137e-001
 4.8750000000e+000	 0.0000000000e+000	 5.0214358738e-001
 4.8748088749e+000	 4.3167496488e-002	 4.8983048351e-001
 4.8742327333e+000	 8.6488505929e-002	 4.8097690984e-001
 4.8732674603e+000	 1.2995868834e-001	 4.7510762435e-001
 4.8719089899e+000	 1.7357359932e-001	 4.7176395969e-001
 4.8701533077e+000	 2.1732869023e-001	 4.7050633451e-001
 4.8679964537e+000	 2.6121930847e-001	 4.7091682545e-001
 4.8654345249e+000	 3.0524069778e-001	 4.7260179578e-001
 4.8624636787e+000	 3.4938799872e-001	 4.7519457637e-001
 4.8590801349e+000	 3.9365624914e-001	 4.7835819456e-001
 4.8552801795e+000	 4.3804038475e-001	 4.8178814569e-001
 4.9000000000e+000	 0.0000000000e+000	 4.8318565337e-001
 4.8998078948e+000	 4.3388868265e-002	 4.7198279607e-001
 4.8992287986e+000	 8.6932036728e-002	 4.6431467718e-001
 4.8982585754e+000	 1.3062514315e-001	 4.5967306899e-001
 4.8968931385e+000	 1.7446372034e-001	 4.5756593918e-001
 4.8951284529e+000	 2.1844319634e-001	 4.5752000912e-001
 4.8929605380e+000	 2.6255889466e-001	 4.5908337465e-001
 4.8903854712e+000	 3.0680603469e-001	 4.6182818551e-001
 4.8873993898e+000	 3.5117973205e-001	 4.6535337884e-001
 4.8839984946e+000	 3.9567499914e-001	 4.6928746221e-001
 4.8801790522e+000	 4.4028674570e-001	 4.7329134119e-001
 4.9250000000e+000	 0.0000000000e+000	 4.6320209064e-001
 4.9248069147e+000	 4.3610240041e-002	 4.5337409397e-001
 4.9242248639e+000	 8.7375567527e-002	 4.4714733594e-001
 4.9232496906e+000	 1.3129159796e-001	 4.4398015109e-001
 4.9218772872e+000	 1.7535384136e-001	 4.4334669086e-001
 4.9201035980e+000	 2.1955770244e-001	 4.4473952944e-001
 4.9179246224e+000	 2.6389848086e-001	 4.4767233422e-001
 4.9153364175e+000	 3.0837137160e-001	 4.5168259654e-001
 4.9123351010e+000	 3.5297146538e-001	 4.5633441847e-001
 4.9089168542e+000	 3.9769374913e-001	 4.6122135084e-001
 4.9050779249e+000	 4.4253310665e-001	 4.6596927750e-001
 4.9500000000e+000	 0.0000000000e+000	 4.4219893484e-001
 4.9498059346e+000	 4.3831611818e-002	 4.3401962117e-001
 4.9492209292e+000	 8.7819098327e-002	 4.2949937898e-001
 4.9482408058e+000	 1.3195805278e-001	 4.2806264868e-001
 4.9468614359e+000	 1.7624396239e-001	 4.2914930969e-001
 4.9450787432e+000	 2.2067220854e-001	 4.3221733469e-001
 4.9428887068e+000	 2.6523806706e-001	 4.3674551031e-001
 4.9402873638e+000	 3.0993670852e-001	 4.4223621997e-001
 4.9372708122e+000	 3.5476319871e-001	 4.4821828463e-001
 4.9338352139e+000	 3.9971249913e-001	 4.5424985663e-001
 4.9299767976e+000	 4.4477946760e-001	 4.5992136129e-001
 4.9750000000e+000	 0.0000000000e+000	 4.2018210031e-001
 4.9748049544e+000	 4.4052983595e-002	 4.1393442935e-001
 4.9742169945e+000	 8.8262629126e-002	 4.1139503465e-001
 4.9732319210e+000	 1.3262450759e-001	 4.1195400163e-001
 4.9718455845e+000	 1.7713408341e-001	 4.1501647755e-001
 4.9700538884e+000	 2.2178671465e-001	 4.2000537474e-001
 4.9678527912e+000	 2.6657765326e-001	 4.2636414214e-001
 4.9652383101e+000	 3.1150204543e-001	 4.3355960109e-001
 4.9622065233e+000	 3.5655493203e-001	 4.4108484076e-001
 4.9587535736e+000	 4.0173124913e-001	 4.4846216841e-001
 4.9548756703e+000	 4.4702582855e-001	 4.5524610929e-001
 5.0000000000e+000	 0.0000000000e+000	 3.9715738308e-001
 4.9998039743e+000	 4.4274355371e-002	 3.9313338279e-001
 4.9992130598e+000	 8.8706159925e-002	 3.9285827336e-001
 4.9982230362e+000	 1.3329096240e-001	 3.9568732013e-001
 4.9968297332e+000	 1.7802420443e-001	 4.0099047358e-001
 4.9950290335e+000	 2.2290122075e-001	 4.0815512229e-001
 4.9928168755e+000	 2.6791723945e-001	 4.1658891611e-001
 4.9901892563e+000	 3.1306738234e-001	 4.2572265552e-001
 4.9871422345e+000	 3.5834666536e-001	 4.3501324246e-001
 4.9836719332e+000	 4.0374999913e-001	 4.4394668786e-001
 4.9797745430e+000	 4.4927218951e-001	 4.5204117050e-001
 4.7307858159e+000	 4.2680858003e-001	 5.3834879682e-001
 4.7266740087e+000	 4.7016254140e-001	 5.3216377973e-001
 4.7221494326e+000	 5.1361925192e-001	 5.2553722843e-001
 4.7172086778e+000	 5.5717348293e-001	 5.1836462139e-001
 4.7118484097e+000	 6.0081990940e-001	 5.1058410403e-001
 4.7060653722e+000	 6.4455311094e-001	 4.8957262144e-001
 4.6998563898e+000	 6.8836757286e-001	 4.5760171983e-001
 4.6932183711e+000	 7.3225768736e-001	 4.3261931084e-001
 4.6861483115e+000	 7.7621775480e-001	 4.1513345332e-001
 4.6786432954e+000	 8.2024198506e-001	 4.0576981583e-001
 4.6707005000e+000	 8.6432449896e-001	 4.0527077636e-001
 4.7556846886e+000	 4.2905494097e-001	 5.2550218405e-001
 4.7515512403e+000	 4.7263708109e-001	 5.1764607668e-001
 4.7470028507e+000	 5.1632251113e-001	 5.0879703186e-001
 4.7420360919e+000	 5.6010597494e-001	 4.9883894522e-001
 4.7366476119e+000	 6.0398211945e-001	 4.8769921031e-001
 4.7308341373e+000	 6.4794549573e-001	 4.6529847420e-001
 4.7245924760e+000	 6.9199056008e-001	 4.3755723636e-001
 4.7179195205e+000	 7.3611167519e-001	 4.1566895147e-001
 4.7108122499e+000	 7.8030311141e-001	 4.0019059738e-001
 4.7032677338e+000	 8.2455904814e-001	 3.9179992782e-001
 4.6952831342e+000	 8.6887357527e-001	 3.9129453770e-001
 4.7805835613e+000	 4.3130130191e-001	 5.1331910072e-001
 4.7764284720e+000	 4.7511162077e-001	 5.0439362668e-001
 4.7718562687e+000	 5.1902577035e-001	 4.9391602576e-001
 4.7668635060e+000	 5.6303846695e-001	 4.8175807756e-001
 4.7614468140e+000	 6.0714432950e-001	 4.6783589376e-001
 4.7556029024e+000	 6.5133788053e-001	 4.4539966696e-001
 4.7493285623e+000	 6.9561354731e-001	 4.2144780767e-001
 4.7426206698e+000	 7.3996566301e-001	 4.0219103870e-001
 4.7354761884e+000	 7.8438846801e-001	 3.8823603614e-001
 4.7278921722e+000	 8.2887611122e-001	 3.8031346073e-001
 4.7198657684e+000	 8.7342265158e-001	 3.7927698818e-001
 4.8054824340e+000	 4.3354766286e-001	 5.0190376208e-001
 4.8013057036e+000	 4.7758616046e-001	 4.9251284914e-001
 4.7967096868e+000	 5.2172902957e-001	 4.8100275147e-001
 4.7916909201e+000	 5.6597095897e-001	 4.6723259663e-001
 4.7862460162e+000	 6.1030653954e-001	 4.5110668170e-001
 4.7803716675e+000	 6.5473026532e-001	 4.2975278023e-001
 4.7740646486e+000	 6.9923653453e-001	 4.0913473549e-001
 4.7673218191e+000	 7.4381965084e-001	 3.9203140753e-001
 4.7601401269e+000	 7.8847382461e-001	 3.7909995875e-001
 4.7525166106e+000	 8.3319317430e-001	 3.7112478776e-001
 4.7444484026e+000	 8.7797172789e-001	 3.6901652441e-001
 4.8303813068e+000	 4.3579402381e-001	 4.9135937137e-001
 4.8261829352e+000	 4.8006070016e-001	 4.8210921396e-001
 4.8215631049e+000	 5.2443228879e-001	 4.7016486373e-001
 4.8165183342e+000	 5.6890345098e-001	 4.5537225729e-001
 4.8110452184e+000	 6.1346874959e-001	 4.3762334163e-001
 4.8051404326e+000	 6.5812265011e-001	 4.1823369854e-001
 4.7988007348e+000	 7.0285952176e-001	 4.0047868964e-001
 4.7920229684e+000	 7.4767363867e-001	 3.8503532540e-001
 4.7848040654e+000	 7.9255918122e-001	 3.7261205129e-001
 4.7771410490e+000	 8.3751023738e-001	 3.6404784378e-001
 4.7690310368e+000	 8.8252080420e-001	 3.6031116955e-001
 4.8552801795e+000	 4.3804038475e-001	 4.8178814569e-001
 4.8510601668e+000	 4.8253523985e-001	 4.7328726592e-001
 4.8464165229e+000	 5.2713554801e-001	 4.6150915343e-001
 4.8413457483e+000	 5.7183594300e-001	 4.4628601220e-001
 4.8358444205e+000	 6.1663095964e-001	 4.2749690075e-001
 4.8299091977e+000	 6.6151503491e-001	 4.1071762831e-001
 4.8235368211e+000	 7.0648250899e-001	 3.9533972425e-001
 4.8167241177e+000	 7.5152762650e-001	 3.8104750670e-001
 4.8094680039e+000	 7.9664453783e-001	 3.6860150968e-001
 4.8017654874e+000	 8.4182730046e-001	 3.5889613653e-001
 4.7936136710e+000	 8.8706988052e-001	 3.5295858279e-001
 4.8801790522e+000	 4.4028674570e-001	 4.7329134119e-001
 4.8759373984e+000	 4.8500977954e-001	 4.6615064825e-001
 4.8712699410e+000	 5.2983880724e-001	 4.5514156967e-001
 4.8661731623e+000	 5.7476843502e-001	 4.4008203221e-001
 4.8606436227e+000	 6.1979316970e-001	 4.2083766482e-001
 4.8546779629e+000	 6.6490741971e-001	 4.0707911508e-001
 4.8482729073e+000	 7.1010549622e-001	 3.9357729343e-001
 4.8414252671e+000	 7.5538161434e-001	 3.7991212689e-001
 4.8341319423e+000	 8.0072989444e-001	 3.6689705218e-001
 4.8263899258e+000	 8.4614436354e-001	 3.5548275754e-001
 4.8181963052e+000	 8.9161895683e-001	 3.4675606874e-001
 4.9050779249e+000	 4.4253310665e-001	 4.6596927750e-001
 4.9008146301e+000	 4.8748431924e-001	 4.6080212552e-001
 4.8961233591e+000	 5.3254206646e-001	 4.5116724109e-001
 4.8910005764e+000	 5.7770092704e-001	 4.3686772629e-001
 4.8854428248e+000	 6.2295537975e-001	 4.1775523646e-001
 4.8794467280e+000	 6.6829980451e-001	 4.0719206037e-001
 4.8730089936e+000	 7.1372848345e-001	 3.9505026656e-001
 4.8661264164e+000	 7.5923560217e-001	 3.8147283618e-001
 4.8587958808e+000	 8.0481525105e-001	 3.6732693150e-001
 4.8510143642e+000	 8.5046142663e-001	 3.5362039265e-001
 4.8427789394e+000	 8.9616803315e-001	 3.4150058636e-001
 4.9299767976e+000	 4.4477946760e-001	 4.5992136129e-001
 4.9256918617e+000	 4.8995885893e-001	 4.5734360582e-001
 4.9209767771e+000	 5.3524532569e-001	 4.4969049661e-001
 4.9158279905e+000	 5.8063341906e-001	 4.3674976070e-001
 4.9102420270e+000	 6.2611758981e-001	 4.1873440283e-001
 4.9042154931e+000	 6.7169218931e-001	 4.1092973787e-001
 4.8977450799e+000	 7.1735147068e-001	 3.9961694300e-001
 4.8908275657e+000	 7.6308959000e-001	 3.8557277280e-001
 4.8834598193e+000	 8.0890060766e-001	 3.6971894658e-001
 4.8756388026e+000	 8.5477848971e-001	 3.5312133232e-001
 4.8673615736e+000	 9.0071710947e-001	 3.3698875770e-001
 4.9548756703e+000	 4.4702582855e-001	 4.5524610929e-001
 4.9505690933e+000	 4.9243339863e-001	 4.5587616227e-001
 4.9458301952e+000	 5.3794858491e-001	 4.5081488551e-001
 4.9406554046e+000	 5.8356591108e-001	 4.3983407769e-001
 4.9350412291e+000	 6.2927979986e-001	 4.2431519883e-001
 4.9289842582e+000	 6.7508457411e-001	 4.1816480927e-001
 4.9224811661e+000	 7.2097445791e-001	 4.0713506644e-001
 4.9155287150e+000	 7.6694357784e-001	 3.9205457586e-001
 4.9081237578e+000	 8.1298596427e-001	 3.7390045396e-001
 4.9002632410e+000	 8.5909555280e-001	 3.5379748151e-001
 4.8919442078e+000	 9.0526618578e-001	 3.3301687639e-001
 4.9797745430e+000	 4.4927218951e-001	 4.5204117050e-001
 4.9754463249e+000	 4.9490793833e-001	 4.5650005395e-001
 4.9706836133e+000	 5.4065184414e-001	 4.5464319694e-001
 4.9654828187e+000	 5.8649840310e-001	 4.4622591357e-001
 4.9598404313e+000	 6.3244200992e-001	 4.3380164039e-001
 4.9537530233e+000	 6.7847695892e-001	 4.2876933951e-001
 4.9472172524e+000	 7.2459744515e-001	 4.1746183879e-001
 4.9402298643e+000	 7.7079756568e-001	 4.0076039782e-001
 4.9327876962e+000	 8.1707132088e-001	 3.7969837889e-001
 4.9248876794e+000	 8.6341261589e-001	 3.5546036936e-001
 4.9165268420e+000	 9.0981526210e-001	 3.2938091583e-001
 4.6707005000e+000	 8.6432449896e-001	 4.0527077636e-001
 4.6623171971e+000	 9.0845932984e-001	 4.4416066273e-001
 4.6534907565e+000	 9.5264042516e-001	 4.6199521895e-001
 4.6442186484e+000	 9.9686164827e-001	 4.5938219868e-001
 4.6344984465e+000	 1.0411167802e+000	 4.3705918704e-001
 4.6243278300e+000	 1.0853995214e+000	 3.9589188235e-001
 4.6137045869e+000	 1.1297034943e+000	 3.3687203102e-001
 4.6026266164e+000	 1.1740222445e+000	 2.6111501304e-001
 4.5910919311e+000	 1.2183492440e+000	 1.6985707706e-001
 4.5790986602e+000	 1.2626778925e+000	 8.9947623774e-002
 4.5666450514e+000	 1.3070015205e+000	 4.4488997479e-002
 4.6952831342e+000	 8.6887357527e-001	 3.9129453770e-001
 4.6868557086e+000	 9.1324069473e-001	 4.2643260534e-001
 4.6779828131e+000	 9.5765432214e-001	 4.4282269459e-001
 4.6686619045e+000	 1.0021082885e+000	 4.4115893179e-001
 4.6588905436e+000	 1.0465963422e+000	 4.2226581773e-001
 4.6486663975e+000	 1.0911121505e+000	 3.8709637448e-001
 4.6379872426e+000	 1.1356493021e+000	 3.3672993959e-001
 4.6268509670e+000	 1.1802013090e+000	 2.7236960543e-001
 4.6152555729e+000	 1.2247616084e+000	 1.9533930254e-001
 4.6031991795e+000	 1.2693235656e+000	 1.4000915785e-001
 4.5906800254e+000	 1.3138804759e+000	 1.0033270853e-001
 4.7198657684e+000	 8.7342265158e-001	 3.7927698818e-001
 4.7113942202e+000	 9.1802205963e-001	 4.1007114071e-001
 4.7024748697e+000	 9.6266821912e-001	 4.2437342648e-001
 4.6931051605e+000	 1.0073549288e+000	 4.2296507764e-001
 4.6832826406e+000	 1.0520759042e+000	 4.0675829937e-001
 4.6730049650e+000	 1.0968247796e+000	 3.7679428141e-001
 4.6622698984e+000	 1.1415951100e+000	 3.3424085103e-001
 4.6510753176e+000	 1.1863803734e+000	 2.8038976556e-001
 4.6394192146e+000	 1.2311739729e+000	 2.1665364330e-001
 4.6272996988e+000	 1.2759692387e+000	 1.8144525975e-001
 4.6147149993e+000	 1.3207594313e+000	 1.4761100374e-001
 4.7444484026e+000	 8.7797172789e-001	 3.6901652441e-001
 4.7359327318e+000	 9.2280342452e-001	 3.9485929045e-001
 4.7269669263e+000	 9.6768211609e-001	 4.0641543692e-001
 4.7175484166e+000	 1.0126015690e+000	 4.0455404918e-001
 4.7076747377e+000	 1.0575554662e+000	 3.9027583990e-001
 4.6973435326e+000	 1.1025374086e+000	 3.6471102474e-001
 4.6865525541e+000	 1.1475409179e+000	 3.2911683366e-001
 4.6752996682e+000	 1.1925594379e+000	 2.8487465592e-001
 4.6635828564e+000	 1.2375863373e+000	 2.3348681780e-001
 4.6514002180e+000	 1.2826149119e+000	 2.1439176714e-001
 4.6387499733e+000	 1.3276383866e+000	 1.8646756752e-001
 4.7690310368e+000	 8.8252080420e-001	 3.6031116955e-001
 4.7604712433e+000	 9.2758478942e-001	 3.8057975216e-001
 4.7514589829e+000	 9.7269601307e-001	 3.8871646313e-001
 4.7419916726e+000	 1.0178482093e+000	 3.8567900261e-001
 4.7320668348e+000	 1.0630350282e+000	 3.7255740803e-001
 4.7216821001e+000	 1.1082500377e+000	 3.5057179353e-001
 4.7108352098e+000	 1.1534867257e+000	 3.2106971900e-001
 4.6995240188e+000	 1.1987385023e+000	 2.8552318690e-001
 4.6877464981e+000	 1.2439987017e+000	 2.4552526604e-001
 4.6755007373e+000	 1.2892605850e+000	 2.3898420164e-001
 4.6627849472e+000	 1.3345173420e+000	 2.1704571938e-001
 4.7936136710e+000	 8.8706988052e-001	 3.5295858279e-001
 4.7850097549e+000	 9.3236615432e-001	 3.6701490777e-001
 4.7759510395e+000	 9.7770991005e-001	 3.7104396461e-001
 4.7664349286e+000	 1.0230948496e+000	 3.6609284394e-001
 4.7564589319e+000	 1.0685145902e+000	 3.5334173937e-001
 4.7460206676e+000	 1.1139626667e+000	 3.3410155026e-001
 4.7351178655e+000	 1.1594325336e+000	 3.0981110787e-001
 4.7237483694e+000	 1.2049175668e+000	 2.8203402331e-001
 4.7119101398e+000	 1.2504110662e+000	 2.5282999978e-001
 4.6996012565e+000	 1.2959062581e+000	 2.5535777692e-001
 4.6868199212e+000	 1.3413962974e+000	 2.3948842332e-001
 4.8181963052e+000	 8.9161895683e-001	 3.4675606874e-001
 4.8095482664e+000	 9.3714751922e-001	 3.5394683153e-001
 4.8004430961e+000	 9.8272380703e-001	 3.5316513018e-001
 4.7908781847e+000	 1.0283414898e+000	 3.4554823539e-001
 4.7808510290e+000	 1.0739941522e+000	 3.3236734242e-001
 4.7703592351e+000	 1.1196752958e+000	 3.1502503665e-001
 4.7594005212e+000	 1.1653783415e+000	 2.9505237625e-001
 4.7479727200e+000	 1.2110966312e+000	 2.7410559063e-001
 4.7360737816e+000	 1.2568234306e+000	 2.5878119190e-001
 4.7237017758e+000	 1.3025519312e+000	 2.6364740658e-001
 4.7108548951e+000	 1.3482752527e+000	 2.5393829684e-001
 4.8427789394e+000	 8.9616803315e-001	 3.4150058636e-001
 4.8340867780e+000	 9.4192888412e-001	 3.4115729790e-001
 4.8249351527e+000	 9.8773770401e-001	 3.3484688488e-001
 4.8153214407e+000	 1.0335881301e+000	 3.2379760156e-001
 4.8052431260e+000	 1.0794737142e+000	 3.0937250429e-001
 4.7946978026e+000	 1.1253879249e+000	 2.9306677921e-001
 4.7836831769e+000	 1.1713241493e+000	 2.7650468102e-001
 4.7721970706e+000	 1.2172756957e+000	 2.6143608107e-001
 4.7602374233e+000	 1.2632357951e+000	 2.5666178319e-001
 4.7478022951e+000	 1.3091976043e+000	 2.6398771172e-001
 4.7348898691e+000	 1.3551542081e+000	 2.6053761979e-001
 4.8673615736e+000	 9.0071710947e-001	 3.3698875770e-001
 4.8586252895e+000	 9.4671024902e-001	 3.2842778905e-001
 4.8494272093e+000	 9.9275160099e-001	 3.1585589659e-001
 4.8397646967e+000	 1.0388347703e+000	 3.0059313546e-001
 4.8296352231e+000	 1.0849532762e+000	 2.8409529628e-001
 4.8190363702e+000	 1.1311005539e+000	 2.6795109471e-001
 4.8079658326e+000	 1.1772699572e+000	 2.5387896544e-001
 4.7964214212e+000	 1.2234547601e+000	 2.4372345944e-001
 4.7844010650e+000	 1.2696481595e+000	 2.4659904501e-001
 4.7719028143e+000	 1.3158432775e+000	 2.5651302838e-001
 4.7589248430e+000	 1.3620331635e+000	 2.5942834288e-001
 4.8919442078e+000	 9.0526618578e-001	 3.3301687639e-001
 4.8831638011e+000	 9.5149161392e-001	 3.1553950223e-001
 4.8739192659e+000	 9.9776549797e-001	 2.9595858255e-001
 4.8642079528e+000	 1.0440814106e+000	 2.7568680430e-001
 4.8540273202e+000	 1.0904328382e+000	 2.5627357937e-001
 4.8433749377e+000	 1.1368131830e+000	 2.3940209543e-001
 4.8322484884e+000	 1.1832157651e+000	 2.2688596460e-001
 4.8206457718e+000	 1.2296338246e+000	 2.2066546893e-001
 4.8085647068e+000	 1.2760605240e+000	 2.2872000387e-001
 4.7960033336e+000	 1.3224889506e+000	 2.4135741467e-001
 4.7829598170e+000	 1.3689121189e+000	 2.5075209592e-001
 4.9165268420e+000	 9.0981526210e-001	 3.2938091583e-001
 4.9077023127e+000	 9.5627297882e-001	 3.0227335692e-001
 4.8984113225e+000	 1.0027793950e+000	 2.7492111559e-001
 4.8886512088e+000	 1.0493280509e+000	 2.4883035513e-001
 4.8784194173e+000	 1.0959124002e+000	 2.2564500939e-001
 4.8677135052e+000	 1.1425258121e+000	 2.0714369428e-001
 4.8565311441e+000	 1.1891615729e+000	 1.9523621052e-001
 4.8448701224e+000	 1.2358128890e+000	 1.9195963660e-001
 4.8327283485e+000	 1.2824728884e+000	 2.0315144752e-001
 4.8201038528e+000	 1.3291346237e+000	 2.1865465771e-001
 4.8069947909e+000	 1.3757910742e+000	 2.3465019589e-001
 4.5666450514e+000	 1.3070015205e+000	 4.4488997479e-002
 4.5537294736e+000	 1.3513133914e+000	-2.8084549526e-002
 4.5403504190e+000	 1.3956067041e+000	-8.5714402225e-002
 4.5265065060e+000	 1.4398745957e+000	-1.2877523415e-001
 4.5121964807e+000	 1.4841101442e+000	-1.5771501713e-001
 4.4974192195e+000	 1.5283063712e+000	-1.7305387848e-001
 4.4821737314e+000	 1.5724562449e+000	-1.7538277653e-001
 4.4664591594e+000	 1.6165526831e+000	-1.6536199513e-001
 4.4502747833e+000	 1.6605885562e+000	-1.4371945808e-001
 4.4336200209e+000	 1.7045566903e+000	-1.1124886533e-001
 4.4164944300e+000	 1.7484498704e+000	-6.8807653158e-002
 4.5906800254e+000	 1.3138804759e+000	 1.0033270853e-001
 4.5776964708e+000	 1.3584255672e+000	 3.4222026658e-002
 4.5642470002e+000	 1.4029520026e+000	-1.8983740956e-002
 4.5503302244e+000	 1.4474528831e+000	-5.9688518602e-002
 4.5359448832e+000	 1.4919212502e+000	-8.8368587961e-002
 4.5210898470e+000	 1.5363500889e+000	-1.0557136912e-001
 4.5057641194e+000	 1.5807323304e+000	-1.1191401881e-001
 4.4899668392e+000	 1.6250608551e+000	-1.0808184662e-001
 4.4736972822e+000	 1.6693284959e+000	-9.4826550352e-002
 4.4569548631e+000	 1.7135280413e+000	-7.2964272485e-002
 4.4397391376e+000	 1.7576522382e+000	-4.3373479993e-002
 4.6147149993e+000	 1.3207594313e+000	 1.4761100374e-001
 4.6016634680e+000	 1.3655377429e+000	 8.8453414852e-002
 4.5881435813e+000	 1.4102973010e+000	 4.0198441338e-002
 4.5741539429e+000	 1.4550311704e+000	 2.4124625825e-003
 4.5596932857e+000	 1.4997323562e+000	-2.5409592373e-002
 4.5447604745e+000	 1.5443938066e+000	-4.3842949328e-002
 4.5293545075e+000	 1.5890084159e+000	-5.3531509498e-002
 4.5134745190e+000	 1.6335690271e+000	-5.5186186994e-002
 4.4971197811e+000	 1.6780684357e+000	-4.9583064623e-002
 4.4802897053e+000	 1.7224993923e+000	-3.7561369979e-002
 4.4629838451e+000	 1.7668546059e+000	-2.0021274409e-002
 4.6387499733e+000	 1.3276383866e+000	 1.8646756752e-001
 4.6256304653e+000	 1.3726499187e+000	 1.3475465565e-001
 4.6120401625e+000	 1.4176425995e+000	 9.1978158729e-002
 4.5979776614e+000	 1.4626094578e+000	 5.7674308473e-002
 4.5834416883e+000	 1.5075434623e+000	 3.1308759586e-002
 4.5684311019e+000	 1.5524375244e+000	 1.2277962099e-002
 4.5529448956e+000	 1.5972845014e+000	-8.9281124235e-005
 4.5369821988e+000	 1.6420771991e+000	-6.5300727078e-003
 4.5205422799e+000	 1.6868083755e+000	-7.8454964610e-003
 4.5036245475e+000	 1.7314707433e+000	-4.8985125819e-003
 4.4862285526e+000	 1.7760569736e+000	 1.3883249016e-003
 4.6627849472e+000	 1.3345173420e+000	 2.1704571938e-001
 4.6495974625e+000	 1.3797620944e+000	 1.7327051083e-001
 4.6359367437e+000	 1.4249878979e+000	 1.3650124144e-001
 4.6218013798e+000	 1.4701877451e+000	 1.0624353818e-001
 4.6071900908e+000	 1.5153545683e+000	 8.1933290715e-002
 4.5921017294e+000	 1.5604812421e+000	 6.2938100977e-002
 4.5765352836e+000	 1.6055605868e+000	 4.8558919116e-002
 4.5604898786e+000	 1.6505853711e+000	 3.8031864815e-002
 4.5439647788e+000	 1.6955483152e+000	 3.0530232218e-002
 4.5269593898e+000	 1.7404420943e+000	 2.5166676186e-002
 4.5094732602e+000	 1.7852593414e+000	 2.0995577012e-002
 4.6868199212e+000	 1.3413962974e+000	 2.3948842332e-001
 4.6735644597e+000	 1.3868742701e+000	 2.0414547049e-001
 4.6598333248e+000	 1.4323331963e+000	 1.7391334055e-001
 4.6456250983e+000	 1.4777660325e+000	 1.4826659288e-001
 4.6309384933e+000	 1.5231656743e+000	 1.2661085582e-001
 4.6157723569e+000	 1.5685249599e+000	 1.0828435378e-001
 4.6001256717e+000	 1.6138366723e+000	 9.2559622048e-002
 4.5839975584e+000	 1.6590935431e+000	 7.8645408266e-002
 4.5673872776e+000	 1.7042882550e+000	 6.5688758445e-002
 4.5502942320e+000	 1.7494134453e+000	 5.2777285296e-002
 4.5327179677e+000	 1.7944617091e+000	 3.8941615739e-002
 4.7108548951e+000	 1.3482752527e+000	 2.5393829684e-001
 4.6975314569e+000	 1.3939864459e+000	 2.2752376000e-001
 4.6837299060e+000	 1.4396784948e+000	 2.0435993257e-001
 4.6694488167e+000	 1.4853443198e+000	 1.8388983784e-001
 4.6546868958e+000	 1.5309767803e+000	 1.6548834091e-001
 4.6394429843e+000	 1.5765686776e+000	 1.4846375377e-001
 4.6237160597e+000	 1.6221127578e+000	 1.3205962942e-001
 4.6075052382e+000	 1.6676017152e+000	 1.1545674389e-001
 4.5908097765e+000	 1.7130281948e+000	 9.7775263936e-002
 4.5736290742e+000	 1.7583847963e+000	 7.8077098037e-002
 4.5559626752e+000	 1.8036640769e+000	 5.5368427333e-002
 4.7348898691e+000	 1.3551542081e+000	 2.6053761979e-001
 4.7214984542e+000	 1.4010986216e+000	 2.4354934672e-001
 4.7076264871e+000	 1.4470237932e+000	 2.2798632390e-001
 4.6932725352e+000	 1.4929226072e+000	 2.1325956431e-001
 4.6784352984e+000	 1.5387878863e+000	 1.9871266236e-001
 4.6631136118e+000	 1.5846123954e+000	 1.8362347730e-001
 4.6473064478e+000	 1.6303888433e+000	 1.6720600705e-001
 4.6310129180e+000	 1.6761098872e+000	 1.4861245125e-001
 4.6142322754e+000	 1.7217681346e+000	 1.2693546127e-001
 4.5969639164e+000	 1.7673561473e+000	 1.0121057439e-001
 4.5792073827e+000	 1.8128664446e+000	 7.0418828836e-002
 4.7589248430e+000	 1.3620331635e+000	 2.5942834288e-001
 4.7454654514e+000	 1.4082107974e+000	 2.5236594649e-001
 4.7315230682e+000	 1.4543690917e+000	 2.4493765508e-001
 4.7170962536e+000	 1.5005008945e+000	 2.3652199141e-001
 4.7021837009e+000	 1.5465989924e+000	 2.2643076622e-001
 4.6867842393e+000	 1.5926561131e+000	 2.1391084020e-001
 4.6708968359e+000	 1.6386649288e+000	 1.9814607810e-001
 4.6545205977e+000	 1.6846180592e+000	 1.7825949328e-001
 4.6376547742e+000	 1.7305080743e+000	 1.5331558049e-001
 4.6202987586e+000	 1.7763274983e+000	 1.2232283395e-001
 4.6024520903e+000	 1.8220688123e+000	 8.4236447110e-002
 4.7829598170e+000	 1.3689121189e+000	 2.5075209592e-001
 4.7694324486e+000	 1.4153229731e+000	 2.5411702997e-001
 4.7554196494e+000	 1.4617143901e+000	 2.5535890497e-001
 4.7409199721e+000	 1.5080791818e+000	 2.5382326795e-001
 4.7259321034e+000	 1.5544100984e+000	 2.4878962740e-001
 4.7104548668e+000	 1.6006998308e+000	 2.3947329426e-001
 4.6944872239e+000	 1.6469410143e+000	 2.2502741669e-001
 4.6780282775e+000	 1.6931262312e+000	 2.0454520666e-001
 4.6610772731e+000	 1.7392480141e+000	 1.7706235608e-001
 4.6436336008e+000	 1.7852988493e+000	 1.4155963933e-001
 4.6256967978e+000	 1.8312711801e+000	 9.6965698482e-002
 4.8069947909e+000	 1.3757910742e+000	 2.3465019589e-001
 4.7933994458e+000	 1.4224351489e+000	 2.4894582878e-001
 4.7793162305e+000	 1.4690596886e+000	 2.5939489482e-001
 4.7647436905e+000	 1.5156574692e+000	 2.6530947417e-001
 4.7496805060e+000	 1.5622212044e+000	 2.6593624897e-001
 4.7341254942e+000	 1.6087435486e+000	 2.6045842381e-001
 4.7180776120e+000	 1.6552170998e+000	 2.4799784156e-001
 4.7015359573e+000	 1.7016344032e+000	 2.2761729250e-001
 4.6844997719e+000	 1.7479879539e+000	 1.9832301439e-001
 4.6669684431e+000	 1.7942702003e+000	 1.5906738011e-001
 4.6489415053e+000	 1.8404735478e+000	 1.0875176901e-001
 4.4164944300e+000	 1.7484498704e+000	-6.8807653158e-002
 4.3988977105e+000	 1.7922608439e+000	-2.9702209134e-004
 4.3808297054e+000	 1.8359823234e+000	 8.1358875633e-002
 4.3622904030e+000	 1.8796069909e+000	-1.1534567717e-002
 4.3432799376e+000	 1.9231275005e+000	-1.8977091585e-001
 4.3237985918e+000	 1.9665364825e+000	-3.1982121907e-001
 4.3038467969e+000	 2.0098265468e+000	-4.0238146772e-001
 4.2834251345e+000	 2.0529902865e+000	-4.3825437947e-001
 4.2625343375e+000	 2.0960202818e+000	-4.2834801967e-001
 4.2411752908e+000	 2.1389091034e+000	-3.7367419612e-001
 4.2193490324e+000	 2.1816493170e+000	-2.7534663007e-001
 4.4397391376e+000	 1.7576522382e+000	-4.3373479993e-002
 4.4220498037e+000	 1.8016937957e+000	 1.0152260190e-002
 4.4038867039e+000	 1.8456453883e+000	 7.5287508629e-002
 4.3852498261e+000	 1.8894996592e+000	 1.3769468116e-001
 4.3661393057e+000	 1.9332492242e+000	 7.3870577900e-002
 4.3465554265e+000	 1.9768866745e+000	-8.7852873509e-002
 4.3264986222e+000	 2.0204045813e+000	-2.0293604443e-001
 4.3059694774e+000	 2.0637954986e+000	-2.7219245025e-001
 4.2849687287e+000	 2.1070519675e+000	-2.9654080954e-001
 4.2634972660e+000	 2.1501665198e+000	-2.7700339170e-001
 4.2415561326e+000	 2.1931316818e+000	-2.1470413946e-001
 4.4629838451e+000	 1.7668546059e+000	-2.0021274409e-002
 4.4452018969e+000	 1.8111267475e+000	 1.9068557983e-002
 4.4269437023e+000	 1.8553084531e+000	 6.8254323641e-002
 4.4082092493e+000	 1.8993923276e+000	 1.0637454148e-001
 4.3889986738e+000	 1.9433709479e+000	 1.4732735921e-001
 4.3693122612e+000	 1.9872368665e+000	 1.3947051540e-001
 4.3491504474e+000	 2.0309826157e+000	-7.7052101354e-003
 4.3285138202e+000	 2.0746007106e+000	-1.0988439872e-001
 4.3074031200e+000	 2.1180836532e+000	-1.6799698117e-001
 4.2858192412e+000	 2.1614239361e+000	-1.8307627830e-001
 4.2637632328e+000	 2.2046140466e+000	-1.5625707419e-001
 4.4862285526e+000	 1.7760569736e+000	 1.3883249016e-003
 4.4683539901e+000	 1.8205596993e+000	 2.6592903289e-002
 4.4500007008e+000	 1.8649715180e+000	 6.0401719981e-002
 4.4311686725e+000	 1.9092849960e+000	 7.6514323647e-002
 4.4118580419e+000	 1.9534926715e+000	 1.0409990392e-001
 4.3920690959e+000	 1.9975870585e+000	 1.5203525130e-001
 4.3718022727e+000	 2.0415606502e+000	 1.8330837222e-001
 4.3510581630e+000	 2.0854059226e+000	 4.8664884067e-002
 4.3298375112e+000	 2.1291153389e+000	-4.2723899969e-002
 4.3081412164e+000	 2.1726813525e+000	-9.1902944685e-002
 4.2859703329e+000	 2.2160964114e+000	-1.0001849815e-001
 4.5094732602e+000	 1.7852593414e+000	 2.0995577012e-002
 4.4915060834e+000	 1.8299926511e+000	 3.2867310925e-002
 4.4730576992e+000	 1.8746345829e+000	 5.1873171036e-002
 4.4541280956e+000	 1.9191776644e+000	 4.8121548354e-002
 4.4347174100e+000	 1.9636143952e+000	 6.2712878756e-002
 4.4148259306e+000	 2.0079372506e+000	 9.5957185948e-002
 4.3944540979e+000	 2.0521386846e+000	 1.4786406580e-001
 4.3736025058e+000	 2.0962111347e+000	 2.0345213028e-001
 4.3522719025e+000	 2.1401470246e+000	 7.9272820199e-002
 4.3304631916e+000	 2.1839387688e+000	-3.4915937162e-003
 4.3081774331e+000	 2.2275787763e+000	-4.5999448895e-002
 4.5327179677e+000	 1.7944617091e+000	 3.8941615739e-002
 4.5146581766e+000	 1.8394256029e+000	 3.8034753322e-002
 4.4961146977e+000	 1.8842976477e+000	 3.6185955784e-002
 4.4770875188e+000	 1.9290703327e+000	 2.1204877780e-002
 4.4575767781e+000	 1.9737361189e+000	 2.3171316369e-002
 4.4375827653e+000	 2.0182874426e+000	 4.2110161915e-002
 4.4171059232e+000	 2.0627167191e+000	 7.8038576635e-002
 4.3961468486e+000	 2.1070163467e+000	 1.3096636890e-001
 4.3747062937e+000	 2.1511787103e+000	 1.9798927207e-001
 4.3527851668e+000	 2.1951961851e+000	 8.2151409280e-002
 4.3303845333e+000	 2.2390611411e+000	 5.7910104158e-003
 4.5559626752e+000	 1.8036640769e+000	 5.5368427333e-002
 4.5378102698e+000	 1.8488585547e+000	 4.2239136101e-002
 4.5191716961e+000	 1.8939607126e+000	 2.1343967465e-002
 4.5000469420e+000	 1.9389630011e+000	-4.2259135092e-003
 4.4804361462e+000	 1.9838578426e+000	-1.4518539787e-002
 4.4603396000e+000	 2.0286376346e+000	-9.5034200120e-003
 4.4397577484e+000	 2.0732947536e+000	 1.0844018516e-002
 4.4186911914e+000	 2.1178215587e+000	 4.6542827846e-002
 4.3971406850e+000	 2.1622103960e+000	 9.7606939169e-002
 4.3751071420e+000	 2.2064536015e+000	 1.6404556275e-001
 4.3525916335e+000	 2.2505435059e+000	 5.5345740649e-002
 4.5792073827e+000	 1.8128664446e+000	 7.0418828836e-002
 4.5609623630e+000	 1.8582915065e+000	 4.5625274382e-002
 4.5422286946e+000	 1.9036237774e+000	 7.6520761329e-003
 4.5230063652e+000	 1.9488556695e+000	-2.8159966799e-002
 4.5032955143e+000	 1.9939795663e+000	-5.0349266178e-002
 4.4830964347e+000	 2.0389878266e+000	-5.8879877321e-002
 4.4624095737e+000	 2.0838727880e+000	-5.3719973239e-002
 4.4412355342e+000	 2.1286267708e+000	-3.4841422783e-002
 4.4195750762e+000	 2.1732420817e+000	-2.2193692375e-003
 4.3974291173e+000	 2.2177110178e+000	 4.4168188904e-002
 4.3747987336e+000	 2.2620258708e+000	 1.0265947786e-001
 4.6024520903e+000	 1.8220688123e+000	 8.4236447110e-002
 4.5841144562e+000	 1.8677244584e+000	 4.8338869822e-002
 4.5652856930e+000	 1.9132868423e+000	-4.8747607689e-003
 4.5459657884e+000	 1.9587483379e+000	-5.0585366604e-002
 4.5261548824e+000	 2.0041012900e+000	-8.4312288990e-002
 4.5058532694e+000	 2.0493380186e+000	-1.0601427813e-001
 4.4850613989e+000	 2.0944508225e+000	-1.1565240930e-001
 4.4637798771e+000	 2.1394319828e+000	-1.1318963697e-001
 4.4420094675e+000	 2.1842737674e+000	-9.8590351646e-002
 4.4197510925e+000	 2.2289684341e+000	-7.1819941199e-002
 4.3970058338e+000	 2.2735082356e+000	-3.2844358465e-002
 4.6256967978e+000	 1.8312711801e+000	 9.6965698482e-002
 4.6072665494e+000	 1.8771574102e+000	 4.9360245093e-002
 4.5883426915e+000	 1.9229499072e+000	-1.6220641287e-002
 4.5689252115e+000	 1.9686410063e+000	-7.1489167218e-002
 4.5490142505e+000	 2.0142230137e+000	-1.1639791304e-001
 4.5286101041e+000	 2.0596882107e+000	-1.5090047261e-001
 4.5077132242e+000	 2.1050288570e+000	-1.7495098035e-001
 4.4863242199e+000	 2.1502371949e+000	-1.8850364127e-001
 4.4644438587e+000	 2.1953054531e+000	-1.9151226584e-001
 4.4420730677e+000	 2.2402258505e+000	-1.8392981168e-001
 4.4192129340e+000	 2.2849906004e+000	-1.6570793392e-001
 4.6489415053e+000	 1.8404735478e+000	 1.0875176901e-001
 4.6304186427e+000	 1.8865903620e+000	 4.6820001391e-002
 4.6113996900e+000	 1.9326129720e+000	-2.6368742568e-002
 4.5918846347e+000	 1.9785336746e+000	-9.0857418471e-002
 4.5718736186e+000	 2.0243447374e+000	-1.4659534978e-001
 4.5513669388e+000	 2.0700384027e+000	-1.9353112336e-001
 4.5303650494e+000	 2.1156068914e+000	-2.3161209007e-001
 4.5088685627e+000	 2.1610424069e+000	-2.6078387053e-001
 4.4868782500e+000	 2.2063371388e+000	-2.8098986789e-001
 4.4643950429e+000	 2.2514832668e+000	-2.9217078970e-001
 4.4414200342e+000	 2.2964729653e+000	-2.9426418088e-001
 4.2193490324e+000	 2.1816493170e+000	-2.7534663007e-001
 4.1970567543e+000	 2.2242334862e+000	-2.2887574977e-001
 4.1742998024e+000	 2.2666541773e+000	-1.9402634125e-001
 4.1510796778e+000	 2.3089039626e+000	-1.7152624034e-001
 4.1273980366e+000	 2.3509754247e+000	-1.6214086739e-001
 4.1032566903e+000	 2.3928611605e+000	-1.6667055551e-001
 4.0786576062e+000	 2.4345537848e+000	-1.8594775263e-001
 4.0536029072e+000	 2.4760459347e+000	-2.2083410409e-001
 4.0280948713e+000	 2.5173302738e+000	-2.8981362506e-001
 4.0021359322e+000	 2.5583994957e+000	-3.9969831194e-001
 3.9757286783e+000	 2.5992463286e+000	-5.2618431329e-001
 4.2415561326e+000	 2.1931316818e+000	-2.1470413946e-001
 4.2191465267e+000	 2.2359399782e+000	-1.8854483102e-001
 4.1962698014e+000	 2.2785839361e+000	-1.6885503792e-001
 4.1729274656e+000	 2.3210560887e+000	-1.5644276268e-001
 4.1491211841e+000	 2.3633489796e+000	-1.5215930818e-001
 4.1248527781e+000	 2.4054551666e+000	-1.5689653208e-001
 4.1001242252e+000	 2.4473672257e+000	-1.7158396599e-001
 4.0749376593e+000	 2.4890777554e+000	-1.9718580630e-001
 4.0492953706e+000	 2.5305793805e+000	-2.6482181225e-001
 4.0231998056e+000	 2.5718647562e+000	-3.5539601344e-001
 3.9966535661e+000	 2.6129265724e+000	-4.5834966307e-001
 4.2637632328e+000	 2.2046140466e+000	-1.5625707419e-001
 4.2412362991e+000	 2.2476464703e+000	-1.5143877061e-001
 4.2182398003e+000	 2.2905136949e+000	-1.4797642330e-001
 4.1947752533e+000	 2.3332082148e+000	-1.4675842284e-001
 4.1708443317e+000	 2.3757225345e+000	-1.4872215884e-001
 4.1464488660e+000	 2.4180491727e+000	-1.5485119957e-001
 4.1215908442e+000	 2.4601806667e+000	-1.6617232756e-001
 4.0962724114e+000	 2.5021095762e+000	-1.8576285139e-001
 4.0704958700e+000	 2.5438284872e+000	-2.5054871777e-001
 4.0442636789e+000	 2.5853300167e+000	-3.2322240334e-001
 4.0175784539e+000	 2.6266068162e+000	-4.0409626648e-001
 4.2859703329e+000	 2.2160964114e+000	-1.0001849815e-001
 4.2633260715e+000	 2.2593529623e+000	-1.1754890406e-001
 4.2402097993e+000	 2.3024434537e+000	-1.3135934098e-001
 4.2166230411e+000	 2.3453603409e+000	-1.4241881892e-001
 4.1925674792e+000	 2.3880960893e+000	-1.5175102888e-001
 4.1680449538e+000	 2.4306431788e+000	-1.6043144690e-001
 4.1430574632e+000	 2.4729941077e+000	-1.6958428520e-001
 4.1176071636e+000	 2.5151413969e+000	-1.9430829436e-001
 4.0916963693e+000	 2.5570775939e+000	-2.4681528532e-001
 4.0653275522e+000	 2.5987952773e+000	-3.0297215693e-001
 4.0385033416e+000	 2.6402870601e+000	-3.6319188472e-001
 4.3081774331e+000	 2.2275787763e+000	-4.5999448895e-002
 4.2854158438e+000	 2.2710594543e+000	-8.6864908658e-002
 4.2621797983e+000	 2.3143732126e+000	-1.1897135951e-001
 4.2384708289e+000	 2.3575124671e+000	-1.4336867209e-001
 4.2142906268e+000	 2.4004696442e+000	-1.6116706380e-001
 4.1896410417e+000	 2.4432371849e+000	-1.7353412654e-001
 4.1645240822e+000	 2.4858075487e+000	-1.8169169256e-001
 4.1389419157e+000	 2.5281732176e+000	-2.1189921224e-001
 4.1128968686e+000	 2.5703267006e+000	-2.5344379171e-001
 4.0863914255e+000	 2.6122605378e+000	-2.9444176744e-001
 4.0594282294e+000	 2.6539673039e+000	-3.3540659559e-001
 4.3303845333e+000	 2.2390611411e+000	 5.7910104158e-003
 4.3075056162e+000	 2.2827659464e+000	-5.9374845956e-002
 4.2841497972e+000	 2.3263029714e+000	-1.1077880506e-001
 4.2603186167e+000	 2.3696645932e+000	-1.4955184904e-001
 4.2360137743e+000	 2.4128431991e+000	-1.7689095697e-001
 4.2112371295e+000	 2.4558311910e+000	-1.9405605551e-001
 4.1859907011e+000	 2.4986209896e+000	-2.0236679858e-001
 4.1602766679e+000	 2.5412050383e+000	-2.3838386187e-001
 4.1340973679e+000	 2.5835758073e+000	-2.7025781263e-001
 4.1074552989e+000	 2.6257257983e+000	-2.9742949940e-001
 4.0803531172e+000	 2.6676475477e+000	-3.2051273418e-001
 4.3525916335e+000	 2.2505435059e+000	 5.5345740649e-002
 4.3295953886e+000	 2.2944724384e+000	-3.5065203029e-002
 4.3061197962e+000	 2.3382327302e+000	-1.0674679312e-001
 4.2821664045e+000	 2.3818167193e+000	-1.6091138377e-001
 4.2577369219e+000	 2.4252167539e+000	-1.9884296117e-001
 4.2328332174e+000	 2.4684251971e+000	-2.2189401626e-001
 4.2074573201e+000	 2.5114344306e+000	-2.4063281562e-001
 4.1816114200e+000	 2.5542368590e+000	-2.7361131882e-001
 4.1552978673e+000	 2.5968249141e+000	-2.9708218954e-001
 4.1285191722e+000	 2.6391910588e+000	-3.1173534349e-001
 4.1012780050e+000	 2.6813277916e+000	-3.1828483524e-001
 4.3747987336e+000	 2.2620258708e+000	 1.0265947786e-001
 4.3516851610e+000	 2.3061789304e+000	-1.3920932413e-002
 4.3280897951e+000	 2.3501624891e+000	-1.0683925926e-001
 4.3040141922e+000	 2.3939688454e+000	-1.7738949878e-001
 4.2794600695e+000	 2.4375903088e+000	-2.2694289976e-001
 4.2544293052e+000	 2.4810192032e+000	-2.5694475753e-001
 4.2289239391e+000	 2.5242478716e+000	-2.8744077949e-001
 4.2029461722e+000	 2.5672686797e+000	-3.1743145666e-001
 4.1764983666e+000	 2.6100740208e+000	-3.3374299756e-001
 4.1495830455e+000	 2.6526563193e+000	-3.3716097270e-001
 4.1222028927e+000	 2.6950080354e+000	-3.2849957736e-001
 4.3970058338e+000	 2.2735082356e+000	-3.2844358465e-002
 4.3737749334e+000	 2.3178854225e+000	 4.0745091356e-003
 4.3500597941e+000	 2.3620922479e+000	-1.1101898887e-001
 4.3258619800e+000	 2.4061209716e+000	-1.9892762551e-001
 4.3011832170e+000	 2.4499638637e+000	-2.6111017753e-001
 4.2760253930e+000	 2.4936132094e+000	-2.9910499522e-001
 4.2503905581e+000	 2.5370613125e+000	-3.4151077696e-001
 4.2242809243e+000	 2.5803005004e+000	-3.6969492678e-001
 4.1976988659e+000	 2.6233231275e+000	-3.8006751428e-001
 4.1706469189e+000	 2.6661215798e+000	-3.7350969986e-001
 4.1431277805e+000	 2.7086882792e+000	-3.5093572886e-001
 4.4192129340e+000	 2.2849906004e+000	-1.6570793392e-001
 4.3958647058e+000	 2.3295919145e+000	-1.3729537696e-001
 4.3720297931e+000	 2.3740220067e+000	-1.1924764611e-001
 4.3477097678e+000	 2.4182730977e+000	-2.2546642423e-001
 4.3229063646e+000	 2.4623374186e+000	-3.0126379124e-001
 4.2976214809e+000	 2.5062072155e+000	-3.5233792972e-001
 4.2718571771e+000	 2.5498747535e+000	-4.0271658825e-001
 4.2456156764e+000	 2.5933323211e+000	-4.3025313884e-001
 4.2188993652e+000	 2.6365722342e+000	-4.3588418957e-001
 4.1917107922e+000	 2.6795868403e+000	-4.2058643645e-001
 4.1640526683e+000	 2.7223685231e+000	-3.8537409521e-001
 4.4414200342e+000	 2.2964729653e+000	-2.9426418088e-001
 4.4179544782e+000	 2.3412984066e+000	-2.8467796640e-001
 4.3939997920e+000	 2.3859517656e+000	-2.6082046489e-001
 4.3695575556e+000	 2.4304252238e+000	-2.5694580334e-001
 4.3446295122e+000	 2.4747109734e+000	-3.4732233976e-001
 4.3192175687e+000	 2.5188012216e+000	-4.1591731931e-001
 4.2933237960e+000	 2.5626881945e+000	-4.7093234145e-001
 4.2669504286e+000	 2.6063641418e+000	-4.9895824184e-001
 4.2400998645e+000	 2.6498213409e+000	-5.0102261629e-001
 4.2127746655e+000	 2.6930521008e+000	-4.7819765260e-001
 4.1849775561e+000	 2.7360487669e+000	-4.3159746820e-001
 3.9757286783e+000	 2.5992463286e+000	-5.2618431329e-001
 3.9488758523e+000	 2.6398635388e+000	-6.0409365408e-001
 3.9215803507e+000	 2.6802439354e+000	-6.4742384329e-001
 3.8938452231e+000	 2.7203803739e+000	-6.5727376240e-001
 3.8656736713e+000	 2.7602657603e+000	-6.3478599854e-001
 3.8370690480e+000	 2.7998930552e+000	-5.8114427873e-001
 3.8080348563e+000	 2.8392552779e+000	-4.9757083668e-001
 3.7785747479e+000	 2.8783455100e+000	-3.8532371881e-001
 3.7486925218e+000	 2.9171568997e+000	-2.5984641706e-001
 3.7183921230e+000	 2.9556826656e+000	-4.1110752681e-001
 3.6876776410e+000	 2.9939161004e+000	-5.1974264975e-001
 3.9966535661e+000	 2.6129265724e+000	-4.5834966307e-001
 3.9696594094e+000	 2.6537575574e+000	-5.2961892187e-001
 3.9422202473e+000	 2.6943504824e+000	-5.7087167521e-001
 3.9143391453e+000	 2.7346981653e+000	-5.8315952063e-001
 3.8860193222e+000	 2.7747934748e+000	-5.6757309649e-001
 3.8572641483e+000	 2.8146293345e+000	-5.2523951629e-001
 3.8280771451e+000	 2.8541987267e+000	-4.5731974184e-001
 3.7984619834e+000	 2.8934946969e+000	-3.6500590201e-001
 3.7684224824e+000	 2.9325103571e+000	-2.4951856421e-001
 3.7379626079e+000	 2.9712388901e+000	-2.3564107787e-001
 3.7070864707e+000	 3.0096735536e+000	-3.7842599349e-001
 4.0175784539e+000	 2.6266068162e+000	-4.0409626648e-001
 3.9904429665e+000	 2.6676515760e+000	-4.6722331844e-001
 3.9628601438e+000	 2.7084570295e+000	-5.0484603173e-001
 3.9348330675e+000	 2.7490159568e+000	-5.1796966871e-001
 3.9063649731e+000	 2.7893211894e+000	-5.0763390169e-001
 3.8774592485e+000	 2.8293656137e+000	-4.7491024619e-001
 3.8481194338e+000	 2.8691421756e+000	-4.2089943945e-001
 3.8183492189e+000	 2.9086438838e+000	-3.4672877082e-001
 3.7881524430e+000	 2.9478638144e+000	-2.5354937136e-001
 3.7575330927e+000	 2.9867951147e+000	-1.4253346975e-001
 3.7264953004e+000	 3.0254310067e+000	-2.4205848806e-001
 4.0385033416e+000	 2.6402870601e+000	-3.6319188472e-001
 4.0112265236e+000	 2.6815455947e+000	-4.1669364466e-001
 3.9835000404e+000	 2.7225635765e+000	-4.4915357365e-001
 3.9553269898e+000	 2.7633337482e+000	-4.6153154253e-001
 3.9267106240e+000	 2.8038489039e+000	-4.5481723449e-001
 3.8976543488e+000	 2.8441018930e+000	-4.3002757639e-001
 3.8681617225e+000	 2.8840856244e+000	-3.8820412141e-001
 3.8382364544e+000	 2.9237930707e+000	-3.3041039005e-001
 3.8078824037e+000	 2.9632172718e+000	-2.5772917667e-001
 3.7771035776e+000	 3.0023513392e+000	-1.7125982875e-001
 3.7459041300e+000	 3.0411884599e+000	-1.1077724621e-001
 4.0594282294e+000	 2.6539673039e+000	-3.3540659559e-001
 4.0320100807e+000	 2.6954396133e+000	-3.7781856990e-001
 4.0041399370e+000	 2.7366701235e+000	-4.0360236598e-001
 3.9758209120e+000	 2.7776515397e+000	-4.1367340173e-001
 3.9470562748e+000	 2.8183766184e+000	-4.0897234274e-001
 3.9178494490e+000	 2.8588381722e+000	-3.9046253042e-001
 3.8882040112e+000	 2.8990290732e+000	-3.5912736784e-001
 3.8581236899e+000	 2.9389422576e+000	-3.1596767015e-001
 3.8276123643e+000	 2.9785707292e+000	-2.6199898692e-001
 3.7966740624e+000	 3.0179075638e+000	-1.9824890367e-001
 3.7653129597e+000	 3.0569459131e+000	-1.2575433005e-001
 4.0803531172e+000	 2.6676475477e+000	-3.2051273418e-001
 4.0527936378e+000	 2.7093336319e+000	-3.5038858416e-001
 4.0247798336e+000	 2.7507766705e+000	-3.6800184182e-001
 3.9963148342e+000	 2.7919693311e+000	-3.7422440604e-001
 3.9674019257e+000	 2.8329043329e+000	-3.6994889086e-001
 3.9380445493e+000	 2.8735744514e+000	-3.5608604962e-001
 3.9082462999e+000	 2.9139725220e+000	-3.3356216279e-001
 3.8780109254e+000	 2.9540914445e+000	-3.0331639678e-001
 3.8473423250e+000	 2.9939241865e+000	-2.6629814084e-001
 3.8162445473e+000	 3.0334637884e+000	-2.2346432969e-001
 3.7847217894e+000	 3.0727033662e+000	-1.7577675920e-001
 4.1012780050e+000	 2.6813277916e+000	-3.1828483524e-001
 4.0735771949e+000	 2.7232276505e+000	-3.3419595156e-001
 4.0454197301e+000	 2.7648832176e+000	-3.4216276758e-001
 4.0168087564e+000	 2.8062871225e+000	-3.4301459228e-001
 3.9877475766e+000	 2.8474320475e+000	-3.3759694916e-001
 3.9582396495e+000	 2.8883107307e+000	-3.2676899514e-001
 3.9282885886e+000	 2.9289159709e+000	-3.1140090944e-001
 3.8978981609e+000	 2.9692406314e+000	-2.9237125953e-001
 3.8670722856e+000	 3.0092776439e+000	-2.7056435160e-001
 3.8358150322e+000	 3.0490200129e+000	-2.4686757300e-001
 3.8041306191e+000	 3.0884608194e+000	-2.2216873422e-001
 4.1222028927e+000	 2.6950080354e+000	-3.2849957736e-001
 4.0943607521e+000	 2.7371216692e+000	-3.2903466539e-001
 4.0660596267e+000	 2.7789897646e+000	-3.2589720903e-001
 4.0373026787e+000	 2.8206049140e+000	-3.1987485214e-001
 4.0080932275e+000	 2.8619597620e+000	-3.1176698358e-001
 3.9784347498e+000	 2.9030470099e+000	-3.0238215005e-001
 3.9483308773e+000	 2.9438594197e+000	-2.9253544480e-001
 3.9177853965e+000	 2.9843898182e+000	-2.8304587971e-001
 3.8868022462e+000	 3.0246311013e+000	-2.7473374810e-001
 3.8553855170e+000	 3.0645762375e+000	-2.6841798583e-001
 3.8235394488e+000	 3.1042182725e+000	-2.6491353833e-001
 4.1431277805e+000	 2.7086882792e+000	-3.5093572886e-001
 4.1151443092e+000	 2.7510156878e+000	-3.3470040436e-001
 4.0866995233e+000	 2.7930963116e+000	-3.1901849856e-001
 4.0577966009e+000	 2.8349227054e+000	-3.0463691054e-001
 4.0284388784e+000	 2.8764874765e+000	-2.9230984570e-001
 3.9986298500e+000	 2.9177832891e+000	-2.8279622129e-001
 3.9683731661e+000	 2.9588028685e+000	-2.7685705409e-001
 3.9376726320e+000	 2.9995390051e+000	-2.7525283738e-001
 3.9065322069e+000	 3.0399845586e+000	-2.7874091497e-001
 3.8749560019e+000	 3.0801324620e+000	-2.8807285979e-001
 3.8429482785e+000	 3.1199757257e+000	-3.0399186478e-001
 4.1640526683e+000	 2.7223685231e+000	-3.8537409521e-001
 4.1359278663e+000	 2.7649097064e+000	-3.5099049032e-001
 4.1073394199e+000	 2.8072028587e+000	-3.2134120333e-001
 4.0782905231e+000	 2.8492404969e+000	-2.9713330478e-001
 4.0487845293e+000	 2.8910151910e+000	-2.7907676301e-001
 4.0188249503e+000	 2.9325195684e+000	-2.6788184156e-001
 3.9884154548e+000	 2.9737463174e+000	-2.6425648453e-001
 3.9575598675e+000	 3.0146881920e+000	-2.6890369745e-001
 3.9262621675e+000	 3.0553380160e+000	-2.8251893136e-001
 3.8945264867e+000	 3.0956886866e+000	-3.0578747771e-001
 3.8623571082e+000	 3.1357331788e+000	-3.3986785291e-001
 4.1849775561e+000	 2.7360487669e+000	-4.3159746820e-001
 4.1567114234e+000	 2.7788037250e+000	-3.7770384716e-001
 4.1279793165e+000	 2.8213094057e+000	-3.3268109441e-001
 4.0987844453e+000	 2.8635582883e+000	-2.9719736412e-001
 4.0691301802e+000	 2.9055429056e+000	-2.7191932956e-001
 4.0390200505e+000	 2.9472558476e+000	-2.5750957121e-001
 4.0084577435e+000	 2.9886897662e+000	-2.5462395883e-001
 3.9774471030e+000	 3.0298373789e+000	-2.6390903510e-001
 3.9459921281e+000	 3.0706914733e+000	-2.8599940860e-001
 3.9140969716e+000	 3.1112449111e+000	-3.2151516382e-001
 3.8817659379e+000	 3.1514906320e+000	-3.7195415009e-001
 3.6876776410e+000	 2.9939161004e+000	-5.1974264975e-001
 3.6565533075e+000	 3.0318505751e+000	-5.7947861918e-001
 3.6250234951e+000	 3.0694795422e+000	-6.2963393930e-001
 3.5930927152e+000	 3.1067965399e+000	-6.6902788228e-001
 3.5607656154e+000	 3.1437951957e+000	-6.9630726925e-001
 3.5280469781e+000	 3.1804692296e+000	-7.1195499917e-001
 3.4949417175e+000	 3.2168124582e+000	-7.1721234417e-001
 3.4614548776e+000	 3.2528187977e+000	-7.1291673927e-001
 3.4275916292e+000	 3.2884822674e+000	-6.9987815199e-001
 3.3933572679e+000	 3.3237969933e+000	-6.7887643309e-001
 3.3587572107e+000	 3.3587572106e+000	-6.5065880106e-001
 3.7070864707e+000	 3.0096735536e+000	-3.7842599349e-001
 3.6757983249e+000	 3.0478076834e+000	-4.6098309647e-001
 3.6441025662e+000	 3.0856346977e+000	-5.3003709996e-001
 3.6120037295e+000	 3.1231481007e+000	-5.8446200879e-001
 3.5795064871e+000	 3.1603414862e+000	-6.2364733973e-001
 3.5466156464e+000	 3.1972085414e+000	-6.4821321686e-001
 3.5133361476e+000	 3.2337430501e+000	-6.5912898054e-001
 3.4796730611e+000	 3.2699388967e+000	-6.5734613072e-001
 3.4456315852e+000	 3.3057900689e+000	-6.4379063065e-001
 3.4112170430e+000	 3.3412906616e+000	-6.1936010742e-001
 3.3764348802e+000	 3.3764348802e+000	-5.8492118512e-001
 3.7264953004e+000	 3.0254310067e+000	-2.4205848806e-001
 3.6950433423e+000	 3.0637647916e+000	-3.4881803658e-001
 3.6631816372e+000	 3.1017898531e+000	-4.3818286737e-001
 3.6309147437e+000	 3.1394996614e+000	-5.0935474598e-001
 3.5982473587e+000	 3.1768877767e+000	-5.6207105675e-001
 3.5651843147e+000	 3.2139478531e+000	-5.9683468607e-001
 3.5317305777e+000	 3.2506736420e+000	-6.1473156930e-001
 3.4978912447e+000	 3.2870589956e+000	-6.1682706632e-001
 3.4636715411e+000	 3.3230978703e+000	-6.0416288792e-001
 3.4290768181e+000	 3.3587843300e+000	-5.7775414575e-001
 3.3941125497e+000	 3.3941125497e+000	-5.3858653428e-001
 3.7459041300e+000	 3.0411884599e+000	-1.1077724621e-001
 3.7142883597e+000	 3.0797218999e+000	-2.4310161201e-001
 3.6822607082e+000	 3.1179450086e+000	-3.5416994560e-001
 3.6498257580e+000	 3.1558512221e+000	-4.4383011826e-001
 3.6169882304e+000	 3.1934340672e+000	-5.1128463494e-001
 3.5837529830e+000	 3.2306871648e+000	-5.5750094119e-001
 3.5501250078e+000	 3.2676042339e+000	-5.8367664712e-001
 3.5161094283e+000	 3.3041790945e+000	-5.9099078154e-001
 3.4817114971e+000	 3.3404056717e+000	-5.8060056857e-001
 3.4469365932e+000	 3.3762779984e+000	-5.5363832692e-001
 3.4117902192e+000	 3.4117902192e+000	-5.1120850036e-001
 3.7653129597e+000	 3.0569459131e+000	-1.2575433005e-001
 3.7335333771e+000	 3.0956790082e+000	-1.4394953166e-001
 3.7013397793e+000	 3.1341001641e+000	-2.7842806162e-001
 3.6687367723e+000	 3.1722027829e+000	-3.8761230203e-001
 3.6357291020e+000	 3.2099803577e+000	-4.7099311401e-001
 3.6023216513e+000	 3.2474264766e+000	-5.2989279240e-001
 3.5685194379e+000	 3.2845348258e+000	-5.6562048751e-001
 3.5343276118e+000	 3.3212991935e+000	-5.7946871971e-001
 3.4997514530e+000	 3.3577134731e+000	-5.7271000613e-001
 3.4647963683e+000	 3.3937716668e+000	-5.4659360894e-001
 3.4294678888e+000	 3.4294678888e+000	-5.0234241423e-001
 3.7847217894e+000	 3.0727033662e+000	-1.7577675920e-001
 3.7527783945e+000	 3.1116361165e+000	-7.5240742177e-002
 3.7204188503e+000	 3.1502553196e+000	-2.1084353764e-001
 3.6876477866e+000	 3.1885543436e+000	-3.4042867190e-001
 3.6544699737e+000	 3.2265266482e+000	-4.4090038882e-001
 3.6208903196e+000	 3.2641657883e+000	-5.1369034426e-001
 3.5869138680e+000	 3.3014654177e+000	-5.6021910751e-001
 3.5525457954e+000	 3.3384192924e+000	-5.8189252668e-001
 3.5177914090e+000	 3.3750212745e+000	-5.8009820519e-001
 3.4826561434e+000	 3.4112653352e+000	-5.5620209880e-001
 3.4471455583e+000	 3.4471455583e+000	-5.1154524273e-001
 3.8041306191e+000	 3.0884608194e+000	-2.2216873422e-001
 3.7720234120e+000	 3.1275932248e+000	-1.4893739306e-001
 3.7394979213e+000	 3.1664104751e+000	-1.5091955342e-001
 3.7065588009e+000	 3.2049059043e+000	-3.0200506886e-001
 3.6732108454e+000	 3.2430729387e+000	-4.2070923864e-001
 3.6394589879e+000	 3.2809051000e+000	-5.0857301372e-001
 3.6053082981e+000	 3.3183960095e+000	-5.6712827428e-001
 3.5707639790e+000	 3.3555393913e+000	-5.9789404570e-001
 3.5358313649e+000	 3.3923290759e+000	-6.0237282432e-001
 3.5005159185e+000	 3.4287590036e+000	-5.8204702314e-001
 3.4648232278e+000	 3.4648232278e+000	-5.3837554695e-001
 3.8235394488e+000	 3.1042182725e+000	-2.6491353833e-001
 3.7912684294e+000	 3.1435503331e+000	-2.2048798185e-001
 3.7585769923e+000	 3.1825656306e+000	-1.6390192659e-001
 3.7254698152e+000	 3.2212574651e+000	-2.7206583913e-001
 3.6919517170e+000	 3.2596192292e+000	-4.1012135544e-001
 3.6580276562e+000	 3.2976444118e+000	-5.1421954753e-001
 3.6237027281e+000	 3.3353266014e+000	-5.8600351143e-001
 3.5889821625e+000	 3.3726594903e+000	-6.2710531234e-001
 3.5538713209e+000	 3.4096368773e+000	-6.3914215944e-001
 3.5183756936e+000	 3.4462526720e+000	-6.2371269986e-001
 3.4825008974e+000	 3.4825008974e+000	-5.8239344174e-001
 3.8429482785e+000	 3.1199757257e+000	-3.0399186478e-001
 3.8105134468e+000	 3.1595074414e+000	-2.8907804589e-001
 3.7776560634e+000	 3.1987207860e+000	-2.5771668342e-001
 3.7443808295e+000	 3.2376090258e+000	-2.5033387196e-001
 3.7106925887e+000	 3.2761655197e+000	-4.0883737137e-001
 3.6765963245e+000	 3.3143837235e+000	-5.3030803923e-001
 3.6420971582e+000	 3.3522571933e+000	-6.1650010516e-001
 3.6072003461e+000	 3.3897795892e+000	-6.6915854969e-001
 3.5719112768e+000	 3.4269446787e+000	-6.9001512771e-001
 3.5362354687e+000	 3.4637463403e+000	-6.8078451053e-001
 3.5001785669e+000	 3.5001785669e+000	-6.4316055652e-001
 3.8623571082e+000	 3.1357331788e+000	-3.3986785291e-001
 3.8297584642e+000	 3.1754645497e+000	-3.5465566124e-001
 3.7967351344e+000	 3.2148759415e+000	-3.4958167894e-001
 3.7632918438e+000	 3.2539605865e+000	-3.2623596336e-001
 3.7294334603e+000	 3.2927118102e+000	-4.1655688534e-001
 3.6951649928e+000	 3.3311230352e+000	-5.5651594549e-001
 3.6604915883e+000	 3.3691877852e+000	-6.5827311024e-001
 3.6254185297e+000	 3.4068996881e+000	-7.2368616363e-001
 3.5899512327e+000	 3.4442524801e+000	-7.5460125199e-001
 3.5540952438e+000	 3.4812400087e+000	-7.5284887368e-001
 3.5178562364e+000	 3.5178562364e+000	-7.2023999721e-001
 3.8817659379e+000	 3.1514906320e+000	-3.7195415009e-001
 3.8490034816e+000	 3.1914216579e+000	-4.1716679173e-001
 3.8158142054e+000	 3.2310310970e+000	-4.3942305931e-001
 3.7822028581e+000	 3.2703121473e+000	-4.4040843264e-001
 3.7481743320e+000	 3.3092581007e+000	-4.3297848890e-001
 3.7137336611e+000	 3.3478623470e+000	-5.9252010208e-001
 3.6788860184e+000	 3.3861183771e+000	-7.1097735577e-001
 3.6436367132e+000	 3.4240197871e+000	-7.9032073826e-001
 3.6079911887e+000	 3.4615602815e+000	-8.3251064562e-001
 3.5719550189e+000	 3.4987336771e+000	-8.3949321887e-001
 3.5355339060e+000	 3.5355339059e+000	-8.1319630927e-001
 3.3587572107e+000	 3.3587572106e+000	-6.5065880106e-001
 3.3237969933e+000	 3.3933572679e+000	-6.5228936704e-001
 3.2884822674e+000	 3.4275916292e+000	-6.4298918292e-001
 3.2528187977e+000	 3.4614548776e+000	-6.2388204679e-001
 3.2168124582e+000	 3.4949417175e+000	-5.9605520715e-001
 3.1804692296e+000	 3.5280469781e+000	-5.6055708018e-001
 3.1437951957e+000	 3.5607656154e+000	-5.1839513139e-001
 3.1067965399e+000	 3.5930927152e+000	-5.1387095971e-001
 3.0694795422e+000	 3.6250234951e+000	-5.5745200468e-001
 3.0318505751e+000	 3.6565533075e+000	-6.0322711671e-001
 2.9939161004e+000	 3.6876776410e+000	-6.4669748170e-001
 3.3764348802e+000	 3.3764348802e+000	-5.8492118512e-001
 3.3412906616e+000	 3.4112170430e+000	-5.8601364660e-001
 3.3057900689e+000	 3.4456315852e+000	-5.7680022875e-001
 3.2699388967e+000	 3.4796730611e+000	-5.5837271774e-001
 3.2337430501e+000	 3.5133361476e+000	-5.3178450742e-001
 3.1972085414e+000	 3.5466156464e+000	-4.9804833631e-001
 3.1603414862e+000	 3.5795064871e+000	-4.5813419347e-001
 3.1231481007e+000	 3.6120037295e+000	-4.1763668053e-001
 3.0856346977e+000	 3.6441025662e+000	-4.6674487840e-001
 3.0478076834e+000	 3.6757983249e+000	-5.1705210128e-001
 3.0096735536e+000	 3.7070864707e+000	-5.6391811182e-001
 3.3941125497e+000	 3.3941125497e+000	-5.3858653428e-001
 3.3587843300e+000	 3.4290768181e+000	-5.3819896257e-001
 3.3230978703e+000	 3.4636715411e+000	-5.2813814071e-001
 3.2870589956e+000	 3.4978912447e+000	-5.0946459564e-001
 3.2506736420e+000	 3.5317305777e+000	-4.8319859597e-001
 3.2139478531e+000	 3.5651843147e+000	-4.5031790794e-001
 3.1768877767e+000	 3.5982473587e+000	-4.1175572465e-001
 3.1394996614e+000	 3.6309147437e+000	-3.6839877307e-001
 3.1017898531e+000	 3.6631816372e+000	-3.8413406393e-001
 3.0637647916e+000	 3.6950433423e+000	-4.3836148299e-001
 3.0254310067e+000	 3.7264953004e+000	-4.8797355808e-001
 3.4117902192e+000	 3.4117902192e+000	-5.1120850036e-001
 3.3762779984e+000	 3.4469365932e+000	-5.0841108276e-001
 3.3404056717e+000	 3.4817114971e+000	-4.9658109040e-001
 3.3041790945e+000	 3.5161094283e+000	-4.7674853919e-001
 3.2676042339e+000	 3.5501250078e+000	-4.4990129721e-001
 3.2306871648e+000	 3.5837529830e+000	-4.1698285881e-001
 3.1934340672e+000	 3.6169882304e+000	-3.7889029630e-001
 3.1558512221e+000	 3.6498257580e+000	-3.3647239393e-001
 3.1179450086e+000	 3.6822607082e+000	-3.1020510903e-001
 3.0797218999e+000	 3.7142883597e+000	-3.6775887991e-001
 3.0411884599e+000	 3.7459041300e+000	-4.1948519927e-001
 3.4294678888e+000	 3.4294678888e+000	-5.0234241423e-001
 3.3937716668e+000	 3.4647963683e+000	-4.9621716936e-001
 3.3577134731e+000	 3.4997514530e+000	-4.8170835728e-001
 3.3212991935e+000	 3.5343276118e+000	-4.5981622674e-001
 3.2845348258e+000	 3.5685194379e+000	-4.3149696544e-001
 3.2474264766e+000	 3.6023216513e+000	-3.9766049132e-001
 3.2099803577e+000	 3.6357291020e+000	-3.5916842599e-001
 3.1722027829e+000	 3.6687367723e+000	-3.1683225487e-001
 3.1341001641e+000	 3.7013397793e+000	-2.7141167826e-001
 3.0956790082e+000	 3.7335333771e+000	-3.0584697243e-001
 3.0569459131e+000	 3.7653129597e+000	-3.8391401872e-001
 3.4471455583e+000	 3.4471455583e+000	-5.1154524273e-001
 3.4112653352e+000	 3.4826561434e+000	-5.0118574318e-001
 3.3750212745e+000	 3.5177914090e+000	-4.8310030028e-001
 3.3384192924e+000	 3.5525457954e+000	-4.5826013531e-001
 3.3014654177e+000	 3.5869138680e+000	-4.2759047124e-001
 3.2641657883e+000	 3.6208903196e+000	-3.9196834041e-001
 3.2265266482e+000	 3.6544699737e+000	-3.5222057881e-001
 3.1885543436e+000	 3.6876477866e+000	-3.0912201169e-001
 3.1502553196e+000	 3.7204188503e+000	-2.6339383447e-001
 3.1116361165e+000	 3.7527783945e+000	-2.5721230071e-001
 3.0727033662e+000	 3.7847217894e+000	-3.5942486148e-001
 3.4648232278e+000	 3.4648232278e+000	-5.3837554695e-001
 3.4287590036e+000	 3.5005159185e+000	-5.2288664898e-001
 3.3923290759e+000	 3.5358313649e+000	-5.0033833025e-001
 3.3555393913e+000	 3.5707639790e+000	-4.7167352018e-001
 3.3183960095e+000	 3.6053082981e+000	-4.3778718834e-001
 3.2809051000e+000	 3.6394589879e+000	-3.9952416764e-001
 3.2430729387e+000	 3.6732108454e+000	-3.5767716875e-001
 3.2049059043e+000	 3.7065588009e+000	-3.1298499025e-001
 3.1664104751e+000	 3.7394979213e+000	-2.6613092886e-001
 3.1275932248e+000	 3.7720234120e+000	-2.4638133349e-001
 3.0884608194e+000	 3.8041306191e+000	-3.3888562840e-001
 3.4825008974e+000	 3.4825008974e+000	-5.8239344174e-001
 3.4462526720e+000	 3.5183756936e+000	-5.6089102193e-001
 3.4096368773e+000	 3.5538713209e+000	-5.3300488330e-001
 3.3726594903e+000	 3.5889821625e+000	-4.9965039514e-001
 3.3353266014e+000	 3.6237027281e+000	-4.6169298078e-001
 3.2976444118e+000	 3.6580276562e+000	-4.1994595544e-001
 3.2596192292e+000	 3.6919517170e+000	-3.7516855995e-001
 3.2212574651e+000	 3.7254698152e+000	-3.2806419483e-001
 3.1825656306e+000	 3.7585769923e+000	-2.8922479842e-001
 3.1435503331e+000	 3.7912684294e+000	-2.7765845526e-001
 3.1042182725e+000	 3.8235394488e+000	-3.2226403271e-001
 3.5001785669e+000	 3.5001785669e+000	-6.4316055652e-001
 3.4637463403e+000	 3.5362354687e+000	-6.1477125493e-001
 3.4269446787e+000	 3.5719112768e+000	-5.8068339486e-001
 3.3897795892e+000	 3.6072003461e+000	-5.4178551337e-001
 3.3522571933e+000	 3.6420971582e+000	-4.9891419060e-001
 3.3143837235e+000	 3.6765963245e+000	-4.5285190151e-001
 3.2761655197e+000	 3.7106925887e+000	-4.0432506802e-001
 3.2376090258e+000	 3.7443808295e+000	-3.5400231630e-001
 3.1987207860e+000	 3.7776560634e+000	-3.3107243376e-001
 3.1595074414e+000	 3.8105134468e+000	-3.1328274208e-001
 3.1199757257e+000	 3.8429482785e+000	-3.0952667462e-001
 3.5178562364e+000	 3.5178562364e+000	-7.2023999721e-001
 3.4812400087e+000	 3.5540952438e+000	-6.8410096708e-001
 3.4442524801e+000	 3.5899512327e+000	-6.4295827461e-001
 3.4068996881e+000	 3.6254185297e+000	-5.9767434880e-001
 3.3691877852e+000	 3.6604915883e+000	-5.4905762578e-001
 3.3311230352e+000	 3.6951649928e+000	-4.9786041343e-001
 3.2927118102e+000	 3.7294334603e+000	-4.4477696120e-001
 3.2539605865e+000	 3.7632918438e+000	-4.0257921715e-001
 3.2148759415e+000	 3.7967351344e+000	-3.7790640599e-001
 3.1754645497e+000	 3.8297584642e+000	-3.5302057603e-001
 3.1357331788e+000	 3.8623571082e+000	-3.2914906446e-001
 3.5355339060e+000	 3.5355339059e+000	-8.1319630927e-001
 3.4987336771e+000	 3.5719550189e+000	-7.6845497300e-001
 3.4615602815e+000	 3.6079911887e+000	-7.1941488208e-001
 3.4240197871e+000	 3.6436367132e+000	-6.6691307816e-001
 3.3861183771e+000	 3.6788860184e+000	-6.1173054864e-001
 3.3478623470e+000	 3.7137336611e+000	-5.5459010341e-001
 3.3092581007e+000	 3.7481743320e+000	-4.9615446159e-001
 3.2703121473e+000	 3.7822028581e+000	-4.6258192175e-001
 3.2310310970e+000	 3.8158142054e+000	-4.2948090791e-001
 3.1914216579e+000	 3.8490034816e+000	-3.9663753525e-001
 3.1514906320e+000	 3.8817659379e+000	-3.6525511587e-001
 2.9939161004e+000	 3.6876776410e+000	-6.4669748170e-001
 2.9556826656e+000	 3.7183921230e+000	-6.4763145904e-001
 2.9171568997e+000	 3.7486925218e+000	-6.2402443563e-001
 2.8783455100e+000	 3.7785747479e+000	-6.4438127212e-001
 2.8392552779e+000	 3.8080348563e+000	-6.5175739577e-001
 2.7998930552e+000	 3.8370690480e+000	-6.4421222141e-001
 2.7602657603e+000	 3.8656736713e+000	-6.2280285134e-001
 2.7203803739e+000	 3.8938452231e+000	-5.8857139667e-001
 2.6802439354e+000	 3.9215803507e+000	-5.4254290367e-001
 2.6398635388e+000	 3.9488758523e+000	-4.8572336651e-001
 2.5992463286e+000	 3.9757286783e+000	-4.1909783032e-001
 3.0096735536e+000	 3.7070864707e+000	-5.6391811182e-001
 2.9712388901e+000	 3.7379626079e+000	-5.6441576983e-001
 2.9325103571e+000	 3.7684224824e+000	-5.8023060946e-001
 2.8934946969e+000	 3.7984619834e+000	-6.0383411400e-001
 2.8541987267e+000	 3.8280771451e+000	-6.1172839756e-001
 2.8146293345e+000	 3.8572641483e+000	-6.0502687838e-001
 2.7747934748e+000	 3.8860193222e+000	-5.8482907524e-001
 2.7346981653e+000	 3.9143391453e+000	-5.5221839503e-001
 2.6943504824e+000	 3.9422202473e+000	-5.0826000522e-001
 2.6537575574e+000	 3.9696594094e+000	-4.5399879543e-001
 2.6129265724e+000	 3.9966535661e+000	-3.9045743200e-001
 3.0254310067e+000	 3.7264953004e+000	-4.8797355808e-001
 2.9867951147e+000	 3.7575330927e+000	-5.0338094615e-001
 2.9478638144e+000	 3.7881524430e+000	-5.4412017041e-001
 2.9086438838e+000	 3.8183492189e+000	-5.6826304861e-001
 2.8691421756e+000	 3.8481194338e+000	-5.7697925244e-001
 2.8293656137e+000	 3.8774592485e+000	-5.7142583381e-001
 2.7893211894e+000	 3.9063649731e+000	-5.5274487295e-001
 2.7490159568e+000	 3.9348330675e+000	-5.2206120912e-001
 2.7084570295e+000	 3.9628601438e+000	-4.8048025884e-001
 2.6676515760e+000	 3.9904429665e+000	-4.2908592589e-001
 2.6266068162e+000	 4.0175784539e+000	-3.6893860739e-001
 3.0411884599e+000	 3.7459041300e+000	-4.1948519927e-001
 3.0023513392e+000	 3.7771035776e+000	-4.7130450395e-001
 2.9632172718e+000	 3.8078824037e+000	-5.1264118618e-001
 2.9237930707e+000	 3.8382364544e+000	-5.3761992391e-001
 2.8840856244e+000	 3.8681617225e+000	-5.4745520069e-001
 2.8441018930e+000	 3.8976543488e+000	-5.4334785968e-001
 2.8038489039e+000	 3.9267106240e+000	-5.2648269190e-001
 2.7633337482e+000	 3.9553269898e+000	-4.9802610972e-001
 2.7225635765e+000	 3.9835000404e+000	-4.5912391050e-001
 2.6815455947e+000	 4.0112265236e+000	-4.1089913485e-001
 2.6402870601e+000	 4.0385033416e+000	-3.5445002382e-001
 3.0569459131e+000	 3.7653129597e+000	-3.8391401872e-001
 3.0179075638e+000	 3.7966740624e+000	-4.4352787562e-001
 2.9785707292e+000	 3.8276123643e+000	-4.8575123980e-001
 2.9389422576e+000	 3.8581236899e+000	-5.1185569139e-001
 2.8990290732e+000	 3.8882040112e+000	-5.2310069590e-001
 2.8588381722e+000	 3.9178494490e+000	-5.2073104976e-001
 2.8183766184e+000	 3.9470562748e+000	-5.0597440837e-001
 2.7776515397e+000	 3.9758209120e+000	-4.8003890204e-001
 2.7366701235e+000	 4.0041399370e+000	-4.4411084469e-001
 2.6954396133e+000	 4.0320100807e+000	-3.9935254019e-001
 2.6539673039e+000	 4.0594282294e+000	-3.4690019041e-001
 3.0727033662e+000	 3.7847217894e+000	-3.5942486148e-001
 3.0334637884e+000	 3.8162445473e+000	-4.2001431340e-001
 2.9939241865e+000	 3.8473423250e+000	-4.6340693239e-001
 2.9540914445e+000	 3.8780109254e+000	-4.9092042896e-001
 2.9139725220e+000	 3.9082462999e+000	-5.0385942515e-001
 2.8735744514e+000	 3.9380445493e+000	-5.0351283704e-001
 2.8329043329e+000	 3.9674019257e+000	-4.9115134217e-001
 2.7919693311e+000	 3.9963148342e+000	-4.6802493762e-001
 2.7507766705e+000	 4.0247798336e+000	-4.3536059361e-001
 2.7093336319e+000	 4.0527936378e+000	-3.9436000742e-001
 2.6676475477e+000	 4.0803531172e+000	-3.4619746216e-001
 3.0884608194e+000	 3.8041306191e+000	-3.3888562840e-001
 3.0490200129e+000	 3.8358150322e+000	-4.0072600590e-001
 3.0092776439e+000	 3.8670722856e+000	-4.4556390823e-001
 2.9692406314e+000	 3.8978981609e+000	-4.7476336327e-001
 2.9289159709e+000	 3.9282885886e+000	-4.8967432860e-001
 2.8883107307e+000	 3.9582396495e+000	-4.9163001055e-001
 2.8474320475e+000	 3.9877475766e+000	-4.8194427076e-001
 2.8062871225e+000	 4.0168087564e+000	-4.6190912598e-001
 2.7648832176e+000	 4.0454197301e+000	-4.3279234621e-001
 2.7232276505e+000	 4.0735771949e+000	-3.9583515607e-001
 2.6813277916e+000	 4.1012780050e+000	-3.5225004388e-001
 3.1042182725e+000	 3.8235394488e+000	-3.2226403271e-001
 3.0645762375e+000	 3.8553855170e+000	-3.8562410512e-001
 3.0246311013e+000	 3.8868022462e+000	-4.3217687909e-001
 2.9843898182e+000	 3.9177853965e+000	-4.6333289134e-001
 2.9438594197e+000	 3.9483308773e+000	-4.8048761840e-001
 2.9030470099e+000	 3.9784347498e+000	-4.8501873173e-001
 2.8619597620e+000	 4.0080932275e+000	-4.7828344310e-001
 2.8206049140e+000	 4.0373026787e+000	-4.6161594577e-001
 2.7789897646e+000	 4.0660596267e+000	-4.3632495688e-001
 2.7371216692e+000	 4.0943607521e+000	-4.0369136594e-001
 2.6950080354e+000	 4.1222028927e+000	-3.6496599401e-001
 3.1199757257e+000	 3.8429482785e+000	-3.0952667462e-001
 3.0801324620e+000	 3.8749560019e+000	-3.7466875260e-001
 3.0399845586e+000	 3.9065322069e+000	-4.2319964770e-001
 2.9995390051e+000	 3.9376726320e+000	-4.5657660148e-001
 2.9588028685e+000	 3.9683731661e+000	-4.7624079709e-001
 2.9177832891e+000	 3.9986298500e+000	-4.8361455024e-001
 2.8764874765e+000	 4.0284388784e+000	-4.8009859292e-001
 2.8349227054e+000	 4.0577966009e+000	-4.6706945566e-001
 2.7930963116e+000	 4.0866995233e+000	-4.4587695388e-001
 2.7510156878e+000	 4.1151443092e+000	-4.1784178317e-001
 2.7086882792e+000	 4.1431277805e+000	-3.8425322830e-001
 3.1357331788e+000	 3.8623571082e+000	-3.2914906446e-001
 3.0956886866e+000	 3.8945264867e+000	-3.6781910481e-001
 3.0553380160e+000	 3.9262621675e+000	-4.1858513066e-001
 3.0146881920e+000	 3.9575598675e+000	-4.5444129361e-001
 2.9737463174e+000	 3.9884154548e+000	-4.7687467545e-001
 2.9325195684e+000	 4.0188249503e+000	-4.8735241938e-001
 2.8910151910e+000	 4.0487845293e+000	-4.8731895173e-001
 2.8492404969e+000	 4.0782905231e+000	-4.7819330495e-001
 2.8072028587e+000	 4.1073394199e+000	-4.6136654759e-001
 2.7649097064e+000	 4.1359278663e+000	-4.3819932610e-001
 2.7223685231e+000	 4.1640526683e+000	-4.1001952338e-001
 3.1514906320e+000	 3.8817659379e+000	-3.6525511587e-001
 3.1112449111e+000	 3.9140969716e+000	-3.6503335780e-001
 3.0706914733e+000	 3.9459921281e+000	-4.1828538055e-001
 3.0298373789e+000	 3.9774471030e+000	-4.5687299897e-001
 2.9886897662e+000	 4.0084577435e+000	-4.8232938977e-001
 2.9472558476e+000	 4.0390200505e+000	-4.9616671097e-001
 2.9055429056e+000	 4.0691301802e+000	-4.9987326133e-001
 2.8635582883e+000	 4.0987844453e+000	-4.9491074373e-001
 2.8213094057e+000	 4.1279793165e+000	-4.8271163840e-001
 2.7788037250e+000	 4.1567114234e+000	-4.6467669095e-001
 2.7360487669e+000	 4.1849775561e+000	-4.4217252030e-001
 2.5992463286e+000	 3.9757286783e+000	-4.1909783032e-001
 2.5583994957e+000	 4.0021359322e+000	-4.6313365788e-001
 2.5173302738e+000	 4.0280948713e+000	-5.2063321924e-001
 2.4760459347e+000	 4.0536029072e+000	-4.9010317926e-001
 2.4345537848e+000	 4.0786576062e+000	-4.0453477761e-001
 2.3928611605e+000	 4.1032566903e+000	-3.4010191767e-001
 2.3509754247e+000	 4.1273980366e+000	-2.9800717985e-001
 2.3089039626e+000	 4.1510796778e+000	-2.7931144118e-001
 2.2666541773e+000	 4.1742998024e+000	-2.8493385668e-001
 2.2242334862e+000	 4.1970567543e+000	-3.1565220258e-001
 2.1816493170e+000	 4.2193490324e+000	-3.7210357455e-001
 2.6129265724e+000	 3.9966535661e+000	-3.9045743200e-001
 2.5718647562e+000	 4.0231998056e+000	-4.2585231989e-001
 2.5305793805e+000	 4.0492953706e+000	-4.7417284605e-001
 2.4890777554e+000	 4.0749376593e+000	-4.9015733424e-001
 2.4473672257e+000	 4.1001242252e+000	-3.9649465422e-001
 2.4054551666e+000	 4.1248527781e+000	-3.2439489566e-001
 2.3633489796e+000	 4.1491211841e+000	-2.7511824192e-001
 2.3210560887e+000	 4.1729274656e+000	-2.4978016298e-001
 2.2785839361e+000	 4.1962698014e+000	-2.4935136566e-001
 2.2359399782e+000	 4.2191465267e+000	-2.7465811297e-001
 2.1931316818e+000	 4.2415561326e+000	-3.2638290544e-001
 2.6266068162e+000	 4.0175784539e+000	-3.6893860739e-001
 2.5853300167e+000	 4.0442636789e+000	-3.9620876989e-001
 2.5438284872e+000	 4.0704958700e+000	-4.3587974532e-001
 2.5021095762e+000	 4.0962724114e+000	-4.8814370595e-001
 2.4601806667e+000	 4.1215908442e+000	-3.9564528835e-001
 2.4180491727e+000	 4.1464488660e+000	-3.1659770319e-001
 2.3757225345e+000	 4.1708443317e+000	-2.6089327975e-001
 2.3332082148e+000	 4.1947752533e+000	-2.2970190177e-001
 2.2905136949e+000	 4.2182398003e+000	-2.2404559899e-001
 2.2476464703e+000	 4.2412362991e+000	-2.4479884317e-001
 2.2046140466e+000	 4.2637632328e+000	-2.9268921327e-001
 2.6402870601e+000	 4.0385033416e+000	-3.5445002382e-001
 2.5987952773e+000	 4.0653275522e+000	-3.7410294321e-001
 2.5570775939e+000	 4.0916963693e+000	-4.0564510393e-001
 2.5151413969e+000	 4.1176071636e+000	-4.4931736579e-001
 2.4729941077e+000	 4.1430574632e+000	-4.0152354460e-001
 2.4306431788e+000	 4.1680449538e+000	-3.1624018222e-001
 2.3880960893e+000	 4.1925674792e+000	-2.5485533502e-001
 2.3453603409e+000	 4.2166230411e+000	-2.1859312529e-001
 2.3024434537e+000	 4.2402097993e+000	-2.0852668037e-001
 2.2593529623e+000	 4.2633260715e+000	-2.2557840606e-001
 2.2160964114e+000	 4.2859703329e+000	-2.7052063633e-001
 2.6539673039e+000	 4.0594282294e+000	-3.4690019041e-001
 2.6122605378e+000	 4.0863914255e+000	-3.5943478189e-001
 2.5703267006e+000	 4.1128968686e+000	-3.8336028244e-001
 2.5281732176e+000	 4.1389419157e+000	-4.1896618825e-001
 2.4858075487e+000	 4.1645240822e+000	-4.1366680100e-001
 2.4432371849e+000	 4.1896410417e+000	-3.2285286079e-001
 2.4004696442e+000	 4.2142906268e+000	-2.5652830990e-001
 2.3575124671e+000	 4.2384708289e+000	-2.1597133776e-001
 2.3143732126e+000	 4.2621797983e+000	-2.0230594757e-001
 2.2710594543e+000	 4.2854158438e+000	-2.1650220761e-001
 2.2275787763e+000	 4.3081774331e+000	-2.5937688637e-001
 2.6676475477e+000	 4.0803531172e+000	-3.4619746216e-001
 2.6257257983e+000	 4.1074552989e+000	-3.5210423450e-001
 2.5835758073e+000	 4.1340973679e+000	-3.6891681062e-001
 2.5412050383e+000	 4.1602766679e+000	-3.9697327719e-001
 2.4986209896e+000	 4.1859907011e+000	-4.3161293587e-001
 2.4558311910e+000	 4.2112371295e+000	-3.3596693547e-001
 2.4128431991e+000	 4.2360137743e+000	-2.6543694497e-001
 2.3696645932e+000	 4.2603186167e+000	-2.2135505332e-001
 2.3263029714e+000	 4.2841497972e+000	-2.0489592125e-001
 2.2827659464e+000	 4.3075056162e+000	-2.1707701116e-001
 2.2390611411e+000	 4.3303845333e+000	-2.5875920826e-001
 2.6813277916e+000	 4.1012780050e+000	-3.5225004388e-001
 2.6391910588e+000	 4.1285191722e+000	-3.5201125598e-001
 2.5968249141e+000	 4.1552978673e+000	-3.6220638313e-001
 2.5542368590e+000	 4.1816114200e+000	-3.8322206175e-001
 2.5114344306e+000	 4.2074573201e+000	-4.1540015708e-001
 2.4684251971e+000	 4.2328332174e+000	-3.5511425431e-001
 2.4252167539e+000	 4.2577369219e+000	-2.8110679786e-001
 2.3818167193e+000	 4.2821664045e+000	-2.3426377029e-001
 2.3382327302e+000	 4.3061197962e+000	-2.1581027487e-001
 2.2944724384e+000	 4.3295953886e+000	-2.2681090275e-001
 2.2505435059e+000	 4.3525916335e+000	-2.6817034087e-001
 2.6950080354e+000	 4.1222028927e+000	-3.6496599401e-001
 2.6526563193e+000	 4.1495830455e+000	-3.5905580748e-001
 2.6100740208e+000	 4.1764983666e+000	-3.6312085537e-001
 2.5672686797e+000	 4.2029461722e+000	-3.7759628813e-001
 2.5242478716e+000	 4.2289239391e+000	-4.0287185589e-001
 2.4810192032e+000	 4.2544293052e+000	-3.7982730024e-001
 2.4375903088e+000	 4.2794600695e+000	-3.0306422250e-001
 2.3939688454e+000	 4.3040141922e+000	-2.5421794615e-001
 2.3501624891e+000	 4.3280897951e+000	-2.3456380535e-001
 2.3061789304e+000	 4.3516851610e+000	-2.4521325759e-001
 2.2620258708e+000	 4.3747987336e+000	-2.8711447914e-001
 2.7086882792e+000	 4.1431277805e+000	-3.8425322830e-001
 2.6661215798e+000	 4.1706469189e+000	-3.7313785619e-001
 2.6233231275e+000	 4.1976988659e+000	-3.7155223935e-001
 2.5803005004e+000	 4.2242809243e+000	-3.7998001157e-001
 2.5370613125e+000	 4.2503905581e+000	-3.9885876017e-001
 2.4936132094e+000	 4.2760253930e+000	-4.0963917514e-001
 2.4499638637e+000	 4.3011832170e+000	-3.3083634898e-001
 2.4061209716e+000	 4.3258619800e+000	-2.8073897335e-001
 2.3620922479e+000	 4.3500597941e+000	-2.6067240475e-001
 2.3178854225e+000	 4.3737749334e+000	-2.7179470750e-001
 2.2735082356e+000	 4.3970058338e+000	-2.8096128839e-001
 2.7223685231e+000	 4.1640526683e+000	-4.1001952338e-001
 2.6795868403e+000	 4.1917107922e+000	-3.9415737522e-001
 2.6365722342e+000	 4.2188993652e+000	-3.8739269983e-001
 2.5933323211e+000	 4.2456156764e+000	-3.9025758861e-001
 2.5498747535e+000	 4.2718571771e+000	-4.0323742323e-001
 2.5062072155e+000	 4.2976214809e+000	-4.2676994520e-001
 2.4623374186e+000	 4.3229063646e+000	-3.6395106411e-001
 2.4182730977e+000	 4.3477097678e+000	-3.1334915581e-001
 2.3740220067e+000	 4.3720297931e+000	-2.9365303274e-001
 2.3295919145e+000	 4.3958647058e+000	-2.7790385933e-001
 2.2849906004e+000	 4.4192129340e+000	-2.7620596811e-001
 2.7360487669e+000	 4.1849775561e+000	-4.4217252030e-001
 2.6930521008e+000	 4.2127746655e+000	-4.2201434340e-001
 2.6498213409e+000	 4.2400998645e+000	-4.1053455046e-001
 2.6063641418e+000	 4.2669504286e+000	-4.0831366952e-001
 2.5626881945e+000	 4.2933237960e+000	-4.1588483859e-001
 2.5188012216e+000	 4.3192175687e+000	-4.3373281931e-001
 2.4747109734e+000	 4.3446295122e+000	-4.0193699246e-001
 2.4304252238e+000	 4.3695575556e+000	-3.5157168612e-001
 2.3859517656e+000	 4.3939997920e+000	-3.1105286565e-001
 2.3412984066e+000	 4.4179544782e+000	-2.8391945961e-001
 2.2964729653e+000	 4.4414200342e+000	-2.7326054217e-001
 2.1816493170e+000	 4.2193490324e+000	-3.7210357455e-001
 2.1389091034e+000	 4.2411752908e+000	-3.3382293656e-001
 2.0960202818e+000	 4.2625343375e+000	-3.1946321601e-001
 2.0529902865e+000	 4.2834251345e+000	-3.2958229032e-001
 2.0098265468e+000	 4.3038467969e+000	-3.6460244564e-001
 1.9665364825e+000	 4.3237985918e+000	-4.2481238782e-001
 1.9231275005e+000	 4.3432799376e+000	-5.1036955367e-001
 1.8796069909e+000	 4.3622904030e+000	-6.2130271008e-001
 1.8359823234e+000	 4.3808297054e+000	-5.3629431491e-001
 1.7922608439e+000	 4.3988977105e+000	-4.1584459719e-001
 1.7484498704e+000	 4.4164944300e+000	-3.1614451929e-001
 2.1931316818e+000	 4.2415561326e+000	-3.2638290544e-001
 2.1501665198e+000	 4.2634972660e+000	-2.8949724489e-001
 2.1070519675e+000	 4.2849687287e+000	-2.7632372747e-001
 2.0637954986e+000	 4.3059694774e+000	-2.8754473708e-001
 2.0204045813e+000	 4.3264986222e+000	-3.2370397135e-001
 1.9768866745e+000	 4.3465554265e+000	-3.8520837736e-001
 1.9332492242e+000	 4.3661393057e+000	-4.7233039517e-001
 1.8894996592e+000	 4.3852498261e+000	-5.5467249419e-001
 1.8456453883e+000	 4.4038867039e+000	-4.7968716482e-001
 1.8016937957e+000	 4.4220498037e+000	-3.5347180337e-001
 1.7576522382e+000	 4.4397391376e+000	-2.4719409976e-001
 2.2046140466e+000	 4.2637632328e+000	-2.9268921327e-001
 2.1614239361e+000	 4.2858192412e+000	-2.5952686750e-001
 2.1180836532e+000	 4.3074031200e+000	-2.4990925438e-001
 2.0746007106e+000	 4.3285138202e+000	-2.6464210811e-001
 2.0309826157e+000	 4.3491504474e+000	-3.0438933764e-001
 1.9872368665e+000	 4.3693122612e+000	-3.6967488886e-001
 1.9433709479e+000	 4.3889986738e+000	-4.2183090370e-001
 1.8993923276e+000	 4.4082092493e+000	-4.6849164123e-001
 1.8553084531e+000	 4.4269437023e+000	-4.3234427070e-001
 1.8111267475e+000	 4.4452018969e+000	-3.0197632787e-001
 1.7668546059e+000	 4.4629838451e+000	-1.9071396090e-001
 2.2160964114e+000	 4.2859703329e+000	-2.7052063633e-001
 2.1726813525e+000	 4.3081412164e+000	-2.4338250652e-001
 2.1291153389e+000	 4.3298375112e+000	-2.3966317810e-001
 2.0854059226e+000	 4.3510581630e+000	-2.6029059209e-001
 2.0415606502e+000	 4.3718022727e+000	-3.0604768101e-001
 1.9975870585e+000	 4.3920690959e+000	-3.3333634700e-001
 1.9534926715e+000	 4.4118580419e+000	-3.6144802955e-001
 1.9092849960e+000	 4.4311686725e+000	-3.9626147667e-001
 1.8649715180e+000	 4.4500007008e+000	-3.9446200692e-001
 1.8205596993e+000	 4.4683539901e+000	-2.6151376280e-001
 1.7760569736e+000	 4.4862285526e+000	-1.4681856571e-001
 2.2275787763e+000	 4.3081774331e+000	-2.5937688637e-001
 2.1839387688e+000	 4.3304631916e+000	-2.4053706873e-001
 2.1401470246e+000	 4.3522719025e+000	-2.4503171955e-001
 2.0962111347e+000	 4.3736025058e+000	-2.7390985563e-001
 2.0521386846e+000	 4.3944540979e+000	-2.8163248449e-001
 2.0079372506e+000	 4.4148259306e+000	-2.9407088522e-001
 1.9636143952e+000	 4.4347174100e+000	-3.1308750306e-001
 1.9191776644e+000	 4.4541280956e+000	-3.3787693672e-001
 1.8746345829e+000	 4.4730576992e+000	-3.6624345904e-001
 1.8299926511e+000	 4.4915060834e+000	-2.3224706412e-001
 1.7852593414e+000	 4.5094732602e+000	-1.1563039518e-001
 2.2390611411e+000	 4.3303845333e+000	-2.5875920826e-001
 2.1951961851e+000	 4.3527851668e+000	-2.5046560897e-001
 2.1511787103e+000	 4.3747062937e+000	-2.6546386635e-001
 2.1070163467e+000	 4.3961468486e+000	-2.5885504018e-001
 2.0627167191e+000	 4.4171059232e+000	-2.5877920580e-001
 2.0182874426e+000	 4.4375827653e+000	-2.6496722847e-001
 1.9737361189e+000	 4.4575767781e+000	-2.7668303098e-001
 1.9290703327e+000	 4.4770875188e+000	-2.9323886227e-001
 1.8842976477e+000	 4.4961146977e+000	-3.1399448661e-001
 1.8394256029e+000	 4.5146581766e+000	-2.1434636294e-001
 1.7944617091e+000	 4.5327179677e+000	-9.7279742624e-002
 2.2505435059e+000	 4.3525916335e+000	-2.6817034087e-001
 2.2064536015e+000	 4.3751071420e+000	-2.7247699052e-001
 2.1622103960e+000	 4.3971406850e+000	-2.5683827241e-001
 2.1178215587e+000	 4.4186911914e+000	-2.4768379101e-001
 2.0732947536e+000	 4.4397577484e+000	-2.4429306183e-001
 2.0286376346e+000	 4.4603396000e+000	-2.4599625308e-001
 1.9838578426e+000	 4.4804361462e+000	-2.5217345770e-001
 1.9389630011e+000	 4.5000469420e+000	-2.6225384829e-001
 1.8939607126e+000	 4.5191716961e+000	-2.7571472052e-001
 1.8488585547e+000	 4.5378102698e+000	-2.0798878241e-001
 1.8036640769e+000	 4.5559626752e+000	-9.1904514467e-002
 2.2620258708e+000	 4.3747987336e+000	-2.8711447914e-001
 2.2177110178e+000	 4.3974291173e+000	-2.6712230144e-001
 2.1732420817e+000	 4.4195750762e+000	-2.5259390008e-001
 2.1286267708e+000	 4.4412355342e+000	-2.4314898813e-001
 2.0838727880e+000	 4.4624095737e+000	-2.3818053941e-001
 2.0389878266e+000	 4.4830964347e+000	-2.3713324397e-001
 1.9939795663e+000	 4.5032955143e+000	-2.3950263489e-001
 1.9488556695e+000	 4.5230063652e+000	-2.4483409773e-001
 1.9036237774e+000	 4.5422286946e+000	-2.5272176838e-001
 1.8582915065e+000	 4.5609623630e+000	-2.1335826025e-001
 1.8128664446e+000	 4.5792073827e+000	-9.9650036967e-002
 2.2735082356e+000	 4.3970058338e+000	-2.8096128839e-001
 2.2289684341e+000	 4.4197510925e+000	-2.6502476702e-001
 2.1842737674e+000	 4.4420094675e+000	-2.5331741216e-001
 2.1394319828e+000	 4.4637798771e+000	-2.4529121037e-001
 2.0944508225e+000	 4.4850613989e+000	-2.4045184131e-001
 2.0493380186e+000	 4.5058532694e+000	-2.3835778327e-001
 2.0041012900e+000	 4.5261548824e+000	-2.3861929502e-001
 1.9587483379e+000	 4.5459657884e+000	-2.4089727997e-001
 1.9132868423e+000	 4.5652856930e+000	-2.4490203867e-001
 1.8677244584e+000	 4.5841144562e+000	-2.3064537674e-001
 1.8220688123e+000	 4.6024520903e+000	-1.2066886887e-001
 2.2849906004e+000	 4.4192129340e+000	-2.7620596811e-001
 2.2402258505e+000	 4.4420730677e+000	-2.6628686146e-001
 2.1953054531e+000	 4.4644438587e+000	-2.5908200054e-001
 2.1502371949e+000	 4.4863242199e+000	-2.5415409498e-001
 2.1050288570e+000	 4.5077132242e+000	-2.5112079289e-001
 2.0596882107e+000	 4.5286101041e+000	-2.4965364239e-001
 2.0142230137e+000	 4.5490142505e+000	-2.4947692875e-001
 1.9686410063e+000	 4.5689252115e+000	-2.5036639343e-001
 1.9229499072e+000	 4.5883426915e+000	-2.5214784150e-001
 1.8771574102e+000	 4.6072665494e+000	-2.5469564395e-001
 1.8312711801e+000	 4.6256967978e+000	-1.5512061966e-001
 2.2964729653e+000	 4.4414200342e+000	-2.7326054217e-001
 2.2514832668e+000	 4.4643950429e+000	-2.7101294914e-001
 2.2063371388e+000	 4.4868782500e+000	-2.6996329169e-001
 2.1610424069e+000	 4.5088685627e+000	-2.6978426114e-001
 2.1156068914e+000	 4.5303650494e+000	-2.7020475151e-001
 2.0700384027e+000	 4.5513669388e+000	-2.7100867726e-001
 2.0243447374e+000	 4.5718736186e+000	-2.7203366592e-001
 1.9785336746e+000	 4.5918846347e+000	-2.7316963235e-001
 1.9326129720e+000	 4.6113996900e+000	-2.7435724107e-001
 1.8865903620e+000	 4.6304186427e+000	-2.7558626376e-001
 1.8404735478e+000	 4.6489415053e+000	-2.0317177334e-001
 1.7484498704e+000	 4.4164944300e+000	-3.1614451929e-001
 1.7045566903e+000	 4.4336200209e+000	-2.5710763964e-001
 1.6605885562e+000	 4.4502747833e+000	-2.0837752462e-001
 1.6165526831e+000	 4.4664591594e+000	-1.6910339218e-001
 1.5724562449e+000	 4.4821737314e+000	-1.3851613528e-001
 1.5283063712e+000	 4.4974192195e+000	-1.1592436134e-001
 1.4841101442e+000	 4.5121964807e+000	-1.0071032499e-001
 1.4398745957e+000	 4.5265065060e+000	-9.2325770012e-002
 1.3956067041e+000	 4.5403504190e+000	-9.0287696195e-002
 1.3513133914e+000	 4.5537294736e+000	-9.4174066598e-002
 1.3070015205e+000	 4.5666450514e+000	-1.0361947044e-001
 1.7576522382e+000	 4.4397391376e+000	-2.4719409976e-001
 1.7135280413e+000	 4.4569548631e+000	-1.9916689881e-001
 1.6693284959e+000	 4.4736972822e+000	-1.6238285370e-001
 1.6250608551e+000	 4.4899668392e+000	-1.3585731615e-001
 1.5807323304e+000	 4.5057641194e+000	-1.1869024596e-001
 1.5363500889e+000	 4.5210898470e+000	-1.1006227857e-001
 1.4919212502e+000	 4.5359448832e+000	-1.0923068059e-001
 1.4474528831e+000	 4.5503302244e+000	-1.1552520915e-001
 1.4029520026e+000	 4.5642470002e+000	-1.2834389106e-001
 1.3584255672e+000	 4.5776964708e+000	-1.4714873755e-001
 1.3138804759e+000	 4.5906800254e+000	-1.7146140985e-001
 1.7668546059e+000	 4.4629838451e+000	-1.9071396090e-001
 1.7224993923e+000	 4.4802897053e+000	-1.5063706272e-001
 1.6780684357e+000	 4.4971197811e+000	-1.2271228339e-001
 1.6335690271e+000	 4.5134745190e+000	-1.0582310630e-001
 1.5890084159e+000	 4.5293545075e+000	-9.8940573442e-002
 1.5443938066e+000	 4.5447604745e+000	-1.0111937846e-001
 1.4997323562e+000	 4.5596932857e+000	-1.1149384222e-001
 1.4550311704e+000	 4.5741539429e+000	-1.2927378690e-001
 1.4102973010e+000	 4.5881435813e+000	-1.5374032482e-001
 1.3655377429e+000	 4.6016634680e+000	-1.8424157797e-001
 1.3207594313e+000	 4.6147149993e+000	-2.2018834372e-001
 1.7760569736e+000	 4.4862285526e+000	-1.4681856571e-001
 1.7314707433e+000	 4.5036245475e+000	-1.1166314197e-001
 1.6868083755e+000	 4.5205422799e+000	-8.9541179170e-002
 1.6420771991e+000	 4.5369821988e+000	-7.9206280287e-002
 1.5972845014e+000	 4.5529448956e+000	-7.9502575209e-002
 1.5524375244e+000	 4.5684311019e+000	-8.9360836676e-002
 1.5075434623e+000	 4.5834416883e+000	-1.0779447310e-001
 1.4626094578e+000	 4.5979776614e+000	-1.3389541478e-001
 1.4176425995e+000	 4.6120401625e+000	-1.6682990970e-001
 1.3726499187e+000	 4.6256304653e+000	-2.0583424526e-001
 1.3276383866e+000	 4.6387499733e+000	-2.5021041148e-001
 1.7852593414e+000	 4.5094732602e+000	-1.1563039518e-001
 1.7404420943e+000	 4.5269593898e+000	-8.2397335626e-002
 1.6955483152e+000	 4.5439647788e+000	-6.3051263969e-002
 1.6505853711e+000	 4.5604898786e+000	-5.6217881037e-002
 1.6055605868e+000	 4.5765352836e+000	-6.0616401103e-002
 1.5604812421e+000	 4.5921017294e+000	-7.5055687910e-002
 1.5153545683e+000	 4.6071900908e+000	-9.8430262134e-002
 1.4701877451e+000	 4.6218013798e+000	-1.2971619696e-001
 1.4249878979e+000	 4.6359367437e+000	-1.6796691831e-001
 1.3797620944e+000	 4.6495974625e+000	-2.1230892598e-001
 1.3345173420e+000	 4.6627849472e+000	-2.6193745188e-001
 1.7944617091e+000	 4.5327179677e+000	-9.7279742624e-002
 1.7494134453e+000	 4.5502942320e+000	-6.2998846897e-002
 1.7042882550e+000	 4.5673872776e+000	-4.3430455138e-002
 1.6590935431e+000	 4.5839975584e+000	-3.7074335095e-002
 1.6138366723e+000	 4.6001256717e+000	-4.2526772990e-002
 1.5685249599e+000	 4.6157723569e+000	-5.8476726926e-002
 1.5231656743e+000	 4.6309384933e+000	-8.3701846300e-002
 1.4777660325e+000	 4.6456250983e+000	-1.1706437409e-001
 1.4323331963e+000	 4.6598333248e+000	-1.5750694874e-001
 1.3868742701e+000	 4.6735644597e+000	-2.0404832225e-001
 1.3413962974e+000	 4.6868199212e+000	-2.5577901066e-001
 1.8036640769e+000	 4.5559626752e+000	-9.1904514467e-002
 1.7583847963e+000	 4.5736290742e+000	-5.3633704459e-002
 1.7130281948e+000	 4.5908097765e+000	-3.0872706442e-002
 1.6676017152e+000	 4.6075052382e+000	-2.1997315272e-002
 1.6221127578e+000	 4.6237160597e+000	-2.5482868137e-002
 1.5765686776e+000	 4.6394429843e+000	-3.9900412642e-002
 1.5309767803e+000	 4.6546868958e+000	-6.3912735478e-002
 1.4853443198e+000	 4.6694488167e+000	-9.6270268720e-002
 1.4396784948e+000	 4.6837299060e+000	-1.3580689076e-001
 1.3939864459e+000	 4.6975314569e+000	-1.8143563861e-001
 1.3482752527e+000	 4.7108548951e+000	-2.3214434810e-001
 1.8128664446e+000	 4.5792073827e+000	-9.9650036967e-002
 1.7673561473e+000	 4.5969639164e+000	-5.4474589220e-002
 1.7217681346e+000	 4.6142322754e+000	-2.5577854848e-002
 1.6761098872e+000	 4.6310129180e+000	-1.1213607490e-002
 1.6303888433e+000	 4.6473064478e+000	-9.7382061213e-003
 1.5846123954e+000	 4.6631136118e+000	-1.9606775127e-002
 1.5387878863e+000	 4.6784352984e+000	-3.9369239508e-002
 1.4929226072e+000	 4.6932725352e+000	-6.7666232536e-002
 1.4470237932e+000	 4.7076264871e+000	-1.0322489303e-001
 1.4010986216e+000	 4.7214984542e+000	-1.4485456925e-001
 1.3551542081e+000	 4.7348898691e+000	-1.9144244621e-001
 1.8220688123e+000	 4.6024520903e+000	-1.2066886887e-001
 1.7763274983e+000	 4.6202987586e+000	-6.5700666331e-002
 1.7305080743e+000	 4.6376547742e+000	-2.7751471959e-002
 1.6846180592e+000	 4.6545205977e+000	-4.9549816656e-003
 1.6386649288e+000	 4.6708968359e+000	 4.4494608152e-003
 1.5926561131e+000	 4.6867842393e+000	 2.1206745801e-003
 1.5465989924e+000	 4.7021837009e+000	-1.0380397498e-002
 1.5005008945e+000	 4.7170962536e+000	-3.1586595074e-002
 1.4543690917e+000	 4.7315230682e+000	-6.0120331295e-002
 1.4082107974e+000	 4.7454654514e+000	-9.4689285663e-002
 1.3620331635e+000	 4.7589248430e+000	-1.3408201578e-001
 1.8312711801e+000	 4.6256967978e+000	-1.5512061966e-001
 1.7852988493e+000	 4.6436336008e+000	-8.7497422270e-002
 1.7392480141e+000	 4.6610772731e+000	-3.7604719931e-002
 1.6931262312e+000	 4.6780282775e+000	-3.4580664855e-003
 1.6469410143e+000	 4.6944872239e+000	 1.6818254120e-002
 1.6006998308e+000	 4.7104548668e+000	 2.4995031927e-002
 1.5544100984e+000	 4.7259321034e+000	 2.2742090759e-002
 1.5080791818e+000	 4.7409199721e+000	 1.1632385959e-002
 1.4617143901e+000	 4.7554196494e+000	-6.8537775970e-003
 1.4153229731e+000	 4.7694324486e+000	-3.1324424656e-002
 1.3689121189e+000	 4.7829598170e+000	-6.0471503181e-002
 1.8404735478e+000	 4.6489415053e+000	-2.0317177334e-001
 1.7942702003e+000	 4.6669684431e+000	-1.2005650681e-001
 1.7479879539e+000	 4.6844997719e+000	-5.5354211702e-002
 1.7016344032e+000	 4.7015359573e+000	-6.9642279351e-003
 1.6552170998e+000	 4.7180776120e+000	 2.7102272085e-002
 1.6087435486e+000	 4.7341254942e+000	 4.8726083689e-002
 1.5622212044e+000	 4.7496805060e+000	 5.9683931299e-002
 1.5156574692e+000	 4.7647436905e+000	 6.1652572890e-002
 1.4690596886e+000	 4.7793162305e+000	 5.6213029677e-002
 1.4224351489e+000	 4.7933994458e+000	 4.4854923299e-002
 1.3757910742e+000	 4.8069947909e+000	 2.8980903019e-002
 1.3070015205e+000	 4.5666450514e+000	-1.0361947044e-001
 1.2626778925e+000	 4.5790986602e+000	 1.0886433890e-001
 1.2183492440e+000	 4.5910919311e+000	 3.8539664828e-002
 1.1740222445e+000	 4.6026266164e+000	-9.8732613135e-002
 1.1297034943e+000	 4.6137045869e+000	-1.7921256977e-001
 1.0853995214e+000	 4.6243278300e+000	-2.0746183844e-001
 1.0411167802e+000	 4.6344984465e+000	-1.8783348728e-001
 9.9686164827e-001	 4.6442186484e+000	-1.2448393142e-001
 9.5264042516e-001	 4.6534907565e+000	-2.1384840843e-002
 9.0845932984e-001	 4.6623171971e+000	 1.1766499383e-001
 8.6432449896e-001	 4.6707005000e+000	 2.8902787376e-001
 1.3138804759e+000	 4.5906800254e+000	-1.7146140985e-001
 1.2693235656e+000	 4.6031991795e+000	 1.1679741832e-002
 1.2247616084e+000	 4.6152555729e+000	 2.8976471986e-003
 1.1802013090e+000	 4.6268509670e+000	-1.1986937098e-001
 1.1356493021e+000	 4.6379872426e+000	-1.8948210945e-001
 1.0911121505e+000	 4.6486663975e+000	-2.1033994096e-001
 1.0465963422e+000	 4.6588905436e+000	-1.8662983758e-001
 1.0021082885e+000	 4.6686619045e+000	-1.2233871761e-001
 9.5765432214e-001	 4.6779828131e+000	-2.1265783676e-002
 9.1324069473e-001	 4.6868557086e+000	 1.1296518695e-001
 8.6887357527e-001	 4.6952831342e+000	 2.7689363644e-001
 1.3207594313e+000	 4.6147149993e+000	-2.2018834372e-001
 1.2759692387e+000	 4.6272996988e+000	-6.4923130061e-002
 1.2311739729e+000	 4.6394192146e+000	-2.7830324730e-002
 1.1863803734e+000	 4.6510753176e+000	-1.3724965912e-001
 1.1415951100e+000	 4.6622698984e+000	-1.9718328612e-001
 1.0968247796e+000	 4.6730049650e+000	-2.1186566573e-001
 1.0520759042e+000	 4.6832826406e+000	-1.8531500009e-001
 1.0073549288e+000	 4.6931051605e+000	-1.2134602031e-001
 9.6266821912e-001	 4.7024748697e+000	-2.3582759693e-002
 9.1802205963e-001	 4.7113942202e+000	 1.0452872638e-001
 8.7342265158e-001	 4.7198657684e+000	 2.5970773144e-001
 1.3276383866e+000	 4.6387499733e+000	-2.5021041148e-001
 1.2826149119e+000	 4.6514002180e+000	-1.2135502930e-001
 1.2375863373e+000	 4.6635828564e+000	-5.2528775602e-002
 1.1925594379e+000	 4.6752996682e+000	-1.4980915160e-001
 1.1475409179e+000	 4.6865525541e+000	-2.0130374363e-001
 1.1025374086e+000	 4.6973435326e+000	-2.1107940812e-001
 1.0575554662e+000	 4.7076747377e+000	-1.8298286469e-001
 1.0126015690e+000	 4.7175484166e+000	-1.2065392799e-001
 9.6768211609e-001	 4.7269669263e+000	-2.7538721047e-002
 9.2280342452e-001	 4.7359327318e+000	 9.3097170218e-002
 8.7797172789e-001	 4.7444484026e+000	 2.3815564007e-001
 1.3345173420e+000	 4.6627849472e+000	-2.6193745188e-001
 1.2892605850e+000	 4.6755007373e+000	-1.5802614871e-001
 1.2439987017e+000	 4.6877464981e+000	-7.0081404536e-002
 1.1987385023e+000	 4.6995240188e+000	-1.5648242451e-001
 1.1534867257e+000	 4.7108352098e+000	-2.0082974884e-001
 1.1082500377e+000	 4.7216821001e+000	-2.0701990125e-001
 1.0630350282e+000	 4.7320668348e+000	-1.7872536761e-001
 1.0178482093e+000	 4.7419916726e+000	-1.1940827806e-001
 9.7269601307e-001	 4.7514589829e+000	-3.2334065656e-002
 9.2758478942e-001	 4.7604712433e+000	 7.9414939593e-002
 8.8252080420e-001	 4.7690310368e+000	 2.1292602089e-001
 1.3413962974e+000	 4.6868199212e+000	-2.5577901066e-001
 1.2959062581e+000	 4.6996012565e+000	-1.7534613578e-001
 1.2504110662e+000	 4.7119101398e+000	-8.1160180109e-002
 1.2049175668e+000	 4.7237483694e+000	-1.5620298405e-001
 1.1594325336e+000	 4.7351178655e+000	-1.9474622698e-001
 1.1139626667e+000	 4.7460206676e+000	-1.9872425861e-001
 1.0685145902e+000	 4.7564589319e+000	-1.7163254147e-001
 1.0230948496e+000	 4.7664349286e+000	-1.1675271460e-001
 9.7770991005e-001	 4.7759510395e+000	-3.7166702695e-002
 9.3236615432e-001	 4.7850097549e+000	 6.4229245259e-002
 8.8706988052e-001	 4.7936136710e+000	 1.8471062828e-001
 1.3482752527e+000	 4.7108548951e+000	-2.3214434810e-001
 1.3025519312e+000	 4.7237017758e+000	-1.7372410653e-001
 1.2568234306e+000	 4.7360737816e+000	-1.0334573704e-001
 1.2110966312e+000	 4.7479727200e+000	-1.4790329386e-001
 1.1653783415e+000	 4.7594005212e+000	-1.8203679579e-001
 1.1196752958e+000	 4.7703592351e+000	-1.8522801539e-001
 1.0739941522e+000	 4.7808510290e+000	-1.6079256391e-001
 1.0283414898e+000	 4.7908781847e+000	-1.1182874431e-001
 9.8272380703e-001	 4.8004430961e+000	-4.1232116085e-002
 9.3714751922e-001	 4.8095482664e+000	 4.8290016427e-002
 8.9161895683e-001	 4.8181963052e+000	 1.5420423344e-001
 1.3551542081e+000	 4.7348898691e+000	-1.9144244621e-001
 1.3091976043e+000	 4.7478022951e+000	-1.5356865909e-001
 1.2632357951e+000	 4.7602374233e+000	-1.0549757222e-001
 1.2172756957e+000	 4.7721970706e+000	-1.3051480150e-001
 1.1713241493e+000	 4.7836831769e+000	-1.6168379880e-001
 1.1253879249e+000	 4.7946978026e+000	-1.6556516851e-001
 1.0794737142e+000	 4.8052431260e+000	-1.4529180461e-001
 1.0335881301e+000	 4.8153214407e+000	-1.0377579075e-001
 9.8773770401e-001	 4.8249351527e+000	-4.3723426048e-002
 9.4192888412e-001	 4.8340867780e+000	 3.2349831768e-002
 8.9616803315e-001	 4.8427789394e+000	 1.2210454783e-001
 1.3620331635e+000	 4.7589248430e+000	-1.3408201578e-001
 1.3158432775e+000	 4.7719028143e+000	-1.1528788668e-001
 1.2696481595e+000	 4.7844010650e+000	-8.8023284393e-002
 1.2234547601e+000	 4.7964214212e+000	-1.0296796408e-001
 1.1772699572e+000	 4.8079658326e+000	-1.3266833744e-001
 1.1311005539e+000	 4.8190363702e+000	-1.3876821551e-001
 1.0849532762e+000	 4.8296352231e+000	-1.2421487099e-001
 1.0388347703e+000	 4.8397646967e+000	-9.1731246953e-002
 9.9275160099e-001	 4.8494272093e+000	-4.3831448798e-002
 9.4671024902e-001	 4.8586252895e+000	 1.7163852509e-002
 9.0071710947e-001	 4.8673615736e+000	 8.9112148912e-002
 1.3689121189e+000	 4.7829598170e+000	-6.0471503181e-002
 1.3224889506e+000	 4.7960033336e+000	-5.9289390362e-002
 1.2760605240e+000	 4.8085647068e+000	-5.1329746369e-002
 1.2296338246e+000	 4.8206457718e+000	-6.4192273130e-002
 1.1832157651e+000	 4.8322484884e+000	-9.3970302276e-002
 1.1368131830e+000	 4.8433749377e+000	-1.0386819215e-001
 1.0904328382e+000	 4.8540273202e+000	-9.6644652451e-002
 1.0440814106e+000	 4.8642079528e+000	-7.4830526428e-002
 9.9776549797e-001	 4.8739192659e+000	-4.0744754427e-002
 9.5149161392e-001	 4.8831638011e+000	 3.4897575448e-003
 9.0526618578e-001	 4.8919442078e+000	 5.5930408163e-002
 1.3757910742e+000	 4.8069947909e+000	 2.8980903019e-002
 1.3291346237e+000	 4.8201038528e+000	 1.4019708686e-002
 1.2824728884e+000	 4.8327283485e+000	 4.1768768393e-003
 1.2358128890e+000	 4.8448701224e+000	-1.3116278795e-002
 1.1891615729e+000	 4.8565311441e+000	-4.4568403262e-002
 1.1425258121e+000	 4.8677135052e+000	-5.9894709041e-002
 1.0959124002e+000	 4.8784194173e+000	-6.1662363368e-002
 1.0493280509e+000	 4.8886512088e+000	-5.2207112671e-002
 1.0027793950e+000	 4.8984113225e+000	-3.3649723062e-002
 9.5627297882e-001	 4.9077023127e+000	-7.9123195054e-003
 9.0981526210e-001	 4.9165268420e+000	 2.3265421196e-002
 8.6432449896e-001	 4.6707005000e+000	 2.8902787376e-001
 8.2024198506e-001	 4.6786432954e+000	 1.9194406977e-001
 7.7621775480e-001	 4.6861483115e+000	 9.5343488291e-002
 7.3225768736e-001	 4.6932183711e+000	-2.1297857791e-003
 6.8836757286e-001	 4.6998563898e+000	-1.0172868833e-001
 6.4455311094e-001	 4.7060653722e+000	-2.0461561186e-001
 6.0081990940e-001	 4.7118484097e+000	-1.9064549366e-001
 5.5717348293e-001	 4.7172086778e+000	-9.1877066673e-002
 5.1361925192e-001	 4.7221494326e+000	-7.2702819987e-003
 4.7016254140e-001	 4.7266740087e+000	 6.4704464969e-002
 4.2680858003e-001	 4.7307858159e+000	 1.2551592088e-001
 8.6887357527e-001	 4.6952831342e+000	 2.7689363644e-001
 8.2455904814e-001	 4.7032677338e+000	 2.0245674190e-001
 7.8030311141e-001	 4.7108122499e+000	 1.2874280051e-001
 7.3611167519e-001	 4.7179195205e+000	 5.4522693060e-002
 6.9199056008e-001	 4.7245924760e+000	-2.1330363041e-002
 6.4794549573e-001	 4.7308341373e+000	-9.9853550706e-002
 6.0398211945e-001	 4.7366476119e+000	-1.0183934720e-001
 5.6010597494e-001	 4.7420360919e+000	-2.7573279933e-002
 5.1632251113e-001	 4.7470028507e+000	 3.4225677227e-002
 4.7263708109e-001	 4.7515512403e+000	 8.4971153260e-002
 4.2905494097e-001	 4.7556846886e+000	 1.2601620615e-001
 8.7342265158e-001	 4.7198657684e+000	 2.5970773144e-001
 8.2887611122e-001	 4.7278921722e+000	 2.0592160522e-001
 7.8438846801e-001	 4.7354761884e+000	 1.5306409359e-001
 7.3996566301e-001	 4.7426206698e+000	 1.0003606973e-001
 6.9561354731e-001	 4.7493285623e+000	 4.5840091366e-002
 6.5133788053e-001	 4.7556029024e+000	-1.0432641951e-002
 6.0714432950e-001	 4.7614468140e+000	-2.0728211650e-002
 5.6303846695e-001	 4.7668635060e+000	 3.1701109567e-002
 5.1902577035e-001	 4.7718562687e+000	 7.3360413742e-002
 4.7511162077e-001	 4.7764284720e+000	 1.0554423490e-001
 4.3130130191e-001	 4.7805835613e+000	 1.2948686805e-001
 8.7797172789e-001	 4.7444484026e+000	 2.3815564007e-001
 8.3319317430e-001	 4.7525166106e+000	 2.0297792195e-001
 7.8847382461e-001	 4.7601401269e+000	 1.6890029138e-001
 7.4381965084e-001	 4.7673218191e+000	 1.3495684117e-001
 6.9923653453e-001	 4.7740646486e+000	 1.0028268699e-001
 6.5473026532e-001	 4.7803716675e+000	 6.4100613912e-002
 6.1030653954e-001	 4.7862460162e+000	 5.1928348357e-002
 5.6597095897e-001	 4.7916909201e+000	 8.5223787083e-002
 5.2172902957e-001	 4.7967096868e+000	 1.0944907692e-001
 4.7758616046e-001	 4.8013057036e+000	 1.2577651001e-001
 4.3354766286e-001	 4.8054824340e+000	 1.3531851680e-001
 8.8252080420e-001	 4.7690310368e+000	 2.1292602089e-001
 8.3751023738e-001	 4.7771410490e+000	 1.9426823657e-001
 7.9255918122e-001	 4.7848040654e+000	 1.7684770193e-001
 7.4767363867e-001	 4.7920229684e+000	 1.5983498760e-001
 7.0285952176e-001	 4.7988007348e+000	 1.4250101523e-001
 6.5812265011e-001	 4.8051404326e+000	 1.2420338873e-001
 6.1346874959e-001	 4.8110452184e+000	 1.1537453058e-001
 5.6890345098e-001	 4.8165183342e+000	 1.3227628730e-001
 5.2443228879e-001	 4.8215631049e+000	 1.4181074959e-001
 4.8006070016e-001	 4.8261829352e+000	 1.4502479318e-001
 4.3579402381e-001	 4.8303813068e+000	 1.4290585507e-001
 8.8706988052e-001	 4.7936136710e+000	 1.8471062828e-001
 8.4182730046e-001	 4.8017654874e+000	 1.8043829157e-001
 7.9664453783e-001	 4.8094680039e+000	 1.7750593076e-001
 7.5152762650e-001	 4.8167241177e+000	 1.7522388313e-001
 7.0648250899e-001	 4.8235368211e+000	 1.7300215498e-001
 6.6151503491e-001	 4.8299091977e+000	 1.7033643254e-001
 6.1663095964e-001	 4.8358444205e+000	 1.6885819870e-001
 5.7183594300e-001	 4.8413457483e+000	 1.7214389564e-001
 5.2713554801e-001	 4.8464165229e+000	 1.6976834718e-001
 4.8253523985e-001	 4.8510601668e+000	 1.6264981053e-001
 4.3804038475e-001	 4.8552801795e+000	 1.5164757304e-001
 8.9161895683e-001	 4.8181963052e+000	 1.5420423344e-001
 8.4614436354e-001	 4.8263899258e+000	 1.6213694596e-001
 8.0072989444e-001	 4.8341319423e+000	 1.7147779668e-001
 7.5538161434e-001	 4.8414252671e+000	 1.8168020924e-001
 7.1010549622e-001	 4.8482729073e+000	 1.9229658370e-001
 6.6490741971e-001	 4.8546779629e+000	 2.0296398226e-001
 6.1979316970e-001	 4.8606436227e+000	 2.1163078879e-001
 5.7476843502e-001	 4.8661731623e+000	 2.0411555257e-001
 5.2983880724e-001	 4.8712699410e+000	 1.9264851993e-001
 4.8500977954e-001	 4.8759373984e+000	 1.7801609988e-001
 4.4028674570e-001	 4.8801790522e+000	 1.6094624663e-001
 8.9616803315e-001	 4.8427789394e+000	 1.2210454783e-001
 8.5046142663e-001	 4.8510143642e+000	 1.4001609610e-001
 8.0481525105e-001	 4.8587958808e+000	 1.5936925029e-001
 7.5923560217e-001	 4.8661264164e+000	 1.7976387082e-001
 7.1372848345e-001	 4.8730089936e+000	 2.0089809113e-001
 6.6829980451e-001	 4.8794467280e+000	 2.2255367324e-001
 6.2295537975e-001	 4.8854428248e+000	 2.4294721868e-001
 5.7770092704e-001	 4.8910005764e+000	 2.2748376081e-001
 5.3254206646e-001	 4.8961233591e+000	 2.0978155812e-001
 4.8748431924e-001	 4.9008146301e+000	 1.9049191407e-001
 4.4253310665e-001	 4.9050779249e+000	 1.7020823895e-001
 9.0071710947e-001	 4.8673615736e+000	 8.9112148912e-002
 8.5477848971e-001	 4.8756388026e+000	 1.1473059906e-001
 8.0890060766e-001	 4.8834598193e+000	 1.4178929486e-001
 7.6308959000e-001	 4.8908275657e+000	 1.7003791477e-001
 7.1735147068e-001	 4.8977450799e+000	 1.9932369565e-001
 6.7169218931e-001	 4.9042154931e+000	 2.2957645338e-001
 6.2611758981e-001	 4.9102420270e+000	 2.6079399750e-001
 5.8063341906e-001	 4.9158279905e+000	 2.4154449544e-001
 5.3524532569e-001	 4.9209767771e+000	 2.2050130016e-001
 4.8995885893e-001	 4.9256918617e+000	 1.9944912712e-001
 4.4477946760e-001	 4.9299767976e+000	 1.7884360460e-001
 9.0526618578e-001	 4.8919442078e+000	 5.5930408163e-002
 8.5909555280e-001	 4.9002632410e+000	 8.6938198151e-002
 8.1298596427e-001	 4.9081237578e+000	 1.1934990964e-001
 7.6694357784e-001	 4.9155287150e+000	 1.5306845104e-001
 7.2097445791e-001	 4.9224811661e+000	 1.8809356318e-001
 6.7508457411e-001	 4.9289842582e+000	 2.2450649995e-001
 6.2927979986e-001	 4.9350412291e+000	 2.6245511423e-001
 5.8356591108e-001	 4.9406554046e+000	 2.4559711659e-001
 5.3794858491e-001	 4.9458301952e+000	 2.2414504339e-001
 4.9243339863e-001	 4.9505690933e+000	 2.0426314322e-001
 4.4702582855e-001	 4.9548756703e+000	 1.8626599695e-001
 9.0981526210e-001	 4.9165268420e+000	 2.3265421196e-002
 8.6341261589e-001	 4.9248876794e+000	 5.7299450859e-002
 8.1707132088e-001	 4.9327876962e+000	 9.2665975479e-002
 7.7079756568e-001	 4.9402298643e+000	 1.2942457608e-001
 7.2459744515e-001	 4.9472172524e+000	 1.6773092845e-001
 6.7847695892e-001	 4.9537530233e+000	 2.0782113884e-001
 6.3244200992e-001	 4.9598404313e+000	 2.4999649621e-001
 5.8649840310e-001	 4.9654828187e+000	 2.3894428485e-001
 5.4065184414e-001	 4.9706836133e+000	 2.2005345767e-001
 4.9490793833e-001	 4.9754463249e+000	 2.0431280853e-001
 4.4927218951e-001	 4.9797745430e+000	 1.9189257817e-001
 4.2680858003e-001	 4.7307858159e+000	 1.2551592088e-001
 3.8356249917e-001	 4.7344883366e+000	 1.7691344829e-001
 3.4042933210e-001	 4.7377851228e+000	 2.1349822512e-001
 2.9741401323e-001	 4.7406797935e+000	 2.3713019342e-001
 2.5452137749e-001	 4.7431760318e+000	 2.4964255180e-001
 2.1175615972e-001	 4.7452775818e+000	 2.5285019225e-001
 1.6912299422e-001	 4.7469882465e+000	 2.4855770833e-001
 1.2662641428e-001	 4.7483118844e+000	 2.3856696860e-001
 8.4270851934e-002	 4.7492524068e+000	 2.2468425027e-001
 4.2060637605e-002	 4.7498137756e+000	 2.0872692996e-001
 0.0000000000e+000	 4.7500000000e+000	 1.9252972996e-001
 4.2905494097e-001	 4.7556846886e+000	 1.2601620615e-001
 3.8558124916e-001	 4.7594066962e+000	 1.6758891377e-001
 3.4222106542e-001	 4.7627208340e+000	 1.9586613040e-001
 2.9897935014e-001	 4.7656307398e+000	 2.1249604143e-001
 2.5586096368e-001	 4.7681401161e+000	 2.1910318493e-001
 2.1287066582e-001	 4.7702527270e+000	 2.1729716567e-001
 1.7001311524e-001	 4.7719723952e+000	 2.0868092601e-001
 1.2729286910e-001	 4.7733029995e+000	 1.9485856703e-001
 8.4714382733e-002	 4.7742484721e+000	 1.7744271527e-001
 4.2282009382e-002	 4.7748127955e+000	 1.5806143175e-001
 0.0000000000e+000	 4.7750000000e+000	 1.3836466169e-001
 4.3130130191e-001	 4.7805835613e+000	 1.2948686805e-001
 3.8759999915e-001	 4.7843250559e+000	 1.6185842625e-001
 3.4401279874e-001	 4.7876565451e+000	 1.8244535003e-001
 3.0054468705e-001	 4.7905816861e+000	 1.9268190572e-001
 2.5720054988e-001	 4.7931042005e+000	 1.9398185285e-001
 2.1398517192e-001	 4.7952278722e+000	 1.8774743807e-001
 1.7090323626e-001	 4.7969565439e+000	 1.7537793098e-001
 1.2795932391e-001	 4.7982941147e+000	 1.5827769544e-001
 8.5157913532e-002	 4.7992445374e+000	 1.3786379140e-001
 4.2503381158e-002	 4.7998118153e+000	 1.1557310419e-001
 0.0000000000e+000	 4.8000000000e+000	 9.2868999495e-002
 4.3354766286e-001	 4.8054824340e+000	 1.3531851680e-001
 3.8961874915e-001	 4.8092434156e+000	 1.5918214965e-001
 3.4580453207e-001	 4.8125922563e+000	 1.7276565721e-001
 3.0211002396e-001	 4.8155326324e+000	 1.7728718634e-001
 2.5854013607e-001	 4.8180682849e+000	 1.7394756270e-001
 2.1509967803e-001	 4.8202030174e+000	 1.6393956709e-001
 1.7179335728e-001	 4.8219406925e+000	 1.4845673881e-001
 1.2862577872e-001	 4.8232852299e+000	 1.2870169932e-001
 8.5601444331e-002	 4.8242406027e+000	 1.0589399142e-001
 4.2724752935e-002	 4.8248108352e+000	 8.1277430692e-002
 0.0000000000e+000	 4.8250000000e+000	 5.6126967649e-002
 4.3579402381e-001	 4.8303813068e+000	 1.4290585507e-001
 3.9163749914e-001	 4.8341617752e+000	 1.5902376353e-001
 3.4759626540e-001	 4.8375279675e+000	 1.6635976193e-001
 3.0367536087e-001	 4.8404835786e+000	 1.6591363957e-001
 2.5987972227e-001	 4.8430323693e+000	 1.5867109574e-001
 2.1621418413e-001	 4.8451781625e+000	 1.4561330121e-001
 1.7268347830e-001	 4.8469248412e+000	 1.2772597154e-001
 1.2929223353e-001	 4.8482763451e+000	 1.0600794550e-001
 8.6044975130e-002	 4.8492366680e+000	 8.1479263710e-002
 4.2946124712e-002	 4.8498098551e+000	 5.5188744264e-002
 0.0000000000e+000	 4.8500000000e+000	 2.8221053855e-002
 4.3804038475e-001	 4.8552801795e+000	 1.5164757304e-001
 3.9365624914e-001	 4.8590801349e+000	 1.6085037287e-001
 3.4938799872e-001	 4.8624636787e+000	 1.6276323568e-001
 3.0524069778e-001	 4.8654345249e+000	 1.5816531753e-001
 2.6121930847e-001	 4.8679964537e+000	 1.4782496196e-001
 2.1732869023e-001	 4.8701533077e+000	 1.3250954923e-001
 1.7357359932e-001	 4.8719089899e+000	 1.1299484216e-001
 1.2995868834e-001	 4.8732674603e+000	 9.0073821613e-002
 8.6488505929e-002	 4.8742327333e+000	 6.4565006774e-002
 4.3167496488e-002	 4.8748088749e+000	 3.7320256989e-002
 0.0000000000e+000	 4.8750000000e+000	 9.2320537557e-003
 4.4028674570e-001	 4.8801790522e+000	 1.6094624663e-001
 3.9567499914e-001	 4.8839984946e+000	 1.6413242077e-001
 3.5117973205e-001	 4.8873993898e+000	 1.6151443845e-001
 3.0680603469e-001	 4.8903854712e+000	 1.5364850958e-001
 2.6255889466e-001	 4.8929605380e+000	 1.4108335588e-001
 2.1844319634e-001	 4.8951284529e+000	 1.2437035065e-001
 1.7446372034e-001	 4.8968931385e+000	 1.0407313954e-001
 1.3062514315e-001	 4.8982585754e+000	 8.0776735577e-002
 8.6932036728e-002	 4.8992287986e+000	 5.5096083247e-002
 4.3388868265e-002	 4.8998078948e+000	 2.7684088635e-002
 0.0000000000e+000	 4.9000000000e+000	-7.6088589529e-004
 4.4253310665e-001	 4.9050779249e+000	 1.7020823895e-001
 3.9769374913e-001	 4.9089168542e+000	 1.6834360366e-001
 3.5297146538e-001	 4.9123351010e+000	 1.6215444791e-001
 3.0837137160e-001	 4.9153364175e+000	 1.5197168553e-001
 2.6389848086e-001	 4.9179246224e+000	 1.3812211390e-001
 2.1955770244e-001	 4.9201035980e+000	 1.2093884701e-001
 1.7535384136e-001	 4.9218772872e+000	 1.0077121381e-001
 1.3129159796e-001	 4.9232496906e+000	 7.7994115056e-002
 8.7375567527e-002	 4.9242248639e+000	 5.3016833505e-002
 4.3610240041e-002	 4.9248069147e+000	 2.6291294368e-002
 0.0000000000e+000	 4.9250000000e+000	-1.6802253863e-003
 4.4477946760e-001	 4.9299767976e+000	 1.7884360460e-001
 3.9971249913e-001	 4.9338352139e+000	 1.7296078916e-001
 3.5476319871e-001	 4.9372708122e+000	 1.6422699086e-001
 3.0993670852e-001	 4.9402873638e+000	 1.5274544061e-001
 2.6523806706e-001	 4.9428887068e+000	 1.3861867275e-001
 2.2067220854e-001	 4.9450787432e+000	 1.2195925402e-001
 1.7624396239e-001	 4.9468614359e+000	 1.0289996217e-001
 1.3195805278e-001	 4.9482408058e+000	 8.1603406978e-002
 8.7819098327e-002	 4.9492209292e+000	 5.8271088847e-002
 4.3831611818e-002	 4.9498059346e+000	 3.3151891646e-002
 0.0000000000e+000	 4.9500000000e+000	 6.5500085359e-003
 4.4702582855e-001	 4.9548756703e+000	 1.8626599695e-001
 4.0173124913e-001	 4.9587535736e+000	 1.7746393645e-001
 3.5655493203e-001	 4.9622065233e+000	 1.6727837661e-001
 3.1150204543e-001	 4.9652383101e+000	 1.5558244206e-001
 2.6657765326e-001	 4.9678527912e+000	 1.4225202932e-001
 2.2178671465e-001	 4.9700538884e+000	 1.2717683461e-001
 1.7713408341e-001	 4.9718455845e+000	 1.1027081516e-001
 1.3262450759e-001	 4.9732319210e+000	 9.1482077046e-002
 8.8262629126e-002	 4.9742169945e+000	 7.0802184295e-002
 4.4052983595e-002	 4.9748049544e+000	 4.8274886283e-002
 0.0000000000e+000	 4.9750000000e+000	 2.4004262024e-002
 4.4927218951e-001	 4.9797745430e+000	 1.9189257817e-001
 4.0374999913e-001	 4.9836719332e+000	 1.8133601889e-001
 3.5834666536e-001	 4.9871422345e+000	 1.7085743245e-001
 3.1306738234e-001	 4.9901892563e+000	 1.6009737732e-001
 2.6791723945e-001	 4.9928168755e+000	 1.4870270167e-001
 2.2290122075e-001	 4.9950290335e+000	 1.3633787269e-001
 1.7802420443e-001	 4.9968297332e+000	 1.2269572333e-001
 1.3329096240e-001	 4.9982230362e+000	 1.0750760927e-001
 8.8706159925e-002	 4.9992130598e+000	 9.0552970989e-002
 4.4274355371e-002	 4.9998039743e+000	 7.1668297747e-002
 0.0000000000e+000	 5.0000000000e+000	 5.0755492308e-002
